\ ExactEBRP compact MILP generated from C++ command-line runner
Minimize
 obj: G + 0.0096591000000000003 e_1 + 0.0204546 e_2 + 0.01078845 e_3 + 0.0098749500000000004 e_4 + 0.014624999999999999 e_5 + 0.01225005 e_6 + 0.11437499999999999 e_7 + 0.012589350000000001 e_8 + 0.14999999999999999 e_9 + 0.017999999999999999 e_10
Subject To
 c1: x_0_0_1 + x_0_0_10 + x_0_0_2 + x_0_0_3 + x_0_0_4 + x_0_0_5 + x_0_0_6 + x_0_0_7 + x_0_0_8 + x_0_0_9 - x_0_10_0 - x_0_1_0 - x_0_2_0 - x_0_3_0 - x_0_4_0 - x_0_5_0 - x_0_6_0 - x_0_7_0 - x_0_8_0 - x_0_9_0 = 0
 c2: x_0_0_1 + x_0_0_10 + x_0_0_2 + x_0_0_3 + x_0_0_4 + x_0_0_5 + x_0_0_6 + x_0_0_7 + x_0_0_8 + x_0_0_9 <= 1
 c3: x_0_0_1 + x_0_10_1 + x_0_2_1 + x_0_3_1 + x_0_4_1 + x_0_5_1 + x_0_6_1 + x_0_7_1 + x_0_8_1 + x_0_9_1 - z_0_1 = 0
 c4: x_0_1_0 + x_0_1_10 + x_0_1_2 + x_0_1_3 + x_0_1_4 + x_0_1_5 + x_0_1_6 + x_0_1_7 + x_0_1_8 + x_0_1_9 - z_0_1 = 0
 c5: x_0_0_2 + x_0_10_2 + x_0_1_2 + x_0_3_2 + x_0_4_2 + x_0_5_2 + x_0_6_2 + x_0_7_2 + x_0_8_2 + x_0_9_2 - z_0_2 = 0
 c6: x_0_2_0 + x_0_2_1 + x_0_2_10 + x_0_2_3 + x_0_2_4 + x_0_2_5 + x_0_2_6 + x_0_2_7 + x_0_2_8 + x_0_2_9 - z_0_2 = 0
 c7: x_0_0_3 + x_0_10_3 + x_0_1_3 + x_0_2_3 + x_0_4_3 + x_0_5_3 + x_0_6_3 + x_0_7_3 + x_0_8_3 + x_0_9_3 - z_0_3 = 0
 c8: x_0_3_0 + x_0_3_1 + x_0_3_10 + x_0_3_2 + x_0_3_4 + x_0_3_5 + x_0_3_6 + x_0_3_7 + x_0_3_8 + x_0_3_9 - z_0_3 = 0
 c9: x_0_0_4 + x_0_10_4 + x_0_1_4 + x_0_2_4 + x_0_3_4 + x_0_5_4 + x_0_6_4 + x_0_7_4 + x_0_8_4 + x_0_9_4 - z_0_4 = 0
 c10: x_0_4_0 + x_0_4_1 + x_0_4_10 + x_0_4_2 + x_0_4_3 + x_0_4_5 + x_0_4_6 + x_0_4_7 + x_0_4_8 + x_0_4_9 - z_0_4 = 0
 c11: x_0_0_5 + x_0_10_5 + x_0_1_5 + x_0_2_5 + x_0_3_5 + x_0_4_5 + x_0_6_5 + x_0_7_5 + x_0_8_5 + x_0_9_5 - z_0_5 = 0
 c12: x_0_5_0 + x_0_5_1 + x_0_5_10 + x_0_5_2 + x_0_5_3 + x_0_5_4 + x_0_5_6 + x_0_5_7 + x_0_5_8 + x_0_5_9 - z_0_5 = 0
 c13: x_0_0_6 + x_0_10_6 + x_0_1_6 + x_0_2_6 + x_0_3_6 + x_0_4_6 + x_0_5_6 + x_0_7_6 + x_0_8_6 + x_0_9_6 - z_0_6 = 0
 c14: x_0_6_0 + x_0_6_1 + x_0_6_10 + x_0_6_2 + x_0_6_3 + x_0_6_4 + x_0_6_5 + x_0_6_7 + x_0_6_8 + x_0_6_9 - z_0_6 = 0
 c15: x_0_0_7 + x_0_10_7 + x_0_1_7 + x_0_2_7 + x_0_3_7 + x_0_4_7 + x_0_5_7 + x_0_6_7 + x_0_8_7 + x_0_9_7 - z_0_7 = 0
 c16: x_0_7_0 + x_0_7_1 + x_0_7_10 + x_0_7_2 + x_0_7_3 + x_0_7_4 + x_0_7_5 + x_0_7_6 + x_0_7_8 + x_0_7_9 - z_0_7 = 0
 c17: x_0_0_8 + x_0_10_8 + x_0_1_8 + x_0_2_8 + x_0_3_8 + x_0_4_8 + x_0_5_8 + x_0_6_8 + x_0_7_8 + x_0_9_8 - z_0_8 = 0
 c18: x_0_8_0 + x_0_8_1 + x_0_8_10 + x_0_8_2 + x_0_8_3 + x_0_8_4 + x_0_8_5 + x_0_8_6 + x_0_8_7 + x_0_8_9 - z_0_8 = 0
 c19: x_0_0_9 + x_0_10_9 + x_0_1_9 + x_0_2_9 + x_0_3_9 + x_0_4_9 + x_0_5_9 + x_0_6_9 + x_0_7_9 + x_0_8_9 - z_0_9 = 0
 c20: x_0_9_0 + x_0_9_1 + x_0_9_10 + x_0_9_2 + x_0_9_3 + x_0_9_4 + x_0_9_5 + x_0_9_6 + x_0_9_7 + x_0_9_8 - z_0_9 = 0
 c21: x_0_0_10 + x_0_1_10 + x_0_2_10 + x_0_3_10 + x_0_4_10 + x_0_5_10 + x_0_6_10 + x_0_7_10 + x_0_8_10 + x_0_9_10 - z_0_10 = 0
 c22: x_0_10_0 + x_0_10_1 + x_0_10_2 + x_0_10_3 + x_0_10_4 + x_0_10_5 + x_0_10_6 + x_0_10_7 + x_0_10_8 + x_0_10_9 - z_0_10 = 0
 c23: x_1_0_1 + x_1_0_10 + x_1_0_2 + x_1_0_3 + x_1_0_4 + x_1_0_5 + x_1_0_6 + x_1_0_7 + x_1_0_8 + x_1_0_9 - x_1_10_0 - x_1_1_0 - x_1_2_0 - x_1_3_0 - x_1_4_0 - x_1_5_0 - x_1_6_0 - x_1_7_0 - x_1_8_0 - x_1_9_0 = 0
 c24: x_1_0_1 + x_1_0_10 + x_1_0_2 + x_1_0_3 + x_1_0_4 + x_1_0_5 + x_1_0_6 + x_1_0_7 + x_1_0_8 + x_1_0_9 <= 1
 c25: x_1_0_1 + x_1_10_1 + x_1_2_1 + x_1_3_1 + x_1_4_1 + x_1_5_1 + x_1_6_1 + x_1_7_1 + x_1_8_1 + x_1_9_1 - z_1_1 = 0
 c26: x_1_1_0 + x_1_1_10 + x_1_1_2 + x_1_1_3 + x_1_1_4 + x_1_1_5 + x_1_1_6 + x_1_1_7 + x_1_1_8 + x_1_1_9 - z_1_1 = 0
 c27: x_1_0_2 + x_1_10_2 + x_1_1_2 + x_1_3_2 + x_1_4_2 + x_1_5_2 + x_1_6_2 + x_1_7_2 + x_1_8_2 + x_1_9_2 - z_1_2 = 0
 c28: x_1_2_0 + x_1_2_1 + x_1_2_10 + x_1_2_3 + x_1_2_4 + x_1_2_5 + x_1_2_6 + x_1_2_7 + x_1_2_8 + x_1_2_9 - z_1_2 = 0
 c29: x_1_0_3 + x_1_10_3 + x_1_1_3 + x_1_2_3 + x_1_4_3 + x_1_5_3 + x_1_6_3 + x_1_7_3 + x_1_8_3 + x_1_9_3 - z_1_3 = 0
 c30: x_1_3_0 + x_1_3_1 + x_1_3_10 + x_1_3_2 + x_1_3_4 + x_1_3_5 + x_1_3_6 + x_1_3_7 + x_1_3_8 + x_1_3_9 - z_1_3 = 0
 c31: x_1_0_4 + x_1_10_4 + x_1_1_4 + x_1_2_4 + x_1_3_4 + x_1_5_4 + x_1_6_4 + x_1_7_4 + x_1_8_4 + x_1_9_4 - z_1_4 = 0
 c32: x_1_4_0 + x_1_4_1 + x_1_4_10 + x_1_4_2 + x_1_4_3 + x_1_4_5 + x_1_4_6 + x_1_4_7 + x_1_4_8 + x_1_4_9 - z_1_4 = 0
 c33: x_1_0_5 + x_1_10_5 + x_1_1_5 + x_1_2_5 + x_1_3_5 + x_1_4_5 + x_1_6_5 + x_1_7_5 + x_1_8_5 + x_1_9_5 - z_1_5 = 0
 c34: x_1_5_0 + x_1_5_1 + x_1_5_10 + x_1_5_2 + x_1_5_3 + x_1_5_4 + x_1_5_6 + x_1_5_7 + x_1_5_8 + x_1_5_9 - z_1_5 = 0
 c35: x_1_0_6 + x_1_10_6 + x_1_1_6 + x_1_2_6 + x_1_3_6 + x_1_4_6 + x_1_5_6 + x_1_7_6 + x_1_8_6 + x_1_9_6 - z_1_6 = 0
 c36: x_1_6_0 + x_1_6_1 + x_1_6_10 + x_1_6_2 + x_1_6_3 + x_1_6_4 + x_1_6_5 + x_1_6_7 + x_1_6_8 + x_1_6_9 - z_1_6 = 0
 c37: x_1_0_7 + x_1_10_7 + x_1_1_7 + x_1_2_7 + x_1_3_7 + x_1_4_7 + x_1_5_7 + x_1_6_7 + x_1_8_7 + x_1_9_7 - z_1_7 = 0
 c38: x_1_7_0 + x_1_7_1 + x_1_7_10 + x_1_7_2 + x_1_7_3 + x_1_7_4 + x_1_7_5 + x_1_7_6 + x_1_7_8 + x_1_7_9 - z_1_7 = 0
 c39: x_1_0_8 + x_1_10_8 + x_1_1_8 + x_1_2_8 + x_1_3_8 + x_1_4_8 + x_1_5_8 + x_1_6_8 + x_1_7_8 + x_1_9_8 - z_1_8 = 0
 c40: x_1_8_0 + x_1_8_1 + x_1_8_10 + x_1_8_2 + x_1_8_3 + x_1_8_4 + x_1_8_5 + x_1_8_6 + x_1_8_7 + x_1_8_9 - z_1_8 = 0
 c41: x_1_0_9 + x_1_10_9 + x_1_1_9 + x_1_2_9 + x_1_3_9 + x_1_4_9 + x_1_5_9 + x_1_6_9 + x_1_7_9 + x_1_8_9 - z_1_9 = 0
 c42: x_1_9_0 + x_1_9_1 + x_1_9_10 + x_1_9_2 + x_1_9_3 + x_1_9_4 + x_1_9_5 + x_1_9_6 + x_1_9_7 + x_1_9_8 - z_1_9 = 0
 c43: x_1_0_10 + x_1_1_10 + x_1_2_10 + x_1_3_10 + x_1_4_10 + x_1_5_10 + x_1_6_10 + x_1_7_10 + x_1_8_10 + x_1_9_10 - z_1_10 = 0
 c44: x_1_10_0 + x_1_10_1 + x_1_10_2 + x_1_10_3 + x_1_10_4 + x_1_10_5 + x_1_10_6 + x_1_10_7 + x_1_10_8 + x_1_10_9 - z_1_10 = 0
 c45: x_2_0_1 + x_2_0_10 + x_2_0_2 + x_2_0_3 + x_2_0_4 + x_2_0_5 + x_2_0_6 + x_2_0_7 + x_2_0_8 + x_2_0_9 - x_2_10_0 - x_2_1_0 - x_2_2_0 - x_2_3_0 - x_2_4_0 - x_2_5_0 - x_2_6_0 - x_2_7_0 - x_2_8_0 - x_2_9_0 = 0
 c46: x_2_0_1 + x_2_0_10 + x_2_0_2 + x_2_0_3 + x_2_0_4 + x_2_0_5 + x_2_0_6 + x_2_0_7 + x_2_0_8 + x_2_0_9 <= 1
 c47: x_2_0_1 + x_2_10_1 + x_2_2_1 + x_2_3_1 + x_2_4_1 + x_2_5_1 + x_2_6_1 + x_2_7_1 + x_2_8_1 + x_2_9_1 - z_2_1 = 0
 c48: x_2_1_0 + x_2_1_10 + x_2_1_2 + x_2_1_3 + x_2_1_4 + x_2_1_5 + x_2_1_6 + x_2_1_7 + x_2_1_8 + x_2_1_9 - z_2_1 = 0
 c49: x_2_0_2 + x_2_10_2 + x_2_1_2 + x_2_3_2 + x_2_4_2 + x_2_5_2 + x_2_6_2 + x_2_7_2 + x_2_8_2 + x_2_9_2 - z_2_2 = 0
 c50: x_2_2_0 + x_2_2_1 + x_2_2_10 + x_2_2_3 + x_2_2_4 + x_2_2_5 + x_2_2_6 + x_2_2_7 + x_2_2_8 + x_2_2_9 - z_2_2 = 0
 c51: x_2_0_3 + x_2_10_3 + x_2_1_3 + x_2_2_3 + x_2_4_3 + x_2_5_3 + x_2_6_3 + x_2_7_3 + x_2_8_3 + x_2_9_3 - z_2_3 = 0
 c52: x_2_3_0 + x_2_3_1 + x_2_3_10 + x_2_3_2 + x_2_3_4 + x_2_3_5 + x_2_3_6 + x_2_3_7 + x_2_3_8 + x_2_3_9 - z_2_3 = 0
 c53: x_2_0_4 + x_2_10_4 + x_2_1_4 + x_2_2_4 + x_2_3_4 + x_2_5_4 + x_2_6_4 + x_2_7_4 + x_2_8_4 + x_2_9_4 - z_2_4 = 0
 c54: x_2_4_0 + x_2_4_1 + x_2_4_10 + x_2_4_2 + x_2_4_3 + x_2_4_5 + x_2_4_6 + x_2_4_7 + x_2_4_8 + x_2_4_9 - z_2_4 = 0
 c55: x_2_0_5 + x_2_10_5 + x_2_1_5 + x_2_2_5 + x_2_3_5 + x_2_4_5 + x_2_6_5 + x_2_7_5 + x_2_8_5 + x_2_9_5 - z_2_5 = 0
 c56: x_2_5_0 + x_2_5_1 + x_2_5_10 + x_2_5_2 + x_2_5_3 + x_2_5_4 + x_2_5_6 + x_2_5_7 + x_2_5_8 + x_2_5_9 - z_2_5 = 0
 c57: x_2_0_6 + x_2_10_6 + x_2_1_6 + x_2_2_6 + x_2_3_6 + x_2_4_6 + x_2_5_6 + x_2_7_6 + x_2_8_6 + x_2_9_6 - z_2_6 = 0
 c58: x_2_6_0 + x_2_6_1 + x_2_6_10 + x_2_6_2 + x_2_6_3 + x_2_6_4 + x_2_6_5 + x_2_6_7 + x_2_6_8 + x_2_6_9 - z_2_6 = 0
 c59: x_2_0_7 + x_2_10_7 + x_2_1_7 + x_2_2_7 + x_2_3_7 + x_2_4_7 + x_2_5_7 + x_2_6_7 + x_2_8_7 + x_2_9_7 - z_2_7 = 0
 c60: x_2_7_0 + x_2_7_1 + x_2_7_10 + x_2_7_2 + x_2_7_3 + x_2_7_4 + x_2_7_5 + x_2_7_6 + x_2_7_8 + x_2_7_9 - z_2_7 = 0
 c61: x_2_0_8 + x_2_10_8 + x_2_1_8 + x_2_2_8 + x_2_3_8 + x_2_4_8 + x_2_5_8 + x_2_6_8 + x_2_7_8 + x_2_9_8 - z_2_8 = 0
 c62: x_2_8_0 + x_2_8_1 + x_2_8_10 + x_2_8_2 + x_2_8_3 + x_2_8_4 + x_2_8_5 + x_2_8_6 + x_2_8_7 + x_2_8_9 - z_2_8 = 0
 c63: x_2_0_9 + x_2_10_9 + x_2_1_9 + x_2_2_9 + x_2_3_9 + x_2_4_9 + x_2_5_9 + x_2_6_9 + x_2_7_9 + x_2_8_9 - z_2_9 = 0
 c64: x_2_9_0 + x_2_9_1 + x_2_9_10 + x_2_9_2 + x_2_9_3 + x_2_9_4 + x_2_9_5 + x_2_9_6 + x_2_9_7 + x_2_9_8 - z_2_9 = 0
 c65: x_2_0_10 + x_2_1_10 + x_2_2_10 + x_2_3_10 + x_2_4_10 + x_2_5_10 + x_2_6_10 + x_2_7_10 + x_2_8_10 + x_2_9_10 - z_2_10 = 0
 c66: x_2_10_0 + x_2_10_1 + x_2_10_2 + x_2_10_3 + x_2_10_4 + x_2_10_5 + x_2_10_6 + x_2_10_7 + x_2_10_8 + x_2_10_9 - z_2_10 = 0
 c67: z_0_1 + z_1_1 + z_2_1 <= 1
 c68: z_0_2 + z_1_2 + z_2_2 <= 1
 c69: z_0_3 + z_1_3 + z_2_3 <= 1
 c70: z_0_4 + z_1_4 + z_2_4 <= 1
 c71: z_0_5 + z_1_5 + z_2_5 <= 1
 c72: z_0_6 + z_1_6 + z_2_6 <= 1
 c73: z_0_7 + z_1_7 + z_2_7 <= 1
 c74: z_0_8 + z_1_8 + z_2_8 <= 1
 c75: z_0_9 + z_1_9 + z_2_9 <= 1
 c76: z_0_10 + z_1_10 + z_2_10 <= 1
 c77: ord_0_1 - z_0_1 >= 0
 c78: ord_0_1 - 10 z_0_1 <= 0
 c79: ord_0_2 - z_0_2 >= 0
 c80: ord_0_2 - 10 z_0_2 <= 0
 c81: ord_0_3 - z_0_3 >= 0
 c82: ord_0_3 - 10 z_0_3 <= 0
 c83: ord_0_4 - z_0_4 >= 0
 c84: ord_0_4 - 10 z_0_4 <= 0
 c85: ord_0_5 - z_0_5 >= 0
 c86: ord_0_5 - 10 z_0_5 <= 0
 c87: ord_0_6 - z_0_6 >= 0
 c88: ord_0_6 - 10 z_0_6 <= 0
 c89: ord_0_7 - z_0_7 >= 0
 c90: ord_0_7 - 10 z_0_7 <= 0
 c91: ord_0_8 - z_0_8 >= 0
 c92: ord_0_8 - 10 z_0_8 <= 0
 c93: ord_0_9 - z_0_9 >= 0
 c94: ord_0_9 - 10 z_0_9 <= 0
 c95: ord_0_10 - z_0_10 >= 0
 c96: ord_0_10 - 10 z_0_10 <= 0
 c97: ord_0_1 - ord_0_2 + 10 x_0_1_2 <= 9
 c98: ord_0_1 - ord_0_3 + 10 x_0_1_3 <= 9
 c99: ord_0_1 - ord_0_4 + 10 x_0_1_4 <= 9
 c100: ord_0_1 - ord_0_5 + 10 x_0_1_5 <= 9
 c101: ord_0_1 - ord_0_6 + 10 x_0_1_6 <= 9
 c102: ord_0_1 - ord_0_7 + 10 x_0_1_7 <= 9
 c103: ord_0_1 - ord_0_8 + 10 x_0_1_8 <= 9
 c104: ord_0_1 - ord_0_9 + 10 x_0_1_9 <= 9
 c105: ord_0_1 - ord_0_10 + 10 x_0_1_10 <= 9
 c106: - ord_0_1 + ord_0_2 + 10 x_0_2_1 <= 9
 c107: ord_0_2 - ord_0_3 + 10 x_0_2_3 <= 9
 c108: ord_0_2 - ord_0_4 + 10 x_0_2_4 <= 9
 c109: ord_0_2 - ord_0_5 + 10 x_0_2_5 <= 9
 c110: ord_0_2 - ord_0_6 + 10 x_0_2_6 <= 9
 c111: ord_0_2 - ord_0_7 + 10 x_0_2_7 <= 9
 c112: ord_0_2 - ord_0_8 + 10 x_0_2_8 <= 9
 c113: ord_0_2 - ord_0_9 + 10 x_0_2_9 <= 9
 c114: - ord_0_10 + ord_0_2 + 10 x_0_2_10 <= 9
 c115: - ord_0_1 + ord_0_3 + 10 x_0_3_1 <= 9
 c116: - ord_0_2 + ord_0_3 + 10 x_0_3_2 <= 9
 c117: ord_0_3 - ord_0_4 + 10 x_0_3_4 <= 9
 c118: ord_0_3 - ord_0_5 + 10 x_0_3_5 <= 9
 c119: ord_0_3 - ord_0_6 + 10 x_0_3_6 <= 9
 c120: ord_0_3 - ord_0_7 + 10 x_0_3_7 <= 9
 c121: ord_0_3 - ord_0_8 + 10 x_0_3_8 <= 9
 c122: ord_0_3 - ord_0_9 + 10 x_0_3_9 <= 9
 c123: - ord_0_10 + ord_0_3 + 10 x_0_3_10 <= 9
 c124: - ord_0_1 + ord_0_4 + 10 x_0_4_1 <= 9
 c125: - ord_0_2 + ord_0_4 + 10 x_0_4_2 <= 9
 c126: - ord_0_3 + ord_0_4 + 10 x_0_4_3 <= 9
 c127: ord_0_4 - ord_0_5 + 10 x_0_4_5 <= 9
 c128: ord_0_4 - ord_0_6 + 10 x_0_4_6 <= 9
 c129: ord_0_4 - ord_0_7 + 10 x_0_4_7 <= 9
 c130: ord_0_4 - ord_0_8 + 10 x_0_4_8 <= 9
 c131: ord_0_4 - ord_0_9 + 10 x_0_4_9 <= 9
 c132: - ord_0_10 + ord_0_4 + 10 x_0_4_10 <= 9
 c133: - ord_0_1 + ord_0_5 + 10 x_0_5_1 <= 9
 c134: - ord_0_2 + ord_0_5 + 10 x_0_5_2 <= 9
 c135: - ord_0_3 + ord_0_5 + 10 x_0_5_3 <= 9
 c136: - ord_0_4 + ord_0_5 + 10 x_0_5_4 <= 9
 c137: ord_0_5 - ord_0_6 + 10 x_0_5_6 <= 9
 c138: ord_0_5 - ord_0_7 + 10 x_0_5_7 <= 9
 c139: ord_0_5 - ord_0_8 + 10 x_0_5_8 <= 9
 c140: ord_0_5 - ord_0_9 + 10 x_0_5_9 <= 9
 c141: - ord_0_10 + ord_0_5 + 10 x_0_5_10 <= 9
 c142: - ord_0_1 + ord_0_6 + 10 x_0_6_1 <= 9
 c143: - ord_0_2 + ord_0_6 + 10 x_0_6_2 <= 9
 c144: - ord_0_3 + ord_0_6 + 10 x_0_6_3 <= 9
 c145: - ord_0_4 + ord_0_6 + 10 x_0_6_4 <= 9
 c146: - ord_0_5 + ord_0_6 + 10 x_0_6_5 <= 9
 c147: ord_0_6 - ord_0_7 + 10 x_0_6_7 <= 9
 c148: ord_0_6 - ord_0_8 + 10 x_0_6_8 <= 9
 c149: ord_0_6 - ord_0_9 + 10 x_0_6_9 <= 9
 c150: - ord_0_10 + ord_0_6 + 10 x_0_6_10 <= 9
 c151: - ord_0_1 + ord_0_7 + 10 x_0_7_1 <= 9
 c152: - ord_0_2 + ord_0_7 + 10 x_0_7_2 <= 9
 c153: - ord_0_3 + ord_0_7 + 10 x_0_7_3 <= 9
 c154: - ord_0_4 + ord_0_7 + 10 x_0_7_4 <= 9
 c155: - ord_0_5 + ord_0_7 + 10 x_0_7_5 <= 9
 c156: - ord_0_6 + ord_0_7 + 10 x_0_7_6 <= 9
 c157: ord_0_7 - ord_0_8 + 10 x_0_7_8 <= 9
 c158: ord_0_7 - ord_0_9 + 10 x_0_7_9 <= 9
 c159: - ord_0_10 + ord_0_7 + 10 x_0_7_10 <= 9
 c160: - ord_0_1 + ord_0_8 + 10 x_0_8_1 <= 9
 c161: - ord_0_2 + ord_0_8 + 10 x_0_8_2 <= 9
 c162: - ord_0_3 + ord_0_8 + 10 x_0_8_3 <= 9
 c163: - ord_0_4 + ord_0_8 + 10 x_0_8_4 <= 9
 c164: - ord_0_5 + ord_0_8 + 10 x_0_8_5 <= 9
 c165: - ord_0_6 + ord_0_8 + 10 x_0_8_6 <= 9
 c166: - ord_0_7 + ord_0_8 + 10 x_0_8_7 <= 9
 c167: ord_0_8 - ord_0_9 + 10 x_0_8_9 <= 9
 c168: - ord_0_10 + ord_0_8 + 10 x_0_8_10 <= 9
 c169: - ord_0_1 + ord_0_9 + 10 x_0_9_1 <= 9
 c170: - ord_0_2 + ord_0_9 + 10 x_0_9_2 <= 9
 c171: - ord_0_3 + ord_0_9 + 10 x_0_9_3 <= 9
 c172: - ord_0_4 + ord_0_9 + 10 x_0_9_4 <= 9
 c173: - ord_0_5 + ord_0_9 + 10 x_0_9_5 <= 9
 c174: - ord_0_6 + ord_0_9 + 10 x_0_9_6 <= 9
 c175: - ord_0_7 + ord_0_9 + 10 x_0_9_7 <= 9
 c176: - ord_0_8 + ord_0_9 + 10 x_0_9_8 <= 9
 c177: - ord_0_10 + ord_0_9 + 10 x_0_9_10 <= 9
 c178: - ord_0_1 + ord_0_10 + 10 x_0_10_1 <= 9
 c179: ord_0_10 - ord_0_2 + 10 x_0_10_2 <= 9
 c180: ord_0_10 - ord_0_3 + 10 x_0_10_3 <= 9
 c181: ord_0_10 - ord_0_4 + 10 x_0_10_4 <= 9
 c182: ord_0_10 - ord_0_5 + 10 x_0_10_5 <= 9
 c183: ord_0_10 - ord_0_6 + 10 x_0_10_6 <= 9
 c184: ord_0_10 - ord_0_7 + 10 x_0_10_7 <= 9
 c185: ord_0_10 - ord_0_8 + 10 x_0_10_8 <= 9
 c186: ord_0_10 - ord_0_9 + 10 x_0_10_9 <= 9
 c187: ord_1_1 - z_1_1 >= 0
 c188: ord_1_1 - 10 z_1_1 <= 0
 c189: ord_1_2 - z_1_2 >= 0
 c190: ord_1_2 - 10 z_1_2 <= 0
 c191: ord_1_3 - z_1_3 >= 0
 c192: ord_1_3 - 10 z_1_3 <= 0
 c193: ord_1_4 - z_1_4 >= 0
 c194: ord_1_4 - 10 z_1_4 <= 0
 c195: ord_1_5 - z_1_5 >= 0
 c196: ord_1_5 - 10 z_1_5 <= 0
 c197: ord_1_6 - z_1_6 >= 0
 c198: ord_1_6 - 10 z_1_6 <= 0
 c199: ord_1_7 - z_1_7 >= 0
 c200: ord_1_7 - 10 z_1_7 <= 0
 c201: ord_1_8 - z_1_8 >= 0
 c202: ord_1_8 - 10 z_1_8 <= 0
 c203: ord_1_9 - z_1_9 >= 0
 c204: ord_1_9 - 10 z_1_9 <= 0
 c205: ord_1_10 - z_1_10 >= 0
 c206: ord_1_10 - 10 z_1_10 <= 0
 c207: ord_1_1 - ord_1_2 + 10 x_1_1_2 <= 9
 c208: ord_1_1 - ord_1_3 + 10 x_1_1_3 <= 9
 c209: ord_1_1 - ord_1_4 + 10 x_1_1_4 <= 9
 c210: ord_1_1 - ord_1_5 + 10 x_1_1_5 <= 9
 c211: ord_1_1 - ord_1_6 + 10 x_1_1_6 <= 9
 c212: ord_1_1 - ord_1_7 + 10 x_1_1_7 <= 9
 c213: ord_1_1 - ord_1_8 + 10 x_1_1_8 <= 9
 c214: ord_1_1 - ord_1_9 + 10 x_1_1_9 <= 9
 c215: ord_1_1 - ord_1_10 + 10 x_1_1_10 <= 9
 c216: - ord_1_1 + ord_1_2 + 10 x_1_2_1 <= 9
 c217: ord_1_2 - ord_1_3 + 10 x_1_2_3 <= 9
 c218: ord_1_2 - ord_1_4 + 10 x_1_2_4 <= 9
 c219: ord_1_2 - ord_1_5 + 10 x_1_2_5 <= 9
 c220: ord_1_2 - ord_1_6 + 10 x_1_2_6 <= 9
 c221: ord_1_2 - ord_1_7 + 10 x_1_2_7 <= 9
 c222: ord_1_2 - ord_1_8 + 10 x_1_2_8 <= 9
 c223: ord_1_2 - ord_1_9 + 10 x_1_2_9 <= 9
 c224: - ord_1_10 + ord_1_2 + 10 x_1_2_10 <= 9
 c225: - ord_1_1 + ord_1_3 + 10 x_1_3_1 <= 9
 c226: - ord_1_2 + ord_1_3 + 10 x_1_3_2 <= 9
 c227: ord_1_3 - ord_1_4 + 10 x_1_3_4 <= 9
 c228: ord_1_3 - ord_1_5 + 10 x_1_3_5 <= 9
 c229: ord_1_3 - ord_1_6 + 10 x_1_3_6 <= 9
 c230: ord_1_3 - ord_1_7 + 10 x_1_3_7 <= 9
 c231: ord_1_3 - ord_1_8 + 10 x_1_3_8 <= 9
 c232: ord_1_3 - ord_1_9 + 10 x_1_3_9 <= 9
 c233: - ord_1_10 + ord_1_3 + 10 x_1_3_10 <= 9
 c234: - ord_1_1 + ord_1_4 + 10 x_1_4_1 <= 9
 c235: - ord_1_2 + ord_1_4 + 10 x_1_4_2 <= 9
 c236: - ord_1_3 + ord_1_4 + 10 x_1_4_3 <= 9
 c237: ord_1_4 - ord_1_5 + 10 x_1_4_5 <= 9
 c238: ord_1_4 - ord_1_6 + 10 x_1_4_6 <= 9
 c239: ord_1_4 - ord_1_7 + 10 x_1_4_7 <= 9
 c240: ord_1_4 - ord_1_8 + 10 x_1_4_8 <= 9
 c241: ord_1_4 - ord_1_9 + 10 x_1_4_9 <= 9
 c242: - ord_1_10 + ord_1_4 + 10 x_1_4_10 <= 9
 c243: - ord_1_1 + ord_1_5 + 10 x_1_5_1 <= 9
 c244: - ord_1_2 + ord_1_5 + 10 x_1_5_2 <= 9
 c245: - ord_1_3 + ord_1_5 + 10 x_1_5_3 <= 9
 c246: - ord_1_4 + ord_1_5 + 10 x_1_5_4 <= 9
 c247: ord_1_5 - ord_1_6 + 10 x_1_5_6 <= 9
 c248: ord_1_5 - ord_1_7 + 10 x_1_5_7 <= 9
 c249: ord_1_5 - ord_1_8 + 10 x_1_5_8 <= 9
 c250: ord_1_5 - ord_1_9 + 10 x_1_5_9 <= 9
 c251: - ord_1_10 + ord_1_5 + 10 x_1_5_10 <= 9
 c252: - ord_1_1 + ord_1_6 + 10 x_1_6_1 <= 9
 c253: - ord_1_2 + ord_1_6 + 10 x_1_6_2 <= 9
 c254: - ord_1_3 + ord_1_6 + 10 x_1_6_3 <= 9
 c255: - ord_1_4 + ord_1_6 + 10 x_1_6_4 <= 9
 c256: - ord_1_5 + ord_1_6 + 10 x_1_6_5 <= 9
 c257: ord_1_6 - ord_1_7 + 10 x_1_6_7 <= 9
 c258: ord_1_6 - ord_1_8 + 10 x_1_6_8 <= 9
 c259: ord_1_6 - ord_1_9 + 10 x_1_6_9 <= 9
 c260: - ord_1_10 + ord_1_6 + 10 x_1_6_10 <= 9
 c261: - ord_1_1 + ord_1_7 + 10 x_1_7_1 <= 9
 c262: - ord_1_2 + ord_1_7 + 10 x_1_7_2 <= 9
 c263: - ord_1_3 + ord_1_7 + 10 x_1_7_3 <= 9
 c264: - ord_1_4 + ord_1_7 + 10 x_1_7_4 <= 9
 c265: - ord_1_5 + ord_1_7 + 10 x_1_7_5 <= 9
 c266: - ord_1_6 + ord_1_7 + 10 x_1_7_6 <= 9
 c267: ord_1_7 - ord_1_8 + 10 x_1_7_8 <= 9
 c268: ord_1_7 - ord_1_9 + 10 x_1_7_9 <= 9
 c269: - ord_1_10 + ord_1_7 + 10 x_1_7_10 <= 9
 c270: - ord_1_1 + ord_1_8 + 10 x_1_8_1 <= 9
 c271: - ord_1_2 + ord_1_8 + 10 x_1_8_2 <= 9
 c272: - ord_1_3 + ord_1_8 + 10 x_1_8_3 <= 9
 c273: - ord_1_4 + ord_1_8 + 10 x_1_8_4 <= 9
 c274: - ord_1_5 + ord_1_8 + 10 x_1_8_5 <= 9
 c275: - ord_1_6 + ord_1_8 + 10 x_1_8_6 <= 9
 c276: - ord_1_7 + ord_1_8 + 10 x_1_8_7 <= 9
 c277: ord_1_8 - ord_1_9 + 10 x_1_8_9 <= 9
 c278: - ord_1_10 + ord_1_8 + 10 x_1_8_10 <= 9
 c279: - ord_1_1 + ord_1_9 + 10 x_1_9_1 <= 9
 c280: - ord_1_2 + ord_1_9 + 10 x_1_9_2 <= 9
 c281: - ord_1_3 + ord_1_9 + 10 x_1_9_3 <= 9
 c282: - ord_1_4 + ord_1_9 + 10 x_1_9_4 <= 9
 c283: - ord_1_5 + ord_1_9 + 10 x_1_9_5 <= 9
 c284: - ord_1_6 + ord_1_9 + 10 x_1_9_6 <= 9
 c285: - ord_1_7 + ord_1_9 + 10 x_1_9_7 <= 9
 c286: - ord_1_8 + ord_1_9 + 10 x_1_9_8 <= 9
 c287: - ord_1_10 + ord_1_9 + 10 x_1_9_10 <= 9
 c288: - ord_1_1 + ord_1_10 + 10 x_1_10_1 <= 9
 c289: ord_1_10 - ord_1_2 + 10 x_1_10_2 <= 9
 c290: ord_1_10 - ord_1_3 + 10 x_1_10_3 <= 9
 c291: ord_1_10 - ord_1_4 + 10 x_1_10_4 <= 9
 c292: ord_1_10 - ord_1_5 + 10 x_1_10_5 <= 9
 c293: ord_1_10 - ord_1_6 + 10 x_1_10_6 <= 9
 c294: ord_1_10 - ord_1_7 + 10 x_1_10_7 <= 9
 c295: ord_1_10 - ord_1_8 + 10 x_1_10_8 <= 9
 c296: ord_1_10 - ord_1_9 + 10 x_1_10_9 <= 9
 c297: ord_2_1 - z_2_1 >= 0
 c298: ord_2_1 - 10 z_2_1 <= 0
 c299: ord_2_2 - z_2_2 >= 0
 c300: ord_2_2 - 10 z_2_2 <= 0
 c301: ord_2_3 - z_2_3 >= 0
 c302: ord_2_3 - 10 z_2_3 <= 0
 c303: ord_2_4 - z_2_4 >= 0
 c304: ord_2_4 - 10 z_2_4 <= 0
 c305: ord_2_5 - z_2_5 >= 0
 c306: ord_2_5 - 10 z_2_5 <= 0
 c307: ord_2_6 - z_2_6 >= 0
 c308: ord_2_6 - 10 z_2_6 <= 0
 c309: ord_2_7 - z_2_7 >= 0
 c310: ord_2_7 - 10 z_2_7 <= 0
 c311: ord_2_8 - z_2_8 >= 0
 c312: ord_2_8 - 10 z_2_8 <= 0
 c313: ord_2_9 - z_2_9 >= 0
 c314: ord_2_9 - 10 z_2_9 <= 0
 c315: ord_2_10 - z_2_10 >= 0
 c316: ord_2_10 - 10 z_2_10 <= 0
 c317: ord_2_1 - ord_2_2 + 10 x_2_1_2 <= 9
 c318: ord_2_1 - ord_2_3 + 10 x_2_1_3 <= 9
 c319: ord_2_1 - ord_2_4 + 10 x_2_1_4 <= 9
 c320: ord_2_1 - ord_2_5 + 10 x_2_1_5 <= 9
 c321: ord_2_1 - ord_2_6 + 10 x_2_1_6 <= 9
 c322: ord_2_1 - ord_2_7 + 10 x_2_1_7 <= 9
 c323: ord_2_1 - ord_2_8 + 10 x_2_1_8 <= 9
 c324: ord_2_1 - ord_2_9 + 10 x_2_1_9 <= 9
 c325: ord_2_1 - ord_2_10 + 10 x_2_1_10 <= 9
 c326: - ord_2_1 + ord_2_2 + 10 x_2_2_1 <= 9
 c327: ord_2_2 - ord_2_3 + 10 x_2_2_3 <= 9
 c328: ord_2_2 - ord_2_4 + 10 x_2_2_4 <= 9
 c329: ord_2_2 - ord_2_5 + 10 x_2_2_5 <= 9
 c330: ord_2_2 - ord_2_6 + 10 x_2_2_6 <= 9
 c331: ord_2_2 - ord_2_7 + 10 x_2_2_7 <= 9
 c332: ord_2_2 - ord_2_8 + 10 x_2_2_8 <= 9
 c333: ord_2_2 - ord_2_9 + 10 x_2_2_9 <= 9
 c334: - ord_2_10 + ord_2_2 + 10 x_2_2_10 <= 9
 c335: - ord_2_1 + ord_2_3 + 10 x_2_3_1 <= 9
 c336: - ord_2_2 + ord_2_3 + 10 x_2_3_2 <= 9
 c337: ord_2_3 - ord_2_4 + 10 x_2_3_4 <= 9
 c338: ord_2_3 - ord_2_5 + 10 x_2_3_5 <= 9
 c339: ord_2_3 - ord_2_6 + 10 x_2_3_6 <= 9
 c340: ord_2_3 - ord_2_7 + 10 x_2_3_7 <= 9
 c341: ord_2_3 - ord_2_8 + 10 x_2_3_8 <= 9
 c342: ord_2_3 - ord_2_9 + 10 x_2_3_9 <= 9
 c343: - ord_2_10 + ord_2_3 + 10 x_2_3_10 <= 9
 c344: - ord_2_1 + ord_2_4 + 10 x_2_4_1 <= 9
 c345: - ord_2_2 + ord_2_4 + 10 x_2_4_2 <= 9
 c346: - ord_2_3 + ord_2_4 + 10 x_2_4_3 <= 9
 c347: ord_2_4 - ord_2_5 + 10 x_2_4_5 <= 9
 c348: ord_2_4 - ord_2_6 + 10 x_2_4_6 <= 9
 c349: ord_2_4 - ord_2_7 + 10 x_2_4_7 <= 9
 c350: ord_2_4 - ord_2_8 + 10 x_2_4_8 <= 9
 c351: ord_2_4 - ord_2_9 + 10 x_2_4_9 <= 9
 c352: - ord_2_10 + ord_2_4 + 10 x_2_4_10 <= 9
 c353: - ord_2_1 + ord_2_5 + 10 x_2_5_1 <= 9
 c354: - ord_2_2 + ord_2_5 + 10 x_2_5_2 <= 9
 c355: - ord_2_3 + ord_2_5 + 10 x_2_5_3 <= 9
 c356: - ord_2_4 + ord_2_5 + 10 x_2_5_4 <= 9
 c357: ord_2_5 - ord_2_6 + 10 x_2_5_6 <= 9
 c358: ord_2_5 - ord_2_7 + 10 x_2_5_7 <= 9
 c359: ord_2_5 - ord_2_8 + 10 x_2_5_8 <= 9
 c360: ord_2_5 - ord_2_9 + 10 x_2_5_9 <= 9
 c361: - ord_2_10 + ord_2_5 + 10 x_2_5_10 <= 9
 c362: - ord_2_1 + ord_2_6 + 10 x_2_6_1 <= 9
 c363: - ord_2_2 + ord_2_6 + 10 x_2_6_2 <= 9
 c364: - ord_2_3 + ord_2_6 + 10 x_2_6_3 <= 9
 c365: - ord_2_4 + ord_2_6 + 10 x_2_6_4 <= 9
 c366: - ord_2_5 + ord_2_6 + 10 x_2_6_5 <= 9
 c367: ord_2_6 - ord_2_7 + 10 x_2_6_7 <= 9
 c368: ord_2_6 - ord_2_8 + 10 x_2_6_8 <= 9
 c369: ord_2_6 - ord_2_9 + 10 x_2_6_9 <= 9
 c370: - ord_2_10 + ord_2_6 + 10 x_2_6_10 <= 9
 c371: - ord_2_1 + ord_2_7 + 10 x_2_7_1 <= 9
 c372: - ord_2_2 + ord_2_7 + 10 x_2_7_2 <= 9
 c373: - ord_2_3 + ord_2_7 + 10 x_2_7_3 <= 9
 c374: - ord_2_4 + ord_2_7 + 10 x_2_7_4 <= 9
 c375: - ord_2_5 + ord_2_7 + 10 x_2_7_5 <= 9
 c376: - ord_2_6 + ord_2_7 + 10 x_2_7_6 <= 9
 c377: ord_2_7 - ord_2_8 + 10 x_2_7_8 <= 9
 c378: ord_2_7 - ord_2_9 + 10 x_2_7_9 <= 9
 c379: - ord_2_10 + ord_2_7 + 10 x_2_7_10 <= 9
 c380: - ord_2_1 + ord_2_8 + 10 x_2_8_1 <= 9
 c381: - ord_2_2 + ord_2_8 + 10 x_2_8_2 <= 9
 c382: - ord_2_3 + ord_2_8 + 10 x_2_8_3 <= 9
 c383: - ord_2_4 + ord_2_8 + 10 x_2_8_4 <= 9
 c384: - ord_2_5 + ord_2_8 + 10 x_2_8_5 <= 9
 c385: - ord_2_6 + ord_2_8 + 10 x_2_8_6 <= 9
 c386: - ord_2_7 + ord_2_8 + 10 x_2_8_7 <= 9
 c387: ord_2_8 - ord_2_9 + 10 x_2_8_9 <= 9
 c388: - ord_2_10 + ord_2_8 + 10 x_2_8_10 <= 9
 c389: - ord_2_1 + ord_2_9 + 10 x_2_9_1 <= 9
 c390: - ord_2_2 + ord_2_9 + 10 x_2_9_2 <= 9
 c391: - ord_2_3 + ord_2_9 + 10 x_2_9_3 <= 9
 c392: - ord_2_4 + ord_2_9 + 10 x_2_9_4 <= 9
 c393: - ord_2_5 + ord_2_9 + 10 x_2_9_5 <= 9
 c394: - ord_2_6 + ord_2_9 + 10 x_2_9_6 <= 9
 c395: - ord_2_7 + ord_2_9 + 10 x_2_9_7 <= 9
 c396: - ord_2_8 + ord_2_9 + 10 x_2_9_8 <= 9
 c397: - ord_2_10 + ord_2_9 + 10 x_2_9_10 <= 9
 c398: - ord_2_1 + ord_2_10 + 10 x_2_10_1 <= 9
 c399: ord_2_10 - ord_2_2 + 10 x_2_10_2 <= 9
 c400: ord_2_10 - ord_2_3 + 10 x_2_10_3 <= 9
 c401: ord_2_10 - ord_2_4 + 10 x_2_10_4 <= 9
 c402: ord_2_10 - ord_2_5 + 10 x_2_10_5 <= 9
 c403: ord_2_10 - ord_2_6 + 10 x_2_10_6 <= 9
 c404: ord_2_10 - ord_2_7 + 10 x_2_10_7 <= 9
 c405: ord_2_10 - ord_2_8 + 10 x_2_10_8 <= 9
 c406: ord_2_10 - ord_2_9 + 10 x_2_10_9 <= 9
 c407: p_0_1 - 20 z_0_1 <= 0
 c408: d_0_1 - 16 z_0_1 <= 0
 c409: mode_0_1 - z_0_1 <= 0
 c410: - 20 mode_0_1 + p_0_1 <= 0
 c411: d_0_1 + 16 mode_0_1 - 16 z_0_1 <= 0
 c412: d_0_1 + p_0_1 - z_0_1 >= 0
 c413: load_0_1 - 20 z_0_1 <= 0
 c414: p_0_2 - 3 z_0_2 <= 0
 c415: d_0_2 - 20 z_0_2 <= 0
 c416: mode_0_2 - z_0_2 <= 0
 c417: - 3 mode_0_2 + p_0_2 <= 0
 c418: d_0_2 + 20 mode_0_2 - 20 z_0_2 <= 0
 c419: d_0_2 + p_0_2 - z_0_2 >= 0
 c420: load_0_2 - 20 z_0_2 <= 0
 c421: p_0_3 - 20 z_0_3 <= 0
 c422: d_0_3 - 17 z_0_3 <= 0
 c423: mode_0_3 - z_0_3 <= 0
 c424: - 20 mode_0_3 + p_0_3 <= 0
 c425: d_0_3 + 17 mode_0_3 - 17 z_0_3 <= 0
 c426: d_0_3 + p_0_3 - z_0_3 >= 0
 c427: load_0_3 - 20 z_0_3 <= 0
 c428: p_0_4 - 20 z_0_4 <= 0
 c429: d_0_4 - 9 z_0_4 <= 0
 c430: mode_0_4 - z_0_4 <= 0
 c431: - 20 mode_0_4 + p_0_4 <= 0
 c432: d_0_4 + 9 mode_0_4 - 9 z_0_4 <= 0
 c433: d_0_4 + p_0_4 - z_0_4 >= 0
 c434: load_0_4 - 20 z_0_4 <= 0
 c435: p_0_5 - 14 z_0_5 <= 0
 c436: d_0_5 - 20 z_0_5 <= 0
 c437: mode_0_5 - z_0_5 <= 0
 c438: - 14 mode_0_5 + p_0_5 <= 0
 c439: d_0_5 + 20 mode_0_5 - 20 z_0_5 <= 0
 c440: d_0_5 + p_0_5 - z_0_5 >= 0
 c441: load_0_5 - 20 z_0_5 <= 0
 c442: p_0_6 - 20 z_0_6 <= 0
 c443: d_0_6 - 2 z_0_6 <= 0
 c444: mode_0_6 - z_0_6 <= 0
 c445: - 20 mode_0_6 + p_0_6 <= 0
 c446: d_0_6 + 2 mode_0_6 - 2 z_0_6 <= 0
 c447: d_0_6 + p_0_6 - z_0_6 >= 0
 c448: load_0_6 - 20 z_0_6 <= 0
 c449: p_0_7 - 17 z_0_7 <= 0
 c450: d_0_7 - 20 z_0_7 <= 0
 c451: mode_0_7 - z_0_7 <= 0
 c452: - 17 mode_0_7 + p_0_7 <= 0
 c453: d_0_7 + 20 mode_0_7 - 20 z_0_7 <= 0
 c454: d_0_7 + p_0_7 - z_0_7 >= 0
 c455: load_0_7 - 20 z_0_7 <= 0
 c456: p_0_8 - 19 z_0_8 <= 0
 c457: d_0_8 - 6 z_0_8 <= 0
 c458: mode_0_8 - z_0_8 <= 0
 c459: - 19 mode_0_8 + p_0_8 <= 0
 c460: d_0_8 + 6 mode_0_8 - 6 z_0_8 <= 0
 c461: d_0_8 + p_0_8 - z_0_8 >= 0
 c462: load_0_8 - 20 z_0_8 <= 0
 c463: p_0_9 - 20 z_0_9 <= 0
 c464: d_0_9 - 12 z_0_9 <= 0
 c465: mode_0_9 - z_0_9 <= 0
 c466: - 20 mode_0_9 + p_0_9 <= 0
 c467: d_0_9 + 12 mode_0_9 - 12 z_0_9 <= 0
 c468: d_0_9 + p_0_9 - z_0_9 >= 0
 c469: load_0_9 - 20 z_0_9 <= 0
 c470: p_0_10 - 20 z_0_10 <= 0
 c471: d_0_10 - 12 z_0_10 <= 0
 c472: mode_0_10 - z_0_10 <= 0
 c473: - 20 mode_0_10 + p_0_10 <= 0
 c474: d_0_10 + 12 mode_0_10 - 12 z_0_10 <= 0
 c475: d_0_10 + p_0_10 - z_0_10 >= 0
 c476: load_0_10 - 20 z_0_10 <= 0
 c477: d_0_1 + load_0_1 - p_0_1 + 20 x_0_0_1 <= 20
 c478: d_0_1 + load_0_1 - p_0_1 - 20 x_0_0_1 >= -20
 c479: d_0_2 + load_0_2 - p_0_2 + 20 x_0_0_2 <= 20
 c480: d_0_2 + load_0_2 - p_0_2 - 20 x_0_0_2 >= -20
 c481: d_0_3 + load_0_3 - p_0_3 + 20 x_0_0_3 <= 20
 c482: d_0_3 + load_0_3 - p_0_3 - 20 x_0_0_3 >= -20
 c483: d_0_4 + load_0_4 - p_0_4 + 20 x_0_0_4 <= 20
 c484: d_0_4 + load_0_4 - p_0_4 - 20 x_0_0_4 >= -20
 c485: d_0_5 + load_0_5 - p_0_5 + 20 x_0_0_5 <= 20
 c486: d_0_5 + load_0_5 - p_0_5 - 20 x_0_0_5 >= -20
 c487: d_0_6 + load_0_6 - p_0_6 + 20 x_0_0_6 <= 20
 c488: d_0_6 + load_0_6 - p_0_6 - 20 x_0_0_6 >= -20
 c489: d_0_7 + load_0_7 - p_0_7 + 20 x_0_0_7 <= 20
 c490: d_0_7 + load_0_7 - p_0_7 - 20 x_0_0_7 >= -20
 c491: d_0_8 + load_0_8 - p_0_8 + 20 x_0_0_8 <= 20
 c492: d_0_8 + load_0_8 - p_0_8 - 20 x_0_0_8 >= -20
 c493: d_0_9 + load_0_9 - p_0_9 + 20 x_0_0_9 <= 20
 c494: d_0_9 + load_0_9 - p_0_9 - 20 x_0_0_9 >= -20
 c495: d_0_10 + load_0_10 - p_0_10 + 20 x_0_0_10 <= 20
 c496: d_0_10 + load_0_10 - p_0_10 - 20 x_0_0_10 >= -20
 c497: d_0_2 - load_0_1 + load_0_2 - p_0_2 + 20 x_0_1_2 <= 20
 c498: d_0_2 - load_0_1 + load_0_2 - p_0_2 - 20 x_0_1_2 >= -20
 c499: d_0_3 - load_0_1 + load_0_3 - p_0_3 + 20 x_0_1_3 <= 20
 c500: d_0_3 - load_0_1 + load_0_3 - p_0_3 - 20 x_0_1_3 >= -20
 c501: d_0_4 - load_0_1 + load_0_4 - p_0_4 + 20 x_0_1_4 <= 20
 c502: d_0_4 - load_0_1 + load_0_4 - p_0_4 - 20 x_0_1_4 >= -20
 c503: d_0_5 - load_0_1 + load_0_5 - p_0_5 + 20 x_0_1_5 <= 20
 c504: d_0_5 - load_0_1 + load_0_5 - p_0_5 - 20 x_0_1_5 >= -20
 c505: d_0_6 - load_0_1 + load_0_6 - p_0_6 + 20 x_0_1_6 <= 20
 c506: d_0_6 - load_0_1 + load_0_6 - p_0_6 - 20 x_0_1_6 >= -20
 c507: d_0_7 - load_0_1 + load_0_7 - p_0_7 + 20 x_0_1_7 <= 20
 c508: d_0_7 - load_0_1 + load_0_7 - p_0_7 - 20 x_0_1_7 >= -20
 c509: d_0_8 - load_0_1 + load_0_8 - p_0_8 + 20 x_0_1_8 <= 20
 c510: d_0_8 - load_0_1 + load_0_8 - p_0_8 - 20 x_0_1_8 >= -20
 c511: d_0_9 - load_0_1 + load_0_9 - p_0_9 + 20 x_0_1_9 <= 20
 c512: d_0_9 - load_0_1 + load_0_9 - p_0_9 - 20 x_0_1_9 >= -20
 c513: d_0_10 - load_0_1 + load_0_10 - p_0_10 + 20 x_0_1_10 <= 20
 c514: d_0_10 - load_0_1 + load_0_10 - p_0_10 - 20 x_0_1_10 >= -20
 c515: d_0_1 + load_0_1 - load_0_2 - p_0_1 + 20 x_0_2_1 <= 20
 c516: d_0_1 + load_0_1 - load_0_2 - p_0_1 - 20 x_0_2_1 >= -20
 c517: d_0_3 - load_0_2 + load_0_3 - p_0_3 + 20 x_0_2_3 <= 20
 c518: d_0_3 - load_0_2 + load_0_3 - p_0_3 - 20 x_0_2_3 >= -20
 c519: d_0_4 - load_0_2 + load_0_4 - p_0_4 + 20 x_0_2_4 <= 20
 c520: d_0_4 - load_0_2 + load_0_4 - p_0_4 - 20 x_0_2_4 >= -20
 c521: d_0_5 - load_0_2 + load_0_5 - p_0_5 + 20 x_0_2_5 <= 20
 c522: d_0_5 - load_0_2 + load_0_5 - p_0_5 - 20 x_0_2_5 >= -20
 c523: d_0_6 - load_0_2 + load_0_6 - p_0_6 + 20 x_0_2_6 <= 20
 c524: d_0_6 - load_0_2 + load_0_6 - p_0_6 - 20 x_0_2_6 >= -20
 c525: d_0_7 - load_0_2 + load_0_7 - p_0_7 + 20 x_0_2_7 <= 20
 c526: d_0_7 - load_0_2 + load_0_7 - p_0_7 - 20 x_0_2_7 >= -20
 c527: d_0_8 - load_0_2 + load_0_8 - p_0_8 + 20 x_0_2_8 <= 20
 c528: d_0_8 - load_0_2 + load_0_8 - p_0_8 - 20 x_0_2_8 >= -20
 c529: d_0_9 - load_0_2 + load_0_9 - p_0_9 + 20 x_0_2_9 <= 20
 c530: d_0_9 - load_0_2 + load_0_9 - p_0_9 - 20 x_0_2_9 >= -20
 c531: d_0_10 + load_0_10 - load_0_2 - p_0_10 + 20 x_0_2_10 <= 20
 c532: d_0_10 + load_0_10 - load_0_2 - p_0_10 - 20 x_0_2_10 >= -20
 c533: d_0_1 + load_0_1 - load_0_3 - p_0_1 + 20 x_0_3_1 <= 20
 c534: d_0_1 + load_0_1 - load_0_3 - p_0_1 - 20 x_0_3_1 >= -20
 c535: d_0_2 + load_0_2 - load_0_3 - p_0_2 + 20 x_0_3_2 <= 20
 c536: d_0_2 + load_0_2 - load_0_3 - p_0_2 - 20 x_0_3_2 >= -20
 c537: d_0_4 - load_0_3 + load_0_4 - p_0_4 + 20 x_0_3_4 <= 20
 c538: d_0_4 - load_0_3 + load_0_4 - p_0_4 - 20 x_0_3_4 >= -20
 c539: d_0_5 - load_0_3 + load_0_5 - p_0_5 + 20 x_0_3_5 <= 20
 c540: d_0_5 - load_0_3 + load_0_5 - p_0_5 - 20 x_0_3_5 >= -20
 c541: d_0_6 - load_0_3 + load_0_6 - p_0_6 + 20 x_0_3_6 <= 20
 c542: d_0_6 - load_0_3 + load_0_6 - p_0_6 - 20 x_0_3_6 >= -20
 c543: d_0_7 - load_0_3 + load_0_7 - p_0_7 + 20 x_0_3_7 <= 20
 c544: d_0_7 - load_0_3 + load_0_7 - p_0_7 - 20 x_0_3_7 >= -20
 c545: d_0_8 - load_0_3 + load_0_8 - p_0_8 + 20 x_0_3_8 <= 20
 c546: d_0_8 - load_0_3 + load_0_8 - p_0_8 - 20 x_0_3_8 >= -20
 c547: d_0_9 - load_0_3 + load_0_9 - p_0_9 + 20 x_0_3_9 <= 20
 c548: d_0_9 - load_0_3 + load_0_9 - p_0_9 - 20 x_0_3_9 >= -20
 c549: d_0_10 + load_0_10 - load_0_3 - p_0_10 + 20 x_0_3_10 <= 20
 c550: d_0_10 + load_0_10 - load_0_3 - p_0_10 - 20 x_0_3_10 >= -20
 c551: d_0_1 + load_0_1 - load_0_4 - p_0_1 + 20 x_0_4_1 <= 20
 c552: d_0_1 + load_0_1 - load_0_4 - p_0_1 - 20 x_0_4_1 >= -20
 c553: d_0_2 + load_0_2 - load_0_4 - p_0_2 + 20 x_0_4_2 <= 20
 c554: d_0_2 + load_0_2 - load_0_4 - p_0_2 - 20 x_0_4_2 >= -20
 c555: d_0_3 + load_0_3 - load_0_4 - p_0_3 + 20 x_0_4_3 <= 20
 c556: d_0_3 + load_0_3 - load_0_4 - p_0_3 - 20 x_0_4_3 >= -20
 c557: d_0_5 - load_0_4 + load_0_5 - p_0_5 + 20 x_0_4_5 <= 20
 c558: d_0_5 - load_0_4 + load_0_5 - p_0_5 - 20 x_0_4_5 >= -20
 c559: d_0_6 - load_0_4 + load_0_6 - p_0_6 + 20 x_0_4_6 <= 20
 c560: d_0_6 - load_0_4 + load_0_6 - p_0_6 - 20 x_0_4_6 >= -20
 c561: d_0_7 - load_0_4 + load_0_7 - p_0_7 + 20 x_0_4_7 <= 20
 c562: d_0_7 - load_0_4 + load_0_7 - p_0_7 - 20 x_0_4_7 >= -20
 c563: d_0_8 - load_0_4 + load_0_8 - p_0_8 + 20 x_0_4_8 <= 20
 c564: d_0_8 - load_0_4 + load_0_8 - p_0_8 - 20 x_0_4_8 >= -20
 c565: d_0_9 - load_0_4 + load_0_9 - p_0_9 + 20 x_0_4_9 <= 20
 c566: d_0_9 - load_0_4 + load_0_9 - p_0_9 - 20 x_0_4_9 >= -20
 c567: d_0_10 + load_0_10 - load_0_4 - p_0_10 + 20 x_0_4_10 <= 20
 c568: d_0_10 + load_0_10 - load_0_4 - p_0_10 - 20 x_0_4_10 >= -20
 c569: d_0_1 + load_0_1 - load_0_5 - p_0_1 + 20 x_0_5_1 <= 20
 c570: d_0_1 + load_0_1 - load_0_5 - p_0_1 - 20 x_0_5_1 >= -20
 c571: d_0_2 + load_0_2 - load_0_5 - p_0_2 + 20 x_0_5_2 <= 20
 c572: d_0_2 + load_0_2 - load_0_5 - p_0_2 - 20 x_0_5_2 >= -20
 c573: d_0_3 + load_0_3 - load_0_5 - p_0_3 + 20 x_0_5_3 <= 20
 c574: d_0_3 + load_0_3 - load_0_5 - p_0_3 - 20 x_0_5_3 >= -20
 c575: d_0_4 + load_0_4 - load_0_5 - p_0_4 + 20 x_0_5_4 <= 20
 c576: d_0_4 + load_0_4 - load_0_5 - p_0_4 - 20 x_0_5_4 >= -20
 c577: d_0_6 - load_0_5 + load_0_6 - p_0_6 + 20 x_0_5_6 <= 20
 c578: d_0_6 - load_0_5 + load_0_6 - p_0_6 - 20 x_0_5_6 >= -20
 c579: d_0_7 - load_0_5 + load_0_7 - p_0_7 + 20 x_0_5_7 <= 20
 c580: d_0_7 - load_0_5 + load_0_7 - p_0_7 - 20 x_0_5_7 >= -20
 c581: d_0_8 - load_0_5 + load_0_8 - p_0_8 + 20 x_0_5_8 <= 20
 c582: d_0_8 - load_0_5 + load_0_8 - p_0_8 - 20 x_0_5_8 >= -20
 c583: d_0_9 - load_0_5 + load_0_9 - p_0_9 + 20 x_0_5_9 <= 20
 c584: d_0_9 - load_0_5 + load_0_9 - p_0_9 - 20 x_0_5_9 >= -20
 c585: d_0_10 + load_0_10 - load_0_5 - p_0_10 + 20 x_0_5_10 <= 20
 c586: d_0_10 + load_0_10 - load_0_5 - p_0_10 - 20 x_0_5_10 >= -20
 c587: d_0_1 + load_0_1 - load_0_6 - p_0_1 + 20 x_0_6_1 <= 20
 c588: d_0_1 + load_0_1 - load_0_6 - p_0_1 - 20 x_0_6_1 >= -20
 c589: d_0_2 + load_0_2 - load_0_6 - p_0_2 + 20 x_0_6_2 <= 20
 c590: d_0_2 + load_0_2 - load_0_6 - p_0_2 - 20 x_0_6_2 >= -20
 c591: d_0_3 + load_0_3 - load_0_6 - p_0_3 + 20 x_0_6_3 <= 20
 c592: d_0_3 + load_0_3 - load_0_6 - p_0_3 - 20 x_0_6_3 >= -20
 c593: d_0_4 + load_0_4 - load_0_6 - p_0_4 + 20 x_0_6_4 <= 20
 c594: d_0_4 + load_0_4 - load_0_6 - p_0_4 - 20 x_0_6_4 >= -20
 c595: d_0_5 + load_0_5 - load_0_6 - p_0_5 + 20 x_0_6_5 <= 20
 c596: d_0_5 + load_0_5 - load_0_6 - p_0_5 - 20 x_0_6_5 >= -20
 c597: d_0_7 - load_0_6 + load_0_7 - p_0_7 + 20 x_0_6_7 <= 20
 c598: d_0_7 - load_0_6 + load_0_7 - p_0_7 - 20 x_0_6_7 >= -20
 c599: d_0_8 - load_0_6 + load_0_8 - p_0_8 + 20 x_0_6_8 <= 20
 c600: d_0_8 - load_0_6 + load_0_8 - p_0_8 - 20 x_0_6_8 >= -20
 c601: d_0_9 - load_0_6 + load_0_9 - p_0_9 + 20 x_0_6_9 <= 20
 c602: d_0_9 - load_0_6 + load_0_9 - p_0_9 - 20 x_0_6_9 >= -20
 c603: d_0_10 + load_0_10 - load_0_6 - p_0_10 + 20 x_0_6_10 <= 20
 c604: d_0_10 + load_0_10 - load_0_6 - p_0_10 - 20 x_0_6_10 >= -20
 c605: d_0_1 + load_0_1 - load_0_7 - p_0_1 + 20 x_0_7_1 <= 20
 c606: d_0_1 + load_0_1 - load_0_7 - p_0_1 - 20 x_0_7_1 >= -20
 c607: d_0_2 + load_0_2 - load_0_7 - p_0_2 + 20 x_0_7_2 <= 20
 c608: d_0_2 + load_0_2 - load_0_7 - p_0_2 - 20 x_0_7_2 >= -20
 c609: d_0_3 + load_0_3 - load_0_7 - p_0_3 + 20 x_0_7_3 <= 20
 c610: d_0_3 + load_0_3 - load_0_7 - p_0_3 - 20 x_0_7_3 >= -20
 c611: d_0_4 + load_0_4 - load_0_7 - p_0_4 + 20 x_0_7_4 <= 20
 c612: d_0_4 + load_0_4 - load_0_7 - p_0_4 - 20 x_0_7_4 >= -20
 c613: d_0_5 + load_0_5 - load_0_7 - p_0_5 + 20 x_0_7_5 <= 20
 c614: d_0_5 + load_0_5 - load_0_7 - p_0_5 - 20 x_0_7_5 >= -20
 c615: d_0_6 + load_0_6 - load_0_7 - p_0_6 + 20 x_0_7_6 <= 20
 c616: d_0_6 + load_0_6 - load_0_7 - p_0_6 - 20 x_0_7_6 >= -20
 c617: d_0_8 - load_0_7 + load_0_8 - p_0_8 + 20 x_0_7_8 <= 20
 c618: d_0_8 - load_0_7 + load_0_8 - p_0_8 - 20 x_0_7_8 >= -20
 c619: d_0_9 - load_0_7 + load_0_9 - p_0_9 + 20 x_0_7_9 <= 20
 c620: d_0_9 - load_0_7 + load_0_9 - p_0_9 - 20 x_0_7_9 >= -20
 c621: d_0_10 + load_0_10 - load_0_7 - p_0_10 + 20 x_0_7_10 <= 20
 c622: d_0_10 + load_0_10 - load_0_7 - p_0_10 - 20 x_0_7_10 >= -20
 c623: d_0_1 + load_0_1 - load_0_8 - p_0_1 + 20 x_0_8_1 <= 20
 c624: d_0_1 + load_0_1 - load_0_8 - p_0_1 - 20 x_0_8_1 >= -20
 c625: d_0_2 + load_0_2 - load_0_8 - p_0_2 + 20 x_0_8_2 <= 20
 c626: d_0_2 + load_0_2 - load_0_8 - p_0_2 - 20 x_0_8_2 >= -20
 c627: d_0_3 + load_0_3 - load_0_8 - p_0_3 + 20 x_0_8_3 <= 20
 c628: d_0_3 + load_0_3 - load_0_8 - p_0_3 - 20 x_0_8_3 >= -20
 c629: d_0_4 + load_0_4 - load_0_8 - p_0_4 + 20 x_0_8_4 <= 20
 c630: d_0_4 + load_0_4 - load_0_8 - p_0_4 - 20 x_0_8_4 >= -20
 c631: d_0_5 + load_0_5 - load_0_8 - p_0_5 + 20 x_0_8_5 <= 20
 c632: d_0_5 + load_0_5 - load_0_8 - p_0_5 - 20 x_0_8_5 >= -20
 c633: d_0_6 + load_0_6 - load_0_8 - p_0_6 + 20 x_0_8_6 <= 20
 c634: d_0_6 + load_0_6 - load_0_8 - p_0_6 - 20 x_0_8_6 >= -20
 c635: d_0_7 + load_0_7 - load_0_8 - p_0_7 + 20 x_0_8_7 <= 20
 c636: d_0_7 + load_0_7 - load_0_8 - p_0_7 - 20 x_0_8_7 >= -20
 c637: d_0_9 - load_0_8 + load_0_9 - p_0_9 + 20 x_0_8_9 <= 20
 c638: d_0_9 - load_0_8 + load_0_9 - p_0_9 - 20 x_0_8_9 >= -20
 c639: d_0_10 + load_0_10 - load_0_8 - p_0_10 + 20 x_0_8_10 <= 20
 c640: d_0_10 + load_0_10 - load_0_8 - p_0_10 - 20 x_0_8_10 >= -20
 c641: d_0_1 + load_0_1 - load_0_9 - p_0_1 + 20 x_0_9_1 <= 20
 c642: d_0_1 + load_0_1 - load_0_9 - p_0_1 - 20 x_0_9_1 >= -20
 c643: d_0_2 + load_0_2 - load_0_9 - p_0_2 + 20 x_0_9_2 <= 20
 c644: d_0_2 + load_0_2 - load_0_9 - p_0_2 - 20 x_0_9_2 >= -20
 c645: d_0_3 + load_0_3 - load_0_9 - p_0_3 + 20 x_0_9_3 <= 20
 c646: d_0_3 + load_0_3 - load_0_9 - p_0_3 - 20 x_0_9_3 >= -20
 c647: d_0_4 + load_0_4 - load_0_9 - p_0_4 + 20 x_0_9_4 <= 20
 c648: d_0_4 + load_0_4 - load_0_9 - p_0_4 - 20 x_0_9_4 >= -20
 c649: d_0_5 + load_0_5 - load_0_9 - p_0_5 + 20 x_0_9_5 <= 20
 c650: d_0_5 + load_0_5 - load_0_9 - p_0_5 - 20 x_0_9_5 >= -20
 c651: d_0_6 + load_0_6 - load_0_9 - p_0_6 + 20 x_0_9_6 <= 20
 c652: d_0_6 + load_0_6 - load_0_9 - p_0_6 - 20 x_0_9_6 >= -20
 c653: d_0_7 + load_0_7 - load_0_9 - p_0_7 + 20 x_0_9_7 <= 20
 c654: d_0_7 + load_0_7 - load_0_9 - p_0_7 - 20 x_0_9_7 >= -20
 c655: d_0_8 + load_0_8 - load_0_9 - p_0_8 + 20 x_0_9_8 <= 20
 c656: d_0_8 + load_0_8 - load_0_9 - p_0_8 - 20 x_0_9_8 >= -20
 c657: d_0_10 + load_0_10 - load_0_9 - p_0_10 + 20 x_0_9_10 <= 20
 c658: d_0_10 + load_0_10 - load_0_9 - p_0_10 - 20 x_0_9_10 >= -20
 c659: d_0_1 + load_0_1 - load_0_10 - p_0_1 + 20 x_0_10_1 <= 20
 c660: d_0_1 + load_0_1 - load_0_10 - p_0_1 - 20 x_0_10_1 >= -20
 c661: d_0_2 - load_0_10 + load_0_2 - p_0_2 + 20 x_0_10_2 <= 20
 c662: d_0_2 - load_0_10 + load_0_2 - p_0_2 - 20 x_0_10_2 >= -20
 c663: d_0_3 - load_0_10 + load_0_3 - p_0_3 + 20 x_0_10_3 <= 20
 c664: d_0_3 - load_0_10 + load_0_3 - p_0_3 - 20 x_0_10_3 >= -20
 c665: d_0_4 - load_0_10 + load_0_4 - p_0_4 + 20 x_0_10_4 <= 20
 c666: d_0_4 - load_0_10 + load_0_4 - p_0_4 - 20 x_0_10_4 >= -20
 c667: d_0_5 - load_0_10 + load_0_5 - p_0_5 + 20 x_0_10_5 <= 20
 c668: d_0_5 - load_0_10 + load_0_5 - p_0_5 - 20 x_0_10_5 >= -20
 c669: d_0_6 - load_0_10 + load_0_6 - p_0_6 + 20 x_0_10_6 <= 20
 c670: d_0_6 - load_0_10 + load_0_6 - p_0_6 - 20 x_0_10_6 >= -20
 c671: d_0_7 - load_0_10 + load_0_7 - p_0_7 + 20 x_0_10_7 <= 20
 c672: d_0_7 - load_0_10 + load_0_7 - p_0_7 - 20 x_0_10_7 >= -20
 c673: d_0_8 - load_0_10 + load_0_8 - p_0_8 + 20 x_0_10_8 <= 20
 c674: d_0_8 - load_0_10 + load_0_8 - p_0_8 - 20 x_0_10_8 >= -20
 c675: d_0_9 - load_0_10 + load_0_9 - p_0_9 + 20 x_0_10_9 <= 20
 c676: d_0_9 - load_0_10 + load_0_9 - p_0_9 - 20 x_0_10_9 >= -20
 c677: - d_0_1 - d_0_10 - d_0_2 - d_0_3 - d_0_4 - d_0_5 - d_0_6 - d_0_7 - d_0_8 - d_0_9 + p_0_1 + p_0_10 + p_0_2 + p_0_3 + p_0_4 + p_0_5 + p_0_6 + p_0_7 + p_0_8 + p_0_9 >= 0
 c678: 120 p_0_1 + 120 p_0_10 + 120 p_0_2 + 120 p_0_3 + 120 p_0_4 + 120 p_0_5 + 120 p_0_6 + 120 p_0_7 + 120 p_0_8 + 120 p_0_9 + 281.85411348267581 x_0_0_1 + 237.57958671191969 x_0_0_10 + 178.68881538830115 x_0_0_2 + 354.97911646689187 x_0_0_3 + 312.62666785306851 x_0_0_4 + 218.19457195101299 x_0_0_5 + 265.30845922358463 x_0_0_6 + 320.34472691024331 x_0_0_7 + 230.53473617169973 x_0_0_8 + 244.02536845262901 x_0_0_9 + 237.57958671191969 x_0_10_0 + 107.48775733900591 x_0_10_1 + 353.41902081124385 x_0_10_2 + 510.86960475605753 x_0_10_3 + 88.718841594064784 x_0_10_4 + 408.40835214273187 x_0_10_5 + 476.79675197302703 x_0_10_6 + 83.130327155127517 x_0_10_7 + 383.66051747225885 x_0_10_8 + 410.25461175927148 x_0_10_9 + 281.85411348267581 x_0_1_0 + 107.48775733900591 x_0_1_10 + 430.58176340600397 x_0_1_2 + 475.52961070612673 x_0_1_3 + 165.42581006334879 x_0_1_4 + 482.23196966922569 x_0_1_5 + 476.41014118002721 x_0_1_6 + 127.97285523469451 x_0_1_7 + 468.36864165308151 x_0_1_8 + 388.5670047300776 x_0_1_9 + 178.68881538830115 x_0_2_0 + 430.58176340600397 x_0_2_1 + 353.41902081124385 x_0_2_10 + 483.60575268188001 x_0_2_3 + 399.45799299068204 x_0_2_4 + 56.542930572720316 x_0_2_5 + 348.51582587548768 x_0_2_6 + 425.29157829184851 x_0_2_7 + 55.267056810119719 x_0_2_8 + 380.53090739749092 x_0_2_9 + 354.97911646689187 x_0_3_0 + 475.52961070612673 x_0_3_1 + 510.86960475605753 x_0_3_10 + 483.60575268188001 x_0_3_2 + 599.58665659319854 x_0_3_4 + 488.98560005076297 x_0_3_5 + 160.78742335837774 x_0_3_6 + 583.23155530036081 x_0_3_7 + 537.62426286602204 x_0_3_8 + 111.05626202174432 x_0_3_9 + 312.62666785306851 x_0_4_0 + 165.42581006334879 x_0_4_1 + 88.718841594064784 x_0_4_10 + 399.45799299068204 x_0_4_2 + 599.58665659319854 x_0_4_3 + 455.93720490919372 x_0_4_5 + 561.87273278258442 x_0_4_6 + 46.687019913901423 x_0_4_7 + 419.76533679876781 x_0_4_8 + 498.63849666694676 x_0_4_9 + 218.19457195101299 x_0_5_0 + 482.23196966922569 x_0_5_1 + 408.40835214273187 x_0_5_10 + 56.542930572720316 x_0_5_2 + 488.98560005076297 x_0_5_3 + 455.93720490919372 x_0_5_4 + 343.18537397750879 x_0_5_6 + 481.3096824217464 x_0_5_7 + 68.066651896693571 x_0_5_8 + 392.08962723226364 x_0_5_9 + 265.30845922358463 x_0_6_0 + 476.41014118002721 x_0_6_1 + 476.79675197302703 x_0_6_10 + 348.51582587548768 x_0_6_2 + 160.78742335837774 x_0_6_3 + 561.87273278258442 x_0_6_4 + 343.18537397750879 x_0_6_5 + 558.00047683474713 x_0_6_7 + 399.26432563459042 x_0_6_8 + 116.63490277691291 x_0_6_9 + 320.34472691024331 x_0_7_0 + 127.97285523469451 x_0_7_1 + 83.130327155127517 x_0_7_10 + 425.29157829184851 x_0_7_2 + 583.23155530036081 x_0_7_3 + 46.687019913901423 x_0_7_4 + 481.3096824217464 x_0_7_5 + 558.00047683474713 x_0_7_6 + 450.04303577132879 x_0_7_8 + 486.43497069112664 x_0_7_9 + 230.53473617169973 x_0_8_0 + 468.36864165308151 x_0_8_1 + 383.66051747225885 x_0_8_10 + 55.267056810119719 x_0_8_2 + 537.62426286602204 x_0_8_3 + 419.76533679876781 x_0_8_4 + 68.066651896693571 x_0_8_5 + 399.26432563459042 x_0_8_6 + 450.04303577132879 x_0_8_7 + 435.40105202540258 x_0_8_9 + 244.02536845262901 x_0_9_0 + 388.5670047300776 x_0_9_1 + 410.25461175927148 x_0_9_10 + 380.53090739749092 x_0_9_2 + 111.05626202174432 x_0_9_3 + 498.63849666694676 x_0_9_4 + 392.08962723226364 x_0_9_5 + 116.63490277691291 x_0_9_6 + 486.43497069112664 x_0_9_7 + 435.40105202540258 x_0_9_8 <= 2400
 c679: p_1_1 - 20 z_1_1 <= 0
 c680: d_1_1 - 16 z_1_1 <= 0
 c681: mode_1_1 - z_1_1 <= 0
 c682: - 20 mode_1_1 + p_1_1 <= 0
 c683: d_1_1 + 16 mode_1_1 - 16 z_1_1 <= 0
 c684: d_1_1 + p_1_1 - z_1_1 >= 0
 c685: load_1_1 - 20 z_1_1 <= 0
 c686: p_1_2 - 3 z_1_2 <= 0
 c687: d_1_2 - 20 z_1_2 <= 0
 c688: mode_1_2 - z_1_2 <= 0
 c689: - 3 mode_1_2 + p_1_2 <= 0
 c690: d_1_2 + 20 mode_1_2 - 20 z_1_2 <= 0
 c691: d_1_2 + p_1_2 - z_1_2 >= 0
 c692: load_1_2 - 20 z_1_2 <= 0
 c693: p_1_3 - 20 z_1_3 <= 0
 c694: d_1_3 - 17 z_1_3 <= 0
 c695: mode_1_3 - z_1_3 <= 0
 c696: - 20 mode_1_3 + p_1_3 <= 0
 c697: d_1_3 + 17 mode_1_3 - 17 z_1_3 <= 0
 c698: d_1_3 + p_1_3 - z_1_3 >= 0
 c699: load_1_3 - 20 z_1_3 <= 0
 c700: p_1_4 - 20 z_1_4 <= 0
 c701: d_1_4 - 9 z_1_4 <= 0
 c702: mode_1_4 - z_1_4 <= 0
 c703: - 20 mode_1_4 + p_1_4 <= 0
 c704: d_1_4 + 9 mode_1_4 - 9 z_1_4 <= 0
 c705: d_1_4 + p_1_4 - z_1_4 >= 0
 c706: load_1_4 - 20 z_1_4 <= 0
 c707: p_1_5 - 14 z_1_5 <= 0
 c708: d_1_5 - 20 z_1_5 <= 0
 c709: mode_1_5 - z_1_5 <= 0
 c710: - 14 mode_1_5 + p_1_5 <= 0
 c711: d_1_5 + 20 mode_1_5 - 20 z_1_5 <= 0
 c712: d_1_5 + p_1_5 - z_1_5 >= 0
 c713: load_1_5 - 20 z_1_5 <= 0
 c714: p_1_6 - 20 z_1_6 <= 0
 c715: d_1_6 - 2 z_1_6 <= 0
 c716: mode_1_6 - z_1_6 <= 0
 c717: - 20 mode_1_6 + p_1_6 <= 0
 c718: d_1_6 + 2 mode_1_6 - 2 z_1_6 <= 0
 c719: d_1_6 + p_1_6 - z_1_6 >= 0
 c720: load_1_6 - 20 z_1_6 <= 0
 c721: p_1_7 - 17 z_1_7 <= 0
 c722: d_1_7 - 20 z_1_7 <= 0
 c723: mode_1_7 - z_1_7 <= 0
 c724: - 17 mode_1_7 + p_1_7 <= 0
 c725: d_1_7 + 20 mode_1_7 - 20 z_1_7 <= 0
 c726: d_1_7 + p_1_7 - z_1_7 >= 0
 c727: load_1_7 - 20 z_1_7 <= 0
 c728: p_1_8 - 19 z_1_8 <= 0
 c729: d_1_8 - 6 z_1_8 <= 0
 c730: mode_1_8 - z_1_8 <= 0
 c731: - 19 mode_1_8 + p_1_8 <= 0
 c732: d_1_8 + 6 mode_1_8 - 6 z_1_8 <= 0
 c733: d_1_8 + p_1_8 - z_1_8 >= 0
 c734: load_1_8 - 20 z_1_8 <= 0
 c735: p_1_9 - 20 z_1_9 <= 0
 c736: d_1_9 - 12 z_1_9 <= 0
 c737: mode_1_9 - z_1_9 <= 0
 c738: - 20 mode_1_9 + p_1_9 <= 0
 c739: d_1_9 + 12 mode_1_9 - 12 z_1_9 <= 0
 c740: d_1_9 + p_1_9 - z_1_9 >= 0
 c741: load_1_9 - 20 z_1_9 <= 0
 c742: p_1_10 - 20 z_1_10 <= 0
 c743: d_1_10 - 12 z_1_10 <= 0
 c744: mode_1_10 - z_1_10 <= 0
 c745: - 20 mode_1_10 + p_1_10 <= 0
 c746: d_1_10 + 12 mode_1_10 - 12 z_1_10 <= 0
 c747: d_1_10 + p_1_10 - z_1_10 >= 0
 c748: load_1_10 - 20 z_1_10 <= 0
 c749: d_1_1 + load_1_1 - p_1_1 + 20 x_1_0_1 <= 20
 c750: d_1_1 + load_1_1 - p_1_1 - 20 x_1_0_1 >= -20
 c751: d_1_2 + load_1_2 - p_1_2 + 20 x_1_0_2 <= 20
 c752: d_1_2 + load_1_2 - p_1_2 - 20 x_1_0_2 >= -20
 c753: d_1_3 + load_1_3 - p_1_3 + 20 x_1_0_3 <= 20
 c754: d_1_3 + load_1_3 - p_1_3 - 20 x_1_0_3 >= -20
 c755: d_1_4 + load_1_4 - p_1_4 + 20 x_1_0_4 <= 20
 c756: d_1_4 + load_1_4 - p_1_4 - 20 x_1_0_4 >= -20
 c757: d_1_5 + load_1_5 - p_1_5 + 20 x_1_0_5 <= 20
 c758: d_1_5 + load_1_5 - p_1_5 - 20 x_1_0_5 >= -20
 c759: d_1_6 + load_1_6 - p_1_6 + 20 x_1_0_6 <= 20
 c760: d_1_6 + load_1_6 - p_1_6 - 20 x_1_0_6 >= -20
 c761: d_1_7 + load_1_7 - p_1_7 + 20 x_1_0_7 <= 20
 c762: d_1_7 + load_1_7 - p_1_7 - 20 x_1_0_7 >= -20
 c763: d_1_8 + load_1_8 - p_1_8 + 20 x_1_0_8 <= 20
 c764: d_1_8 + load_1_8 - p_1_8 - 20 x_1_0_8 >= -20
 c765: d_1_9 + load_1_9 - p_1_9 + 20 x_1_0_9 <= 20
 c766: d_1_9 + load_1_9 - p_1_9 - 20 x_1_0_9 >= -20
 c767: d_1_10 + load_1_10 - p_1_10 + 20 x_1_0_10 <= 20
 c768: d_1_10 + load_1_10 - p_1_10 - 20 x_1_0_10 >= -20
 c769: d_1_2 - load_1_1 + load_1_2 - p_1_2 + 20 x_1_1_2 <= 20
 c770: d_1_2 - load_1_1 + load_1_2 - p_1_2 - 20 x_1_1_2 >= -20
 c771: d_1_3 - load_1_1 + load_1_3 - p_1_3 + 20 x_1_1_3 <= 20
 c772: d_1_3 - load_1_1 + load_1_3 - p_1_3 - 20 x_1_1_3 >= -20
 c773: d_1_4 - load_1_1 + load_1_4 - p_1_4 + 20 x_1_1_4 <= 20
 c774: d_1_4 - load_1_1 + load_1_4 - p_1_4 - 20 x_1_1_4 >= -20
 c775: d_1_5 - load_1_1 + load_1_5 - p_1_5 + 20 x_1_1_5 <= 20
 c776: d_1_5 - load_1_1 + load_1_5 - p_1_5 - 20 x_1_1_5 >= -20
 c777: d_1_6 - load_1_1 + load_1_6 - p_1_6 + 20 x_1_1_6 <= 20
 c778: d_1_6 - load_1_1 + load_1_6 - p_1_6 - 20 x_1_1_6 >= -20
 c779: d_1_7 - load_1_1 + load_1_7 - p_1_7 + 20 x_1_1_7 <= 20
 c780: d_1_7 - load_1_1 + load_1_7 - p_1_7 - 20 x_1_1_7 >= -20
 c781: d_1_8 - load_1_1 + load_1_8 - p_1_8 + 20 x_1_1_8 <= 20
 c782: d_1_8 - load_1_1 + load_1_8 - p_1_8 - 20 x_1_1_8 >= -20
 c783: d_1_9 - load_1_1 + load_1_9 - p_1_9 + 20 x_1_1_9 <= 20
 c784: d_1_9 - load_1_1 + load_1_9 - p_1_9 - 20 x_1_1_9 >= -20
 c785: d_1_10 - load_1_1 + load_1_10 - p_1_10 + 20 x_1_1_10 <= 20
 c786: d_1_10 - load_1_1 + load_1_10 - p_1_10 - 20 x_1_1_10 >= -20
 c787: d_1_1 + load_1_1 - load_1_2 - p_1_1 + 20 x_1_2_1 <= 20
 c788: d_1_1 + load_1_1 - load_1_2 - p_1_1 - 20 x_1_2_1 >= -20
 c789: d_1_3 - load_1_2 + load_1_3 - p_1_3 + 20 x_1_2_3 <= 20
 c790: d_1_3 - load_1_2 + load_1_3 - p_1_3 - 20 x_1_2_3 >= -20
 c791: d_1_4 - load_1_2 + load_1_4 - p_1_4 + 20 x_1_2_4 <= 20
 c792: d_1_4 - load_1_2 + load_1_4 - p_1_4 - 20 x_1_2_4 >= -20
 c793: d_1_5 - load_1_2 + load_1_5 - p_1_5 + 20 x_1_2_5 <= 20
 c794: d_1_5 - load_1_2 + load_1_5 - p_1_5 - 20 x_1_2_5 >= -20
 c795: d_1_6 - load_1_2 + load_1_6 - p_1_6 + 20 x_1_2_6 <= 20
 c796: d_1_6 - load_1_2 + load_1_6 - p_1_6 - 20 x_1_2_6 >= -20
 c797: d_1_7 - load_1_2 + load_1_7 - p_1_7 + 20 x_1_2_7 <= 20
 c798: d_1_7 - load_1_2 + load_1_7 - p_1_7 - 20 x_1_2_7 >= -20
 c799: d_1_8 - load_1_2 + load_1_8 - p_1_8 + 20 x_1_2_8 <= 20
 c800: d_1_8 - load_1_2 + load_1_8 - p_1_8 - 20 x_1_2_8 >= -20
 c801: d_1_9 - load_1_2 + load_1_9 - p_1_9 + 20 x_1_2_9 <= 20
 c802: d_1_9 - load_1_2 + load_1_9 - p_1_9 - 20 x_1_2_9 >= -20
 c803: d_1_10 + load_1_10 - load_1_2 - p_1_10 + 20 x_1_2_10 <= 20
 c804: d_1_10 + load_1_10 - load_1_2 - p_1_10 - 20 x_1_2_10 >= -20
 c805: d_1_1 + load_1_1 - load_1_3 - p_1_1 + 20 x_1_3_1 <= 20
 c806: d_1_1 + load_1_1 - load_1_3 - p_1_1 - 20 x_1_3_1 >= -20
 c807: d_1_2 + load_1_2 - load_1_3 - p_1_2 + 20 x_1_3_2 <= 20
 c808: d_1_2 + load_1_2 - load_1_3 - p_1_2 - 20 x_1_3_2 >= -20
 c809: d_1_4 - load_1_3 + load_1_4 - p_1_4 + 20 x_1_3_4 <= 20
 c810: d_1_4 - load_1_3 + load_1_4 - p_1_4 - 20 x_1_3_4 >= -20
 c811: d_1_5 - load_1_3 + load_1_5 - p_1_5 + 20 x_1_3_5 <= 20
 c812: d_1_5 - load_1_3 + load_1_5 - p_1_5 - 20 x_1_3_5 >= -20
 c813: d_1_6 - load_1_3 + load_1_6 - p_1_6 + 20 x_1_3_6 <= 20
 c814: d_1_6 - load_1_3 + load_1_6 - p_1_6 - 20 x_1_3_6 >= -20
 c815: d_1_7 - load_1_3 + load_1_7 - p_1_7 + 20 x_1_3_7 <= 20
 c816: d_1_7 - load_1_3 + load_1_7 - p_1_7 - 20 x_1_3_7 >= -20
 c817: d_1_8 - load_1_3 + load_1_8 - p_1_8 + 20 x_1_3_8 <= 20
 c818: d_1_8 - load_1_3 + load_1_8 - p_1_8 - 20 x_1_3_8 >= -20
 c819: d_1_9 - load_1_3 + load_1_9 - p_1_9 + 20 x_1_3_9 <= 20
 c820: d_1_9 - load_1_3 + load_1_9 - p_1_9 - 20 x_1_3_9 >= -20
 c821: d_1_10 + load_1_10 - load_1_3 - p_1_10 + 20 x_1_3_10 <= 20
 c822: d_1_10 + load_1_10 - load_1_3 - p_1_10 - 20 x_1_3_10 >= -20
 c823: d_1_1 + load_1_1 - load_1_4 - p_1_1 + 20 x_1_4_1 <= 20
 c824: d_1_1 + load_1_1 - load_1_4 - p_1_1 - 20 x_1_4_1 >= -20
 c825: d_1_2 + load_1_2 - load_1_4 - p_1_2 + 20 x_1_4_2 <= 20
 c826: d_1_2 + load_1_2 - load_1_4 - p_1_2 - 20 x_1_4_2 >= -20
 c827: d_1_3 + load_1_3 - load_1_4 - p_1_3 + 20 x_1_4_3 <= 20
 c828: d_1_3 + load_1_3 - load_1_4 - p_1_3 - 20 x_1_4_3 >= -20
 c829: d_1_5 - load_1_4 + load_1_5 - p_1_5 + 20 x_1_4_5 <= 20
 c830: d_1_5 - load_1_4 + load_1_5 - p_1_5 - 20 x_1_4_5 >= -20
 c831: d_1_6 - load_1_4 + load_1_6 - p_1_6 + 20 x_1_4_6 <= 20
 c832: d_1_6 - load_1_4 + load_1_6 - p_1_6 - 20 x_1_4_6 >= -20
 c833: d_1_7 - load_1_4 + load_1_7 - p_1_7 + 20 x_1_4_7 <= 20
 c834: d_1_7 - load_1_4 + load_1_7 - p_1_7 - 20 x_1_4_7 >= -20
 c835: d_1_8 - load_1_4 + load_1_8 - p_1_8 + 20 x_1_4_8 <= 20
 c836: d_1_8 - load_1_4 + load_1_8 - p_1_8 - 20 x_1_4_8 >= -20
 c837: d_1_9 - load_1_4 + load_1_9 - p_1_9 + 20 x_1_4_9 <= 20
 c838: d_1_9 - load_1_4 + load_1_9 - p_1_9 - 20 x_1_4_9 >= -20
 c839: d_1_10 + load_1_10 - load_1_4 - p_1_10 + 20 x_1_4_10 <= 20
 c840: d_1_10 + load_1_10 - load_1_4 - p_1_10 - 20 x_1_4_10 >= -20
 c841: d_1_1 + load_1_1 - load_1_5 - p_1_1 + 20 x_1_5_1 <= 20
 c842: d_1_1 + load_1_1 - load_1_5 - p_1_1 - 20 x_1_5_1 >= -20
 c843: d_1_2 + load_1_2 - load_1_5 - p_1_2 + 20 x_1_5_2 <= 20
 c844: d_1_2 + load_1_2 - load_1_5 - p_1_2 - 20 x_1_5_2 >= -20
 c845: d_1_3 + load_1_3 - load_1_5 - p_1_3 + 20 x_1_5_3 <= 20
 c846: d_1_3 + load_1_3 - load_1_5 - p_1_3 - 20 x_1_5_3 >= -20
 c847: d_1_4 + load_1_4 - load_1_5 - p_1_4 + 20 x_1_5_4 <= 20
 c848: d_1_4 + load_1_4 - load_1_5 - p_1_4 - 20 x_1_5_4 >= -20
 c849: d_1_6 - load_1_5 + load_1_6 - p_1_6 + 20 x_1_5_6 <= 20
 c850: d_1_6 - load_1_5 + load_1_6 - p_1_6 - 20 x_1_5_6 >= -20
 c851: d_1_7 - load_1_5 + load_1_7 - p_1_7 + 20 x_1_5_7 <= 20
 c852: d_1_7 - load_1_5 + load_1_7 - p_1_7 - 20 x_1_5_7 >= -20
 c853: d_1_8 - load_1_5 + load_1_8 - p_1_8 + 20 x_1_5_8 <= 20
 c854: d_1_8 - load_1_5 + load_1_8 - p_1_8 - 20 x_1_5_8 >= -20
 c855: d_1_9 - load_1_5 + load_1_9 - p_1_9 + 20 x_1_5_9 <= 20
 c856: d_1_9 - load_1_5 + load_1_9 - p_1_9 - 20 x_1_5_9 >= -20
 c857: d_1_10 + load_1_10 - load_1_5 - p_1_10 + 20 x_1_5_10 <= 20
 c858: d_1_10 + load_1_10 - load_1_5 - p_1_10 - 20 x_1_5_10 >= -20
 c859: d_1_1 + load_1_1 - load_1_6 - p_1_1 + 20 x_1_6_1 <= 20
 c860: d_1_1 + load_1_1 - load_1_6 - p_1_1 - 20 x_1_6_1 >= -20
 c861: d_1_2 + load_1_2 - load_1_6 - p_1_2 + 20 x_1_6_2 <= 20
 c862: d_1_2 + load_1_2 - load_1_6 - p_1_2 - 20 x_1_6_2 >= -20
 c863: d_1_3 + load_1_3 - load_1_6 - p_1_3 + 20 x_1_6_3 <= 20
 c864: d_1_3 + load_1_3 - load_1_6 - p_1_3 - 20 x_1_6_3 >= -20
 c865: d_1_4 + load_1_4 - load_1_6 - p_1_4 + 20 x_1_6_4 <= 20
 c866: d_1_4 + load_1_4 - load_1_6 - p_1_4 - 20 x_1_6_4 >= -20
 c867: d_1_5 + load_1_5 - load_1_6 - p_1_5 + 20 x_1_6_5 <= 20
 c868: d_1_5 + load_1_5 - load_1_6 - p_1_5 - 20 x_1_6_5 >= -20
 c869: d_1_7 - load_1_6 + load_1_7 - p_1_7 + 20 x_1_6_7 <= 20
 c870: d_1_7 - load_1_6 + load_1_7 - p_1_7 - 20 x_1_6_7 >= -20
 c871: d_1_8 - load_1_6 + load_1_8 - p_1_8 + 20 x_1_6_8 <= 20
 c872: d_1_8 - load_1_6 + load_1_8 - p_1_8 - 20 x_1_6_8 >= -20
 c873: d_1_9 - load_1_6 + load_1_9 - p_1_9 + 20 x_1_6_9 <= 20
 c874: d_1_9 - load_1_6 + load_1_9 - p_1_9 - 20 x_1_6_9 >= -20
 c875: d_1_10 + load_1_10 - load_1_6 - p_1_10 + 20 x_1_6_10 <= 20
 c876: d_1_10 + load_1_10 - load_1_6 - p_1_10 - 20 x_1_6_10 >= -20
 c877: d_1_1 + load_1_1 - load_1_7 - p_1_1 + 20 x_1_7_1 <= 20
 c878: d_1_1 + load_1_1 - load_1_7 - p_1_1 - 20 x_1_7_1 >= -20
 c879: d_1_2 + load_1_2 - load_1_7 - p_1_2 + 20 x_1_7_2 <= 20
 c880: d_1_2 + load_1_2 - load_1_7 - p_1_2 - 20 x_1_7_2 >= -20
 c881: d_1_3 + load_1_3 - load_1_7 - p_1_3 + 20 x_1_7_3 <= 20
 c882: d_1_3 + load_1_3 - load_1_7 - p_1_3 - 20 x_1_7_3 >= -20
 c883: d_1_4 + load_1_4 - load_1_7 - p_1_4 + 20 x_1_7_4 <= 20
 c884: d_1_4 + load_1_4 - load_1_7 - p_1_4 - 20 x_1_7_4 >= -20
 c885: d_1_5 + load_1_5 - load_1_7 - p_1_5 + 20 x_1_7_5 <= 20
 c886: d_1_5 + load_1_5 - load_1_7 - p_1_5 - 20 x_1_7_5 >= -20
 c887: d_1_6 + load_1_6 - load_1_7 - p_1_6 + 20 x_1_7_6 <= 20
 c888: d_1_6 + load_1_6 - load_1_7 - p_1_6 - 20 x_1_7_6 >= -20
 c889: d_1_8 - load_1_7 + load_1_8 - p_1_8 + 20 x_1_7_8 <= 20
 c890: d_1_8 - load_1_7 + load_1_8 - p_1_8 - 20 x_1_7_8 >= -20
 c891: d_1_9 - load_1_7 + load_1_9 - p_1_9 + 20 x_1_7_9 <= 20
 c892: d_1_9 - load_1_7 + load_1_9 - p_1_9 - 20 x_1_7_9 >= -20
 c893: d_1_10 + load_1_10 - load_1_7 - p_1_10 + 20 x_1_7_10 <= 20
 c894: d_1_10 + load_1_10 - load_1_7 - p_1_10 - 20 x_1_7_10 >= -20
 c895: d_1_1 + load_1_1 - load_1_8 - p_1_1 + 20 x_1_8_1 <= 20
 c896: d_1_1 + load_1_1 - load_1_8 - p_1_1 - 20 x_1_8_1 >= -20
 c897: d_1_2 + load_1_2 - load_1_8 - p_1_2 + 20 x_1_8_2 <= 20
 c898: d_1_2 + load_1_2 - load_1_8 - p_1_2 - 20 x_1_8_2 >= -20
 c899: d_1_3 + load_1_3 - load_1_8 - p_1_3 + 20 x_1_8_3 <= 20
 c900: d_1_3 + load_1_3 - load_1_8 - p_1_3 - 20 x_1_8_3 >= -20
 c901: d_1_4 + load_1_4 - load_1_8 - p_1_4 + 20 x_1_8_4 <= 20
 c902: d_1_4 + load_1_4 - load_1_8 - p_1_4 - 20 x_1_8_4 >= -20
 c903: d_1_5 + load_1_5 - load_1_8 - p_1_5 + 20 x_1_8_5 <= 20
 c904: d_1_5 + load_1_5 - load_1_8 - p_1_5 - 20 x_1_8_5 >= -20
 c905: d_1_6 + load_1_6 - load_1_8 - p_1_6 + 20 x_1_8_6 <= 20
 c906: d_1_6 + load_1_6 - load_1_8 - p_1_6 - 20 x_1_8_6 >= -20
 c907: d_1_7 + load_1_7 - load_1_8 - p_1_7 + 20 x_1_8_7 <= 20
 c908: d_1_7 + load_1_7 - load_1_8 - p_1_7 - 20 x_1_8_7 >= -20
 c909: d_1_9 - load_1_8 + load_1_9 - p_1_9 + 20 x_1_8_9 <= 20
 c910: d_1_9 - load_1_8 + load_1_9 - p_1_9 - 20 x_1_8_9 >= -20
 c911: d_1_10 + load_1_10 - load_1_8 - p_1_10 + 20 x_1_8_10 <= 20
 c912: d_1_10 + load_1_10 - load_1_8 - p_1_10 - 20 x_1_8_10 >= -20
 c913: d_1_1 + load_1_1 - load_1_9 - p_1_1 + 20 x_1_9_1 <= 20
 c914: d_1_1 + load_1_1 - load_1_9 - p_1_1 - 20 x_1_9_1 >= -20
 c915: d_1_2 + load_1_2 - load_1_9 - p_1_2 + 20 x_1_9_2 <= 20
 c916: d_1_2 + load_1_2 - load_1_9 - p_1_2 - 20 x_1_9_2 >= -20
 c917: d_1_3 + load_1_3 - load_1_9 - p_1_3 + 20 x_1_9_3 <= 20
 c918: d_1_3 + load_1_3 - load_1_9 - p_1_3 - 20 x_1_9_3 >= -20
 c919: d_1_4 + load_1_4 - load_1_9 - p_1_4 + 20 x_1_9_4 <= 20
 c920: d_1_4 + load_1_4 - load_1_9 - p_1_4 - 20 x_1_9_4 >= -20
 c921: d_1_5 + load_1_5 - load_1_9 - p_1_5 + 20 x_1_9_5 <= 20
 c922: d_1_5 + load_1_5 - load_1_9 - p_1_5 - 20 x_1_9_5 >= -20
 c923: d_1_6 + load_1_6 - load_1_9 - p_1_6 + 20 x_1_9_6 <= 20
 c924: d_1_6 + load_1_6 - load_1_9 - p_1_6 - 20 x_1_9_6 >= -20
 c925: d_1_7 + load_1_7 - load_1_9 - p_1_7 + 20 x_1_9_7 <= 20
 c926: d_1_7 + load_1_7 - load_1_9 - p_1_7 - 20 x_1_9_7 >= -20
 c927: d_1_8 + load_1_8 - load_1_9 - p_1_8 + 20 x_1_9_8 <= 20
 c928: d_1_8 + load_1_8 - load_1_9 - p_1_8 - 20 x_1_9_8 >= -20
 c929: d_1_10 + load_1_10 - load_1_9 - p_1_10 + 20 x_1_9_10 <= 20
 c930: d_1_10 + load_1_10 - load_1_9 - p_1_10 - 20 x_1_9_10 >= -20
 c931: d_1_1 + load_1_1 - load_1_10 - p_1_1 + 20 x_1_10_1 <= 20
 c932: d_1_1 + load_1_1 - load_1_10 - p_1_1 - 20 x_1_10_1 >= -20
 c933: d_1_2 - load_1_10 + load_1_2 - p_1_2 + 20 x_1_10_2 <= 20
 c934: d_1_2 - load_1_10 + load_1_2 - p_1_2 - 20 x_1_10_2 >= -20
 c935: d_1_3 - load_1_10 + load_1_3 - p_1_3 + 20 x_1_10_3 <= 20
 c936: d_1_3 - load_1_10 + load_1_3 - p_1_3 - 20 x_1_10_3 >= -20
 c937: d_1_4 - load_1_10 + load_1_4 - p_1_4 + 20 x_1_10_4 <= 20
 c938: d_1_4 - load_1_10 + load_1_4 - p_1_4 - 20 x_1_10_4 >= -20
 c939: d_1_5 - load_1_10 + load_1_5 - p_1_5 + 20 x_1_10_5 <= 20
 c940: d_1_5 - load_1_10 + load_1_5 - p_1_5 - 20 x_1_10_5 >= -20
 c941: d_1_6 - load_1_10 + load_1_6 - p_1_6 + 20 x_1_10_6 <= 20
 c942: d_1_6 - load_1_10 + load_1_6 - p_1_6 - 20 x_1_10_6 >= -20
 c943: d_1_7 - load_1_10 + load_1_7 - p_1_7 + 20 x_1_10_7 <= 20
 c944: d_1_7 - load_1_10 + load_1_7 - p_1_7 - 20 x_1_10_7 >= -20
 c945: d_1_8 - load_1_10 + load_1_8 - p_1_8 + 20 x_1_10_8 <= 20
 c946: d_1_8 - load_1_10 + load_1_8 - p_1_8 - 20 x_1_10_8 >= -20
 c947: d_1_9 - load_1_10 + load_1_9 - p_1_9 + 20 x_1_10_9 <= 20
 c948: d_1_9 - load_1_10 + load_1_9 - p_1_9 - 20 x_1_10_9 >= -20
 c949: - d_1_1 - d_1_10 - d_1_2 - d_1_3 - d_1_4 - d_1_5 - d_1_6 - d_1_7 - d_1_8 - d_1_9 + p_1_1 + p_1_10 + p_1_2 + p_1_3 + p_1_4 + p_1_5 + p_1_6 + p_1_7 + p_1_8 + p_1_9 >= 0
 c950: 120 p_1_1 + 120 p_1_10 + 120 p_1_2 + 120 p_1_3 + 120 p_1_4 + 120 p_1_5 + 120 p_1_6 + 120 p_1_7 + 120 p_1_8 + 120 p_1_9 + 281.85411348267581 x_1_0_1 + 237.57958671191969 x_1_0_10 + 178.68881538830115 x_1_0_2 + 354.97911646689187 x_1_0_3 + 312.62666785306851 x_1_0_4 + 218.19457195101299 x_1_0_5 + 265.30845922358463 x_1_0_6 + 320.34472691024331 x_1_0_7 + 230.53473617169973 x_1_0_8 + 244.02536845262901 x_1_0_9 + 237.57958671191969 x_1_10_0 + 107.48775733900591 x_1_10_1 + 353.41902081124385 x_1_10_2 + 510.86960475605753 x_1_10_3 + 88.718841594064784 x_1_10_4 + 408.40835214273187 x_1_10_5 + 476.79675197302703 x_1_10_6 + 83.130327155127517 x_1_10_7 + 383.66051747225885 x_1_10_8 + 410.25461175927148 x_1_10_9 + 281.85411348267581 x_1_1_0 + 107.48775733900591 x_1_1_10 + 430.58176340600397 x_1_1_2 + 475.52961070612673 x_1_1_3 + 165.42581006334879 x_1_1_4 + 482.23196966922569 x_1_1_5 + 476.41014118002721 x_1_1_6 + 127.97285523469451 x_1_1_7 + 468.36864165308151 x_1_1_8 + 388.5670047300776 x_1_1_9 + 178.68881538830115 x_1_2_0 + 430.58176340600397 x_1_2_1 + 353.41902081124385 x_1_2_10 + 483.60575268188001 x_1_2_3 + 399.45799299068204 x_1_2_4 + 56.542930572720316 x_1_2_5 + 348.51582587548768 x_1_2_6 + 425.29157829184851 x_1_2_7 + 55.267056810119719 x_1_2_8 + 380.53090739749092 x_1_2_9 + 354.97911646689187 x_1_3_0 + 475.52961070612673 x_1_3_1 + 510.86960475605753 x_1_3_10 + 483.60575268188001 x_1_3_2 + 599.58665659319854 x_1_3_4 + 488.98560005076297 x_1_3_5 + 160.78742335837774 x_1_3_6 + 583.23155530036081 x_1_3_7 + 537.62426286602204 x_1_3_8 + 111.05626202174432 x_1_3_9 + 312.62666785306851 x_1_4_0 + 165.42581006334879 x_1_4_1 + 88.718841594064784 x_1_4_10 + 399.45799299068204 x_1_4_2 + 599.58665659319854 x_1_4_3 + 455.93720490919372 x_1_4_5 + 561.87273278258442 x_1_4_6 + 46.687019913901423 x_1_4_7 + 419.76533679876781 x_1_4_8 + 498.63849666694676 x_1_4_9 + 218.19457195101299 x_1_5_0 + 482.23196966922569 x_1_5_1 + 408.40835214273187 x_1_5_10 + 56.542930572720316 x_1_5_2 + 488.98560005076297 x_1_5_3 + 455.93720490919372 x_1_5_4 + 343.18537397750879 x_1_5_6 + 481.3096824217464 x_1_5_7 + 68.066651896693571 x_1_5_8 + 392.08962723226364 x_1_5_9 + 265.30845922358463 x_1_6_0 + 476.41014118002721 x_1_6_1 + 476.79675197302703 x_1_6_10 + 348.51582587548768 x_1_6_2 + 160.78742335837774 x_1_6_3 + 561.87273278258442 x_1_6_4 + 343.18537397750879 x_1_6_5 + 558.00047683474713 x_1_6_7 + 399.26432563459042 x_1_6_8 + 116.63490277691291 x_1_6_9 + 320.34472691024331 x_1_7_0 + 127.97285523469451 x_1_7_1 + 83.130327155127517 x_1_7_10 + 425.29157829184851 x_1_7_2 + 583.23155530036081 x_1_7_3 + 46.687019913901423 x_1_7_4 + 481.3096824217464 x_1_7_5 + 558.00047683474713 x_1_7_6 + 450.04303577132879 x_1_7_8 + 486.43497069112664 x_1_7_9 + 230.53473617169973 x_1_8_0 + 468.36864165308151 x_1_8_1 + 383.66051747225885 x_1_8_10 + 55.267056810119719 x_1_8_2 + 537.62426286602204 x_1_8_3 + 419.76533679876781 x_1_8_4 + 68.066651896693571 x_1_8_5 + 399.26432563459042 x_1_8_6 + 450.04303577132879 x_1_8_7 + 435.40105202540258 x_1_8_9 + 244.02536845262901 x_1_9_0 + 388.5670047300776 x_1_9_1 + 410.25461175927148 x_1_9_10 + 380.53090739749092 x_1_9_2 + 111.05626202174432 x_1_9_3 + 498.63849666694676 x_1_9_4 + 392.08962723226364 x_1_9_5 + 116.63490277691291 x_1_9_6 + 486.43497069112664 x_1_9_7 + 435.40105202540258 x_1_9_8 <= 2400
 c951: p_2_1 - 20 z_2_1 <= 0
 c952: d_2_1 - 16 z_2_1 <= 0
 c953: mode_2_1 - z_2_1 <= 0
 c954: - 20 mode_2_1 + p_2_1 <= 0
 c955: d_2_1 + 16 mode_2_1 - 16 z_2_1 <= 0
 c956: d_2_1 + p_2_1 - z_2_1 >= 0
 c957: load_2_1 - 20 z_2_1 <= 0
 c958: p_2_2 - 3 z_2_2 <= 0
 c959: d_2_2 - 20 z_2_2 <= 0
 c960: mode_2_2 - z_2_2 <= 0
 c961: - 3 mode_2_2 + p_2_2 <= 0
 c962: d_2_2 + 20 mode_2_2 - 20 z_2_2 <= 0
 c963: d_2_2 + p_2_2 - z_2_2 >= 0
 c964: load_2_2 - 20 z_2_2 <= 0
 c965: p_2_3 - 20 z_2_3 <= 0
 c966: d_2_3 - 17 z_2_3 <= 0
 c967: mode_2_3 - z_2_3 <= 0
 c968: - 20 mode_2_3 + p_2_3 <= 0
 c969: d_2_3 + 17 mode_2_3 - 17 z_2_3 <= 0
 c970: d_2_3 + p_2_3 - z_2_3 >= 0
 c971: load_2_3 - 20 z_2_3 <= 0
 c972: p_2_4 - 20 z_2_4 <= 0
 c973: d_2_4 - 9 z_2_4 <= 0
 c974: mode_2_4 - z_2_4 <= 0
 c975: - 20 mode_2_4 + p_2_4 <= 0
 c976: d_2_4 + 9 mode_2_4 - 9 z_2_4 <= 0
 c977: d_2_4 + p_2_4 - z_2_4 >= 0
 c978: load_2_4 - 20 z_2_4 <= 0
 c979: p_2_5 - 14 z_2_5 <= 0
 c980: d_2_5 - 20 z_2_5 <= 0
 c981: mode_2_5 - z_2_5 <= 0
 c982: - 14 mode_2_5 + p_2_5 <= 0
 c983: d_2_5 + 20 mode_2_5 - 20 z_2_5 <= 0
 c984: d_2_5 + p_2_5 - z_2_5 >= 0
 c985: load_2_5 - 20 z_2_5 <= 0
 c986: p_2_6 - 20 z_2_6 <= 0
 c987: d_2_6 - 2 z_2_6 <= 0
 c988: mode_2_6 - z_2_6 <= 0
 c989: - 20 mode_2_6 + p_2_6 <= 0
 c990: d_2_6 + 2 mode_2_6 - 2 z_2_6 <= 0
 c991: d_2_6 + p_2_6 - z_2_6 >= 0
 c992: load_2_6 - 20 z_2_6 <= 0
 c993: p_2_7 - 17 z_2_7 <= 0
 c994: d_2_7 - 20 z_2_7 <= 0
 c995: mode_2_7 - z_2_7 <= 0
 c996: - 17 mode_2_7 + p_2_7 <= 0
 c997: d_2_7 + 20 mode_2_7 - 20 z_2_7 <= 0
 c998: d_2_7 + p_2_7 - z_2_7 >= 0
 c999: load_2_7 - 20 z_2_7 <= 0
 c1000: p_2_8 - 19 z_2_8 <= 0
 c1001: d_2_8 - 6 z_2_8 <= 0
 c1002: mode_2_8 - z_2_8 <= 0
 c1003: - 19 mode_2_8 + p_2_8 <= 0
 c1004: d_2_8 + 6 mode_2_8 - 6 z_2_8 <= 0
 c1005: d_2_8 + p_2_8 - z_2_8 >= 0
 c1006: load_2_8 - 20 z_2_8 <= 0
 c1007: p_2_9 - 20 z_2_9 <= 0
 c1008: d_2_9 - 12 z_2_9 <= 0
 c1009: mode_2_9 - z_2_9 <= 0
 c1010: - 20 mode_2_9 + p_2_9 <= 0
 c1011: d_2_9 + 12 mode_2_9 - 12 z_2_9 <= 0
 c1012: d_2_9 + p_2_9 - z_2_9 >= 0
 c1013: load_2_9 - 20 z_2_9 <= 0
 c1014: p_2_10 - 20 z_2_10 <= 0
 c1015: d_2_10 - 12 z_2_10 <= 0
 c1016: mode_2_10 - z_2_10 <= 0
 c1017: - 20 mode_2_10 + p_2_10 <= 0
 c1018: d_2_10 + 12 mode_2_10 - 12 z_2_10 <= 0
 c1019: d_2_10 + p_2_10 - z_2_10 >= 0
 c1020: load_2_10 - 20 z_2_10 <= 0
 c1021: d_2_1 + load_2_1 - p_2_1 + 20 x_2_0_1 <= 20
 c1022: d_2_1 + load_2_1 - p_2_1 - 20 x_2_0_1 >= -20
 c1023: d_2_2 + load_2_2 - p_2_2 + 20 x_2_0_2 <= 20
 c1024: d_2_2 + load_2_2 - p_2_2 - 20 x_2_0_2 >= -20
 c1025: d_2_3 + load_2_3 - p_2_3 + 20 x_2_0_3 <= 20
 c1026: d_2_3 + load_2_3 - p_2_3 - 20 x_2_0_3 >= -20
 c1027: d_2_4 + load_2_4 - p_2_4 + 20 x_2_0_4 <= 20
 c1028: d_2_4 + load_2_4 - p_2_4 - 20 x_2_0_4 >= -20
 c1029: d_2_5 + load_2_5 - p_2_5 + 20 x_2_0_5 <= 20
 c1030: d_2_5 + load_2_5 - p_2_5 - 20 x_2_0_5 >= -20
 c1031: d_2_6 + load_2_6 - p_2_6 + 20 x_2_0_6 <= 20
 c1032: d_2_6 + load_2_6 - p_2_6 - 20 x_2_0_6 >= -20
 c1033: d_2_7 + load_2_7 - p_2_7 + 20 x_2_0_7 <= 20
 c1034: d_2_7 + load_2_7 - p_2_7 - 20 x_2_0_7 >= -20
 c1035: d_2_8 + load_2_8 - p_2_8 + 20 x_2_0_8 <= 20
 c1036: d_2_8 + load_2_8 - p_2_8 - 20 x_2_0_8 >= -20
 c1037: d_2_9 + load_2_9 - p_2_9 + 20 x_2_0_9 <= 20
 c1038: d_2_9 + load_2_9 - p_2_9 - 20 x_2_0_9 >= -20
 c1039: d_2_10 + load_2_10 - p_2_10 + 20 x_2_0_10 <= 20
 c1040: d_2_10 + load_2_10 - p_2_10 - 20 x_2_0_10 >= -20
 c1041: d_2_2 - load_2_1 + load_2_2 - p_2_2 + 20 x_2_1_2 <= 20
 c1042: d_2_2 - load_2_1 + load_2_2 - p_2_2 - 20 x_2_1_2 >= -20
 c1043: d_2_3 - load_2_1 + load_2_3 - p_2_3 + 20 x_2_1_3 <= 20
 c1044: d_2_3 - load_2_1 + load_2_3 - p_2_3 - 20 x_2_1_3 >= -20
 c1045: d_2_4 - load_2_1 + load_2_4 - p_2_4 + 20 x_2_1_4 <= 20
 c1046: d_2_4 - load_2_1 + load_2_4 - p_2_4 - 20 x_2_1_4 >= -20
 c1047: d_2_5 - load_2_1 + load_2_5 - p_2_5 + 20 x_2_1_5 <= 20
 c1048: d_2_5 - load_2_1 + load_2_5 - p_2_5 - 20 x_2_1_5 >= -20
 c1049: d_2_6 - load_2_1 + load_2_6 - p_2_6 + 20 x_2_1_6 <= 20
 c1050: d_2_6 - load_2_1 + load_2_6 - p_2_6 - 20 x_2_1_6 >= -20
 c1051: d_2_7 - load_2_1 + load_2_7 - p_2_7 + 20 x_2_1_7 <= 20
 c1052: d_2_7 - load_2_1 + load_2_7 - p_2_7 - 20 x_2_1_7 >= -20
 c1053: d_2_8 - load_2_1 + load_2_8 - p_2_8 + 20 x_2_1_8 <= 20
 c1054: d_2_8 - load_2_1 + load_2_8 - p_2_8 - 20 x_2_1_8 >= -20
 c1055: d_2_9 - load_2_1 + load_2_9 - p_2_9 + 20 x_2_1_9 <= 20
 c1056: d_2_9 - load_2_1 + load_2_9 - p_2_9 - 20 x_2_1_9 >= -20
 c1057: d_2_10 - load_2_1 + load_2_10 - p_2_10 + 20 x_2_1_10 <= 20
 c1058: d_2_10 - load_2_1 + load_2_10 - p_2_10 - 20 x_2_1_10 >= -20
 c1059: d_2_1 + load_2_1 - load_2_2 - p_2_1 + 20 x_2_2_1 <= 20
 c1060: d_2_1 + load_2_1 - load_2_2 - p_2_1 - 20 x_2_2_1 >= -20
 c1061: d_2_3 - load_2_2 + load_2_3 - p_2_3 + 20 x_2_2_3 <= 20
 c1062: d_2_3 - load_2_2 + load_2_3 - p_2_3 - 20 x_2_2_3 >= -20
 c1063: d_2_4 - load_2_2 + load_2_4 - p_2_4 + 20 x_2_2_4 <= 20
 c1064: d_2_4 - load_2_2 + load_2_4 - p_2_4 - 20 x_2_2_4 >= -20
 c1065: d_2_5 - load_2_2 + load_2_5 - p_2_5 + 20 x_2_2_5 <= 20
 c1066: d_2_5 - load_2_2 + load_2_5 - p_2_5 - 20 x_2_2_5 >= -20
 c1067: d_2_6 - load_2_2 + load_2_6 - p_2_6 + 20 x_2_2_6 <= 20
 c1068: d_2_6 - load_2_2 + load_2_6 - p_2_6 - 20 x_2_2_6 >= -20
 c1069: d_2_7 - load_2_2 + load_2_7 - p_2_7 + 20 x_2_2_7 <= 20
 c1070: d_2_7 - load_2_2 + load_2_7 - p_2_7 - 20 x_2_2_7 >= -20
 c1071: d_2_8 - load_2_2 + load_2_8 - p_2_8 + 20 x_2_2_8 <= 20
 c1072: d_2_8 - load_2_2 + load_2_8 - p_2_8 - 20 x_2_2_8 >= -20
 c1073: d_2_9 - load_2_2 + load_2_9 - p_2_9 + 20 x_2_2_9 <= 20
 c1074: d_2_9 - load_2_2 + load_2_9 - p_2_9 - 20 x_2_2_9 >= -20
 c1075: d_2_10 + load_2_10 - load_2_2 - p_2_10 + 20 x_2_2_10 <= 20
 c1076: d_2_10 + load_2_10 - load_2_2 - p_2_10 - 20 x_2_2_10 >= -20
 c1077: d_2_1 + load_2_1 - load_2_3 - p_2_1 + 20 x_2_3_1 <= 20
 c1078: d_2_1 + load_2_1 - load_2_3 - p_2_1 - 20 x_2_3_1 >= -20
 c1079: d_2_2 + load_2_2 - load_2_3 - p_2_2 + 20 x_2_3_2 <= 20
 c1080: d_2_2 + load_2_2 - load_2_3 - p_2_2 - 20 x_2_3_2 >= -20
 c1081: d_2_4 - load_2_3 + load_2_4 - p_2_4 + 20 x_2_3_4 <= 20
 c1082: d_2_4 - load_2_3 + load_2_4 - p_2_4 - 20 x_2_3_4 >= -20
 c1083: d_2_5 - load_2_3 + load_2_5 - p_2_5 + 20 x_2_3_5 <= 20
 c1084: d_2_5 - load_2_3 + load_2_5 - p_2_5 - 20 x_2_3_5 >= -20
 c1085: d_2_6 - load_2_3 + load_2_6 - p_2_6 + 20 x_2_3_6 <= 20
 c1086: d_2_6 - load_2_3 + load_2_6 - p_2_6 - 20 x_2_3_6 >= -20
 c1087: d_2_7 - load_2_3 + load_2_7 - p_2_7 + 20 x_2_3_7 <= 20
 c1088: d_2_7 - load_2_3 + load_2_7 - p_2_7 - 20 x_2_3_7 >= -20
 c1089: d_2_8 - load_2_3 + load_2_8 - p_2_8 + 20 x_2_3_8 <= 20
 c1090: d_2_8 - load_2_3 + load_2_8 - p_2_8 - 20 x_2_3_8 >= -20
 c1091: d_2_9 - load_2_3 + load_2_9 - p_2_9 + 20 x_2_3_9 <= 20
 c1092: d_2_9 - load_2_3 + load_2_9 - p_2_9 - 20 x_2_3_9 >= -20
 c1093: d_2_10 + load_2_10 - load_2_3 - p_2_10 + 20 x_2_3_10 <= 20
 c1094: d_2_10 + load_2_10 - load_2_3 - p_2_10 - 20 x_2_3_10 >= -20
 c1095: d_2_1 + load_2_1 - load_2_4 - p_2_1 + 20 x_2_4_1 <= 20
 c1096: d_2_1 + load_2_1 - load_2_4 - p_2_1 - 20 x_2_4_1 >= -20
 c1097: d_2_2 + load_2_2 - load_2_4 - p_2_2 + 20 x_2_4_2 <= 20
 c1098: d_2_2 + load_2_2 - load_2_4 - p_2_2 - 20 x_2_4_2 >= -20
 c1099: d_2_3 + load_2_3 - load_2_4 - p_2_3 + 20 x_2_4_3 <= 20
 c1100: d_2_3 + load_2_3 - load_2_4 - p_2_3 - 20 x_2_4_3 >= -20
 c1101: d_2_5 - load_2_4 + load_2_5 - p_2_5 + 20 x_2_4_5 <= 20
 c1102: d_2_5 - load_2_4 + load_2_5 - p_2_5 - 20 x_2_4_5 >= -20
 c1103: d_2_6 - load_2_4 + load_2_6 - p_2_6 + 20 x_2_4_6 <= 20
 c1104: d_2_6 - load_2_4 + load_2_6 - p_2_6 - 20 x_2_4_6 >= -20
 c1105: d_2_7 - load_2_4 + load_2_7 - p_2_7 + 20 x_2_4_7 <= 20
 c1106: d_2_7 - load_2_4 + load_2_7 - p_2_7 - 20 x_2_4_7 >= -20
 c1107: d_2_8 - load_2_4 + load_2_8 - p_2_8 + 20 x_2_4_8 <= 20
 c1108: d_2_8 - load_2_4 + load_2_8 - p_2_8 - 20 x_2_4_8 >= -20
 c1109: d_2_9 - load_2_4 + load_2_9 - p_2_9 + 20 x_2_4_9 <= 20
 c1110: d_2_9 - load_2_4 + load_2_9 - p_2_9 - 20 x_2_4_9 >= -20
 c1111: d_2_10 + load_2_10 - load_2_4 - p_2_10 + 20 x_2_4_10 <= 20
 c1112: d_2_10 + load_2_10 - load_2_4 - p_2_10 - 20 x_2_4_10 >= -20
 c1113: d_2_1 + load_2_1 - load_2_5 - p_2_1 + 20 x_2_5_1 <= 20
 c1114: d_2_1 + load_2_1 - load_2_5 - p_2_1 - 20 x_2_5_1 >= -20
 c1115: d_2_2 + load_2_2 - load_2_5 - p_2_2 + 20 x_2_5_2 <= 20
 c1116: d_2_2 + load_2_2 - load_2_5 - p_2_2 - 20 x_2_5_2 >= -20
 c1117: d_2_3 + load_2_3 - load_2_5 - p_2_3 + 20 x_2_5_3 <= 20
 c1118: d_2_3 + load_2_3 - load_2_5 - p_2_3 - 20 x_2_5_3 >= -20
 c1119: d_2_4 + load_2_4 - load_2_5 - p_2_4 + 20 x_2_5_4 <= 20
 c1120: d_2_4 + load_2_4 - load_2_5 - p_2_4 - 20 x_2_5_4 >= -20
 c1121: d_2_6 - load_2_5 + load_2_6 - p_2_6 + 20 x_2_5_6 <= 20
 c1122: d_2_6 - load_2_5 + load_2_6 - p_2_6 - 20 x_2_5_6 >= -20
 c1123: d_2_7 - load_2_5 + load_2_7 - p_2_7 + 20 x_2_5_7 <= 20
 c1124: d_2_7 - load_2_5 + load_2_7 - p_2_7 - 20 x_2_5_7 >= -20
 c1125: d_2_8 - load_2_5 + load_2_8 - p_2_8 + 20 x_2_5_8 <= 20
 c1126: d_2_8 - load_2_5 + load_2_8 - p_2_8 - 20 x_2_5_8 >= -20
 c1127: d_2_9 - load_2_5 + load_2_9 - p_2_9 + 20 x_2_5_9 <= 20
 c1128: d_2_9 - load_2_5 + load_2_9 - p_2_9 - 20 x_2_5_9 >= -20
 c1129: d_2_10 + load_2_10 - load_2_5 - p_2_10 + 20 x_2_5_10 <= 20
 c1130: d_2_10 + load_2_10 - load_2_5 - p_2_10 - 20 x_2_5_10 >= -20
 c1131: d_2_1 + load_2_1 - load_2_6 - p_2_1 + 20 x_2_6_1 <= 20
 c1132: d_2_1 + load_2_1 - load_2_6 - p_2_1 - 20 x_2_6_1 >= -20
 c1133: d_2_2 + load_2_2 - load_2_6 - p_2_2 + 20 x_2_6_2 <= 20
 c1134: d_2_2 + load_2_2 - load_2_6 - p_2_2 - 20 x_2_6_2 >= -20
 c1135: d_2_3 + load_2_3 - load_2_6 - p_2_3 + 20 x_2_6_3 <= 20
 c1136: d_2_3 + load_2_3 - load_2_6 - p_2_3 - 20 x_2_6_3 >= -20
 c1137: d_2_4 + load_2_4 - load_2_6 - p_2_4 + 20 x_2_6_4 <= 20
 c1138: d_2_4 + load_2_4 - load_2_6 - p_2_4 - 20 x_2_6_4 >= -20
 c1139: d_2_5 + load_2_5 - load_2_6 - p_2_5 + 20 x_2_6_5 <= 20
 c1140: d_2_5 + load_2_5 - load_2_6 - p_2_5 - 20 x_2_6_5 >= -20
 c1141: d_2_7 - load_2_6 + load_2_7 - p_2_7 + 20 x_2_6_7 <= 20
 c1142: d_2_7 - load_2_6 + load_2_7 - p_2_7 - 20 x_2_6_7 >= -20
 c1143: d_2_8 - load_2_6 + load_2_8 - p_2_8 + 20 x_2_6_8 <= 20
 c1144: d_2_8 - load_2_6 + load_2_8 - p_2_8 - 20 x_2_6_8 >= -20
 c1145: d_2_9 - load_2_6 + load_2_9 - p_2_9 + 20 x_2_6_9 <= 20
 c1146: d_2_9 - load_2_6 + load_2_9 - p_2_9 - 20 x_2_6_9 >= -20
 c1147: d_2_10 + load_2_10 - load_2_6 - p_2_10 + 20 x_2_6_10 <= 20
 c1148: d_2_10 + load_2_10 - load_2_6 - p_2_10 - 20 x_2_6_10 >= -20
 c1149: d_2_1 + load_2_1 - load_2_7 - p_2_1 + 20 x_2_7_1 <= 20
 c1150: d_2_1 + load_2_1 - load_2_7 - p_2_1 - 20 x_2_7_1 >= -20
 c1151: d_2_2 + load_2_2 - load_2_7 - p_2_2 + 20 x_2_7_2 <= 20
 c1152: d_2_2 + load_2_2 - load_2_7 - p_2_2 - 20 x_2_7_2 >= -20
 c1153: d_2_3 + load_2_3 - load_2_7 - p_2_3 + 20 x_2_7_3 <= 20
 c1154: d_2_3 + load_2_3 - load_2_7 - p_2_3 - 20 x_2_7_3 >= -20
 c1155: d_2_4 + load_2_4 - load_2_7 - p_2_4 + 20 x_2_7_4 <= 20
 c1156: d_2_4 + load_2_4 - load_2_7 - p_2_4 - 20 x_2_7_4 >= -20
 c1157: d_2_5 + load_2_5 - load_2_7 - p_2_5 + 20 x_2_7_5 <= 20
 c1158: d_2_5 + load_2_5 - load_2_7 - p_2_5 - 20 x_2_7_5 >= -20
 c1159: d_2_6 + load_2_6 - load_2_7 - p_2_6 + 20 x_2_7_6 <= 20
 c1160: d_2_6 + load_2_6 - load_2_7 - p_2_6 - 20 x_2_7_6 >= -20
 c1161: d_2_8 - load_2_7 + load_2_8 - p_2_8 + 20 x_2_7_8 <= 20
 c1162: d_2_8 - load_2_7 + load_2_8 - p_2_8 - 20 x_2_7_8 >= -20
 c1163: d_2_9 - load_2_7 + load_2_9 - p_2_9 + 20 x_2_7_9 <= 20
 c1164: d_2_9 - load_2_7 + load_2_9 - p_2_9 - 20 x_2_7_9 >= -20
 c1165: d_2_10 + load_2_10 - load_2_7 - p_2_10 + 20 x_2_7_10 <= 20
 c1166: d_2_10 + load_2_10 - load_2_7 - p_2_10 - 20 x_2_7_10 >= -20
 c1167: d_2_1 + load_2_1 - load_2_8 - p_2_1 + 20 x_2_8_1 <= 20
 c1168: d_2_1 + load_2_1 - load_2_8 - p_2_1 - 20 x_2_8_1 >= -20
 c1169: d_2_2 + load_2_2 - load_2_8 - p_2_2 + 20 x_2_8_2 <= 20
 c1170: d_2_2 + load_2_2 - load_2_8 - p_2_2 - 20 x_2_8_2 >= -20
 c1171: d_2_3 + load_2_3 - load_2_8 - p_2_3 + 20 x_2_8_3 <= 20
 c1172: d_2_3 + load_2_3 - load_2_8 - p_2_3 - 20 x_2_8_3 >= -20
 c1173: d_2_4 + load_2_4 - load_2_8 - p_2_4 + 20 x_2_8_4 <= 20
 c1174: d_2_4 + load_2_4 - load_2_8 - p_2_4 - 20 x_2_8_4 >= -20
 c1175: d_2_5 + load_2_5 - load_2_8 - p_2_5 + 20 x_2_8_5 <= 20
 c1176: d_2_5 + load_2_5 - load_2_8 - p_2_5 - 20 x_2_8_5 >= -20
 c1177: d_2_6 + load_2_6 - load_2_8 - p_2_6 + 20 x_2_8_6 <= 20
 c1178: d_2_6 + load_2_6 - load_2_8 - p_2_6 - 20 x_2_8_6 >= -20
 c1179: d_2_7 + load_2_7 - load_2_8 - p_2_7 + 20 x_2_8_7 <= 20
 c1180: d_2_7 + load_2_7 - load_2_8 - p_2_7 - 20 x_2_8_7 >= -20
 c1181: d_2_9 - load_2_8 + load_2_9 - p_2_9 + 20 x_2_8_9 <= 20
 c1182: d_2_9 - load_2_8 + load_2_9 - p_2_9 - 20 x_2_8_9 >= -20
 c1183: d_2_10 + load_2_10 - load_2_8 - p_2_10 + 20 x_2_8_10 <= 20
 c1184: d_2_10 + load_2_10 - load_2_8 - p_2_10 - 20 x_2_8_10 >= -20
 c1185: d_2_1 + load_2_1 - load_2_9 - p_2_1 + 20 x_2_9_1 <= 20
 c1186: d_2_1 + load_2_1 - load_2_9 - p_2_1 - 20 x_2_9_1 >= -20
 c1187: d_2_2 + load_2_2 - load_2_9 - p_2_2 + 20 x_2_9_2 <= 20
 c1188: d_2_2 + load_2_2 - load_2_9 - p_2_2 - 20 x_2_9_2 >= -20
 c1189: d_2_3 + load_2_3 - load_2_9 - p_2_3 + 20 x_2_9_3 <= 20
 c1190: d_2_3 + load_2_3 - load_2_9 - p_2_3 - 20 x_2_9_3 >= -20
 c1191: d_2_4 + load_2_4 - load_2_9 - p_2_4 + 20 x_2_9_4 <= 20
 c1192: d_2_4 + load_2_4 - load_2_9 - p_2_4 - 20 x_2_9_4 >= -20
 c1193: d_2_5 + load_2_5 - load_2_9 - p_2_5 + 20 x_2_9_5 <= 20
 c1194: d_2_5 + load_2_5 - load_2_9 - p_2_5 - 20 x_2_9_5 >= -20
 c1195: d_2_6 + load_2_6 - load_2_9 - p_2_6 + 20 x_2_9_6 <= 20
 c1196: d_2_6 + load_2_6 - load_2_9 - p_2_6 - 20 x_2_9_6 >= -20
 c1197: d_2_7 + load_2_7 - load_2_9 - p_2_7 + 20 x_2_9_7 <= 20
 c1198: d_2_7 + load_2_7 - load_2_9 - p_2_7 - 20 x_2_9_7 >= -20
 c1199: d_2_8 + load_2_8 - load_2_9 - p_2_8 + 20 x_2_9_8 <= 20
 c1200: d_2_8 + load_2_8 - load_2_9 - p_2_8 - 20 x_2_9_8 >= -20
 c1201: d_2_10 + load_2_10 - load_2_9 - p_2_10 + 20 x_2_9_10 <= 20
 c1202: d_2_10 + load_2_10 - load_2_9 - p_2_10 - 20 x_2_9_10 >= -20
 c1203: d_2_1 + load_2_1 - load_2_10 - p_2_1 + 20 x_2_10_1 <= 20
 c1204: d_2_1 + load_2_1 - load_2_10 - p_2_1 - 20 x_2_10_1 >= -20
 c1205: d_2_2 - load_2_10 + load_2_2 - p_2_2 + 20 x_2_10_2 <= 20
 c1206: d_2_2 - load_2_10 + load_2_2 - p_2_2 - 20 x_2_10_2 >= -20
 c1207: d_2_3 - load_2_10 + load_2_3 - p_2_3 + 20 x_2_10_3 <= 20
 c1208: d_2_3 - load_2_10 + load_2_3 - p_2_3 - 20 x_2_10_3 >= -20
 c1209: d_2_4 - load_2_10 + load_2_4 - p_2_4 + 20 x_2_10_4 <= 20
 c1210: d_2_4 - load_2_10 + load_2_4 - p_2_4 - 20 x_2_10_4 >= -20
 c1211: d_2_5 - load_2_10 + load_2_5 - p_2_5 + 20 x_2_10_5 <= 20
 c1212: d_2_5 - load_2_10 + load_2_5 - p_2_5 - 20 x_2_10_5 >= -20
 c1213: d_2_6 - load_2_10 + load_2_6 - p_2_6 + 20 x_2_10_6 <= 20
 c1214: d_2_6 - load_2_10 + load_2_6 - p_2_6 - 20 x_2_10_6 >= -20
 c1215: d_2_7 - load_2_10 + load_2_7 - p_2_7 + 20 x_2_10_7 <= 20
 c1216: d_2_7 - load_2_10 + load_2_7 - p_2_7 - 20 x_2_10_7 >= -20
 c1217: d_2_8 - load_2_10 + load_2_8 - p_2_8 + 20 x_2_10_8 <= 20
 c1218: d_2_8 - load_2_10 + load_2_8 - p_2_8 - 20 x_2_10_8 >= -20
 c1219: d_2_9 - load_2_10 + load_2_9 - p_2_9 + 20 x_2_10_9 <= 20
 c1220: d_2_9 - load_2_10 + load_2_9 - p_2_9 - 20 x_2_10_9 >= -20
 c1221: - d_2_1 - d_2_10 - d_2_2 - d_2_3 - d_2_4 - d_2_5 - d_2_6 - d_2_7 - d_2_8 - d_2_9 + p_2_1 + p_2_10 + p_2_2 + p_2_3 + p_2_4 + p_2_5 + p_2_6 + p_2_7 + p_2_8 + p_2_9 >= 0
 c1222: 120 p_2_1 + 120 p_2_10 + 120 p_2_2 + 120 p_2_3 + 120 p_2_4 + 120 p_2_5 + 120 p_2_6 + 120 p_2_7 + 120 p_2_8 + 120 p_2_9 + 281.85411348267581 x_2_0_1 + 237.57958671191969 x_2_0_10 + 178.68881538830115 x_2_0_2 + 354.97911646689187 x_2_0_3 + 312.62666785306851 x_2_0_4 + 218.19457195101299 x_2_0_5 + 265.30845922358463 x_2_0_6 + 320.34472691024331 x_2_0_7 + 230.53473617169973 x_2_0_8 + 244.02536845262901 x_2_0_9 + 237.57958671191969 x_2_10_0 + 107.48775733900591 x_2_10_1 + 353.41902081124385 x_2_10_2 + 510.86960475605753 x_2_10_3 + 88.718841594064784 x_2_10_4 + 408.40835214273187 x_2_10_5 + 476.79675197302703 x_2_10_6 + 83.130327155127517 x_2_10_7 + 383.66051747225885 x_2_10_8 + 410.25461175927148 x_2_10_9 + 281.85411348267581 x_2_1_0 + 107.48775733900591 x_2_1_10 + 430.58176340600397 x_2_1_2 + 475.52961070612673 x_2_1_3 + 165.42581006334879 x_2_1_4 + 482.23196966922569 x_2_1_5 + 476.41014118002721 x_2_1_6 + 127.97285523469451 x_2_1_7 + 468.36864165308151 x_2_1_8 + 388.5670047300776 x_2_1_9 + 178.68881538830115 x_2_2_0 + 430.58176340600397 x_2_2_1 + 353.41902081124385 x_2_2_10 + 483.60575268188001 x_2_2_3 + 399.45799299068204 x_2_2_4 + 56.542930572720316 x_2_2_5 + 348.51582587548768 x_2_2_6 + 425.29157829184851 x_2_2_7 + 55.267056810119719 x_2_2_8 + 380.53090739749092 x_2_2_9 + 354.97911646689187 x_2_3_0 + 475.52961070612673 x_2_3_1 + 510.86960475605753 x_2_3_10 + 483.60575268188001 x_2_3_2 + 599.58665659319854 x_2_3_4 + 488.98560005076297 x_2_3_5 + 160.78742335837774 x_2_3_6 + 583.23155530036081 x_2_3_7 + 537.62426286602204 x_2_3_8 + 111.05626202174432 x_2_3_9 + 312.62666785306851 x_2_4_0 + 165.42581006334879 x_2_4_1 + 88.718841594064784 x_2_4_10 + 399.45799299068204 x_2_4_2 + 599.58665659319854 x_2_4_3 + 455.93720490919372 x_2_4_5 + 561.87273278258442 x_2_4_6 + 46.687019913901423 x_2_4_7 + 419.76533679876781 x_2_4_8 + 498.63849666694676 x_2_4_9 + 218.19457195101299 x_2_5_0 + 482.23196966922569 x_2_5_1 + 408.40835214273187 x_2_5_10 + 56.542930572720316 x_2_5_2 + 488.98560005076297 x_2_5_3 + 455.93720490919372 x_2_5_4 + 343.18537397750879 x_2_5_6 + 481.3096824217464 x_2_5_7 + 68.066651896693571 x_2_5_8 + 392.08962723226364 x_2_5_9 + 265.30845922358463 x_2_6_0 + 476.41014118002721 x_2_6_1 + 476.79675197302703 x_2_6_10 + 348.51582587548768 x_2_6_2 + 160.78742335837774 x_2_6_3 + 561.87273278258442 x_2_6_4 + 343.18537397750879 x_2_6_5 + 558.00047683474713 x_2_6_7 + 399.26432563459042 x_2_6_8 + 116.63490277691291 x_2_6_9 + 320.34472691024331 x_2_7_0 + 127.97285523469451 x_2_7_1 + 83.130327155127517 x_2_7_10 + 425.29157829184851 x_2_7_2 + 583.23155530036081 x_2_7_3 + 46.687019913901423 x_2_7_4 + 481.3096824217464 x_2_7_5 + 558.00047683474713 x_2_7_6 + 450.04303577132879 x_2_7_8 + 486.43497069112664 x_2_7_9 + 230.53473617169973 x_2_8_0 + 468.36864165308151 x_2_8_1 + 383.66051747225885 x_2_8_10 + 55.267056810119719 x_2_8_2 + 537.62426286602204 x_2_8_3 + 419.76533679876781 x_2_8_4 + 68.066651896693571 x_2_8_5 + 399.26432563459042 x_2_8_6 + 450.04303577132879 x_2_8_7 + 435.40105202540258 x_2_8_9 + 244.02536845262901 x_2_9_0 + 388.5670047300776 x_2_9_1 + 410.25461175927148 x_2_9_10 + 380.53090739749092 x_2_9_2 + 111.05626202174432 x_2_9_3 + 498.63849666694676 x_2_9_4 + 392.08962723226364 x_2_9_5 + 116.63490277691291 x_2_9_6 + 486.43497069112664 x_2_9_7 + 435.40105202540258 x_2_9_8 <= 2400
 c1223: Y_1 - d_0_1 - d_1_1 - d_2_1 + p_0_1 + p_1_1 + p_2_1 = 28
 c1224: - 0.030303030303030304 Y_1 + r_1 = 0
 c1225: e_1 - r_1 >= -1
 c1226: e_1 + r_1 >= 1
 c1227: Y_2 - d_0_2 - d_1_2 - d_2_2 + p_0_2 + p_1_2 + p_2_2 = 3
 c1228: - 0.030303030303030304 Y_2 + r_2 = 0
 c1229: e_2 - r_2 >= -1
 c1230: e_2 + r_2 >= 1
 c1231: Y_3 - d_0_3 - d_1_3 - d_2_3 + p_0_3 + p_1_3 + p_2_3 = 20
 c1232: - 0.038461538461538464 Y_3 + r_3 = 0
 c1233: e_3 - r_3 >= -1
 c1234: e_3 + r_3 >= 1
 c1235: Y_4 - d_0_4 - d_1_4 - d_2_4 + p_0_4 + p_1_4 + p_2_4 = 20
 c1236: - 0.041666666666666664 Y_4 + r_4 = 0
 c1237: e_4 - r_4 >= -1
 c1238: e_4 + r_4 >= 1
 c1239: Y_5 - d_0_5 - d_1_5 - d_2_5 + p_0_5 + p_1_5 + p_2_5 = 14
 c1240: - 0.035714285714285712 Y_5 + r_5 = 0
 c1241: e_5 - r_5 >= -1
 c1242: e_5 + r_5 >= 1
 c1243: Y_6 - d_0_6 - d_1_6 - d_2_6 + p_0_6 + p_1_6 + p_2_6 = 28
 c1244: - 0.047619047619047616 Y_6 + r_6 = 0
 c1245: e_6 - r_6 >= -1
 c1246: e_6 + r_6 >= 1
 c1247: Y_7 - d_0_7 - d_1_7 - d_2_7 + p_0_7 + p_1_7 + p_2_7 = 17
 c1248: - 0.5 Y_7 + r_7 = 0
 c1249: e_7 - r_7 >= -1
 c1250: e_7 + r_7 >= 1
 c1251: Y_8 - d_0_8 - d_1_8 - d_2_8 + p_0_8 + p_1_8 + p_2_8 = 19
 c1252: - 0.071428571428571425 Y_8 + r_8 = 0
 c1253: e_8 - r_8 >= -1
 c1254: e_8 + r_8 >= 1
 c1255: Y_9 - d_0_9 - d_1_9 - d_2_9 + p_0_9 + p_1_9 + p_2_9 = 33
 c1256: - 0.33333333333333331 Y_9 + r_9 = 0
 c1257: e_9 - r_9 >= -1
 c1258: e_9 + r_9 >= 1
 c1259: Y_10 - d_0_10 - d_1_10 - d_2_10 + p_0_10 + p_1_10 + p_2_10 = 33
 c1260: - 0.052631578947368418 Y_10 + r_10 = 0
 c1261: e_10 - r_10 >= -1
 c1262: e_10 + r_10 >= 1
 c1263: h_1_2 - r_1 + r_2 >= 0
 c1264: h_1_2 + r_1 - r_2 >= 0
 c1265: h_1_3 - r_1 + r_3 >= 0
 c1266: h_1_3 + r_1 - r_3 >= 0
 c1267: h_1_4 - r_1 + r_4 >= 0
 c1268: h_1_4 + r_1 - r_4 >= 0
 c1269: h_1_5 - r_1 + r_5 >= 0
 c1270: h_1_5 + r_1 - r_5 >= 0
 c1271: h_1_6 - r_1 + r_6 >= 0
 c1272: h_1_6 + r_1 - r_6 >= 0
 c1273: h_1_7 - r_1 + r_7 >= 0
 c1274: h_1_7 + r_1 - r_7 >= 0
 c1275: h_1_8 - r_1 + r_8 >= 0
 c1276: h_1_8 + r_1 - r_8 >= 0
 c1277: h_1_9 - r_1 + r_9 >= 0
 c1278: h_1_9 + r_1 - r_9 >= 0
 c1279: h_1_10 - r_1 + r_10 >= 0
 c1280: h_1_10 + r_1 - r_10 >= 0
 c1281: h_2_3 - r_2 + r_3 >= 0
 c1282: h_2_3 + r_2 - r_3 >= 0
 c1283: h_2_4 - r_2 + r_4 >= 0
 c1284: h_2_4 + r_2 - r_4 >= 0
 c1285: h_2_5 - r_2 + r_5 >= 0
 c1286: h_2_5 + r_2 - r_5 >= 0
 c1287: h_2_6 - r_2 + r_6 >= 0
 c1288: h_2_6 + r_2 - r_6 >= 0
 c1289: h_2_7 - r_2 + r_7 >= 0
 c1290: h_2_7 + r_2 - r_7 >= 0
 c1291: h_2_8 - r_2 + r_8 >= 0
 c1292: h_2_8 + r_2 - r_8 >= 0
 c1293: h_2_9 - r_2 + r_9 >= 0
 c1294: h_2_9 + r_2 - r_9 >= 0
 c1295: h_2_10 + r_10 - r_2 >= 0
 c1296: h_2_10 - r_10 + r_2 >= 0
 c1297: h_3_4 - r_3 + r_4 >= 0
 c1298: h_3_4 + r_3 - r_4 >= 0
 c1299: h_3_5 - r_3 + r_5 >= 0
 c1300: h_3_5 + r_3 - r_5 >= 0
 c1301: h_3_6 - r_3 + r_6 >= 0
 c1302: h_3_6 + r_3 - r_6 >= 0
 c1303: h_3_7 - r_3 + r_7 >= 0
 c1304: h_3_7 + r_3 - r_7 >= 0
 c1305: h_3_8 - r_3 + r_8 >= 0
 c1306: h_3_8 + r_3 - r_8 >= 0
 c1307: h_3_9 - r_3 + r_9 >= 0
 c1308: h_3_9 + r_3 - r_9 >= 0
 c1309: h_3_10 + r_10 - r_3 >= 0
 c1310: h_3_10 - r_10 + r_3 >= 0
 c1311: h_4_5 - r_4 + r_5 >= 0
 c1312: h_4_5 + r_4 - r_5 >= 0
 c1313: h_4_6 - r_4 + r_6 >= 0
 c1314: h_4_6 + r_4 - r_6 >= 0
 c1315: h_4_7 - r_4 + r_7 >= 0
 c1316: h_4_7 + r_4 - r_7 >= 0
 c1317: h_4_8 - r_4 + r_8 >= 0
 c1318: h_4_8 + r_4 - r_8 >= 0
 c1319: h_4_9 - r_4 + r_9 >= 0
 c1320: h_4_9 + r_4 - r_9 >= 0
 c1321: h_4_10 + r_10 - r_4 >= 0
 c1322: h_4_10 - r_10 + r_4 >= 0
 c1323: h_5_6 - r_5 + r_6 >= 0
 c1324: h_5_6 + r_5 - r_6 >= 0
 c1325: h_5_7 - r_5 + r_7 >= 0
 c1326: h_5_7 + r_5 - r_7 >= 0
 c1327: h_5_8 - r_5 + r_8 >= 0
 c1328: h_5_8 + r_5 - r_8 >= 0
 c1329: h_5_9 - r_5 + r_9 >= 0
 c1330: h_5_9 + r_5 - r_9 >= 0
 c1331: h_5_10 + r_10 - r_5 >= 0
 c1332: h_5_10 - r_10 + r_5 >= 0
 c1333: h_6_7 - r_6 + r_7 >= 0
 c1334: h_6_7 + r_6 - r_7 >= 0
 c1335: h_6_8 - r_6 + r_8 >= 0
 c1336: h_6_8 + r_6 - r_8 >= 0
 c1337: h_6_9 - r_6 + r_9 >= 0
 c1338: h_6_9 + r_6 - r_9 >= 0
 c1339: h_6_10 + r_10 - r_6 >= 0
 c1340: h_6_10 - r_10 + r_6 >= 0
 c1341: h_7_8 - r_7 + r_8 >= 0
 c1342: h_7_8 + r_7 - r_8 >= 0
 c1343: h_7_9 - r_7 + r_9 >= 0
 c1344: h_7_9 + r_7 - r_9 >= 0
 c1345: h_7_10 + r_10 - r_7 >= 0
 c1346: h_7_10 - r_10 + r_7 >= 0
 c1347: h_8_9 - r_8 + r_9 >= 0
 c1348: h_8_9 + r_8 - r_9 >= 0
 c1349: h_8_10 + r_10 - r_8 >= 0
 c1350: h_8_10 - r_10 + r_8 >= 0
 c1351: h_9_10 + r_10 - r_9 >= 0
 c1352: h_9_10 - r_10 + r_9 >= 0
 c1353: Y_1 - bit_1_0 - 2 bit_1_1 - 4 bit_1_2 - 8 bit_1_3 - 16 bit_1_4 - 32 bit_1_5 = 0
 c1354: - prod_1_0 - 2 prod_1_1 - 4 prod_1_2 - 8 prod_1_3 - 16 prod_1_4 - 32 prod_1_5 + zprod_1 = 0
 c1355: - G + prod_1_0 <= 0
 c1356: - bit_1_0 + prod_1_0 <= 0
 c1357: - G - bit_1_0 + prod_1_0 >= -1
 c1358: - G + prod_1_1 <= 0
 c1359: - bit_1_1 + prod_1_1 <= 0
 c1360: - G - bit_1_1 + prod_1_1 >= -1
 c1361: - G + prod_1_2 <= 0
 c1362: - bit_1_2 + prod_1_2 <= 0
 c1363: - G - bit_1_2 + prod_1_2 >= -1
 c1364: - G + prod_1_3 <= 0
 c1365: - bit_1_3 + prod_1_3 <= 0
 c1366: - G - bit_1_3 + prod_1_3 >= -1
 c1367: - G + prod_1_4 <= 0
 c1368: - bit_1_4 + prod_1_4 <= 0
 c1369: - G - bit_1_4 + prod_1_4 >= -1
 c1370: - G + prod_1_5 <= 0
 c1371: - bit_1_5 + prod_1_5 <= 0
 c1372: - G - bit_1_5 + prod_1_5 >= -1
 c1373: Y_2 - bit_2_0 - 2 bit_2_1 - 4 bit_2_2 - 8 bit_2_3 - 16 bit_2_4 - 32 bit_2_5 = 0
 c1374: - prod_2_0 - 2 prod_2_1 - 4 prod_2_2 - 8 prod_2_3 - 16 prod_2_4 - 32 prod_2_5 + zprod_2 = 0
 c1375: - G + prod_2_0 <= 0
 c1376: - bit_2_0 + prod_2_0 <= 0
 c1377: - G - bit_2_0 + prod_2_0 >= -1
 c1378: - G + prod_2_1 <= 0
 c1379: - bit_2_1 + prod_2_1 <= 0
 c1380: - G - bit_2_1 + prod_2_1 >= -1
 c1381: - G + prod_2_2 <= 0
 c1382: - bit_2_2 + prod_2_2 <= 0
 c1383: - G - bit_2_2 + prod_2_2 >= -1
 c1384: - G + prod_2_3 <= 0
 c1385: - bit_2_3 + prod_2_3 <= 0
 c1386: - G - bit_2_3 + prod_2_3 >= -1
 c1387: - G + prod_2_4 <= 0
 c1388: - bit_2_4 + prod_2_4 <= 0
 c1389: - G - bit_2_4 + prod_2_4 >= -1
 c1390: - G + prod_2_5 <= 0
 c1391: - bit_2_5 + prod_2_5 <= 0
 c1392: - G - bit_2_5 + prod_2_5 >= -1
 c1393: Y_3 - bit_3_0 - 2 bit_3_1 - 4 bit_3_2 - 8 bit_3_3 - 16 bit_3_4 - 32 bit_3_5 = 0
 c1394: - prod_3_0 - 2 prod_3_1 - 4 prod_3_2 - 8 prod_3_3 - 16 prod_3_4 - 32 prod_3_5 + zprod_3 = 0
 c1395: - G + prod_3_0 <= 0
 c1396: - bit_3_0 + prod_3_0 <= 0
 c1397: - G - bit_3_0 + prod_3_0 >= -1
 c1398: - G + prod_3_1 <= 0
 c1399: - bit_3_1 + prod_3_1 <= 0
 c1400: - G - bit_3_1 + prod_3_1 >= -1
 c1401: - G + prod_3_2 <= 0
 c1402: - bit_3_2 + prod_3_2 <= 0
 c1403: - G - bit_3_2 + prod_3_2 >= -1
 c1404: - G + prod_3_3 <= 0
 c1405: - bit_3_3 + prod_3_3 <= 0
 c1406: - G - bit_3_3 + prod_3_3 >= -1
 c1407: - G + prod_3_4 <= 0
 c1408: - bit_3_4 + prod_3_4 <= 0
 c1409: - G - bit_3_4 + prod_3_4 >= -1
 c1410: - G + prod_3_5 <= 0
 c1411: - bit_3_5 + prod_3_5 <= 0
 c1412: - G - bit_3_5 + prod_3_5 >= -1
 c1413: Y_4 - bit_4_0 - 2 bit_4_1 - 4 bit_4_2 - 8 bit_4_3 - 16 bit_4_4 = 0
 c1414: - prod_4_0 - 2 prod_4_1 - 4 prod_4_2 - 8 prod_4_3 - 16 prod_4_4 + zprod_4 = 0
 c1415: - G + prod_4_0 <= 0
 c1416: - bit_4_0 + prod_4_0 <= 0
 c1417: - G - bit_4_0 + prod_4_0 >= -1
 c1418: - G + prod_4_1 <= 0
 c1419: - bit_4_1 + prod_4_1 <= 0
 c1420: - G - bit_4_1 + prod_4_1 >= -1
 c1421: - G + prod_4_2 <= 0
 c1422: - bit_4_2 + prod_4_2 <= 0
 c1423: - G - bit_4_2 + prod_4_2 >= -1
 c1424: - G + prod_4_3 <= 0
 c1425: - bit_4_3 + prod_4_3 <= 0
 c1426: - G - bit_4_3 + prod_4_3 >= -1
 c1427: - G + prod_4_4 <= 0
 c1428: - bit_4_4 + prod_4_4 <= 0
 c1429: - G - bit_4_4 + prod_4_4 >= -1
 c1430: Y_5 - bit_5_0 - 2 bit_5_1 - 4 bit_5_2 - 8 bit_5_3 - 16 bit_5_4 - 32 bit_5_5 = 0
 c1431: - prod_5_0 - 2 prod_5_1 - 4 prod_5_2 - 8 prod_5_3 - 16 prod_5_4 - 32 prod_5_5 + zprod_5 = 0
 c1432: - G + prod_5_0 <= 0
 c1433: - bit_5_0 + prod_5_0 <= 0
 c1434: - G - bit_5_0 + prod_5_0 >= -1
 c1435: - G + prod_5_1 <= 0
 c1436: - bit_5_1 + prod_5_1 <= 0
 c1437: - G - bit_5_1 + prod_5_1 >= -1
 c1438: - G + prod_5_2 <= 0
 c1439: - bit_5_2 + prod_5_2 <= 0
 c1440: - G - bit_5_2 + prod_5_2 >= -1
 c1441: - G + prod_5_3 <= 0
 c1442: - bit_5_3 + prod_5_3 <= 0
 c1443: - G - bit_5_3 + prod_5_3 >= -1
 c1444: - G + prod_5_4 <= 0
 c1445: - bit_5_4 + prod_5_4 <= 0
 c1446: - G - bit_5_4 + prod_5_4 >= -1
 c1447: - G + prod_5_5 <= 0
 c1448: - bit_5_5 + prod_5_5 <= 0
 c1449: - G - bit_5_5 + prod_5_5 >= -1
 c1450: Y_6 - bit_6_0 - 2 bit_6_1 - 4 bit_6_2 - 8 bit_6_3 - 16 bit_6_4 = 0
 c1451: - prod_6_0 - 2 prod_6_1 - 4 prod_6_2 - 8 prod_6_3 - 16 prod_6_4 + zprod_6 = 0
 c1452: - G + prod_6_0 <= 0
 c1453: - bit_6_0 + prod_6_0 <= 0
 c1454: - G - bit_6_0 + prod_6_0 >= -1
 c1455: - G + prod_6_1 <= 0
 c1456: - bit_6_1 + prod_6_1 <= 0
 c1457: - G - bit_6_1 + prod_6_1 >= -1
 c1458: - G + prod_6_2 <= 0
 c1459: - bit_6_2 + prod_6_2 <= 0
 c1460: - G - bit_6_2 + prod_6_2 >= -1
 c1461: - G + prod_6_3 <= 0
 c1462: - bit_6_3 + prod_6_3 <= 0
 c1463: - G - bit_6_3 + prod_6_3 >= -1
 c1464: - G + prod_6_4 <= 0
 c1465: - bit_6_4 + prod_6_4 <= 0
 c1466: - G - bit_6_4 + prod_6_4 >= -1
 c1467: Y_7 - bit_7_0 - 2 bit_7_1 - 4 bit_7_2 - 8 bit_7_3 - 16 bit_7_4 - 32 bit_7_5 = 0
 c1468: - prod_7_0 - 2 prod_7_1 - 4 prod_7_2 - 8 prod_7_3 - 16 prod_7_4 - 32 prod_7_5 + zprod_7 = 0
 c1469: - G + prod_7_0 <= 0
 c1470: - bit_7_0 + prod_7_0 <= 0
 c1471: - G - bit_7_0 + prod_7_0 >= -1
 c1472: - G + prod_7_1 <= 0
 c1473: - bit_7_1 + prod_7_1 <= 0
 c1474: - G - bit_7_1 + prod_7_1 >= -1
 c1475: - G + prod_7_2 <= 0
 c1476: - bit_7_2 + prod_7_2 <= 0
 c1477: - G - bit_7_2 + prod_7_2 >= -1
 c1478: - G + prod_7_3 <= 0
 c1479: - bit_7_3 + prod_7_3 <= 0
 c1480: - G - bit_7_3 + prod_7_3 >= -1
 c1481: - G + prod_7_4 <= 0
 c1482: - bit_7_4 + prod_7_4 <= 0
 c1483: - G - bit_7_4 + prod_7_4 >= -1
 c1484: - G + prod_7_5 <= 0
 c1485: - bit_7_5 + prod_7_5 <= 0
 c1486: - G - bit_7_5 + prod_7_5 >= -1
 c1487: Y_8 - bit_8_0 - 2 bit_8_1 - 4 bit_8_2 - 8 bit_8_3 - 16 bit_8_4 = 0
 c1488: - prod_8_0 - 2 prod_8_1 - 4 prod_8_2 - 8 prod_8_3 - 16 prod_8_4 + zprod_8 = 0
 c1489: - G + prod_8_0 <= 0
 c1490: - bit_8_0 + prod_8_0 <= 0
 c1491: - G - bit_8_0 + prod_8_0 >= -1
 c1492: - G + prod_8_1 <= 0
 c1493: - bit_8_1 + prod_8_1 <= 0
 c1494: - G - bit_8_1 + prod_8_1 >= -1
 c1495: - G + prod_8_2 <= 0
 c1496: - bit_8_2 + prod_8_2 <= 0
 c1497: - G - bit_8_2 + prod_8_2 >= -1
 c1498: - G + prod_8_3 <= 0
 c1499: - bit_8_3 + prod_8_3 <= 0
 c1500: - G - bit_8_3 + prod_8_3 >= -1
 c1501: - G + prod_8_4 <= 0
 c1502: - bit_8_4 + prod_8_4 <= 0
 c1503: - G - bit_8_4 + prod_8_4 >= -1
 c1504: Y_9 - bit_9_0 - 2 bit_9_1 - 4 bit_9_2 - 8 bit_9_3 - 16 bit_9_4 - 32 bit_9_5 = 0
 c1505: - prod_9_0 - 2 prod_9_1 - 4 prod_9_2 - 8 prod_9_3 - 16 prod_9_4 - 32 prod_9_5 + zprod_9 = 0
 c1506: - G + prod_9_0 <= 0
 c1507: - bit_9_0 + prod_9_0 <= 0
 c1508: - G - bit_9_0 + prod_9_0 >= -1
 c1509: - G + prod_9_1 <= 0
 c1510: - bit_9_1 + prod_9_1 <= 0
 c1511: - G - bit_9_1 + prod_9_1 >= -1
 c1512: - G + prod_9_2 <= 0
 c1513: - bit_9_2 + prod_9_2 <= 0
 c1514: - G - bit_9_2 + prod_9_2 >= -1
 c1515: - G + prod_9_3 <= 0
 c1516: - bit_9_3 + prod_9_3 <= 0
 c1517: - G - bit_9_3 + prod_9_3 >= -1
 c1518: - G + prod_9_4 <= 0
 c1519: - bit_9_4 + prod_9_4 <= 0
 c1520: - G - bit_9_4 + prod_9_4 >= -1
 c1521: - G + prod_9_5 <= 0
 c1522: - bit_9_5 + prod_9_5 <= 0
 c1523: - G - bit_9_5 + prod_9_5 >= -1
 c1524: Y_10 - bit_10_0 - 2 bit_10_1 - 4 bit_10_2 - 8 bit_10_3 - 16 bit_10_4 - 32 bit_10_5 = 0
 c1525: - prod_10_0 - 2 prod_10_1 - 4 prod_10_2 - 8 prod_10_3 - 16 prod_10_4 - 32 prod_10_5 + zprod_10 = 0
 c1526: - G + prod_10_0 <= 0
 c1527: - bit_10_0 + prod_10_0 <= 0
 c1528: - G - bit_10_0 + prod_10_0 >= -1
 c1529: - G + prod_10_1 <= 0
 c1530: - bit_10_1 + prod_10_1 <= 0
 c1531: - G - bit_10_1 + prod_10_1 >= -1
 c1532: - G + prod_10_2 <= 0
 c1533: - bit_10_2 + prod_10_2 <= 0
 c1534: - G - bit_10_2 + prod_10_2 >= -1
 c1535: - G + prod_10_3 <= 0
 c1536: - bit_10_3 + prod_10_3 <= 0
 c1537: - G - bit_10_3 + prod_10_3 >= -1
 c1538: - G + prod_10_4 <= 0
 c1539: - bit_10_4 + prod_10_4 <= 0
 c1540: - G - bit_10_4 + prod_10_4 >= -1
 c1541: - G + prod_10_5 <= 0
 c1542: - bit_10_5 + prod_10_5 <= 0
 c1543: - G - bit_10_5 + prod_10_5 >= -1
 c1544: - h_1_10 - h_1_2 - h_1_3 - h_1_4 - h_1_5 - h_1_6 - h_1_7 - h_1_8 - h_1_9 - h_2_10 - h_2_3 - h_2_4 - h_2_5 - h_2_6 - h_2_7 - h_2_8 - h_2_9 - h_3_10 - h_3_4 - h_3_5 - h_3_6 - h_3_7 - h_3_8 - h_3_9 - h_4_10 - h_4_5 - h_4_6 - h_4_7 - h_4_8 - h_4_9 - h_5_10 - h_5_6 - h_5_7 - h_5_8 - h_5_9 - h_6_10 - h_6_7 - h_6_8 - h_6_9 - h_7_10 - h_7_8 - h_7_9 - h_8_10 - h_8_9 - h_9_10 + 0.30303030303030304 zprod_1 + 0.52631578947368418 zprod_10 + 0.30303030303030304 zprod_2 + 0.38461538461538464 zprod_3 + 0.41666666666666669 zprod_4 + 0.35714285714285715 zprod_5 + 0.47619047619047616 zprod_6 + 5 zprod_7 + 0.7142857142857143 zprod_8 + 3.3333333333333335 zprod_9 >= 0
Bounds
 0 <= G <= 1
 0 <= Y_1 <= 44
 0 <= Y_10 <= 45
 0 <= Y_2 <= 38
 0 <= Y_3 <= 37
 0 <= Y_4 <= 29
 0 <= Y_5 <= 42
 0 <= Y_6 <= 30
 0 <= Y_7 <= 43
 0 <= Y_8 <= 25
 0 <= Y_9 <= 45
 0 <= bit_10_0 <= 1
 0 <= bit_10_1 <= 1
 0 <= bit_10_2 <= 1
 0 <= bit_10_3 <= 1
 0 <= bit_10_4 <= 1
 0 <= bit_10_5 <= 1
 0 <= bit_1_0 <= 1
 0 <= bit_1_1 <= 1
 0 <= bit_1_2 <= 1
 0 <= bit_1_3 <= 1
 0 <= bit_1_4 <= 1
 0 <= bit_1_5 <= 1
 0 <= bit_2_0 <= 1
 0 <= bit_2_1 <= 1
 0 <= bit_2_2 <= 1
 0 <= bit_2_3 <= 1
 0 <= bit_2_4 <= 1
 0 <= bit_2_5 <= 1
 0 <= bit_3_0 <= 1
 0 <= bit_3_1 <= 1
 0 <= bit_3_2 <= 1
 0 <= bit_3_3 <= 1
 0 <= bit_3_4 <= 1
 0 <= bit_3_5 <= 1
 0 <= bit_4_0 <= 1
 0 <= bit_4_1 <= 1
 0 <= bit_4_2 <= 1
 0 <= bit_4_3 <= 1
 0 <= bit_4_4 <= 1
 0 <= bit_5_0 <= 1
 0 <= bit_5_1 <= 1
 0 <= bit_5_2 <= 1
 0 <= bit_5_3 <= 1
 0 <= bit_5_4 <= 1
 0 <= bit_5_5 <= 1
 0 <= bit_6_0 <= 1
 0 <= bit_6_1 <= 1
 0 <= bit_6_2 <= 1
 0 <= bit_6_3 <= 1
 0 <= bit_6_4 <= 1
 0 <= bit_7_0 <= 1
 0 <= bit_7_1 <= 1
 0 <= bit_7_2 <= 1
 0 <= bit_7_3 <= 1
 0 <= bit_7_4 <= 1
 0 <= bit_7_5 <= 1
 0 <= bit_8_0 <= 1
 0 <= bit_8_1 <= 1
 0 <= bit_8_2 <= 1
 0 <= bit_8_3 <= 1
 0 <= bit_8_4 <= 1
 0 <= bit_9_0 <= 1
 0 <= bit_9_1 <= 1
 0 <= bit_9_2 <= 1
 0 <= bit_9_3 <= 1
 0 <= bit_9_4 <= 1
 0 <= bit_9_5 <= 1
 0 <= d_0_1 <= 16
 0 <= d_0_10 <= 12
 0 <= d_0_2 <= 20
 0 <= d_0_3 <= 17
 0 <= d_0_4 <= 9
 0 <= d_0_5 <= 20
 0 <= d_0_6 <= 2
 0 <= d_0_7 <= 20
 0 <= d_0_8 <= 6
 0 <= d_0_9 <= 12
 0 <= d_1_1 <= 16
 0 <= d_1_10 <= 12
 0 <= d_1_2 <= 20
 0 <= d_1_3 <= 17
 0 <= d_1_4 <= 9
 0 <= d_1_5 <= 20
 0 <= d_1_6 <= 2
 0 <= d_1_7 <= 20
 0 <= d_1_8 <= 6
 0 <= d_1_9 <= 12
 0 <= d_2_1 <= 16
 0 <= d_2_10 <= 12
 0 <= d_2_2 <= 20
 0 <= d_2_3 <= 17
 0 <= d_2_4 <= 9
 0 <= d_2_5 <= 20
 0 <= d_2_6 <= 2
 0 <= d_2_7 <= 20
 0 <= d_2_8 <= 6
 0 <= d_2_9 <= 12
 0 <= e_1 <= 1
 0 <= e_10 <= 1.3684210526315788
 0 <= e_2 <= 1
 0 <= e_3 <= 1
 0 <= e_4 <= 1
 0 <= e_5 <= 1
 0 <= e_6 <= 1
 0 <= e_7 <= 20.5
 0 <= e_8 <= 1
 0 <= e_9 <= 14
 0 <= h_1_10 <= 3.7017543859649118
 0 <= h_1_2 <= 2.4848484848484849
 0 <= h_1_3 <= 2.7564102564102564
 0 <= h_1_4 <= 2.5416666666666665
 0 <= h_1_5 <= 2.833333333333333
 0 <= h_1_6 <= 2.7619047619047619
 0 <= h_1_7 <= 22.833333333333332
 0 <= h_1_8 <= 3.1190476190476191
 0 <= h_1_9 <= 16.333333333333332
 0 <= h_2_10 <= 3.5199362041467301
 0 <= h_2_3 <= 2.5745920745920747
 0 <= h_2_4 <= 2.3598484848484849
 0 <= h_2_5 <= 2.6515151515151514
 0 <= h_2_6 <= 2.5800865800865802
 0 <= h_2_7 <= 22.651515151515152
 0 <= h_2_8 <= 2.9372294372294374
 0 <= h_2_9 <= 16.151515151515152
 0 <= h_3_10 <= 3.7914979757085021
 0 <= h_3_4 <= 2.6314102564102564
 0 <= h_3_5 <= 2.9230769230769234
 0 <= h_3_6 <= 2.8516483516483517
 0 <= h_3_7 <= 22.923076923076923
 0 <= h_3_8 <= 3.2087912087912089
 0 <= h_3_9 <= 16.423076923076923
 0 <= h_4_10 <= 3.5767543859649118
 0 <= h_4_5 <= 2.708333333333333
 0 <= h_4_6 <= 2.6369047619047619
 0 <= h_4_7 <= 22.708333333333332
 0 <= h_4_8 <= 2.9940476190476191
 0 <= h_4_9 <= 16.208333333333332
 0 <= h_5_10 <= 3.8684210526315788
 0 <= h_5_6 <= 2.9285714285714288
 0 <= h_5_7 <= 23
 0 <= h_5_8 <= 3.2857142857142856
 0 <= h_5_9 <= 16.5
 0 <= h_6_10 <= 3.7969924812030076
 0 <= h_6_7 <= 22.928571428571427
 0 <= h_6_8 <= 3.2142857142857144
 0 <= h_6_9 <= 16.428571428571427
 0 <= h_7_10 <= 23.868421052631579
 0 <= h_7_8 <= 23.285714285714285
 0 <= h_7_9 <= 36.5
 0 <= h_8_10 <= 4.1541353383458643
 0 <= h_8_9 <= 16.785714285714285
 0 <= h_9_10 <= 17.368421052631579
 0 <= load_0_1 <= 20
 0 <= load_0_10 <= 20
 0 <= load_0_2 <= 20
 0 <= load_0_3 <= 20
 0 <= load_0_4 <= 20
 0 <= load_0_5 <= 20
 0 <= load_0_6 <= 20
 0 <= load_0_7 <= 20
 0 <= load_0_8 <= 20
 0 <= load_0_9 <= 20
 0 <= load_1_1 <= 20
 0 <= load_1_10 <= 20
 0 <= load_1_2 <= 20
 0 <= load_1_3 <= 20
 0 <= load_1_4 <= 20
 0 <= load_1_5 <= 20
 0 <= load_1_6 <= 20
 0 <= load_1_7 <= 20
 0 <= load_1_8 <= 20
 0 <= load_1_9 <= 20
 0 <= load_2_1 <= 20
 0 <= load_2_10 <= 20
 0 <= load_2_2 <= 20
 0 <= load_2_3 <= 20
 0 <= load_2_4 <= 20
 0 <= load_2_5 <= 20
 0 <= load_2_6 <= 20
 0 <= load_2_7 <= 20
 0 <= load_2_8 <= 20
 0 <= load_2_9 <= 20
 0 <= mode_0_1 <= 1
 0 <= mode_0_10 <= 1
 0 <= mode_0_2 <= 1
 0 <= mode_0_3 <= 1
 0 <= mode_0_4 <= 1
 0 <= mode_0_5 <= 1
 0 <= mode_0_6 <= 1
 0 <= mode_0_7 <= 1
 0 <= mode_0_8 <= 1
 0 <= mode_0_9 <= 1
 0 <= mode_1_1 <= 1
 0 <= mode_1_10 <= 1
 0 <= mode_1_2 <= 1
 0 <= mode_1_3 <= 1
 0 <= mode_1_4 <= 1
 0 <= mode_1_5 <= 1
 0 <= mode_1_6 <= 1
 0 <= mode_1_7 <= 1
 0 <= mode_1_8 <= 1
 0 <= mode_1_9 <= 1
 0 <= mode_2_1 <= 1
 0 <= mode_2_10 <= 1
 0 <= mode_2_2 <= 1
 0 <= mode_2_3 <= 1
 0 <= mode_2_4 <= 1
 0 <= mode_2_5 <= 1
 0 <= mode_2_6 <= 1
 0 <= mode_2_7 <= 1
 0 <= mode_2_8 <= 1
 0 <= mode_2_9 <= 1
 0 <= ord_0_1 <= 10
 0 <= ord_0_10 <= 10
 0 <= ord_0_2 <= 10
 0 <= ord_0_3 <= 10
 0 <= ord_0_4 <= 10
 0 <= ord_0_5 <= 10
 0 <= ord_0_6 <= 10
 0 <= ord_0_7 <= 10
 0 <= ord_0_8 <= 10
 0 <= ord_0_9 <= 10
 0 <= ord_1_1 <= 10
 0 <= ord_1_10 <= 10
 0 <= ord_1_2 <= 10
 0 <= ord_1_3 <= 10
 0 <= ord_1_4 <= 10
 0 <= ord_1_5 <= 10
 0 <= ord_1_6 <= 10
 0 <= ord_1_7 <= 10
 0 <= ord_1_8 <= 10
 0 <= ord_1_9 <= 10
 0 <= ord_2_1 <= 10
 0 <= ord_2_10 <= 10
 0 <= ord_2_2 <= 10
 0 <= ord_2_3 <= 10
 0 <= ord_2_4 <= 10
 0 <= ord_2_5 <= 10
 0 <= ord_2_6 <= 10
 0 <= ord_2_7 <= 10
 0 <= ord_2_8 <= 10
 0 <= ord_2_9 <= 10
 0 <= p_0_1 <= 20
 0 <= p_0_10 <= 20
 0 <= p_0_2 <= 3
 0 <= p_0_3 <= 20
 0 <= p_0_4 <= 20
 0 <= p_0_5 <= 14
 0 <= p_0_6 <= 20
 0 <= p_0_7 <= 17
 0 <= p_0_8 <= 19
 0 <= p_0_9 <= 20
 0 <= p_1_1 <= 20
 0 <= p_1_10 <= 20
 0 <= p_1_2 <= 3
 0 <= p_1_3 <= 20
 0 <= p_1_4 <= 20
 0 <= p_1_5 <= 14
 0 <= p_1_6 <= 20
 0 <= p_1_7 <= 17
 0 <= p_1_8 <= 19
 0 <= p_1_9 <= 20
 0 <= p_2_1 <= 20
 0 <= p_2_10 <= 20
 0 <= p_2_2 <= 3
 0 <= p_2_3 <= 20
 0 <= p_2_4 <= 20
 0 <= p_2_5 <= 14
 0 <= p_2_6 <= 20
 0 <= p_2_7 <= 17
 0 <= p_2_8 <= 19
 0 <= p_2_9 <= 20
 0 <= prod_10_0 <= 1
 0 <= prod_10_1 <= 1
 0 <= prod_10_2 <= 1
 0 <= prod_10_3 <= 1
 0 <= prod_10_4 <= 1
 0 <= prod_10_5 <= 1
 0 <= prod_1_0 <= 1
 0 <= prod_1_1 <= 1
 0 <= prod_1_2 <= 1
 0 <= prod_1_3 <= 1
 0 <= prod_1_4 <= 1
 0 <= prod_1_5 <= 1
 0 <= prod_2_0 <= 1
 0 <= prod_2_1 <= 1
 0 <= prod_2_2 <= 1
 0 <= prod_2_3 <= 1
 0 <= prod_2_4 <= 1
 0 <= prod_2_5 <= 1
 0 <= prod_3_0 <= 1
 0 <= prod_3_1 <= 1
 0 <= prod_3_2 <= 1
 0 <= prod_3_3 <= 1
 0 <= prod_3_4 <= 1
 0 <= prod_3_5 <= 1
 0 <= prod_4_0 <= 1
 0 <= prod_4_1 <= 1
 0 <= prod_4_2 <= 1
 0 <= prod_4_3 <= 1
 0 <= prod_4_4 <= 1
 0 <= prod_5_0 <= 1
 0 <= prod_5_1 <= 1
 0 <= prod_5_2 <= 1
 0 <= prod_5_3 <= 1
 0 <= prod_5_4 <= 1
 0 <= prod_5_5 <= 1
 0 <= prod_6_0 <= 1
 0 <= prod_6_1 <= 1
 0 <= prod_6_2 <= 1
 0 <= prod_6_3 <= 1
 0 <= prod_6_4 <= 1
 0 <= prod_7_0 <= 1
 0 <= prod_7_1 <= 1
 0 <= prod_7_2 <= 1
 0 <= prod_7_3 <= 1
 0 <= prod_7_4 <= 1
 0 <= prod_7_5 <= 1
 0 <= prod_8_0 <= 1
 0 <= prod_8_1 <= 1
 0 <= prod_8_2 <= 1
 0 <= prod_8_3 <= 1
 0 <= prod_8_4 <= 1
 0 <= prod_9_0 <= 1
 0 <= prod_9_1 <= 1
 0 <= prod_9_2 <= 1
 0 <= prod_9_3 <= 1
 0 <= prod_9_4 <= 1
 0 <= prod_9_5 <= 1
 0 <= r_1 <= 1.3333333333333333
 0 <= r_10 <= 2.3684210526315788
 0 <= r_2 <= 1.1515151515151516
 0 <= r_3 <= 1.4230769230769231
 0 <= r_4 <= 1.2083333333333333
 0 <= r_5 <= 1.5
 0 <= r_6 <= 1.4285714285714286
 0 <= r_7 <= 21.5
 0 <= r_8 <= 1.7857142857142858
 0 <= r_9 <= 15
 0 <= x_0_0_1 <= 1
 0 <= x_0_0_10 <= 1
 0 <= x_0_0_2 <= 1
 0 <= x_0_0_3 <= 1
 0 <= x_0_0_4 <= 1
 0 <= x_0_0_5 <= 1
 0 <= x_0_0_6 <= 1
 0 <= x_0_0_7 <= 1
 0 <= x_0_0_8 <= 1
 0 <= x_0_0_9 <= 1
 0 <= x_0_10_0 <= 1
 0 <= x_0_10_1 <= 1
 0 <= x_0_10_2 <= 1
 0 <= x_0_10_3 <= 1
 0 <= x_0_10_4 <= 1
 0 <= x_0_10_5 <= 1
 0 <= x_0_10_6 <= 1
 0 <= x_0_10_7 <= 1
 0 <= x_0_10_8 <= 1
 0 <= x_0_10_9 <= 1
 0 <= x_0_1_0 <= 1
 0 <= x_0_1_10 <= 1
 0 <= x_0_1_2 <= 1
 0 <= x_0_1_3 <= 1
 0 <= x_0_1_4 <= 1
 0 <= x_0_1_5 <= 1
 0 <= x_0_1_6 <= 1
 0 <= x_0_1_7 <= 1
 0 <= x_0_1_8 <= 1
 0 <= x_0_1_9 <= 1
 0 <= x_0_2_0 <= 1
 0 <= x_0_2_1 <= 1
 0 <= x_0_2_10 <= 1
 0 <= x_0_2_3 <= 1
 0 <= x_0_2_4 <= 1
 0 <= x_0_2_5 <= 1
 0 <= x_0_2_6 <= 1
 0 <= x_0_2_7 <= 1
 0 <= x_0_2_8 <= 1
 0 <= x_0_2_9 <= 1
 0 <= x_0_3_0 <= 1
 0 <= x_0_3_1 <= 1
 0 <= x_0_3_10 <= 1
 0 <= x_0_3_2 <= 1
 0 <= x_0_3_4 <= 1
 0 <= x_0_3_5 <= 1
 0 <= x_0_3_6 <= 1
 0 <= x_0_3_7 <= 1
 0 <= x_0_3_8 <= 1
 0 <= x_0_3_9 <= 1
 0 <= x_0_4_0 <= 1
 0 <= x_0_4_1 <= 1
 0 <= x_0_4_10 <= 1
 0 <= x_0_4_2 <= 1
 0 <= x_0_4_3 <= 1
 0 <= x_0_4_5 <= 1
 0 <= x_0_4_6 <= 1
 0 <= x_0_4_7 <= 1
 0 <= x_0_4_8 <= 1
 0 <= x_0_4_9 <= 1
 0 <= x_0_5_0 <= 1
 0 <= x_0_5_1 <= 1
 0 <= x_0_5_10 <= 1
 0 <= x_0_5_2 <= 1
 0 <= x_0_5_3 <= 1
 0 <= x_0_5_4 <= 1
 0 <= x_0_5_6 <= 1
 0 <= x_0_5_7 <= 1
 0 <= x_0_5_8 <= 1
 0 <= x_0_5_9 <= 1
 0 <= x_0_6_0 <= 1
 0 <= x_0_6_1 <= 1
 0 <= x_0_6_10 <= 1
 0 <= x_0_6_2 <= 1
 0 <= x_0_6_3 <= 1
 0 <= x_0_6_4 <= 1
 0 <= x_0_6_5 <= 1
 0 <= x_0_6_7 <= 1
 0 <= x_0_6_8 <= 1
 0 <= x_0_6_9 <= 1
 0 <= x_0_7_0 <= 1
 0 <= x_0_7_1 <= 1
 0 <= x_0_7_10 <= 1
 0 <= x_0_7_2 <= 1
 0 <= x_0_7_3 <= 1
 0 <= x_0_7_4 <= 1
 0 <= x_0_7_5 <= 1
 0 <= x_0_7_6 <= 1
 0 <= x_0_7_8 <= 1
 0 <= x_0_7_9 <= 1
 0 <= x_0_8_0 <= 1
 0 <= x_0_8_1 <= 1
 0 <= x_0_8_10 <= 1
 0 <= x_0_8_2 <= 1
 0 <= x_0_8_3 <= 1
 0 <= x_0_8_4 <= 1
 0 <= x_0_8_5 <= 1
 0 <= x_0_8_6 <= 1
 0 <= x_0_8_7 <= 1
 0 <= x_0_8_9 <= 1
 0 <= x_0_9_0 <= 1
 0 <= x_0_9_1 <= 1
 0 <= x_0_9_10 <= 1
 0 <= x_0_9_2 <= 1
 0 <= x_0_9_3 <= 1
 0 <= x_0_9_4 <= 1
 0 <= x_0_9_5 <= 1
 0 <= x_0_9_6 <= 1
 0 <= x_0_9_7 <= 1
 0 <= x_0_9_8 <= 1
 0 <= x_1_0_1 <= 1
 0 <= x_1_0_10 <= 1
 0 <= x_1_0_2 <= 1
 0 <= x_1_0_3 <= 1
 0 <= x_1_0_4 <= 1
 0 <= x_1_0_5 <= 1
 0 <= x_1_0_6 <= 1
 0 <= x_1_0_7 <= 1
 0 <= x_1_0_8 <= 1
 0 <= x_1_0_9 <= 1
 0 <= x_1_10_0 <= 1
 0 <= x_1_10_1 <= 1
 0 <= x_1_10_2 <= 1
 0 <= x_1_10_3 <= 1
 0 <= x_1_10_4 <= 1
 0 <= x_1_10_5 <= 1
 0 <= x_1_10_6 <= 1
 0 <= x_1_10_7 <= 1
 0 <= x_1_10_8 <= 1
 0 <= x_1_10_9 <= 1
 0 <= x_1_1_0 <= 1
 0 <= x_1_1_10 <= 1
 0 <= x_1_1_2 <= 1
 0 <= x_1_1_3 <= 1
 0 <= x_1_1_4 <= 1
 0 <= x_1_1_5 <= 1
 0 <= x_1_1_6 <= 1
 0 <= x_1_1_7 <= 1
 0 <= x_1_1_8 <= 1
 0 <= x_1_1_9 <= 1
 0 <= x_1_2_0 <= 1
 0 <= x_1_2_1 <= 1
 0 <= x_1_2_10 <= 1
 0 <= x_1_2_3 <= 1
 0 <= x_1_2_4 <= 1
 0 <= x_1_2_5 <= 1
 0 <= x_1_2_6 <= 1
 0 <= x_1_2_7 <= 1
 0 <= x_1_2_8 <= 1
 0 <= x_1_2_9 <= 1
 0 <= x_1_3_0 <= 1
 0 <= x_1_3_1 <= 1
 0 <= x_1_3_10 <= 1
 0 <= x_1_3_2 <= 1
 0 <= x_1_3_4 <= 1
 0 <= x_1_3_5 <= 1
 0 <= x_1_3_6 <= 1
 0 <= x_1_3_7 <= 1
 0 <= x_1_3_8 <= 1
 0 <= x_1_3_9 <= 1
 0 <= x_1_4_0 <= 1
 0 <= x_1_4_1 <= 1
 0 <= x_1_4_10 <= 1
 0 <= x_1_4_2 <= 1
 0 <= x_1_4_3 <= 1
 0 <= x_1_4_5 <= 1
 0 <= x_1_4_6 <= 1
 0 <= x_1_4_7 <= 1
 0 <= x_1_4_8 <= 1
 0 <= x_1_4_9 <= 1
 0 <= x_1_5_0 <= 1
 0 <= x_1_5_1 <= 1
 0 <= x_1_5_10 <= 1
 0 <= x_1_5_2 <= 1
 0 <= x_1_5_3 <= 1
 0 <= x_1_5_4 <= 1
 0 <= x_1_5_6 <= 1
 0 <= x_1_5_7 <= 1
 0 <= x_1_5_8 <= 1
 0 <= x_1_5_9 <= 1
 0 <= x_1_6_0 <= 1
 0 <= x_1_6_1 <= 1
 0 <= x_1_6_10 <= 1
 0 <= x_1_6_2 <= 1
 0 <= x_1_6_3 <= 1
 0 <= x_1_6_4 <= 1
 0 <= x_1_6_5 <= 1
 0 <= x_1_6_7 <= 1
 0 <= x_1_6_8 <= 1
 0 <= x_1_6_9 <= 1
 0 <= x_1_7_0 <= 1
 0 <= x_1_7_1 <= 1
 0 <= x_1_7_10 <= 1
 0 <= x_1_7_2 <= 1
 0 <= x_1_7_3 <= 1
 0 <= x_1_7_4 <= 1
 0 <= x_1_7_5 <= 1
 0 <= x_1_7_6 <= 1
 0 <= x_1_7_8 <= 1
 0 <= x_1_7_9 <= 1
 0 <= x_1_8_0 <= 1
 0 <= x_1_8_1 <= 1
 0 <= x_1_8_10 <= 1
 0 <= x_1_8_2 <= 1
 0 <= x_1_8_3 <= 1
 0 <= x_1_8_4 <= 1
 0 <= x_1_8_5 <= 1
 0 <= x_1_8_6 <= 1
 0 <= x_1_8_7 <= 1
 0 <= x_1_8_9 <= 1
 0 <= x_1_9_0 <= 1
 0 <= x_1_9_1 <= 1
 0 <= x_1_9_10 <= 1
 0 <= x_1_9_2 <= 1
 0 <= x_1_9_3 <= 1
 0 <= x_1_9_4 <= 1
 0 <= x_1_9_5 <= 1
 0 <= x_1_9_6 <= 1
 0 <= x_1_9_7 <= 1
 0 <= x_1_9_8 <= 1
 0 <= x_2_0_1 <= 1
 0 <= x_2_0_10 <= 1
 0 <= x_2_0_2 <= 1
 0 <= x_2_0_3 <= 1
 0 <= x_2_0_4 <= 1
 0 <= x_2_0_5 <= 1
 0 <= x_2_0_6 <= 1
 0 <= x_2_0_7 <= 1
 0 <= x_2_0_8 <= 1
 0 <= x_2_0_9 <= 1
 0 <= x_2_10_0 <= 1
 0 <= x_2_10_1 <= 1
 0 <= x_2_10_2 <= 1
 0 <= x_2_10_3 <= 1
 0 <= x_2_10_4 <= 1
 0 <= x_2_10_5 <= 1
 0 <= x_2_10_6 <= 1
 0 <= x_2_10_7 <= 1
 0 <= x_2_10_8 <= 1
 0 <= x_2_10_9 <= 1
 0 <= x_2_1_0 <= 1
 0 <= x_2_1_10 <= 1
 0 <= x_2_1_2 <= 1
 0 <= x_2_1_3 <= 1
 0 <= x_2_1_4 <= 1
 0 <= x_2_1_5 <= 1
 0 <= x_2_1_6 <= 1
 0 <= x_2_1_7 <= 1
 0 <= x_2_1_8 <= 1
 0 <= x_2_1_9 <= 1
 0 <= x_2_2_0 <= 1
 0 <= x_2_2_1 <= 1
 0 <= x_2_2_10 <= 1
 0 <= x_2_2_3 <= 1
 0 <= x_2_2_4 <= 1
 0 <= x_2_2_5 <= 1
 0 <= x_2_2_6 <= 1
 0 <= x_2_2_7 <= 1
 0 <= x_2_2_8 <= 1
 0 <= x_2_2_9 <= 1
 0 <= x_2_3_0 <= 1
 0 <= x_2_3_1 <= 1
 0 <= x_2_3_10 <= 1
 0 <= x_2_3_2 <= 1
 0 <= x_2_3_4 <= 1
 0 <= x_2_3_5 <= 1
 0 <= x_2_3_6 <= 1
 0 <= x_2_3_7 <= 1
 0 <= x_2_3_8 <= 1
 0 <= x_2_3_9 <= 1
 0 <= x_2_4_0 <= 1
 0 <= x_2_4_1 <= 1
 0 <= x_2_4_10 <= 1
 0 <= x_2_4_2 <= 1
 0 <= x_2_4_3 <= 1
 0 <= x_2_4_5 <= 1
 0 <= x_2_4_6 <= 1
 0 <= x_2_4_7 <= 1
 0 <= x_2_4_8 <= 1
 0 <= x_2_4_9 <= 1
 0 <= x_2_5_0 <= 1
 0 <= x_2_5_1 <= 1
 0 <= x_2_5_10 <= 1
 0 <= x_2_5_2 <= 1
 0 <= x_2_5_3 <= 1
 0 <= x_2_5_4 <= 1
 0 <= x_2_5_6 <= 1
 0 <= x_2_5_7 <= 1
 0 <= x_2_5_8 <= 1
 0 <= x_2_5_9 <= 1
 0 <= x_2_6_0 <= 1
 0 <= x_2_6_1 <= 1
 0 <= x_2_6_10 <= 1
 0 <= x_2_6_2 <= 1
 0 <= x_2_6_3 <= 1
 0 <= x_2_6_4 <= 1
 0 <= x_2_6_5 <= 1
 0 <= x_2_6_7 <= 1
 0 <= x_2_6_8 <= 1
 0 <= x_2_6_9 <= 1
 0 <= x_2_7_0 <= 1
 0 <= x_2_7_1 <= 1
 0 <= x_2_7_10 <= 1
 0 <= x_2_7_2 <= 1
 0 <= x_2_7_3 <= 1
 0 <= x_2_7_4 <= 1
 0 <= x_2_7_5 <= 1
 0 <= x_2_7_6 <= 1
 0 <= x_2_7_8 <= 1
 0 <= x_2_7_9 <= 1
 0 <= x_2_8_0 <= 1
 0 <= x_2_8_1 <= 1
 0 <= x_2_8_10 <= 1
 0 <= x_2_8_2 <= 1
 0 <= x_2_8_3 <= 1
 0 <= x_2_8_4 <= 1
 0 <= x_2_8_5 <= 1
 0 <= x_2_8_6 <= 1
 0 <= x_2_8_7 <= 1
 0 <= x_2_8_9 <= 1
 0 <= x_2_9_0 <= 1
 0 <= x_2_9_1 <= 1
 0 <= x_2_9_10 <= 1
 0 <= x_2_9_2 <= 1
 0 <= x_2_9_3 <= 1
 0 <= x_2_9_4 <= 1
 0 <= x_2_9_5 <= 1
 0 <= x_2_9_6 <= 1
 0 <= x_2_9_7 <= 1
 0 <= x_2_9_8 <= 1
 0 <= z_0_1 <= 1
 0 <= z_0_10 <= 1
 0 <= z_0_2 <= 1
 0 <= z_0_3 <= 1
 0 <= z_0_4 <= 1
 0 <= z_0_5 <= 1
 0 <= z_0_6 <= 1
 0 <= z_0_7 <= 1
 0 <= z_0_8 <= 1
 0 <= z_0_9 <= 1
 0 <= z_1_1 <= 1
 0 <= z_1_10 <= 1
 0 <= z_1_2 <= 1
 0 <= z_1_3 <= 1
 0 <= z_1_4 <= 1
 0 <= z_1_5 <= 1
 0 <= z_1_6 <= 1
 0 <= z_1_7 <= 1
 0 <= z_1_8 <= 1
 0 <= z_1_9 <= 1
 0 <= z_2_1 <= 1
 0 <= z_2_10 <= 1
 0 <= z_2_2 <= 1
 0 <= z_2_3 <= 1
 0 <= z_2_4 <= 1
 0 <= z_2_5 <= 1
 0 <= z_2_6 <= 1
 0 <= z_2_7 <= 1
 0 <= z_2_8 <= 1
 0 <= z_2_9 <= 1
 0 <= zprod_1 <= 44
 0 <= zprod_10 <= 45
 0 <= zprod_2 <= 38
 0 <= zprod_3 <= 37
 0 <= zprod_4 <= 29
 0 <= zprod_5 <= 42
 0 <= zprod_6 <= 30
 0 <= zprod_7 <= 43
 0 <= zprod_8 <= 25
 0 <= zprod_9 <= 45
Generals
 Y_1
 Y_10
 Y_2
 Y_3
 Y_4
 Y_5
 Y_6
 Y_7
 Y_8
 Y_9
 d_0_1
 d_0_10
 d_0_2
 d_0_3
 d_0_4
 d_0_5
 d_0_6
 d_0_7
 d_0_8
 d_0_9
 d_1_1
 d_1_10
 d_1_2
 d_1_3
 d_1_4
 d_1_5
 d_1_6
 d_1_7
 d_1_8
 d_1_9
 d_2_1
 d_2_10
 d_2_2
 d_2_3
 d_2_4
 d_2_5
 d_2_6
 d_2_7
 d_2_8
 d_2_9
 load_0_1
 load_0_10
 load_0_2
 load_0_3
 load_0_4
 load_0_5
 load_0_6
 load_0_7
 load_0_8
 load_0_9
 load_1_1
 load_1_10
 load_1_2
 load_1_3
 load_1_4
 load_1_5
 load_1_6
 load_1_7
 load_1_8
 load_1_9
 load_2_1
 load_2_10
 load_2_2
 load_2_3
 load_2_4
 load_2_5
 load_2_6
 load_2_7
 load_2_8
 load_2_9
 p_0_1
 p_0_10
 p_0_2
 p_0_3
 p_0_4
 p_0_5
 p_0_6
 p_0_7
 p_0_8
 p_0_9
 p_1_1
 p_1_10
 p_1_2
 p_1_3
 p_1_4
 p_1_5
 p_1_6
 p_1_7
 p_1_8
 p_1_9
 p_2_1
 p_2_10
 p_2_2
 p_2_3
 p_2_4
 p_2_5
 p_2_6
 p_2_7
 p_2_8
 p_2_9
Binaries
 bit_10_0
 bit_10_1
 bit_10_2
 bit_10_3
 bit_10_4
 bit_10_5
 bit_1_0
 bit_1_1
 bit_1_2
 bit_1_3
 bit_1_4
 bit_1_5
 bit_2_0
 bit_2_1
 bit_2_2
 bit_2_3
 bit_2_4
 bit_2_5
 bit_3_0
 bit_3_1
 bit_3_2
 bit_3_3
 bit_3_4
 bit_3_5
 bit_4_0
 bit_4_1
 bit_4_2
 bit_4_3
 bit_4_4
 bit_5_0
 bit_5_1
 bit_5_2
 bit_5_3
 bit_5_4
 bit_5_5
 bit_6_0
 bit_6_1
 bit_6_2
 bit_6_3
 bit_6_4
 bit_7_0
 bit_7_1
 bit_7_2
 bit_7_3
 bit_7_4
 bit_7_5
 bit_8_0
 bit_8_1
 bit_8_2
 bit_8_3
 bit_8_4
 bit_9_0
 bit_9_1
 bit_9_2
 bit_9_3
 bit_9_4
 bit_9_5
 mode_0_1
 mode_0_10
 mode_0_2
 mode_0_3
 mode_0_4
 mode_0_5
 mode_0_6
 mode_0_7
 mode_0_8
 mode_0_9
 mode_1_1
 mode_1_10
 mode_1_2
 mode_1_3
 mode_1_4
 mode_1_5
 mode_1_6
 mode_1_7
 mode_1_8
 mode_1_9
 mode_2_1
 mode_2_10
 mode_2_2
 mode_2_3
 mode_2_4
 mode_2_5
 mode_2_6
 mode_2_7
 mode_2_8
 mode_2_9
 x_0_0_1
 x_0_0_10
 x_0_0_2
 x_0_0_3
 x_0_0_4
 x_0_0_5
 x_0_0_6
 x_0_0_7
 x_0_0_8
 x_0_0_9
 x_0_10_0
 x_0_10_1
 x_0_10_2
 x_0_10_3
 x_0_10_4
 x_0_10_5
 x_0_10_6
 x_0_10_7
 x_0_10_8
 x_0_10_9
 x_0_1_0
 x_0_1_10
 x_0_1_2
 x_0_1_3
 x_0_1_4
 x_0_1_5
 x_0_1_6
 x_0_1_7
 x_0_1_8
 x_0_1_9
 x_0_2_0
 x_0_2_1
 x_0_2_10
 x_0_2_3
 x_0_2_4
 x_0_2_5
 x_0_2_6
 x_0_2_7
 x_0_2_8
 x_0_2_9
 x_0_3_0
 x_0_3_1
 x_0_3_10
 x_0_3_2
 x_0_3_4
 x_0_3_5
 x_0_3_6
 x_0_3_7
 x_0_3_8
 x_0_3_9
 x_0_4_0
 x_0_4_1
 x_0_4_10
 x_0_4_2
 x_0_4_3
 x_0_4_5
 x_0_4_6
 x_0_4_7
 x_0_4_8
 x_0_4_9
 x_0_5_0
 x_0_5_1
 x_0_5_10
 x_0_5_2
 x_0_5_3
 x_0_5_4
 x_0_5_6
 x_0_5_7
 x_0_5_8
 x_0_5_9
 x_0_6_0
 x_0_6_1
 x_0_6_10
 x_0_6_2
 x_0_6_3
 x_0_6_4
 x_0_6_5
 x_0_6_7
 x_0_6_8
 x_0_6_9
 x_0_7_0
 x_0_7_1
 x_0_7_10
 x_0_7_2
 x_0_7_3
 x_0_7_4
 x_0_7_5
 x_0_7_6
 x_0_7_8
 x_0_7_9
 x_0_8_0
 x_0_8_1
 x_0_8_10
 x_0_8_2
 x_0_8_3
 x_0_8_4
 x_0_8_5
 x_0_8_6
 x_0_8_7
 x_0_8_9
 x_0_9_0
 x_0_9_1
 x_0_9_10
 x_0_9_2
 x_0_9_3
 x_0_9_4
 x_0_9_5
 x_0_9_6
 x_0_9_7
 x_0_9_8
 x_1_0_1
 x_1_0_10
 x_1_0_2
 x_1_0_3
 x_1_0_4
 x_1_0_5
 x_1_0_6
 x_1_0_7
 x_1_0_8
 x_1_0_9
 x_1_10_0
 x_1_10_1
 x_1_10_2
 x_1_10_3
 x_1_10_4
 x_1_10_5
 x_1_10_6
 x_1_10_7
 x_1_10_8
 x_1_10_9
 x_1_1_0
 x_1_1_10
 x_1_1_2
 x_1_1_3
 x_1_1_4
 x_1_1_5
 x_1_1_6
 x_1_1_7
 x_1_1_8
 x_1_1_9
 x_1_2_0
 x_1_2_1
 x_1_2_10
 x_1_2_3
 x_1_2_4
 x_1_2_5
 x_1_2_6
 x_1_2_7
 x_1_2_8
 x_1_2_9
 x_1_3_0
 x_1_3_1
 x_1_3_10
 x_1_3_2
 x_1_3_4
 x_1_3_5
 x_1_3_6
 x_1_3_7
 x_1_3_8
 x_1_3_9
 x_1_4_0
 x_1_4_1
 x_1_4_10
 x_1_4_2
 x_1_4_3
 x_1_4_5
 x_1_4_6
 x_1_4_7
 x_1_4_8
 x_1_4_9
 x_1_5_0
 x_1_5_1
 x_1_5_10
 x_1_5_2
 x_1_5_3
 x_1_5_4
 x_1_5_6
 x_1_5_7
 x_1_5_8
 x_1_5_9
 x_1_6_0
 x_1_6_1
 x_1_6_10
 x_1_6_2
 x_1_6_3
 x_1_6_4
 x_1_6_5
 x_1_6_7
 x_1_6_8
 x_1_6_9
 x_1_7_0
 x_1_7_1
 x_1_7_10
 x_1_7_2
 x_1_7_3
 x_1_7_4
 x_1_7_5
 x_1_7_6
 x_1_7_8
 x_1_7_9
 x_1_8_0
 x_1_8_1
 x_1_8_10
 x_1_8_2
 x_1_8_3
 x_1_8_4
 x_1_8_5
 x_1_8_6
 x_1_8_7
 x_1_8_9
 x_1_9_0
 x_1_9_1
 x_1_9_10
 x_1_9_2
 x_1_9_3
 x_1_9_4
 x_1_9_5
 x_1_9_6
 x_1_9_7
 x_1_9_8
 x_2_0_1
 x_2_0_10
 x_2_0_2
 x_2_0_3
 x_2_0_4
 x_2_0_5
 x_2_0_6
 x_2_0_7
 x_2_0_8
 x_2_0_9
 x_2_10_0
 x_2_10_1
 x_2_10_2
 x_2_10_3
 x_2_10_4
 x_2_10_5
 x_2_10_6
 x_2_10_7
 x_2_10_8
 x_2_10_9
 x_2_1_0
 x_2_1_10
 x_2_1_2
 x_2_1_3
 x_2_1_4
 x_2_1_5
 x_2_1_6
 x_2_1_7
 x_2_1_8
 x_2_1_9
 x_2_2_0
 x_2_2_1
 x_2_2_10
 x_2_2_3
 x_2_2_4
 x_2_2_5
 x_2_2_6
 x_2_2_7
 x_2_2_8
 x_2_2_9
 x_2_3_0
 x_2_3_1
 x_2_3_10
 x_2_3_2
 x_2_3_4
 x_2_3_5
 x_2_3_6
 x_2_3_7
 x_2_3_8
 x_2_3_9
 x_2_4_0
 x_2_4_1
 x_2_4_10
 x_2_4_2
 x_2_4_3
 x_2_4_5
 x_2_4_6
 x_2_4_7
 x_2_4_8
 x_2_4_9
 x_2_5_0
 x_2_5_1
 x_2_5_10
 x_2_5_2
 x_2_5_3
 x_2_5_4
 x_2_5_6
 x_2_5_7
 x_2_5_8
 x_2_5_9
 x_2_6_0
 x_2_6_1
 x_2_6_10
 x_2_6_2
 x_2_6_3
 x_2_6_4
 x_2_6_5
 x_2_6_7
 x_2_6_8
 x_2_6_9
 x_2_7_0
 x_2_7_1
 x_2_7_10
 x_2_7_2
 x_2_7_3
 x_2_7_4
 x_2_7_5
 x_2_7_6
 x_2_7_8
 x_2_7_9
 x_2_8_0
 x_2_8_1
 x_2_8_10
 x_2_8_2
 x_2_8_3
 x_2_8_4
 x_2_8_5
 x_2_8_6
 x_2_8_7
 x_2_8_9
 x_2_9_0
 x_2_9_1
 x_2_9_10
 x_2_9_2
 x_2_9_3
 x_2_9_4
 x_2_9_5
 x_2_9_6
 x_2_9_7
 x_2_9_8
 z_0_1
 z_0_10
 z_0_2
 z_0_3
 z_0_4
 z_0_5
 z_0_6
 z_0_7
 z_0_8
 z_0_9
 z_1_1
 z_1_10
 z_1_2
 z_1_3
 z_1_4
 z_1_5
 z_1_6
 z_1_7
 z_1_8
 z_1_9
 z_2_1
 z_2_10
 z_2_2
 z_2_3
 z_2_4
 z_2_5
 z_2_6
 z_2_7
 z_2_8
 z_2_9
End
