\ ExactEBRP compact MILP generated from C++ command-line runner
Minimize
 obj: G + 0.14999999999999999 e_1 + 0.14999999999999999 e_2
Subject To
 c1: h_1_2 - 1.3 r_1 - 1.3 r_2 <= 0
 c2: h_1_2 >= 0
 c3: h_1_2 - 1.3 r_1 - 1.3 r_2 <= 0
 c4: r_1 - r_2 <= 3.9000000000000004
 c5: - r_1 + r_2 <= 3.9000000000000004
 c6: - 0.30000000000000004 r_1 - 2.2999999999999998 r_2 <= 0
 c7: - 2.2999999999999998 r_1 - 0.30000000000000004 r_2 <= 0
 c8: G + 0.14999999999999999 e_1 + 0.14999999999999999 e_2 <= 0.65000000000000002
 c9: 0.89999999999999991 e_1 + 0.89999999999999991 e_2 + h_1_2 <= 3.9000000000000004
 c10: e_1 + e_2 >= 0
 c11: e_1 <= 4.3333333333333339
 c12: e_2 <= 4.3333333333333339
 c13: W_SP >= -0
 c14: W_SP - 3 e_1 - 3 e_2 - 2 r_1 - 2 r_2 >= -6
 c15: W_SP - 3 e_1 - 3 e_2 <= -0
 c16: W_SP - 2 r_1 - 2 r_2 <= -0
 c17: 0.29999999999999999 W_SP + h_1_2 - 1.3 r_1 - 1.3 r_2 <= 0
 c18: x_0_0_1 + x_0_0_2 - x_0_1_0 - x_0_2_0 = 0
 c19: x_0_0_1 + x_0_0_2 <= 1
 c20: x_0_0_1 + x_0_2_1 - z_0_1 = 0
 c21: x_0_1_0 + x_0_1_2 - z_0_1 = 0
 c22: x_0_0_2 + x_0_1_2 - z_0_2 = 0
 c23: x_0_2_0 + x_0_2_1 - z_0_2 = 0
 c24: conn_0_0_1 - 2 x_0_0_1 <= 0
 c25: conn_0_0_2 - 2 x_0_0_2 <= 0
 c26: conn_0_1_0 - 2 x_0_1_0 <= 0
 c27: conn_0_1_2 - 2 x_0_1_2 <= 0
 c28: conn_0_2_0 - 2 x_0_2_0 <= 0
 c29: conn_0_2_1 - 2 x_0_2_1 <= 0
 c30: conn_0_0_1 - conn_0_1_0 - conn_0_1_2 + conn_0_2_1 - z_0_1 = 0
 c31: conn_0_0_2 + conn_0_1_2 - conn_0_2_0 - conn_0_2_1 - z_0_2 = 0
 c32: conn_0_0_1 + conn_0_0_2 - conn_0_1_0 - conn_0_2_0 - z_0_1 - z_0_2 = 0
 c33: z_0_1 <= 1
 c34: z_0_2 <= 1
 c35: Y_1 + Y_2 <= 3
 c36: Y_1 + Y_2 >= 1
 c37: d_0_1 - p_0_2 <= 0
 c38: d_0_2 - p_0_1 <= 0
 c39: ord_0_1 - z_0_1 >= 0
 c40: ord_0_1 - 2 z_0_1 <= 0
 c41: ord_0_2 - z_0_2 >= 0
 c42: ord_0_2 - 2 z_0_2 <= 0
 c43: ord_0_1 - ord_0_2 + 2 x_0_1_2 <= 1
 c44: - ord_0_1 + ord_0_2 + 2 x_0_2_1 <= 1
 c45: p_0_1 - 2 z_0_1 <= 0
 c46: d_0_1 <= 0
 c47: mode_0_1 - z_0_1 <= 0
 c48: - 2 mode_0_1 + p_0_1 <= 0
 c49: d_0_1 <= 0
 c50: d_0_1 + p_0_1 - z_0_1 >= 0
 c51: load_0_1 - 2 z_0_1 <= 0
 c52: p_0_2 - z_0_2 <= 0
 c53: d_0_2 <= 0
 c54: mode_0_2 - z_0_2 <= 0
 c55: - mode_0_2 + p_0_2 <= 0
 c56: d_0_2 <= 0
 c57: d_0_2 + p_0_2 - z_0_2 >= 0
 c58: load_0_2 - 2 z_0_2 <= 0
 c59: d_0_1 + load_0_1 - p_0_1 + 2 x_0_0_1 <= 2
 c60: d_0_1 + load_0_1 - p_0_1 - 2 x_0_0_1 >= -2
 c61: d_0_2 + load_0_2 - p_0_2 + 2 x_0_0_2 <= 2
 c62: d_0_2 + load_0_2 - p_0_2 - 2 x_0_0_2 >= -2
 c63: d_0_2 - load_0_1 + load_0_2 - p_0_2 + 2 x_0_1_2 <= 2
 c64: d_0_2 - load_0_1 + load_0_2 - p_0_2 - 2 x_0_1_2 >= -2
 c65: d_0_1 + load_0_1 - load_0_2 - p_0_1 + 2 x_0_2_1 <= 2
 c66: d_0_1 + load_0_1 - load_0_2 - p_0_1 - 2 x_0_2_1 >= -2
 c67: - d_0_1 - d_0_2 + p_0_1 + p_0_2 >= 0
 c68: p_0_1 + p_0_2 <= 1.9999999999997726
 c69: p_0_1 + p_0_2 - 2 x_0_0_1 - 2 x_0_0_2 <= 0
 c70: p_0_1 + p_0_2 + 4.9999999999990905 z_0_1 + 4.9999999999990905 z_0_2 <= 11.999999999997954
 c71: Y_1 - d_0_1 + p_0_1 = 2
 c72: - Y_1 + r_1 = 0
 c73: e_1 - r_1 >= -1
 c74: e_1 + r_1 >= 1
 c75: Y_2 - d_0_2 + p_0_2 = 1
 c76: - Y_2 + r_2 = 0
 c77: e_2 - r_2 >= -1
 c78: e_2 + r_2 >= 1
 c79: Y_1 <= 2
 c80: - Y_1 - 2 z_0_1 <= -2
 c81: Y_2 <= 1
 c82: - Y_2 - z_0_2 <= -1
 c83: p_0_1 + p_0_2 <= 1.9999999999997726
 c84: h_1_2 - r_1 + r_2 >= 0
 c85: h_1_2 + r_1 - r_2 >= 0
 c86: state_g_1_0 >= 0
 c87: - 0.65000000000000002 state_1_0 + state_g_1_0 <= 0
 c88: state_g_1_1 >= 0
 c89: - 0.65000000000000002 state_1_1 + state_g_1_1 <= 0
 c90: state_g_1_2 >= 0
 c91: - 0.65000000000000002 state_1_2 + state_g_1_2 <= 0
 c92: state_1_0 + state_1_1 + state_1_2 = 1
 c93: Y_1 - state_1_1 - 2 state_1_2 = 0
 c94: - G + state_g_1_0 + state_g_1_1 + state_g_1_2 = 0
 c95: - state_g_1_1 - 2 state_g_1_2 + zprod_1 = 0
 c96: state_g_2_0 >= 0
 c97: - 0.65000000000000002 state_2_0 + state_g_2_0 <= 0
 c98: state_g_2_1 >= 0
 c99: - 0.65000000000000002 state_2_1 + state_g_2_1 <= 0
 c100: state_2_0 + state_2_1 = 1
 c101: Y_2 - state_2_1 = 0
 c102: - G + state_g_2_0 + state_g_2_1 = 0
 c103: - state_g_2_1 + zprod_2 = 0
 c104: - h_1_2 + 2 zprod_1 + 2 zprod_2 >= 0
Bounds
 0 <= G <= 0.65000000000000002
 0 <= W_SP <= 6
 0 <= Y_1 <= 2
 0 <= Y_2 <= 1
 0 <= conn_0_0_1 <= 2
 0 <= conn_0_0_2 <= 2
 0 <= conn_0_1_0 <= 2
 0 <= conn_0_1_2 <= 2
 0 <= conn_0_2_0 <= 2
 0 <= conn_0_2_1 <= 2
 0 <= d_0_1 <= 0
 0 <= d_0_2 <= 0
 0 <= e_1 <= 1
 0 <= e_2 <= 1
 0 <= h_1_2 <= 3
 0 <= load_0_1 <= 2
 0 <= load_0_2 <= 2
 0 <= mode_0_1 <= 1
 0 <= mode_0_2 <= 1
 0 <= ord_0_1 <= 2
 0 <= ord_0_2 <= 2
 0 <= p_0_1 <= 2
 0 <= p_0_2 <= 1
 0 <= r_1 <= 2
 0 <= r_2 <= 1
 0 <= r_max <= 2
 0 <= r_min <= 2
 0 <= state_1_0 <= 1
 0 <= state_1_1 <= 1
 0 <= state_1_2 <= 1
 0 <= state_2_0 <= 1
 0 <= state_2_1 <= 1
 0 <= state_g_1_0 <= 0.65000000000000002
 0 <= state_g_1_1 <= 0.65000000000000002
 0 <= state_g_1_2 <= 0.65000000000000002
 0 <= state_g_2_0 <= 0.65000000000000002
 0 <= state_g_2_1 <= 0.65000000000000002
 0 <= x_0_0_1 <= 1
 0 <= x_0_0_2 <= 1
 0 <= x_0_1_0 <= 1
 0 <= x_0_1_2 <= 1
 0 <= x_0_2_0 <= 1
 0 <= x_0_2_1 <= 1
 0 <= z_0_1 <= 1
 0 <= z_0_2 <= 1
 0 <= zprod_1 <= 2
 0 <= zprod_2 <= 1
Generals
 Y_1
 Y_2
 d_0_1
 d_0_2
 load_0_1
 load_0_2
 p_0_1
 p_0_2
Binaries
 mode_0_1
 mode_0_2
 state_1_0
 state_1_1
 state_1_2
 state_2_0
 state_2_1
 x_0_0_1
 x_0_0_2
 x_0_1_0
 x_0_1_2
 x_0_2_0
 x_0_2_1
 z_0_1
 z_0_2
End
