\ ExactEBRP compact MILP generated from C++ command-line runner
Minimize
 obj: G + 0.14999999999999999 e_1 + 0.14999999999999999 e_2 + 0.14999999999999999 e_3 + 0.14999999999999999 e_4 + 0.14999999999999999 e_5
Subject To
 c1: h_1_2 + h_1_3 + h_1_4 + h_1_5 + h_2_3 + h_2_4 + h_2_5 + h_3_4 + h_3_5 + h_4_5 - 1.4166666666666665 r_1 - 1.4166666666666665 r_2 - 1.4166666666666665 r_3 - 1.4166666666666665 r_4 - 1.4166666666666665 r_5 <= 0
 c2: h_1_2 + h_1_3 + h_1_4 + h_1_5 + h_2_3 + h_2_4 + h_2_5 + h_3_4 + h_3_5 + h_4_5 >= 0
 c3: 4 h_1_2 - 1.4166666666666665 r_1 - 1.4166666666666665 r_2 - 1.4166666666666665 r_3 - 1.4166666666666665 r_4 - 1.4166666666666665 r_5 <= 0
 c4: 4 h_1_3 - 1.4166666666666665 r_1 - 1.4166666666666665 r_2 - 1.4166666666666665 r_3 - 1.4166666666666665 r_4 - 1.4166666666666665 r_5 <= 0
 c5: 4 h_1_4 - 1.4166666666666665 r_1 - 1.4166666666666665 r_2 - 1.4166666666666665 r_3 - 1.4166666666666665 r_4 - 1.4166666666666665 r_5 <= 0
 c6: 4 h_1_5 - 1.4166666666666665 r_1 - 1.4166666666666665 r_2 - 1.4166666666666665 r_3 - 1.4166666666666665 r_4 - 1.4166666666666665 r_5 <= 0
 c7: 4 h_2_3 - 1.4166666666666665 r_1 - 1.4166666666666665 r_2 - 1.4166666666666665 r_3 - 1.4166666666666665 r_4 - 1.4166666666666665 r_5 <= 0
 c8: 4 h_2_4 - 1.4166666666666665 r_1 - 1.4166666666666665 r_2 - 1.4166666666666665 r_3 - 1.4166666666666665 r_4 - 1.4166666666666665 r_5 <= 0
 c9: 4 h_2_5 - 1.4166666666666665 r_1 - 1.4166666666666665 r_2 - 1.4166666666666665 r_3 - 1.4166666666666665 r_4 - 1.4166666666666665 r_5 <= 0
 c10: 4 h_3_4 - 1.4166666666666665 r_1 - 1.4166666666666665 r_2 - 1.4166666666666665 r_3 - 1.4166666666666665 r_4 - 1.4166666666666665 r_5 <= 0
 c11: 4 h_3_5 - 1.4166666666666665 r_1 - 1.4166666666666665 r_2 - 1.4166666666666665 r_3 - 1.4166666666666665 r_4 - 1.4166666666666665 r_5 <= 0
 c12: 4 h_4_5 - 1.4166666666666665 r_1 - 1.4166666666666665 r_2 - 1.4166666666666665 r_3 - 1.4166666666666665 r_4 - 1.4166666666666665 r_5 <= 0
 c13: r_1 - r_2 <= 3.5416666666666661
 c14: - r_1 + r_2 <= 3.5416666666666661
 c15: r_1 - r_3 <= 3.5416666666666661
 c16: - r_1 + r_3 <= 3.5416666666666661
 c17: r_1 - r_4 <= 3.5416666666666661
 c18: - r_1 + r_4 <= 3.5416666666666661
 c19: r_1 - r_5 <= 3.5416666666666661
 c20: - r_1 + r_5 <= 3.5416666666666661
 c21: r_2 - r_3 <= 3.5416666666666661
 c22: - r_2 + r_3 <= 3.5416666666666661
 c23: r_2 - r_4 <= 3.5416666666666661
 c24: - r_2 + r_4 <= 3.5416666666666661
 c25: r_2 - r_5 <= 3.5416666666666661
 c26: - r_2 + r_5 <= 3.5416666666666661
 c27: r_3 - r_4 <= 3.5416666666666661
 c28: - r_3 + r_4 <= 3.5416666666666661
 c29: r_3 - r_5 <= 3.5416666666666661
 c30: - r_3 + r_5 <= 3.5416666666666661
 c31: r_4 - r_5 <= 3.5416666666666661
 c32: - r_4 + r_5 <= 3.5416666666666661
 c33: 2.5833333333333335 r_1 - 5.4166666666666661 r_2 - 1.4166666666666665 r_3 - 1.4166666666666665 r_4 - 1.4166666666666665 r_5 <= 0
 c34: - 5.4166666666666661 r_1 + 2.5833333333333335 r_2 - 1.4166666666666665 r_3 - 1.4166666666666665 r_4 - 1.4166666666666665 r_5 <= 0
 c35: 2.5833333333333335 r_1 - 1.4166666666666665 r_2 - 5.4166666666666661 r_3 - 1.4166666666666665 r_4 - 1.4166666666666665 r_5 <= 0
 c36: - 5.4166666666666661 r_1 - 1.4166666666666665 r_2 + 2.5833333333333335 r_3 - 1.4166666666666665 r_4 - 1.4166666666666665 r_5 <= 0
 c37: 2.5833333333333335 r_1 - 1.4166666666666665 r_2 - 1.4166666666666665 r_3 - 5.4166666666666661 r_4 - 1.4166666666666665 r_5 <= 0
 c38: - 5.4166666666666661 r_1 - 1.4166666666666665 r_2 - 1.4166666666666665 r_3 + 2.5833333333333335 r_4 - 1.4166666666666665 r_5 <= 0
 c39: 2.5833333333333335 r_1 - 1.4166666666666665 r_2 - 1.4166666666666665 r_3 - 1.4166666666666665 r_4 - 5.4166666666666661 r_5 <= 0
 c40: - 5.4166666666666661 r_1 - 1.4166666666666665 r_2 - 1.4166666666666665 r_3 - 1.4166666666666665 r_4 + 2.5833333333333335 r_5 <= 0
 c41: - 1.4166666666666665 r_1 + 2.5833333333333335 r_2 - 5.4166666666666661 r_3 - 1.4166666666666665 r_4 - 1.4166666666666665 r_5 <= 0
 c42: - 1.4166666666666665 r_1 - 5.4166666666666661 r_2 + 2.5833333333333335 r_3 - 1.4166666666666665 r_4 - 1.4166666666666665 r_5 <= 0
 c43: - 1.4166666666666665 r_1 + 2.5833333333333335 r_2 - 1.4166666666666665 r_3 - 5.4166666666666661 r_4 - 1.4166666666666665 r_5 <= 0
 c44: - 1.4166666666666665 r_1 - 5.4166666666666661 r_2 - 1.4166666666666665 r_3 + 2.5833333333333335 r_4 - 1.4166666666666665 r_5 <= 0
 c45: - 1.4166666666666665 r_1 + 2.5833333333333335 r_2 - 1.4166666666666665 r_3 - 1.4166666666666665 r_4 - 5.4166666666666661 r_5 <= 0
 c46: - 1.4166666666666665 r_1 - 5.4166666666666661 r_2 - 1.4166666666666665 r_3 - 1.4166666666666665 r_4 + 2.5833333333333335 r_5 <= 0
 c47: - 1.4166666666666665 r_1 - 1.4166666666666665 r_2 + 2.5833333333333335 r_3 - 5.4166666666666661 r_4 - 1.4166666666666665 r_5 <= 0
 c48: - 1.4166666666666665 r_1 - 1.4166666666666665 r_2 - 5.4166666666666661 r_3 + 2.5833333333333335 r_4 - 1.4166666666666665 r_5 <= 0
 c49: - 1.4166666666666665 r_1 - 1.4166666666666665 r_2 + 2.5833333333333335 r_3 - 1.4166666666666665 r_4 - 5.4166666666666661 r_5 <= 0
 c50: - 1.4166666666666665 r_1 - 1.4166666666666665 r_2 - 5.4166666666666661 r_3 - 1.4166666666666665 r_4 + 2.5833333333333335 r_5 <= 0
 c51: - 1.4166666666666665 r_1 - 1.4166666666666665 r_2 - 1.4166666666666665 r_3 + 2.5833333333333335 r_4 - 5.4166666666666661 r_5 <= 0
 c52: - 1.4166666666666665 r_1 - 1.4166666666666665 r_2 - 1.4166666666666665 r_3 - 5.4166666666666661 r_4 + 2.5833333333333335 r_5 <= 0
 c53: G + 0.14999999999999999 e_1 + 0.14999999999999999 e_2 + 0.14999999999999999 e_3 + 0.14999999999999999 e_4 + 0.14999999999999999 e_5 <= 0.28333333333333333
 c54: 7.5 e_1 + 7.5 e_2 + 7.5 e_3 + 7.5 e_4 + 7.5 e_5 + h_1_2 + h_1_3 + h_1_4 + h_1_5 + h_2_3 + h_2_4 + h_2_5 + h_3_4 + h_3_5 + h_4_5 <= 14.166666666666666
 c55: e_1 + e_2 + e_3 + e_4 + e_5 >= 0
 c56: e_1 <= 1.8888888888888888
 c57: e_2 <= 1.8888888888888888
 c58: e_3 <= 1.8888888888888888
 c59: e_4 <= 1.8888888888888888
 c60: e_5 <= 1.8888888888888888
 c61: W_SP >= -0
 c62: W_SP - 10 e_1 - 10 e_2 - 10 e_3 - 10 e_4 - 10 e_5 - 5 r_1 - 5 r_2 - 5 r_3 - 5 r_4 - 5 r_5 >= -50
 c63: W_SP - 10 e_1 - 10 e_2 - 10 e_3 - 10 e_4 - 10 e_5 <= -0
 c64: W_SP - 5 r_1 - 5 r_2 - 5 r_3 - 5 r_4 - 5 r_5 <= -0
 c65: 0.75 W_SP + h_1_2 + h_1_3 + h_1_4 + h_1_5 + h_2_3 + h_2_4 + h_2_5 + h_3_4 + h_3_5 + h_4_5 - 1.4166666666666665 r_1 - 1.4166666666666665 r_2 - 1.4166666666666665 r_3 - 1.4166666666666665 r_4 - 1.4166666666666665 r_5 <= 0
 c66: x_0_0_1 + x_0_0_2 + x_0_0_3 + x_0_0_4 + x_0_0_5 - x_0_1_0 - x_0_2_0 - x_0_3_0 - x_0_4_0 - x_0_5_0 = 0
 c67: x_0_0_1 + x_0_0_2 + x_0_0_3 + x_0_0_4 + x_0_0_5 <= 1
 c68: x_0_0_1 + x_0_2_1 + x_0_3_1 + x_0_4_1 + x_0_5_1 - z_0_1 = 0
 c69: x_0_1_0 + x_0_1_2 + x_0_1_3 + x_0_1_4 + x_0_1_5 - z_0_1 = 0
 c70: x_0_0_2 + x_0_1_2 + x_0_3_2 + x_0_4_2 + x_0_5_2 - z_0_2 = 0
 c71: x_0_2_0 + x_0_2_1 + x_0_2_3 + x_0_2_4 + x_0_2_5 - z_0_2 = 0
 c72: x_0_0_3 + x_0_1_3 + x_0_2_3 + x_0_4_3 + x_0_5_3 - z_0_3 = 0
 c73: x_0_3_0 + x_0_3_1 + x_0_3_2 + x_0_3_4 + x_0_3_5 - z_0_3 = 0
 c74: x_0_0_4 + x_0_1_4 + x_0_2_4 + x_0_3_4 + x_0_5_4 - z_0_4 = 0
 c75: x_0_4_0 + x_0_4_1 + x_0_4_2 + x_0_4_3 + x_0_4_5 - z_0_4 = 0
 c76: x_0_0_5 + x_0_1_5 + x_0_2_5 + x_0_3_5 + x_0_4_5 - z_0_5 = 0
 c77: x_0_5_0 + x_0_5_1 + x_0_5_2 + x_0_5_3 + x_0_5_4 - z_0_5 = 0
 c78: x_1_0_1 + x_1_0_2 + x_1_0_3 + x_1_0_4 + x_1_0_5 - x_1_1_0 - x_1_2_0 - x_1_3_0 - x_1_4_0 - x_1_5_0 = 0
 c79: x_1_0_1 + x_1_0_2 + x_1_0_3 + x_1_0_4 + x_1_0_5 <= 1
 c80: x_1_0_1 + x_1_2_1 + x_1_3_1 + x_1_4_1 + x_1_5_1 - z_1_1 = 0
 c81: x_1_1_0 + x_1_1_2 + x_1_1_3 + x_1_1_4 + x_1_1_5 - z_1_1 = 0
 c82: x_1_0_2 + x_1_1_2 + x_1_3_2 + x_1_4_2 + x_1_5_2 - z_1_2 = 0
 c83: x_1_2_0 + x_1_2_1 + x_1_2_3 + x_1_2_4 + x_1_2_5 - z_1_2 = 0
 c84: x_1_0_3 + x_1_1_3 + x_1_2_3 + x_1_4_3 + x_1_5_3 - z_1_3 = 0
 c85: x_1_3_0 + x_1_3_1 + x_1_3_2 + x_1_3_4 + x_1_3_5 - z_1_3 = 0
 c86: x_1_0_4 + x_1_1_4 + x_1_2_4 + x_1_3_4 + x_1_5_4 - z_1_4 = 0
 c87: x_1_4_0 + x_1_4_1 + x_1_4_2 + x_1_4_3 + x_1_4_5 - z_1_4 = 0
 c88: x_1_0_5 + x_1_1_5 + x_1_2_5 + x_1_3_5 + x_1_4_5 - z_1_5 = 0
 c89: x_1_5_0 + x_1_5_1 + x_1_5_2 + x_1_5_3 + x_1_5_4 - z_1_5 = 0
 c90: conn_0_0_1 - 5 x_0_0_1 <= 0
 c91: conn_0_0_2 - 5 x_0_0_2 <= 0
 c92: conn_0_0_3 - 5 x_0_0_3 <= 0
 c93: conn_0_0_4 - 5 x_0_0_4 <= 0
 c94: conn_0_0_5 - 5 x_0_0_5 <= 0
 c95: conn_0_1_0 - 5 x_0_1_0 <= 0
 c96: conn_0_1_2 - 5 x_0_1_2 <= 0
 c97: conn_0_1_3 - 5 x_0_1_3 <= 0
 c98: conn_0_1_4 - 5 x_0_1_4 <= 0
 c99: conn_0_1_5 - 5 x_0_1_5 <= 0
 c100: conn_0_2_0 - 5 x_0_2_0 <= 0
 c101: conn_0_2_1 - 5 x_0_2_1 <= 0
 c102: conn_0_2_3 - 5 x_0_2_3 <= 0
 c103: conn_0_2_4 - 5 x_0_2_4 <= 0
 c104: conn_0_2_5 - 5 x_0_2_5 <= 0
 c105: conn_0_3_0 - 5 x_0_3_0 <= 0
 c106: conn_0_3_1 - 5 x_0_3_1 <= 0
 c107: conn_0_3_2 - 5 x_0_3_2 <= 0
 c108: conn_0_3_4 - 5 x_0_3_4 <= 0
 c109: conn_0_3_5 - 5 x_0_3_5 <= 0
 c110: conn_0_4_0 - 5 x_0_4_0 <= 0
 c111: conn_0_4_1 - 5 x_0_4_1 <= 0
 c112: conn_0_4_2 - 5 x_0_4_2 <= 0
 c113: conn_0_4_3 - 5 x_0_4_3 <= 0
 c114: conn_0_4_5 - 5 x_0_4_5 <= 0
 c115: conn_0_5_0 - 5 x_0_5_0 <= 0
 c116: conn_0_5_1 - 5 x_0_5_1 <= 0
 c117: conn_0_5_2 - 5 x_0_5_2 <= 0
 c118: conn_0_5_3 - 5 x_0_5_3 <= 0
 c119: conn_0_5_4 - 5 x_0_5_4 <= 0
 c120: conn_0_0_1 - conn_0_1_0 - conn_0_1_2 - conn_0_1_3 - conn_0_1_4 - conn_0_1_5 + conn_0_2_1 + conn_0_3_1 + conn_0_4_1 + conn_0_5_1 - z_0_1 = 0
 c121: conn_0_0_2 + conn_0_1_2 - conn_0_2_0 - conn_0_2_1 - conn_0_2_3 - conn_0_2_4 - conn_0_2_5 + conn_0_3_2 + conn_0_4_2 + conn_0_5_2 - z_0_2 = 0
 c122: conn_0_0_3 + conn_0_1_3 + conn_0_2_3 - conn_0_3_0 - conn_0_3_1 - conn_0_3_2 - conn_0_3_4 - conn_0_3_5 + conn_0_4_3 + conn_0_5_3 - z_0_3 = 0
 c123: conn_0_0_4 + conn_0_1_4 + conn_0_2_4 + conn_0_3_4 - conn_0_4_0 - conn_0_4_1 - conn_0_4_2 - conn_0_4_3 - conn_0_4_5 + conn_0_5_4 - z_0_4 = 0
 c124: conn_0_0_5 + conn_0_1_5 + conn_0_2_5 + conn_0_3_5 + conn_0_4_5 - conn_0_5_0 - conn_0_5_1 - conn_0_5_2 - conn_0_5_3 - conn_0_5_4 - z_0_5 = 0
 c125: conn_0_0_1 + conn_0_0_2 + conn_0_0_3 + conn_0_0_4 + conn_0_0_5 - conn_0_1_0 - conn_0_2_0 - conn_0_3_0 - conn_0_4_0 - conn_0_5_0 - z_0_1 - z_0_2 - z_0_3 - z_0_4 - z_0_5 = 0
 c126: conn_1_0_1 - 5 x_1_0_1 <= 0
 c127: conn_1_0_2 - 5 x_1_0_2 <= 0
 c128: conn_1_0_3 - 5 x_1_0_3 <= 0
 c129: conn_1_0_4 - 5 x_1_0_4 <= 0
 c130: conn_1_0_5 - 5 x_1_0_5 <= 0
 c131: conn_1_1_0 - 5 x_1_1_0 <= 0
 c132: conn_1_1_2 - 5 x_1_1_2 <= 0
 c133: conn_1_1_3 - 5 x_1_1_3 <= 0
 c134: conn_1_1_4 - 5 x_1_1_4 <= 0
 c135: conn_1_1_5 - 5 x_1_1_5 <= 0
 c136: conn_1_2_0 - 5 x_1_2_0 <= 0
 c137: conn_1_2_1 - 5 x_1_2_1 <= 0
 c138: conn_1_2_3 - 5 x_1_2_3 <= 0
 c139: conn_1_2_4 - 5 x_1_2_4 <= 0
 c140: conn_1_2_5 - 5 x_1_2_5 <= 0
 c141: conn_1_3_0 - 5 x_1_3_0 <= 0
 c142: conn_1_3_1 - 5 x_1_3_1 <= 0
 c143: conn_1_3_2 - 5 x_1_3_2 <= 0
 c144: conn_1_3_4 - 5 x_1_3_4 <= 0
 c145: conn_1_3_5 - 5 x_1_3_5 <= 0
 c146: conn_1_4_0 - 5 x_1_4_0 <= 0
 c147: conn_1_4_1 - 5 x_1_4_1 <= 0
 c148: conn_1_4_2 - 5 x_1_4_2 <= 0
 c149: conn_1_4_3 - 5 x_1_4_3 <= 0
 c150: conn_1_4_5 - 5 x_1_4_5 <= 0
 c151: conn_1_5_0 - 5 x_1_5_0 <= 0
 c152: conn_1_5_1 - 5 x_1_5_1 <= 0
 c153: conn_1_5_2 - 5 x_1_5_2 <= 0
 c154: conn_1_5_3 - 5 x_1_5_3 <= 0
 c155: conn_1_5_4 - 5 x_1_5_4 <= 0
 c156: conn_1_0_1 - conn_1_1_0 - conn_1_1_2 - conn_1_1_3 - conn_1_1_4 - conn_1_1_5 + conn_1_2_1 + conn_1_3_1 + conn_1_4_1 + conn_1_5_1 - z_1_1 = 0
 c157: conn_1_0_2 + conn_1_1_2 - conn_1_2_0 - conn_1_2_1 - conn_1_2_3 - conn_1_2_4 - conn_1_2_5 + conn_1_3_2 + conn_1_4_2 + conn_1_5_2 - z_1_2 = 0
 c158: conn_1_0_3 + conn_1_1_3 + conn_1_2_3 - conn_1_3_0 - conn_1_3_1 - conn_1_3_2 - conn_1_3_4 - conn_1_3_5 + conn_1_4_3 + conn_1_5_3 - z_1_3 = 0
 c159: conn_1_0_4 + conn_1_1_4 + conn_1_2_4 + conn_1_3_4 - conn_1_4_0 - conn_1_4_1 - conn_1_4_2 - conn_1_4_3 - conn_1_4_5 + conn_1_5_4 - z_1_4 = 0
 c160: conn_1_0_5 + conn_1_1_5 + conn_1_2_5 + conn_1_3_5 + conn_1_4_5 - conn_1_5_0 - conn_1_5_1 - conn_1_5_2 - conn_1_5_3 - conn_1_5_4 - z_1_5 = 0
 c161: conn_1_0_1 + conn_1_0_2 + conn_1_0_3 + conn_1_0_4 + conn_1_0_5 - conn_1_1_0 - conn_1_2_0 - conn_1_3_0 - conn_1_4_0 - conn_1_5_0 - z_1_1 - z_1_2 - z_1_3 - z_1_4 - z_1_5 = 0
 c162: z_0_1 + z_1_1 <= 1
 c163: z_0_2 + z_1_2 <= 1
 c164: z_0_3 + z_1_3 <= 1
 c165: z_0_4 + z_1_4 <= 1
 c166: z_0_5 + z_1_5 <= 1
 c167: Y_1 + Y_2 + Y_3 + Y_4 + Y_5 <= 10
 c168: Y_1 + Y_2 + Y_3 + Y_4 + Y_5 >= 0
 c169: d_0_1 - p_0_2 - p_0_3 - p_0_4 - p_0_5 <= 0
 c170: d_0_2 - p_0_1 - p_0_3 - p_0_4 - p_0_5 <= 0
 c171: d_0_3 - p_0_1 - p_0_2 - p_0_4 - p_0_5 <= 0
 c172: d_0_4 - p_0_1 - p_0_2 - p_0_3 - p_0_5 <= 0
 c173: d_0_5 - p_0_1 - p_0_2 - p_0_3 - p_0_4 <= 0
 c174: d_1_1 - p_1_2 - p_1_3 - p_1_4 - p_1_5 <= 0
 c175: d_1_2 - p_1_1 - p_1_3 - p_1_4 - p_1_5 <= 0
 c176: d_1_3 - p_1_1 - p_1_2 - p_1_4 - p_1_5 <= 0
 c177: d_1_4 - p_1_1 - p_1_2 - p_1_3 - p_1_5 <= 0
 c178: d_1_5 - p_1_1 - p_1_2 - p_1_3 - p_1_4 <= 0
 c179: ord_0_1 - z_0_1 >= 0
 c180: ord_0_1 - 5 z_0_1 <= 0
 c181: ord_0_2 - z_0_2 >= 0
 c182: ord_0_2 - 5 z_0_2 <= 0
 c183: ord_0_3 - z_0_3 >= 0
 c184: ord_0_3 - 5 z_0_3 <= 0
 c185: ord_0_4 - z_0_4 >= 0
 c186: ord_0_4 - 5 z_0_4 <= 0
 c187: ord_0_5 - z_0_5 >= 0
 c188: ord_0_5 - 5 z_0_5 <= 0
 c189: ord_0_1 - ord_0_2 + 5 x_0_1_2 <= 4
 c190: ord_0_1 - ord_0_3 + 5 x_0_1_3 <= 4
 c191: ord_0_1 - ord_0_4 + 5 x_0_1_4 <= 4
 c192: ord_0_1 - ord_0_5 + 5 x_0_1_5 <= 4
 c193: - ord_0_1 + ord_0_2 + 5 x_0_2_1 <= 4
 c194: ord_0_2 - ord_0_3 + 5 x_0_2_3 <= 4
 c195: ord_0_2 - ord_0_4 + 5 x_0_2_4 <= 4
 c196: ord_0_2 - ord_0_5 + 5 x_0_2_5 <= 4
 c197: - ord_0_1 + ord_0_3 + 5 x_0_3_1 <= 4
 c198: - ord_0_2 + ord_0_3 + 5 x_0_3_2 <= 4
 c199: ord_0_3 - ord_0_4 + 5 x_0_3_4 <= 4
 c200: ord_0_3 - ord_0_5 + 5 x_0_3_5 <= 4
 c201: - ord_0_1 + ord_0_4 + 5 x_0_4_1 <= 4
 c202: - ord_0_2 + ord_0_4 + 5 x_0_4_2 <= 4
 c203: - ord_0_3 + ord_0_4 + 5 x_0_4_3 <= 4
 c204: ord_0_4 - ord_0_5 + 5 x_0_4_5 <= 4
 c205: - ord_0_1 + ord_0_5 + 5 x_0_5_1 <= 4
 c206: - ord_0_2 + ord_0_5 + 5 x_0_5_2 <= 4
 c207: - ord_0_3 + ord_0_5 + 5 x_0_5_3 <= 4
 c208: - ord_0_4 + ord_0_5 + 5 x_0_5_4 <= 4
 c209: ord_1_1 - z_1_1 >= 0
 c210: ord_1_1 - 5 z_1_1 <= 0
 c211: ord_1_2 - z_1_2 >= 0
 c212: ord_1_2 - 5 z_1_2 <= 0
 c213: ord_1_3 - z_1_3 >= 0
 c214: ord_1_3 - 5 z_1_3 <= 0
 c215: ord_1_4 - z_1_4 >= 0
 c216: ord_1_4 - 5 z_1_4 <= 0
 c217: ord_1_5 - z_1_5 >= 0
 c218: ord_1_5 - 5 z_1_5 <= 0
 c219: ord_1_1 - ord_1_2 + 5 x_1_1_2 <= 4
 c220: ord_1_1 - ord_1_3 + 5 x_1_1_3 <= 4
 c221: ord_1_1 - ord_1_4 + 5 x_1_1_4 <= 4
 c222: ord_1_1 - ord_1_5 + 5 x_1_1_5 <= 4
 c223: - ord_1_1 + ord_1_2 + 5 x_1_2_1 <= 4
 c224: ord_1_2 - ord_1_3 + 5 x_1_2_3 <= 4
 c225: ord_1_2 - ord_1_4 + 5 x_1_2_4 <= 4
 c226: ord_1_2 - ord_1_5 + 5 x_1_2_5 <= 4
 c227: - ord_1_1 + ord_1_3 + 5 x_1_3_1 <= 4
 c228: - ord_1_2 + ord_1_3 + 5 x_1_3_2 <= 4
 c229: ord_1_3 - ord_1_4 + 5 x_1_3_4 <= 4
 c230: ord_1_3 - ord_1_5 + 5 x_1_3_5 <= 4
 c231: - ord_1_1 + ord_1_4 + 5 x_1_4_1 <= 4
 c232: - ord_1_2 + ord_1_4 + 5 x_1_4_2 <= 4
 c233: - ord_1_3 + ord_1_4 + 5 x_1_4_3 <= 4
 c234: ord_1_4 - ord_1_5 + 5 x_1_4_5 <= 4
 c235: - ord_1_1 + ord_1_5 + 5 x_1_5_1 <= 4
 c236: - ord_1_2 + ord_1_5 + 5 x_1_5_2 <= 4
 c237: - ord_1_3 + ord_1_5 + 5 x_1_5_3 <= 4
 c238: - ord_1_4 + ord_1_5 + 5 x_1_5_4 <= 4
 c239: p_0_1 - 2 z_0_1 <= 0
 c240: d_0_1 <= 0
 c241: mode_0_1 - z_0_1 <= 0
 c242: - 2 mode_0_1 + p_0_1 <= 0
 c243: d_0_1 <= 0
 c244: d_0_1 + p_0_1 - z_0_1 >= 0
 c245: load_0_1 - 5 z_0_1 <= 0
 c246: p_0_2 - 2 z_0_2 <= 0
 c247: d_0_2 <= 0
 c248: mode_0_2 - z_0_2 <= 0
 c249: - 2 mode_0_2 + p_0_2 <= 0
 c250: d_0_2 <= 0
 c251: d_0_2 + p_0_2 - z_0_2 >= 0
 c252: load_0_2 - 5 z_0_2 <= 0
 c253: p_0_3 - 2 z_0_3 <= 0
 c254: d_0_3 <= 0
 c255: mode_0_3 - z_0_3 <= 0
 c256: - 2 mode_0_3 + p_0_3 <= 0
 c257: d_0_3 <= 0
 c258: d_0_3 + p_0_3 - z_0_3 >= 0
 c259: load_0_3 - 5 z_0_3 <= 0
 c260: p_0_4 - 2 z_0_4 <= 0
 c261: d_0_4 <= 0
 c262: mode_0_4 - z_0_4 <= 0
 c263: - 2 mode_0_4 + p_0_4 <= 0
 c264: d_0_4 <= 0
 c265: d_0_4 + p_0_4 - z_0_4 >= 0
 c266: load_0_4 - 5 z_0_4 <= 0
 c267: p_0_5 - 2 z_0_5 <= 0
 c268: d_0_5 <= 0
 c269: mode_0_5 - z_0_5 <= 0
 c270: - 2 mode_0_5 + p_0_5 <= 0
 c271: d_0_5 <= 0
 c272: d_0_5 + p_0_5 - z_0_5 >= 0
 c273: load_0_5 - 5 z_0_5 <= 0
 c274: d_0_1 + load_0_1 - p_0_1 + 5 x_0_0_1 <= 5
 c275: d_0_1 + load_0_1 - p_0_1 - 5 x_0_0_1 >= -5
 c276: d_0_2 + load_0_2 - p_0_2 + 5 x_0_0_2 <= 5
 c277: d_0_2 + load_0_2 - p_0_2 - 5 x_0_0_2 >= -5
 c278: d_0_3 + load_0_3 - p_0_3 + 5 x_0_0_3 <= 5
 c279: d_0_3 + load_0_3 - p_0_3 - 5 x_0_0_3 >= -5
 c280: d_0_4 + load_0_4 - p_0_4 + 5 x_0_0_4 <= 5
 c281: d_0_4 + load_0_4 - p_0_4 - 5 x_0_0_4 >= -5
 c282: d_0_5 + load_0_5 - p_0_5 + 5 x_0_0_5 <= 5
 c283: d_0_5 + load_0_5 - p_0_5 - 5 x_0_0_5 >= -5
 c284: d_0_2 - load_0_1 + load_0_2 - p_0_2 + 5 x_0_1_2 <= 5
 c285: d_0_2 - load_0_1 + load_0_2 - p_0_2 - 5 x_0_1_2 >= -5
 c286: d_0_3 - load_0_1 + load_0_3 - p_0_3 + 5 x_0_1_3 <= 5
 c287: d_0_3 - load_0_1 + load_0_3 - p_0_3 - 5 x_0_1_3 >= -5
 c288: d_0_4 - load_0_1 + load_0_4 - p_0_4 + 5 x_0_1_4 <= 5
 c289: d_0_4 - load_0_1 + load_0_4 - p_0_4 - 5 x_0_1_4 >= -5
 c290: d_0_5 - load_0_1 + load_0_5 - p_0_5 + 5 x_0_1_5 <= 5
 c291: d_0_5 - load_0_1 + load_0_5 - p_0_5 - 5 x_0_1_5 >= -5
 c292: d_0_1 + load_0_1 - load_0_2 - p_0_1 + 5 x_0_2_1 <= 5
 c293: d_0_1 + load_0_1 - load_0_2 - p_0_1 - 5 x_0_2_1 >= -5
 c294: d_0_3 - load_0_2 + load_0_3 - p_0_3 + 5 x_0_2_3 <= 5
 c295: d_0_3 - load_0_2 + load_0_3 - p_0_3 - 5 x_0_2_3 >= -5
 c296: d_0_4 - load_0_2 + load_0_4 - p_0_4 + 5 x_0_2_4 <= 5
 c297: d_0_4 - load_0_2 + load_0_4 - p_0_4 - 5 x_0_2_4 >= -5
 c298: d_0_5 - load_0_2 + load_0_5 - p_0_5 + 5 x_0_2_5 <= 5
 c299: d_0_5 - load_0_2 + load_0_5 - p_0_5 - 5 x_0_2_5 >= -5
 c300: d_0_1 + load_0_1 - load_0_3 - p_0_1 + 5 x_0_3_1 <= 5
 c301: d_0_1 + load_0_1 - load_0_3 - p_0_1 - 5 x_0_3_1 >= -5
 c302: d_0_2 + load_0_2 - load_0_3 - p_0_2 + 5 x_0_3_2 <= 5
 c303: d_0_2 + load_0_2 - load_0_3 - p_0_2 - 5 x_0_3_2 >= -5
 c304: d_0_4 - load_0_3 + load_0_4 - p_0_4 + 5 x_0_3_4 <= 5
 c305: d_0_4 - load_0_3 + load_0_4 - p_0_4 - 5 x_0_3_4 >= -5
 c306: d_0_5 - load_0_3 + load_0_5 - p_0_5 + 5 x_0_3_5 <= 5
 c307: d_0_5 - load_0_3 + load_0_5 - p_0_5 - 5 x_0_3_5 >= -5
 c308: d_0_1 + load_0_1 - load_0_4 - p_0_1 + 5 x_0_4_1 <= 5
 c309: d_0_1 + load_0_1 - load_0_4 - p_0_1 - 5 x_0_4_1 >= -5
 c310: d_0_2 + load_0_2 - load_0_4 - p_0_2 + 5 x_0_4_2 <= 5
 c311: d_0_2 + load_0_2 - load_0_4 - p_0_2 - 5 x_0_4_2 >= -5
 c312: d_0_3 + load_0_3 - load_0_4 - p_0_3 + 5 x_0_4_3 <= 5
 c313: d_0_3 + load_0_3 - load_0_4 - p_0_3 - 5 x_0_4_3 >= -5
 c314: d_0_5 - load_0_4 + load_0_5 - p_0_5 + 5 x_0_4_5 <= 5
 c315: d_0_5 - load_0_4 + load_0_5 - p_0_5 - 5 x_0_4_5 >= -5
 c316: d_0_1 + load_0_1 - load_0_5 - p_0_1 + 5 x_0_5_1 <= 5
 c317: d_0_1 + load_0_1 - load_0_5 - p_0_1 - 5 x_0_5_1 >= -5
 c318: d_0_2 + load_0_2 - load_0_5 - p_0_2 + 5 x_0_5_2 <= 5
 c319: d_0_2 + load_0_2 - load_0_5 - p_0_2 - 5 x_0_5_2 >= -5
 c320: d_0_3 + load_0_3 - load_0_5 - p_0_3 + 5 x_0_5_3 <= 5
 c321: d_0_3 + load_0_3 - load_0_5 - p_0_3 - 5 x_0_5_3 >= -5
 c322: d_0_4 + load_0_4 - load_0_5 - p_0_4 + 5 x_0_5_4 <= 5
 c323: d_0_4 + load_0_4 - load_0_5 - p_0_4 - 5 x_0_5_4 >= -5
 c324: - d_0_1 - d_0_2 - d_0_3 - d_0_4 - d_0_5 + p_0_1 + p_0_2 + p_0_3 + p_0_4 + p_0_5 >= 0
 c325: 0 G <= 5
 c326: p_1_1 - 2 z_1_1 <= 0
 c327: d_1_1 <= 0
 c328: mode_1_1 - z_1_1 <= 0
 c329: - 2 mode_1_1 + p_1_1 <= 0
 c330: d_1_1 <= 0
 c331: d_1_1 + p_1_1 - z_1_1 >= 0
 c332: load_1_1 - 5 z_1_1 <= 0
 c333: p_1_2 - 2 z_1_2 <= 0
 c334: d_1_2 <= 0
 c335: mode_1_2 - z_1_2 <= 0
 c336: - 2 mode_1_2 + p_1_2 <= 0
 c337: d_1_2 <= 0
 c338: d_1_2 + p_1_2 - z_1_2 >= 0
 c339: load_1_2 - 5 z_1_2 <= 0
 c340: p_1_3 - 2 z_1_3 <= 0
 c341: d_1_3 <= 0
 c342: mode_1_3 - z_1_3 <= 0
 c343: - 2 mode_1_3 + p_1_3 <= 0
 c344: d_1_3 <= 0
 c345: d_1_3 + p_1_3 - z_1_3 >= 0
 c346: load_1_3 - 5 z_1_3 <= 0
 c347: p_1_4 - 2 z_1_4 <= 0
 c348: d_1_4 <= 0
 c349: mode_1_4 - z_1_4 <= 0
 c350: - 2 mode_1_4 + p_1_4 <= 0
 c351: d_1_4 <= 0
 c352: d_1_4 + p_1_4 - z_1_4 >= 0
 c353: load_1_4 - 5 z_1_4 <= 0
 c354: p_1_5 - 2 z_1_5 <= 0
 c355: d_1_5 <= 0
 c356: mode_1_5 - z_1_5 <= 0
 c357: - 2 mode_1_5 + p_1_5 <= 0
 c358: d_1_5 <= 0
 c359: d_1_5 + p_1_5 - z_1_5 >= 0
 c360: load_1_5 - 5 z_1_5 <= 0
 c361: d_1_1 + load_1_1 - p_1_1 + 5 x_1_0_1 <= 5
 c362: d_1_1 + load_1_1 - p_1_1 - 5 x_1_0_1 >= -5
 c363: d_1_2 + load_1_2 - p_1_2 + 5 x_1_0_2 <= 5
 c364: d_1_2 + load_1_2 - p_1_2 - 5 x_1_0_2 >= -5
 c365: d_1_3 + load_1_3 - p_1_3 + 5 x_1_0_3 <= 5
 c366: d_1_3 + load_1_3 - p_1_3 - 5 x_1_0_3 >= -5
 c367: d_1_4 + load_1_4 - p_1_4 + 5 x_1_0_4 <= 5
 c368: d_1_4 + load_1_4 - p_1_4 - 5 x_1_0_4 >= -5
 c369: d_1_5 + load_1_5 - p_1_5 + 5 x_1_0_5 <= 5
 c370: d_1_5 + load_1_5 - p_1_5 - 5 x_1_0_5 >= -5
 c371: d_1_2 - load_1_1 + load_1_2 - p_1_2 + 5 x_1_1_2 <= 5
 c372: d_1_2 - load_1_1 + load_1_2 - p_1_2 - 5 x_1_1_2 >= -5
 c373: d_1_3 - load_1_1 + load_1_3 - p_1_3 + 5 x_1_1_3 <= 5
 c374: d_1_3 - load_1_1 + load_1_3 - p_1_3 - 5 x_1_1_3 >= -5
 c375: d_1_4 - load_1_1 + load_1_4 - p_1_4 + 5 x_1_1_4 <= 5
 c376: d_1_4 - load_1_1 + load_1_4 - p_1_4 - 5 x_1_1_4 >= -5
 c377: d_1_5 - load_1_1 + load_1_5 - p_1_5 + 5 x_1_1_5 <= 5
 c378: d_1_5 - load_1_1 + load_1_5 - p_1_5 - 5 x_1_1_5 >= -5
 c379: d_1_1 + load_1_1 - load_1_2 - p_1_1 + 5 x_1_2_1 <= 5
 c380: d_1_1 + load_1_1 - load_1_2 - p_1_1 - 5 x_1_2_1 >= -5
 c381: d_1_3 - load_1_2 + load_1_3 - p_1_3 + 5 x_1_2_3 <= 5
 c382: d_1_3 - load_1_2 + load_1_3 - p_1_3 - 5 x_1_2_3 >= -5
 c383: d_1_4 - load_1_2 + load_1_4 - p_1_4 + 5 x_1_2_4 <= 5
 c384: d_1_4 - load_1_2 + load_1_4 - p_1_4 - 5 x_1_2_4 >= -5
 c385: d_1_5 - load_1_2 + load_1_5 - p_1_5 + 5 x_1_2_5 <= 5
 c386: d_1_5 - load_1_2 + load_1_5 - p_1_5 - 5 x_1_2_5 >= -5
 c387: d_1_1 + load_1_1 - load_1_3 - p_1_1 + 5 x_1_3_1 <= 5
 c388: d_1_1 + load_1_1 - load_1_3 - p_1_1 - 5 x_1_3_1 >= -5
 c389: d_1_2 + load_1_2 - load_1_3 - p_1_2 + 5 x_1_3_2 <= 5
 c390: d_1_2 + load_1_2 - load_1_3 - p_1_2 - 5 x_1_3_2 >= -5
 c391: d_1_4 - load_1_3 + load_1_4 - p_1_4 + 5 x_1_3_4 <= 5
 c392: d_1_4 - load_1_3 + load_1_4 - p_1_4 - 5 x_1_3_4 >= -5
 c393: d_1_5 - load_1_3 + load_1_5 - p_1_5 + 5 x_1_3_5 <= 5
 c394: d_1_5 - load_1_3 + load_1_5 - p_1_5 - 5 x_1_3_5 >= -5
 c395: d_1_1 + load_1_1 - load_1_4 - p_1_1 + 5 x_1_4_1 <= 5
 c396: d_1_1 + load_1_1 - load_1_4 - p_1_1 - 5 x_1_4_1 >= -5
 c397: d_1_2 + load_1_2 - load_1_4 - p_1_2 + 5 x_1_4_2 <= 5
 c398: d_1_2 + load_1_2 - load_1_4 - p_1_2 - 5 x_1_4_2 >= -5
 c399: d_1_3 + load_1_3 - load_1_4 - p_1_3 + 5 x_1_4_3 <= 5
 c400: d_1_3 + load_1_3 - load_1_4 - p_1_3 - 5 x_1_4_3 >= -5
 c401: d_1_5 - load_1_4 + load_1_5 - p_1_5 + 5 x_1_4_5 <= 5
 c402: d_1_5 - load_1_4 + load_1_5 - p_1_5 - 5 x_1_4_5 >= -5
 c403: d_1_1 + load_1_1 - load_1_5 - p_1_1 + 5 x_1_5_1 <= 5
 c404: d_1_1 + load_1_1 - load_1_5 - p_1_1 - 5 x_1_5_1 >= -5
 c405: d_1_2 + load_1_2 - load_1_5 - p_1_2 + 5 x_1_5_2 <= 5
 c406: d_1_2 + load_1_2 - load_1_5 - p_1_2 - 5 x_1_5_2 >= -5
 c407: d_1_3 + load_1_3 - load_1_5 - p_1_3 + 5 x_1_5_3 <= 5
 c408: d_1_3 + load_1_3 - load_1_5 - p_1_3 - 5 x_1_5_3 >= -5
 c409: d_1_4 + load_1_4 - load_1_5 - p_1_4 + 5 x_1_5_4 <= 5
 c410: d_1_4 + load_1_4 - load_1_5 - p_1_4 - 5 x_1_5_4 >= -5
 c411: - d_1_1 - d_1_2 - d_1_3 - d_1_4 - d_1_5 + p_1_1 + p_1_2 + p_1_3 + p_1_4 + p_1_5 >= 0
 c412: 0 G <= 5
 c413: 5 z_0_1 + 5 z_0_2 <= 15
 c414: 5 z_0_1 + 5 z_0_3 <= 15
 c415: 5 z_0_1 + 5 z_0_4 <= 15
 c416: 5 z_0_1 + 5 z_0_5 <= 15
 c417: 5 z_0_2 + 5 z_0_3 <= 15
 c418: 5 z_0_2 + 5 z_0_4 <= 15
 c419: 5 z_0_2 + 5 z_0_5 <= 15
 c420: 5 z_0_3 + 5 z_0_4 <= 15
 c421: 5 z_0_3 + 5 z_0_5 <= 15
 c422: 5 z_0_4 + 5 z_0_5 <= 15
 c423: 5 z_0_1 + 5 z_0_2 + 5 z_0_3 <= 20
 c424: 5 z_0_1 + 5 z_0_2 + 5 z_0_4 <= 20
 c425: 5 z_0_1 + 5 z_0_2 + 5 z_0_5 <= 20
 c426: 5 z_0_1 + 5 z_0_3 + 5 z_0_4 <= 20
 c427: 5 z_0_1 + 5 z_0_3 + 5 z_0_5 <= 20
 c428: 5 z_0_1 + 5 z_0_4 + 5 z_0_5 <= 20
 c429: 5 z_0_2 + 5 z_0_3 + 5 z_0_4 <= 20
 c430: 5 z_0_2 + 5 z_0_3 + 5 z_0_5 <= 20
 c431: 5 z_0_2 + 5 z_0_4 + 5 z_0_5 <= 20
 c432: 5 z_0_3 + 5 z_0_4 + 5 z_0_5 <= 20
 c433: 5 z_1_1 + 5 z_1_2 <= 15
 c434: 5 z_1_1 + 5 z_1_3 <= 15
 c435: 5 z_1_1 + 5 z_1_4 <= 15
 c436: 5 z_1_1 + 5 z_1_5 <= 15
 c437: 5 z_1_2 + 5 z_1_3 <= 15
 c438: 5 z_1_2 + 5 z_1_4 <= 15
 c439: 5 z_1_2 + 5 z_1_5 <= 15
 c440: 5 z_1_3 + 5 z_1_4 <= 15
 c441: 5 z_1_3 + 5 z_1_5 <= 15
 c442: 5 z_1_4 + 5 z_1_5 <= 15
 c443: 5 z_1_1 + 5 z_1_2 + 5 z_1_3 <= 20
 c444: 5 z_1_1 + 5 z_1_2 + 5 z_1_4 <= 20
 c445: 5 z_1_1 + 5 z_1_2 + 5 z_1_5 <= 20
 c446: 5 z_1_1 + 5 z_1_3 + 5 z_1_4 <= 20
 c447: 5 z_1_1 + 5 z_1_3 + 5 z_1_5 <= 20
 c448: 5 z_1_1 + 5 z_1_4 + 5 z_1_5 <= 20
 c449: 5 z_1_2 + 5 z_1_3 + 5 z_1_4 <= 20
 c450: 5 z_1_2 + 5 z_1_3 + 5 z_1_5 <= 20
 c451: 5 z_1_2 + 5 z_1_4 + 5 z_1_5 <= 20
 c452: 5 z_1_3 + 5 z_1_4 + 5 z_1_5 <= 20
 c453: z_0_1 + z_0_2 + z_0_3 + z_0_4 + z_0_5 - z_1_1 - z_1_2 - z_1_3 - z_1_4 - z_1_5 >= 0
 c454: Y_1 - d_0_1 - d_1_1 + p_0_1 + p_1_1 = 2
 c455: - Y_1 + r_1 = 0
 c456: e_1 - r_1 >= -1
 c457: e_1 + r_1 >= 1
 c458: Y_2 - d_0_2 - d_1_2 + p_0_2 + p_1_2 = 2
 c459: - Y_2 + r_2 = 0
 c460: e_2 - r_2 >= -1
 c461: e_2 + r_2 >= 1
 c462: Y_3 - d_0_3 - d_1_3 + p_0_3 + p_1_3 = 2
 c463: - Y_3 + r_3 = 0
 c464: e_3 - r_3 >= -1
 c465: e_3 + r_3 >= 1
 c466: Y_4 - d_0_4 - d_1_4 + p_0_4 + p_1_4 = 2
 c467: - Y_4 + r_4 = 0
 c468: e_4 - r_4 >= -1
 c469: e_4 + r_4 >= 1
 c470: Y_5 - d_0_5 - d_1_5 + p_0_5 + p_1_5 = 2
 c471: - Y_5 + r_5 = 0
 c472: e_5 - r_5 >= -1
 c473: e_5 + r_5 >= 1
 c474: Y_1 <= 2
 c475: - Y_1 - 2 z_0_1 - 2 z_1_1 <= -2
 c476: Y_2 <= 2
 c477: - Y_2 - 2 z_0_2 - 2 z_1_2 <= -2
 c478: Y_3 <= 2
 c479: - Y_3 - 2 z_0_3 - 2 z_1_3 <= -2
 c480: Y_4 <= 2
 c481: - Y_4 - 2 z_0_4 - 2 z_1_4 <= -2
 c482: Y_5 <= 2
 c483: - Y_5 - 2 z_0_5 - 2 z_1_5 <= -2
 c484: 0 G <= 10
 c485: h_1_2 - r_1 + r_2 >= 0
 c486: h_1_2 + r_1 - r_2 >= 0
 c487: h_1_3 - r_1 + r_3 >= 0
 c488: h_1_3 + r_1 - r_3 >= 0
 c489: h_1_4 - r_1 + r_4 >= 0
 c490: h_1_4 + r_1 - r_4 >= 0
 c491: h_1_5 - r_1 + r_5 >= 0
 c492: h_1_5 + r_1 - r_5 >= 0
 c493: h_2_3 - r_2 + r_3 >= 0
 c494: h_2_3 + r_2 - r_3 >= 0
 c495: h_2_4 - r_2 + r_4 >= 0
 c496: h_2_4 + r_2 - r_4 >= 0
 c497: h_2_5 - r_2 + r_5 >= 0
 c498: h_2_5 + r_2 - r_5 >= 0
 c499: h_3_4 - r_3 + r_4 >= 0
 c500: h_3_4 + r_3 - r_4 >= 0
 c501: h_3_5 - r_3 + r_5 >= 0
 c502: h_3_5 + r_3 - r_5 >= 0
 c503: h_4_5 - r_4 + r_5 >= 0
 c504: h_4_5 + r_4 - r_5 >= 0
 c505: state_g_1_0 >= 0
 c506: - 0.28333333333333333 state_1_0 + state_g_1_0 <= 0
 c507: state_g_1_1 >= 0
 c508: - 0.28333333333333333 state_1_1 + state_g_1_1 <= 0
 c509: state_g_1_2 >= 0
 c510: - 0.28333333333333333 state_1_2 + state_g_1_2 <= 0
 c511: state_1_0 + state_1_1 + state_1_2 = 1
 c512: Y_1 - state_1_1 - 2 state_1_2 = 0
 c513: - G + state_g_1_0 + state_g_1_1 + state_g_1_2 = 0
 c514: - state_g_1_1 - 2 state_g_1_2 + zprod_1 = 0
 c515: state_g_2_0 >= 0
 c516: - 0.28333333333333333 state_2_0 + state_g_2_0 <= 0
 c517: state_g_2_1 >= 0
 c518: - 0.28333333333333333 state_2_1 + state_g_2_1 <= 0
 c519: state_g_2_2 >= 0
 c520: - 0.28333333333333333 state_2_2 + state_g_2_2 <= 0
 c521: state_2_0 + state_2_1 + state_2_2 = 1
 c522: Y_2 - state_2_1 - 2 state_2_2 = 0
 c523: - G + state_g_2_0 + state_g_2_1 + state_g_2_2 = 0
 c524: - state_g_2_1 - 2 state_g_2_2 + zprod_2 = 0
 c525: state_g_3_0 >= 0
 c526: - 0.28333333333333333 state_3_0 + state_g_3_0 <= 0
 c527: state_g_3_1 >= 0
 c528: - 0.28333333333333333 state_3_1 + state_g_3_1 <= 0
 c529: state_g_3_2 >= 0
 c530: - 0.28333333333333333 state_3_2 + state_g_3_2 <= 0
 c531: state_3_0 + state_3_1 + state_3_2 = 1
 c532: Y_3 - state_3_1 - 2 state_3_2 = 0
 c533: - G + state_g_3_0 + state_g_3_1 + state_g_3_2 = 0
 c534: - state_g_3_1 - 2 state_g_3_2 + zprod_3 = 0
 c535: state_g_4_0 >= 0
 c536: - 0.28333333333333333 state_4_0 + state_g_4_0 <= 0
 c537: state_g_4_1 >= 0
 c538: - 0.28333333333333333 state_4_1 + state_g_4_1 <= 0
 c539: state_g_4_2 >= 0
 c540: - 0.28333333333333333 state_4_2 + state_g_4_2 <= 0
 c541: state_4_0 + state_4_1 + state_4_2 = 1
 c542: Y_4 - state_4_1 - 2 state_4_2 = 0
 c543: - G + state_g_4_0 + state_g_4_1 + state_g_4_2 = 0
 c544: - state_g_4_1 - 2 state_g_4_2 + zprod_4 = 0
 c545: state_g_5_0 >= 0
 c546: - 0.28333333333333333 state_5_0 + state_g_5_0 <= 0
 c547: state_g_5_1 >= 0
 c548: - 0.28333333333333333 state_5_1 + state_g_5_1 <= 0
 c549: state_g_5_2 >= 0
 c550: - 0.28333333333333333 state_5_2 + state_g_5_2 <= 0
 c551: state_5_0 + state_5_1 + state_5_2 = 1
 c552: Y_5 - state_5_1 - 2 state_5_2 = 0
 c553: - G + state_g_5_0 + state_g_5_1 + state_g_5_2 = 0
 c554: - state_g_5_1 - 2 state_g_5_2 + zprod_5 = 0
 c555: - h_1_2 - h_1_3 - h_1_4 - h_1_5 - h_2_3 - h_2_4 - h_2_5 - h_3_4 - h_3_5 - h_4_5 + 5 zprod_1 + 5 zprod_2 + 5 zprod_3 + 5 zprod_4 + 5 zprod_5 >= 0
Bounds
 0 <= G <= 0.28333333333333333
 0 <= W_SP <= 50
 0 <= Y_1 <= 2
 0 <= Y_2 <= 2
 0 <= Y_3 <= 2
 0 <= Y_4 <= 2
 0 <= Y_5 <= 2
 0 <= conn_0_0_1 <= 5
 0 <= conn_0_0_2 <= 5
 0 <= conn_0_0_3 <= 5
 0 <= conn_0_0_4 <= 5
 0 <= conn_0_0_5 <= 5
 0 <= conn_0_1_0 <= 5
 0 <= conn_0_1_2 <= 5
 0 <= conn_0_1_3 <= 5
 0 <= conn_0_1_4 <= 5
 0 <= conn_0_1_5 <= 5
 0 <= conn_0_2_0 <= 5
 0 <= conn_0_2_1 <= 5
 0 <= conn_0_2_3 <= 5
 0 <= conn_0_2_4 <= 5
 0 <= conn_0_2_5 <= 5
 0 <= conn_0_3_0 <= 5
 0 <= conn_0_3_1 <= 5
 0 <= conn_0_3_2 <= 5
 0 <= conn_0_3_4 <= 5
 0 <= conn_0_3_5 <= 5
 0 <= conn_0_4_0 <= 5
 0 <= conn_0_4_1 <= 5
 0 <= conn_0_4_2 <= 5
 0 <= conn_0_4_3 <= 5
 0 <= conn_0_4_5 <= 5
 0 <= conn_0_5_0 <= 5
 0 <= conn_0_5_1 <= 5
 0 <= conn_0_5_2 <= 5
 0 <= conn_0_5_3 <= 5
 0 <= conn_0_5_4 <= 5
 0 <= conn_1_0_1 <= 5
 0 <= conn_1_0_2 <= 5
 0 <= conn_1_0_3 <= 5
 0 <= conn_1_0_4 <= 5
 0 <= conn_1_0_5 <= 5
 0 <= conn_1_1_0 <= 5
 0 <= conn_1_1_2 <= 5
 0 <= conn_1_1_3 <= 5
 0 <= conn_1_1_4 <= 5
 0 <= conn_1_1_5 <= 5
 0 <= conn_1_2_0 <= 5
 0 <= conn_1_2_1 <= 5
 0 <= conn_1_2_3 <= 5
 0 <= conn_1_2_4 <= 5
 0 <= conn_1_2_5 <= 5
 0 <= conn_1_3_0 <= 5
 0 <= conn_1_3_1 <= 5
 0 <= conn_1_3_2 <= 5
 0 <= conn_1_3_4 <= 5
 0 <= conn_1_3_5 <= 5
 0 <= conn_1_4_0 <= 5
 0 <= conn_1_4_1 <= 5
 0 <= conn_1_4_2 <= 5
 0 <= conn_1_4_3 <= 5
 0 <= conn_1_4_5 <= 5
 0 <= conn_1_5_0 <= 5
 0 <= conn_1_5_1 <= 5
 0 <= conn_1_5_2 <= 5
 0 <= conn_1_5_3 <= 5
 0 <= conn_1_5_4 <= 5
 0 <= d_0_1 <= 0
 0 <= d_0_2 <= 0
 0 <= d_0_3 <= 0
 0 <= d_0_4 <= 0
 0 <= d_0_5 <= 0
 0 <= d_1_1 <= 0
 0 <= d_1_2 <= 0
 0 <= d_1_3 <= 0
 0 <= d_1_4 <= 0
 0 <= d_1_5 <= 0
 0 <= e_1 <= 1
 0 <= e_2 <= 1
 0 <= e_3 <= 1
 0 <= e_4 <= 1
 0 <= e_5 <= 1
 0 <= h_1_2 <= 4
 0 <= h_1_3 <= 4
 0 <= h_1_4 <= 4
 0 <= h_1_5 <= 4
 0 <= h_2_3 <= 4
 0 <= h_2_4 <= 4
 0 <= h_2_5 <= 4
 0 <= h_3_4 <= 4
 0 <= h_3_5 <= 4
 0 <= h_4_5 <= 4
 0 <= load_0_1 <= 5
 0 <= load_0_2 <= 5
 0 <= load_0_3 <= 5
 0 <= load_0_4 <= 5
 0 <= load_0_5 <= 5
 0 <= load_1_1 <= 5
 0 <= load_1_2 <= 5
 0 <= load_1_3 <= 5
 0 <= load_1_4 <= 5
 0 <= load_1_5 <= 5
 0 <= mode_0_1 <= 1
 0 <= mode_0_2 <= 1
 0 <= mode_0_3 <= 1
 0 <= mode_0_4 <= 1
 0 <= mode_0_5 <= 1
 0 <= mode_1_1 <= 1
 0 <= mode_1_2 <= 1
 0 <= mode_1_3 <= 1
 0 <= mode_1_4 <= 1
 0 <= mode_1_5 <= 1
 0 <= ord_0_1 <= 5
 0 <= ord_0_2 <= 5
 0 <= ord_0_3 <= 5
 0 <= ord_0_4 <= 5
 0 <= ord_0_5 <= 5
 0 <= ord_1_1 <= 5
 0 <= ord_1_2 <= 5
 0 <= ord_1_3 <= 5
 0 <= ord_1_4 <= 5
 0 <= ord_1_5 <= 5
 0 <= p_0_1 <= 2
 0 <= p_0_2 <= 2
 0 <= p_0_3 <= 2
 0 <= p_0_4 <= 2
 0 <= p_0_5 <= 2
 0 <= p_1_1 <= 2
 0 <= p_1_2 <= 2
 0 <= p_1_3 <= 2
 0 <= p_1_4 <= 2
 0 <= p_1_5 <= 2
 0 <= r_1 <= 2
 0 <= r_2 <= 2
 0 <= r_3 <= 2
 0 <= r_4 <= 2
 0 <= r_5 <= 2
 0 <= r_max <= 2
 0 <= r_min <= 2
 0 <= state_1_0 <= 1
 0 <= state_1_1 <= 1
 0 <= state_1_2 <= 1
 0 <= state_2_0 <= 1
 0 <= state_2_1 <= 1
 0 <= state_2_2 <= 1
 0 <= state_3_0 <= 1
 0 <= state_3_1 <= 1
 0 <= state_3_2 <= 1
 0 <= state_4_0 <= 1
 0 <= state_4_1 <= 1
 0 <= state_4_2 <= 1
 0 <= state_5_0 <= 1
 0 <= state_5_1 <= 1
 0 <= state_5_2 <= 1
 0 <= state_g_1_0 <= 0.28333333333333333
 0 <= state_g_1_1 <= 0.28333333333333333
 0 <= state_g_1_2 <= 0.28333333333333333
 0 <= state_g_2_0 <= 0.28333333333333333
 0 <= state_g_2_1 <= 0.28333333333333333
 0 <= state_g_2_2 <= 0.28333333333333333
 0 <= state_g_3_0 <= 0.28333333333333333
 0 <= state_g_3_1 <= 0.28333333333333333
 0 <= state_g_3_2 <= 0.28333333333333333
 0 <= state_g_4_0 <= 0.28333333333333333
 0 <= state_g_4_1 <= 0.28333333333333333
 0 <= state_g_4_2 <= 0.28333333333333333
 0 <= state_g_5_0 <= 0.28333333333333333
 0 <= state_g_5_1 <= 0.28333333333333333
 0 <= state_g_5_2 <= 0.28333333333333333
 0 <= x_0_0_1 <= 1
 0 <= x_0_0_2 <= 1
 0 <= x_0_0_3 <= 1
 0 <= x_0_0_4 <= 1
 0 <= x_0_0_5 <= 1
 0 <= x_0_1_0 <= 1
 0 <= x_0_1_2 <= 1
 0 <= x_0_1_3 <= 1
 0 <= x_0_1_4 <= 1
 0 <= x_0_1_5 <= 1
 0 <= x_0_2_0 <= 1
 0 <= x_0_2_1 <= 1
 0 <= x_0_2_3 <= 1
 0 <= x_0_2_4 <= 1
 0 <= x_0_2_5 <= 1
 0 <= x_0_3_0 <= 1
 0 <= x_0_3_1 <= 1
 0 <= x_0_3_2 <= 1
 0 <= x_0_3_4 <= 1
 0 <= x_0_3_5 <= 1
 0 <= x_0_4_0 <= 1
 0 <= x_0_4_1 <= 1
 0 <= x_0_4_2 <= 1
 0 <= x_0_4_3 <= 1
 0 <= x_0_4_5 <= 1
 0 <= x_0_5_0 <= 1
 0 <= x_0_5_1 <= 1
 0 <= x_0_5_2 <= 1
 0 <= x_0_5_3 <= 1
 0 <= x_0_5_4 <= 1
 0 <= x_1_0_1 <= 1
 0 <= x_1_0_2 <= 1
 0 <= x_1_0_3 <= 1
 0 <= x_1_0_4 <= 1
 0 <= x_1_0_5 <= 1
 0 <= x_1_1_0 <= 1
 0 <= x_1_1_2 <= 1
 0 <= x_1_1_3 <= 1
 0 <= x_1_1_4 <= 1
 0 <= x_1_1_5 <= 1
 0 <= x_1_2_0 <= 1
 0 <= x_1_2_1 <= 1
 0 <= x_1_2_3 <= 1
 0 <= x_1_2_4 <= 1
 0 <= x_1_2_5 <= 1
 0 <= x_1_3_0 <= 1
 0 <= x_1_3_1 <= 1
 0 <= x_1_3_2 <= 1
 0 <= x_1_3_4 <= 1
 0 <= x_1_3_5 <= 1
 0 <= x_1_4_0 <= 1
 0 <= x_1_4_1 <= 1
 0 <= x_1_4_2 <= 1
 0 <= x_1_4_3 <= 1
 0 <= x_1_4_5 <= 1
 0 <= x_1_5_0 <= 1
 0 <= x_1_5_1 <= 1
 0 <= x_1_5_2 <= 1
 0 <= x_1_5_3 <= 1
 0 <= x_1_5_4 <= 1
 0 <= z_0_1 <= 1
 0 <= z_0_2 <= 1
 0 <= z_0_3 <= 1
 0 <= z_0_4 <= 1
 0 <= z_0_5 <= 1
 0 <= z_1_1 <= 1
 0 <= z_1_2 <= 1
 0 <= z_1_3 <= 1
 0 <= z_1_4 <= 1
 0 <= z_1_5 <= 1
 0 <= zprod_1 <= 2
 0 <= zprod_2 <= 2
 0 <= zprod_3 <= 2
 0 <= zprod_4 <= 2
 0 <= zprod_5 <= 2
Generals
 Y_1
 Y_2
 Y_3
 Y_4
 Y_5
 d_0_1
 d_0_2
 d_0_3
 d_0_4
 d_0_5
 d_1_1
 d_1_2
 d_1_3
 d_1_4
 d_1_5
 load_0_1
 load_0_2
 load_0_3
 load_0_4
 load_0_5
 load_1_1
 load_1_2
 load_1_3
 load_1_4
 load_1_5
 p_0_1
 p_0_2
 p_0_3
 p_0_4
 p_0_5
 p_1_1
 p_1_2
 p_1_3
 p_1_4
 p_1_5
Binaries
 mode_0_1
 mode_0_2
 mode_0_3
 mode_0_4
 mode_0_5
 mode_1_1
 mode_1_2
 mode_1_3
 mode_1_4
 mode_1_5
 state_1_0
 state_1_1
 state_1_2
 state_2_0
 state_2_1
 state_2_2
 state_3_0
 state_3_1
 state_3_2
 state_4_0
 state_4_1
 state_4_2
 state_5_0
 state_5_1
 state_5_2
 x_0_0_1
 x_0_0_2
 x_0_0_3
 x_0_0_4
 x_0_0_5
 x_0_1_0
 x_0_1_2
 x_0_1_3
 x_0_1_4
 x_0_1_5
 x_0_2_0
 x_0_2_1
 x_0_2_3
 x_0_2_4
 x_0_2_5
 x_0_3_0
 x_0_3_1
 x_0_3_2
 x_0_3_4
 x_0_3_5
 x_0_4_0
 x_0_4_1
 x_0_4_2
 x_0_4_3
 x_0_4_5
 x_0_5_0
 x_0_5_1
 x_0_5_2
 x_0_5_3
 x_0_5_4
 x_1_0_1
 x_1_0_2
 x_1_0_3
 x_1_0_4
 x_1_0_5
 x_1_1_0
 x_1_1_2
 x_1_1_3
 x_1_1_4
 x_1_1_5
 x_1_2_0
 x_1_2_1
 x_1_2_3
 x_1_2_4
 x_1_2_5
 x_1_3_0
 x_1_3_1
 x_1_3_2
 x_1_3_4
 x_1_3_5
 x_1_4_0
 x_1_4_1
 x_1_4_2
 x_1_4_3
 x_1_4_5
 x_1_5_0
 x_1_5_1
 x_1_5_2
 x_1_5_3
 x_1_5_4
 z_0_1
 z_0_2
 z_0_3
 z_0_4
 z_0_5
 z_1_1
 z_1_2
 z_1_3
 z_1_4
 z_1_5
End
