\ ExactEBRP compact MILP generated from C++ command-line runner
Minimize
 obj: G + 0.085945049999999995 e_1 + 0.022499999999999999 e_2 + 0.067146449999999996 e_3 + 0.1152273 e_4 + 0.085945049999999995 e_5 + 0.068863649999999998 e_6 + 0.14999999999999999 e_7 + 0.052305149999999995 e_8 + 0.07548705 e_9 + 0.089469750000000001 e_10
Subject To
 c1: h_1_10 + h_1_2 + h_1_3 + h_1_4 + h_1_5 + h_1_6 + h_1_7 + h_1_8 + h_1_9 + h_2_10 + h_2_3 + h_2_4 + h_2_5 + h_2_6 + h_2_7 + h_2_8 + h_2_9 + h_3_10 + h_3_4 + h_3_5 + h_3_6 + h_3_7 + h_3_8 + h_3_9 + h_4_10 + h_4_5 + h_4_6 + h_4_7 + h_4_8 + h_4_9 + h_5_10 + h_5_6 + h_5_7 + h_5_8 + h_5_9 + h_6_10 + h_6_7 + h_6_8 + h_6_9 + h_7_10 + h_7_8 + h_7_9 + h_8_10 + h_8_9 + h_9_10 - 5.0454385216420743 r_1 - 5.0454385216420743 r_10 - 5.0454385216420743 r_2 - 5.0454385216420743 r_3 - 5.0454385216420743 r_4 - 5.0454385216420743 r_5 - 5.0454385216420743 r_6 - 5.0454385216420743 r_7 - 5.0454385216420743 r_8 - 5.0454385216420743 r_9 <= 0
 c2: h_1_10 + h_1_2 + h_1_3 + h_1_4 + h_1_5 + h_1_6 + h_1_7 + h_1_8 + h_1_9 + h_2_10 + h_2_3 + h_2_4 + h_2_5 + h_2_6 + h_2_7 + h_2_8 + h_2_9 + h_3_10 + h_3_4 + h_3_5 + h_3_6 + h_3_7 + h_3_8 + h_3_9 + h_4_10 + h_4_5 + h_4_6 + h_4_7 + h_4_8 + h_4_9 + h_5_10 + h_5_6 + h_5_7 + h_5_8 + h_5_9 + h_6_10 + h_6_7 + h_6_8 + h_6_9 + h_7_10 + h_7_8 + h_7_9 + h_8_10 + h_8_9 + h_9_10 - 2.5227192608210371 r_1 - 2.5227192608210371 r_10 - 2.5227192608210371 r_2 - 2.5227192608210371 r_3 - 2.5227192608210371 r_4 - 2.5227192608210371 r_5 - 2.5227192608210371 r_6 - 2.5227192608210371 r_7 - 2.5227192608210371 r_8 - 2.5227192608210371 r_9 >= 0
 c3: - 0.25227192608210369 bit_1_0 + prod_1_0 >= 0
 c4: - 0.50454385216420738 bit_1_0 + prod_1_0 <= 0
 c5: - G - 0.50454385216420738 bit_1_0 + prod_1_0 >= -0.50454385216420738
 c6: - G - 0.25227192608210369 bit_1_0 + prod_1_0 <= -0.25227192608210369
 c7: - 0.25227192608210369 bit_1_1 + prod_1_1 >= 0
 c8: - 0.50454385216420738 bit_1_1 + prod_1_1 <= 0
 c9: - G - 0.50454385216420738 bit_1_1 + prod_1_1 >= -0.50454385216420738
 c10: - G - 0.25227192608210369 bit_1_1 + prod_1_1 <= -0.25227192608210369
 c11: - 0.25227192608210369 bit_1_2 + prod_1_2 >= 0
 c12: - 0.50454385216420738 bit_1_2 + prod_1_2 <= 0
 c13: - G - 0.50454385216420738 bit_1_2 + prod_1_2 >= -0.50454385216420738
 c14: - G - 0.25227192608210369 bit_1_2 + prod_1_2 <= -0.25227192608210369
 c15: - 0.25227192608210369 bit_1_3 + prod_1_3 >= 0
 c16: - 0.50454385216420738 bit_1_3 + prod_1_3 <= 0
 c17: - G - 0.50454385216420738 bit_1_3 + prod_1_3 >= -0.50454385216420738
 c18: - G - 0.25227192608210369 bit_1_3 + prod_1_3 <= -0.25227192608210369
 c19: - 0.25227192608210369 bit_1_4 + prod_1_4 >= 0
 c20: - 0.50454385216420738 bit_1_4 + prod_1_4 <= 0
 c21: - G - 0.50454385216420738 bit_1_4 + prod_1_4 >= -0.50454385216420738
 c22: - G - 0.25227192608210369 bit_1_4 + prod_1_4 <= -0.25227192608210369
 c23: - 0.25227192608210369 bit_1_5 + prod_1_5 >= 0
 c24: - 0.50454385216420738 bit_1_5 + prod_1_5 <= 0
 c25: - G - 0.50454385216420738 bit_1_5 + prod_1_5 >= -0.50454385216420738
 c26: - G - 0.25227192608210369 bit_1_5 + prod_1_5 <= -0.25227192608210369
 c27: - 0.25227192608210369 bit_2_0 + prod_2_0 >= 0
 c28: - 0.50454385216420738 bit_2_0 + prod_2_0 <= 0
 c29: - G - 0.50454385216420738 bit_2_0 + prod_2_0 >= -0.50454385216420738
 c30: - G - 0.25227192608210369 bit_2_0 + prod_2_0 <= -0.25227192608210369
 c31: - 0.25227192608210369 bit_2_1 + prod_2_1 >= 0
 c32: - 0.50454385216420738 bit_2_1 + prod_2_1 <= 0
 c33: - G - 0.50454385216420738 bit_2_1 + prod_2_1 >= -0.50454385216420738
 c34: - G - 0.25227192608210369 bit_2_1 + prod_2_1 <= -0.25227192608210369
 c35: - 0.25227192608210369 bit_2_2 + prod_2_2 >= 0
 c36: - 0.50454385216420738 bit_2_2 + prod_2_2 <= 0
 c37: - G - 0.50454385216420738 bit_2_2 + prod_2_2 >= -0.50454385216420738
 c38: - G - 0.25227192608210369 bit_2_2 + prod_2_2 <= -0.25227192608210369
 c39: - 0.25227192608210369 bit_2_3 + prod_2_3 >= 0
 c40: - 0.50454385216420738 bit_2_3 + prod_2_3 <= 0
 c41: - G - 0.50454385216420738 bit_2_3 + prod_2_3 >= -0.50454385216420738
 c42: - G - 0.25227192608210369 bit_2_3 + prod_2_3 <= -0.25227192608210369
 c43: - 0.25227192608210369 bit_2_4 + prod_2_4 >= 0
 c44: - 0.50454385216420738 bit_2_4 + prod_2_4 <= 0
 c45: - G - 0.50454385216420738 bit_2_4 + prod_2_4 >= -0.50454385216420738
 c46: - G - 0.25227192608210369 bit_2_4 + prod_2_4 <= -0.25227192608210369
 c47: - 0.25227192608210369 bit_3_0 + prod_3_0 >= 0
 c48: - 0.50454385216420738 bit_3_0 + prod_3_0 <= 0
 c49: - G - 0.50454385216420738 bit_3_0 + prod_3_0 >= -0.50454385216420738
 c50: - G - 0.25227192608210369 bit_3_0 + prod_3_0 <= -0.25227192608210369
 c51: - 0.25227192608210369 bit_3_1 + prod_3_1 >= 0
 c52: - 0.50454385216420738 bit_3_1 + prod_3_1 <= 0
 c53: - G - 0.50454385216420738 bit_3_1 + prod_3_1 >= -0.50454385216420738
 c54: - G - 0.25227192608210369 bit_3_1 + prod_3_1 <= -0.25227192608210369
 c55: - 0.25227192608210369 bit_3_2 + prod_3_2 >= 0
 c56: - 0.50454385216420738 bit_3_2 + prod_3_2 <= 0
 c57: - G - 0.50454385216420738 bit_3_2 + prod_3_2 >= -0.50454385216420738
 c58: - G - 0.25227192608210369 bit_3_2 + prod_3_2 <= -0.25227192608210369
 c59: - 0.25227192608210369 bit_3_3 + prod_3_3 >= 0
 c60: - 0.50454385216420738 bit_3_3 + prod_3_3 <= 0
 c61: - G - 0.50454385216420738 bit_3_3 + prod_3_3 >= -0.50454385216420738
 c62: - G - 0.25227192608210369 bit_3_3 + prod_3_3 <= -0.25227192608210369
 c63: - 0.25227192608210369 bit_3_4 + prod_3_4 >= 0
 c64: - 0.50454385216420738 bit_3_4 + prod_3_4 <= 0
 c65: - G - 0.50454385216420738 bit_3_4 + prod_3_4 >= -0.50454385216420738
 c66: - G - 0.25227192608210369 bit_3_4 + prod_3_4 <= -0.25227192608210369
 c67: - 0.25227192608210369 bit_3_5 + prod_3_5 >= 0
 c68: - 0.50454385216420738 bit_3_5 + prod_3_5 <= 0
 c69: - G - 0.50454385216420738 bit_3_5 + prod_3_5 >= -0.50454385216420738
 c70: - G - 0.25227192608210369 bit_3_5 + prod_3_5 <= -0.25227192608210369
 c71: - 0.25227192608210369 bit_4_0 + prod_4_0 >= 0
 c72: - 0.50454385216420738 bit_4_0 + prod_4_0 <= 0
 c73: - G - 0.50454385216420738 bit_4_0 + prod_4_0 >= -0.50454385216420738
 c74: - G - 0.25227192608210369 bit_4_0 + prod_4_0 <= -0.25227192608210369
 c75: - 0.25227192608210369 bit_4_1 + prod_4_1 >= 0
 c76: - 0.50454385216420738 bit_4_1 + prod_4_1 <= 0
 c77: - G - 0.50454385216420738 bit_4_1 + prod_4_1 >= -0.50454385216420738
 c78: - G - 0.25227192608210369 bit_4_1 + prod_4_1 <= -0.25227192608210369
 c79: - 0.25227192608210369 bit_4_2 + prod_4_2 >= 0
 c80: - 0.50454385216420738 bit_4_2 + prod_4_2 <= 0
 c81: - G - 0.50454385216420738 bit_4_2 + prod_4_2 >= -0.50454385216420738
 c82: - G - 0.25227192608210369 bit_4_2 + prod_4_2 <= -0.25227192608210369
 c83: - 0.25227192608210369 bit_4_3 + prod_4_3 >= 0
 c84: - 0.50454385216420738 bit_4_3 + prod_4_3 <= 0
 c85: - G - 0.50454385216420738 bit_4_3 + prod_4_3 >= -0.50454385216420738
 c86: - G - 0.25227192608210369 bit_4_3 + prod_4_3 <= -0.25227192608210369
 c87: - 0.25227192608210369 bit_4_4 + prod_4_4 >= 0
 c88: - 0.50454385216420738 bit_4_4 + prod_4_4 <= 0
 c89: - G - 0.50454385216420738 bit_4_4 + prod_4_4 >= -0.50454385216420738
 c90: - G - 0.25227192608210369 bit_4_4 + prod_4_4 <= -0.25227192608210369
 c91: - 0.25227192608210369 bit_5_0 + prod_5_0 >= 0
 c92: - 0.50454385216420738 bit_5_0 + prod_5_0 <= 0
 c93: - G - 0.50454385216420738 bit_5_0 + prod_5_0 >= -0.50454385216420738
 c94: - G - 0.25227192608210369 bit_5_0 + prod_5_0 <= -0.25227192608210369
 c95: - 0.25227192608210369 bit_5_1 + prod_5_1 >= 0
 c96: - 0.50454385216420738 bit_5_1 + prod_5_1 <= 0
 c97: - G - 0.50454385216420738 bit_5_1 + prod_5_1 >= -0.50454385216420738
 c98: - G - 0.25227192608210369 bit_5_1 + prod_5_1 <= -0.25227192608210369
 c99: - 0.25227192608210369 bit_5_2 + prod_5_2 >= 0
 c100: - 0.50454385216420738 bit_5_2 + prod_5_2 <= 0
 c101: - G - 0.50454385216420738 bit_5_2 + prod_5_2 >= -0.50454385216420738
 c102: - G - 0.25227192608210369 bit_5_2 + prod_5_2 <= -0.25227192608210369
 c103: - 0.25227192608210369 bit_5_3 + prod_5_3 >= 0
 c104: - 0.50454385216420738 bit_5_3 + prod_5_3 <= 0
 c105: - G - 0.50454385216420738 bit_5_3 + prod_5_3 >= -0.50454385216420738
 c106: - G - 0.25227192608210369 bit_5_3 + prod_5_3 <= -0.25227192608210369
 c107: - 0.25227192608210369 bit_5_4 + prod_5_4 >= 0
 c108: - 0.50454385216420738 bit_5_4 + prod_5_4 <= 0
 c109: - G - 0.50454385216420738 bit_5_4 + prod_5_4 >= -0.50454385216420738
 c110: - G - 0.25227192608210369 bit_5_4 + prod_5_4 <= -0.25227192608210369
 c111: - 0.25227192608210369 bit_5_5 + prod_5_5 >= 0
 c112: - 0.50454385216420738 bit_5_5 + prod_5_5 <= 0
 c113: - G - 0.50454385216420738 bit_5_5 + prod_5_5 >= -0.50454385216420738
 c114: - G - 0.25227192608210369 bit_5_5 + prod_5_5 <= -0.25227192608210369
 c115: - 0.25227192608210369 bit_6_0 + prod_6_0 >= 0
 c116: - 0.50454385216420738 bit_6_0 + prod_6_0 <= 0
 c117: - G - 0.50454385216420738 bit_6_0 + prod_6_0 >= -0.50454385216420738
 c118: - G - 0.25227192608210369 bit_6_0 + prod_6_0 <= -0.25227192608210369
 c119: - 0.25227192608210369 bit_6_1 + prod_6_1 >= 0
 c120: - 0.50454385216420738 bit_6_1 + prod_6_1 <= 0
 c121: - G - 0.50454385216420738 bit_6_1 + prod_6_1 >= -0.50454385216420738
 c122: - G - 0.25227192608210369 bit_6_1 + prod_6_1 <= -0.25227192608210369
 c123: - 0.25227192608210369 bit_6_2 + prod_6_2 >= 0
 c124: - 0.50454385216420738 bit_6_2 + prod_6_2 <= 0
 c125: - G - 0.50454385216420738 bit_6_2 + prod_6_2 >= -0.50454385216420738
 c126: - G - 0.25227192608210369 bit_6_2 + prod_6_2 <= -0.25227192608210369
 c127: - 0.25227192608210369 bit_6_3 + prod_6_3 >= 0
 c128: - 0.50454385216420738 bit_6_3 + prod_6_3 <= 0
 c129: - G - 0.50454385216420738 bit_6_3 + prod_6_3 >= -0.50454385216420738
 c130: - G - 0.25227192608210369 bit_6_3 + prod_6_3 <= -0.25227192608210369
 c131: - 0.25227192608210369 bit_6_4 + prod_6_4 >= 0
 c132: - 0.50454385216420738 bit_6_4 + prod_6_4 <= 0
 c133: - G - 0.50454385216420738 bit_6_4 + prod_6_4 >= -0.50454385216420738
 c134: - G - 0.25227192608210369 bit_6_4 + prod_6_4 <= -0.25227192608210369
 c135: - 0.25227192608210369 bit_7_0 + prod_7_0 >= 0
 c136: - 0.50454385216420738 bit_7_0 + prod_7_0 <= 0
 c137: - G - 0.50454385216420738 bit_7_0 + prod_7_0 >= -0.50454385216420738
 c138: - G - 0.25227192608210369 bit_7_0 + prod_7_0 <= -0.25227192608210369
 c139: - 0.25227192608210369 bit_7_1 + prod_7_1 >= 0
 c140: - 0.50454385216420738 bit_7_1 + prod_7_1 <= 0
 c141: - G - 0.50454385216420738 bit_7_1 + prod_7_1 >= -0.50454385216420738
 c142: - G - 0.25227192608210369 bit_7_1 + prod_7_1 <= -0.25227192608210369
 c143: - 0.25227192608210369 bit_7_2 + prod_7_2 >= 0
 c144: - 0.50454385216420738 bit_7_2 + prod_7_2 <= 0
 c145: - G - 0.50454385216420738 bit_7_2 + prod_7_2 >= -0.50454385216420738
 c146: - G - 0.25227192608210369 bit_7_2 + prod_7_2 <= -0.25227192608210369
 c147: - 0.25227192608210369 bit_7_3 + prod_7_3 >= 0
 c148: - 0.50454385216420738 bit_7_3 + prod_7_3 <= 0
 c149: - G - 0.50454385216420738 bit_7_3 + prod_7_3 >= -0.50454385216420738
 c150: - G - 0.25227192608210369 bit_7_3 + prod_7_3 <= -0.25227192608210369
 c151: - 0.25227192608210369 bit_7_4 + prod_7_4 >= 0
 c152: - 0.50454385216420738 bit_7_4 + prod_7_4 <= 0
 c153: - G - 0.50454385216420738 bit_7_4 + prod_7_4 >= -0.50454385216420738
 c154: - G - 0.25227192608210369 bit_7_4 + prod_7_4 <= -0.25227192608210369
 c155: - 0.25227192608210369 bit_8_0 + prod_8_0 >= 0
 c156: - 0.50454385216420738 bit_8_0 + prod_8_0 <= 0
 c157: - G - 0.50454385216420738 bit_8_0 + prod_8_0 >= -0.50454385216420738
 c158: - G - 0.25227192608210369 bit_8_0 + prod_8_0 <= -0.25227192608210369
 c159: - 0.25227192608210369 bit_8_1 + prod_8_1 >= 0
 c160: - 0.50454385216420738 bit_8_1 + prod_8_1 <= 0
 c161: - G - 0.50454385216420738 bit_8_1 + prod_8_1 >= -0.50454385216420738
 c162: - G - 0.25227192608210369 bit_8_1 + prod_8_1 <= -0.25227192608210369
 c163: - 0.25227192608210369 bit_8_2 + prod_8_2 >= 0
 c164: - 0.50454385216420738 bit_8_2 + prod_8_2 <= 0
 c165: - G - 0.50454385216420738 bit_8_2 + prod_8_2 >= -0.50454385216420738
 c166: - G - 0.25227192608210369 bit_8_2 + prod_8_2 <= -0.25227192608210369
 c167: - 0.25227192608210369 bit_8_3 + prod_8_3 >= 0
 c168: - 0.50454385216420738 bit_8_3 + prod_8_3 <= 0
 c169: - G - 0.50454385216420738 bit_8_3 + prod_8_3 >= -0.50454385216420738
 c170: - G - 0.25227192608210369 bit_8_3 + prod_8_3 <= -0.25227192608210369
 c171: - 0.25227192608210369 bit_8_4 + prod_8_4 >= 0
 c172: - 0.50454385216420738 bit_8_4 + prod_8_4 <= 0
 c173: - G - 0.50454385216420738 bit_8_4 + prod_8_4 >= -0.50454385216420738
 c174: - G - 0.25227192608210369 bit_8_4 + prod_8_4 <= -0.25227192608210369
 c175: - 0.25227192608210369 bit_8_5 + prod_8_5 >= 0
 c176: - 0.50454385216420738 bit_8_5 + prod_8_5 <= 0
 c177: - G - 0.50454385216420738 bit_8_5 + prod_8_5 >= -0.50454385216420738
 c178: - G - 0.25227192608210369 bit_8_5 + prod_8_5 <= -0.25227192608210369
 c179: - 0.25227192608210369 bit_9_0 + prod_9_0 >= 0
 c180: - 0.50454385216420738 bit_9_0 + prod_9_0 <= 0
 c181: - G - 0.50454385216420738 bit_9_0 + prod_9_0 >= -0.50454385216420738
 c182: - G - 0.25227192608210369 bit_9_0 + prod_9_0 <= -0.25227192608210369
 c183: - 0.25227192608210369 bit_9_1 + prod_9_1 >= 0
 c184: - 0.50454385216420738 bit_9_1 + prod_9_1 <= 0
 c185: - G - 0.50454385216420738 bit_9_1 + prod_9_1 >= -0.50454385216420738
 c186: - G - 0.25227192608210369 bit_9_1 + prod_9_1 <= -0.25227192608210369
 c187: - 0.25227192608210369 bit_9_2 + prod_9_2 >= 0
 c188: - 0.50454385216420738 bit_9_2 + prod_9_2 <= 0
 c189: - G - 0.50454385216420738 bit_9_2 + prod_9_2 >= -0.50454385216420738
 c190: - G - 0.25227192608210369 bit_9_2 + prod_9_2 <= -0.25227192608210369
 c191: - 0.25227192608210369 bit_9_3 + prod_9_3 >= 0
 c192: - 0.50454385216420738 bit_9_3 + prod_9_3 <= 0
 c193: - G - 0.50454385216420738 bit_9_3 + prod_9_3 >= -0.50454385216420738
 c194: - G - 0.25227192608210369 bit_9_3 + prod_9_3 <= -0.25227192608210369
 c195: - 0.25227192608210369 bit_9_4 + prod_9_4 >= 0
 c196: - 0.50454385216420738 bit_9_4 + prod_9_4 <= 0
 c197: - G - 0.50454385216420738 bit_9_4 + prod_9_4 >= -0.50454385216420738
 c198: - G - 0.25227192608210369 bit_9_4 + prod_9_4 <= -0.25227192608210369
 c199: - 0.25227192608210369 bit_9_5 + prod_9_5 >= 0
 c200: - 0.50454385216420738 bit_9_5 + prod_9_5 <= 0
 c201: - G - 0.50454385216420738 bit_9_5 + prod_9_5 >= -0.50454385216420738
 c202: - G - 0.25227192608210369 bit_9_5 + prod_9_5 <= -0.25227192608210369
 c203: - 0.25227192608210369 bit_10_0 + prod_10_0 >= 0
 c204: - 0.50454385216420738 bit_10_0 + prod_10_0 <= 0
 c205: - G - 0.50454385216420738 bit_10_0 + prod_10_0 >= -0.50454385216420738
 c206: - G - 0.25227192608210369 bit_10_0 + prod_10_0 <= -0.25227192608210369
 c207: - 0.25227192608210369 bit_10_1 + prod_10_1 >= 0
 c208: - 0.50454385216420738 bit_10_1 + prod_10_1 <= 0
 c209: - G - 0.50454385216420738 bit_10_1 + prod_10_1 >= -0.50454385216420738
 c210: - G - 0.25227192608210369 bit_10_1 + prod_10_1 <= -0.25227192608210369
 c211: - 0.25227192608210369 bit_10_2 + prod_10_2 >= 0
 c212: - 0.50454385216420738 bit_10_2 + prod_10_2 <= 0
 c213: - G - 0.50454385216420738 bit_10_2 + prod_10_2 >= -0.50454385216420738
 c214: - G - 0.25227192608210369 bit_10_2 + prod_10_2 <= -0.25227192608210369
 c215: - 0.25227192608210369 bit_10_3 + prod_10_3 >= 0
 c216: - 0.50454385216420738 bit_10_3 + prod_10_3 <= 0
 c217: - G - 0.50454385216420738 bit_10_3 + prod_10_3 >= -0.50454385216420738
 c218: - G - 0.25227192608210369 bit_10_3 + prod_10_3 <= -0.25227192608210369
 c219: - 0.25227192608210369 bit_10_4 + prod_10_4 >= 0
 c220: - 0.50454385216420738 bit_10_4 + prod_10_4 <= 0
 c221: - G - 0.50454385216420738 bit_10_4 + prod_10_4 >= -0.50454385216420738
 c222: - G - 0.25227192608210369 bit_10_4 + prod_10_4 <= -0.25227192608210369
 c223: 9 h_1_2 - 5.0454385216420743 r_1 - 5.0454385216420743 r_10 - 5.0454385216420743 r_2 - 5.0454385216420743 r_3 - 5.0454385216420743 r_4 - 5.0454385216420743 r_5 - 5.0454385216420743 r_6 - 5.0454385216420743 r_7 - 5.0454385216420743 r_8 - 5.0454385216420743 r_9 <= 0
 c224: 9 h_1_3 - 5.0454385216420743 r_1 - 5.0454385216420743 r_10 - 5.0454385216420743 r_2 - 5.0454385216420743 r_3 - 5.0454385216420743 r_4 - 5.0454385216420743 r_5 - 5.0454385216420743 r_6 - 5.0454385216420743 r_7 - 5.0454385216420743 r_8 - 5.0454385216420743 r_9 <= 0
 c225: 9 h_1_4 - 5.0454385216420743 r_1 - 5.0454385216420743 r_10 - 5.0454385216420743 r_2 - 5.0454385216420743 r_3 - 5.0454385216420743 r_4 - 5.0454385216420743 r_5 - 5.0454385216420743 r_6 - 5.0454385216420743 r_7 - 5.0454385216420743 r_8 - 5.0454385216420743 r_9 <= 0
 c226: 9 h_1_5 - 5.0454385216420743 r_1 - 5.0454385216420743 r_10 - 5.0454385216420743 r_2 - 5.0454385216420743 r_3 - 5.0454385216420743 r_4 - 5.0454385216420743 r_5 - 5.0454385216420743 r_6 - 5.0454385216420743 r_7 - 5.0454385216420743 r_8 - 5.0454385216420743 r_9 <= 0
 c227: 9 h_1_6 - 5.0454385216420743 r_1 - 5.0454385216420743 r_10 - 5.0454385216420743 r_2 - 5.0454385216420743 r_3 - 5.0454385216420743 r_4 - 5.0454385216420743 r_5 - 5.0454385216420743 r_6 - 5.0454385216420743 r_7 - 5.0454385216420743 r_8 - 5.0454385216420743 r_9 <= 0
 c228: 9 h_1_7 - 5.0454385216420743 r_1 - 5.0454385216420743 r_10 - 5.0454385216420743 r_2 - 5.0454385216420743 r_3 - 5.0454385216420743 r_4 - 5.0454385216420743 r_5 - 5.0454385216420743 r_6 - 5.0454385216420743 r_7 - 5.0454385216420743 r_8 - 5.0454385216420743 r_9 <= 0
 c229: 9 h_1_8 - 5.0454385216420743 r_1 - 5.0454385216420743 r_10 - 5.0454385216420743 r_2 - 5.0454385216420743 r_3 - 5.0454385216420743 r_4 - 5.0454385216420743 r_5 - 5.0454385216420743 r_6 - 5.0454385216420743 r_7 - 5.0454385216420743 r_8 - 5.0454385216420743 r_9 <= 0
 c230: 9 h_1_9 - 5.0454385216420743 r_1 - 5.0454385216420743 r_10 - 5.0454385216420743 r_2 - 5.0454385216420743 r_3 - 5.0454385216420743 r_4 - 5.0454385216420743 r_5 - 5.0454385216420743 r_6 - 5.0454385216420743 r_7 - 5.0454385216420743 r_8 - 5.0454385216420743 r_9 <= 0
 c231: 9 h_1_10 - 5.0454385216420743 r_1 - 5.0454385216420743 r_10 - 5.0454385216420743 r_2 - 5.0454385216420743 r_3 - 5.0454385216420743 r_4 - 5.0454385216420743 r_5 - 5.0454385216420743 r_6 - 5.0454385216420743 r_7 - 5.0454385216420743 r_8 - 5.0454385216420743 r_9 <= 0
 c232: 9 h_2_3 - 5.0454385216420743 r_1 - 5.0454385216420743 r_10 - 5.0454385216420743 r_2 - 5.0454385216420743 r_3 - 5.0454385216420743 r_4 - 5.0454385216420743 r_5 - 5.0454385216420743 r_6 - 5.0454385216420743 r_7 - 5.0454385216420743 r_8 - 5.0454385216420743 r_9 <= 0
 c233: 9 h_2_4 - 5.0454385216420743 r_1 - 5.0454385216420743 r_10 - 5.0454385216420743 r_2 - 5.0454385216420743 r_3 - 5.0454385216420743 r_4 - 5.0454385216420743 r_5 - 5.0454385216420743 r_6 - 5.0454385216420743 r_7 - 5.0454385216420743 r_8 - 5.0454385216420743 r_9 <= 0
 c234: 9 h_2_5 - 5.0454385216420743 r_1 - 5.0454385216420743 r_10 - 5.0454385216420743 r_2 - 5.0454385216420743 r_3 - 5.0454385216420743 r_4 - 5.0454385216420743 r_5 - 5.0454385216420743 r_6 - 5.0454385216420743 r_7 - 5.0454385216420743 r_8 - 5.0454385216420743 r_9 <= 0
 c235: 9 h_2_6 - 5.0454385216420743 r_1 - 5.0454385216420743 r_10 - 5.0454385216420743 r_2 - 5.0454385216420743 r_3 - 5.0454385216420743 r_4 - 5.0454385216420743 r_5 - 5.0454385216420743 r_6 - 5.0454385216420743 r_7 - 5.0454385216420743 r_8 - 5.0454385216420743 r_9 <= 0
 c236: 9 h_2_7 - 5.0454385216420743 r_1 - 5.0454385216420743 r_10 - 5.0454385216420743 r_2 - 5.0454385216420743 r_3 - 5.0454385216420743 r_4 - 5.0454385216420743 r_5 - 5.0454385216420743 r_6 - 5.0454385216420743 r_7 - 5.0454385216420743 r_8 - 5.0454385216420743 r_9 <= 0
 c237: 9 h_2_8 - 5.0454385216420743 r_1 - 5.0454385216420743 r_10 - 5.0454385216420743 r_2 - 5.0454385216420743 r_3 - 5.0454385216420743 r_4 - 5.0454385216420743 r_5 - 5.0454385216420743 r_6 - 5.0454385216420743 r_7 - 5.0454385216420743 r_8 - 5.0454385216420743 r_9 <= 0
 c238: 9 h_2_9 - 5.0454385216420743 r_1 - 5.0454385216420743 r_10 - 5.0454385216420743 r_2 - 5.0454385216420743 r_3 - 5.0454385216420743 r_4 - 5.0454385216420743 r_5 - 5.0454385216420743 r_6 - 5.0454385216420743 r_7 - 5.0454385216420743 r_8 - 5.0454385216420743 r_9 <= 0
 c239: 9 h_2_10 - 5.0454385216420743 r_1 - 5.0454385216420743 r_10 - 5.0454385216420743 r_2 - 5.0454385216420743 r_3 - 5.0454385216420743 r_4 - 5.0454385216420743 r_5 - 5.0454385216420743 r_6 - 5.0454385216420743 r_7 - 5.0454385216420743 r_8 - 5.0454385216420743 r_9 <= 0
 c240: 9 h_3_4 - 5.0454385216420743 r_1 - 5.0454385216420743 r_10 - 5.0454385216420743 r_2 - 5.0454385216420743 r_3 - 5.0454385216420743 r_4 - 5.0454385216420743 r_5 - 5.0454385216420743 r_6 - 5.0454385216420743 r_7 - 5.0454385216420743 r_8 - 5.0454385216420743 r_9 <= 0
 c241: 9 h_3_5 - 5.0454385216420743 r_1 - 5.0454385216420743 r_10 - 5.0454385216420743 r_2 - 5.0454385216420743 r_3 - 5.0454385216420743 r_4 - 5.0454385216420743 r_5 - 5.0454385216420743 r_6 - 5.0454385216420743 r_7 - 5.0454385216420743 r_8 - 5.0454385216420743 r_9 <= 0
 c242: 9 h_3_6 - 5.0454385216420743 r_1 - 5.0454385216420743 r_10 - 5.0454385216420743 r_2 - 5.0454385216420743 r_3 - 5.0454385216420743 r_4 - 5.0454385216420743 r_5 - 5.0454385216420743 r_6 - 5.0454385216420743 r_7 - 5.0454385216420743 r_8 - 5.0454385216420743 r_9 <= 0
 c243: 9 h_3_7 - 5.0454385216420743 r_1 - 5.0454385216420743 r_10 - 5.0454385216420743 r_2 - 5.0454385216420743 r_3 - 5.0454385216420743 r_4 - 5.0454385216420743 r_5 - 5.0454385216420743 r_6 - 5.0454385216420743 r_7 - 5.0454385216420743 r_8 - 5.0454385216420743 r_9 <= 0
 c244: 9 h_3_8 - 5.0454385216420743 r_1 - 5.0454385216420743 r_10 - 5.0454385216420743 r_2 - 5.0454385216420743 r_3 - 5.0454385216420743 r_4 - 5.0454385216420743 r_5 - 5.0454385216420743 r_6 - 5.0454385216420743 r_7 - 5.0454385216420743 r_8 - 5.0454385216420743 r_9 <= 0
 c245: 9 h_3_9 - 5.0454385216420743 r_1 - 5.0454385216420743 r_10 - 5.0454385216420743 r_2 - 5.0454385216420743 r_3 - 5.0454385216420743 r_4 - 5.0454385216420743 r_5 - 5.0454385216420743 r_6 - 5.0454385216420743 r_7 - 5.0454385216420743 r_8 - 5.0454385216420743 r_9 <= 0
 c246: 9 h_3_10 - 5.0454385216420743 r_1 - 5.0454385216420743 r_10 - 5.0454385216420743 r_2 - 5.0454385216420743 r_3 - 5.0454385216420743 r_4 - 5.0454385216420743 r_5 - 5.0454385216420743 r_6 - 5.0454385216420743 r_7 - 5.0454385216420743 r_8 - 5.0454385216420743 r_9 <= 0
 c247: 9 h_4_5 - 5.0454385216420743 r_1 - 5.0454385216420743 r_10 - 5.0454385216420743 r_2 - 5.0454385216420743 r_3 - 5.0454385216420743 r_4 - 5.0454385216420743 r_5 - 5.0454385216420743 r_6 - 5.0454385216420743 r_7 - 5.0454385216420743 r_8 - 5.0454385216420743 r_9 <= 0
 c248: 9 h_4_6 - 5.0454385216420743 r_1 - 5.0454385216420743 r_10 - 5.0454385216420743 r_2 - 5.0454385216420743 r_3 - 5.0454385216420743 r_4 - 5.0454385216420743 r_5 - 5.0454385216420743 r_6 - 5.0454385216420743 r_7 - 5.0454385216420743 r_8 - 5.0454385216420743 r_9 <= 0
 c249: 9 h_4_7 - 5.0454385216420743 r_1 - 5.0454385216420743 r_10 - 5.0454385216420743 r_2 - 5.0454385216420743 r_3 - 5.0454385216420743 r_4 - 5.0454385216420743 r_5 - 5.0454385216420743 r_6 - 5.0454385216420743 r_7 - 5.0454385216420743 r_8 - 5.0454385216420743 r_9 <= 0
 c250: 9 h_4_8 - 5.0454385216420743 r_1 - 5.0454385216420743 r_10 - 5.0454385216420743 r_2 - 5.0454385216420743 r_3 - 5.0454385216420743 r_4 - 5.0454385216420743 r_5 - 5.0454385216420743 r_6 - 5.0454385216420743 r_7 - 5.0454385216420743 r_8 - 5.0454385216420743 r_9 <= 0
 c251: 9 h_4_9 - 5.0454385216420743 r_1 - 5.0454385216420743 r_10 - 5.0454385216420743 r_2 - 5.0454385216420743 r_3 - 5.0454385216420743 r_4 - 5.0454385216420743 r_5 - 5.0454385216420743 r_6 - 5.0454385216420743 r_7 - 5.0454385216420743 r_8 - 5.0454385216420743 r_9 <= 0
 c252: 9 h_4_10 - 5.0454385216420743 r_1 - 5.0454385216420743 r_10 - 5.0454385216420743 r_2 - 5.0454385216420743 r_3 - 5.0454385216420743 r_4 - 5.0454385216420743 r_5 - 5.0454385216420743 r_6 - 5.0454385216420743 r_7 - 5.0454385216420743 r_8 - 5.0454385216420743 r_9 <= 0
 c253: 9 h_5_6 - 5.0454385216420743 r_1 - 5.0454385216420743 r_10 - 5.0454385216420743 r_2 - 5.0454385216420743 r_3 - 5.0454385216420743 r_4 - 5.0454385216420743 r_5 - 5.0454385216420743 r_6 - 5.0454385216420743 r_7 - 5.0454385216420743 r_8 - 5.0454385216420743 r_9 <= 0
 c254: 9 h_5_7 - 5.0454385216420743 r_1 - 5.0454385216420743 r_10 - 5.0454385216420743 r_2 - 5.0454385216420743 r_3 - 5.0454385216420743 r_4 - 5.0454385216420743 r_5 - 5.0454385216420743 r_6 - 5.0454385216420743 r_7 - 5.0454385216420743 r_8 - 5.0454385216420743 r_9 <= 0
 c255: 9 h_5_8 - 5.0454385216420743 r_1 - 5.0454385216420743 r_10 - 5.0454385216420743 r_2 - 5.0454385216420743 r_3 - 5.0454385216420743 r_4 - 5.0454385216420743 r_5 - 5.0454385216420743 r_6 - 5.0454385216420743 r_7 - 5.0454385216420743 r_8 - 5.0454385216420743 r_9 <= 0
 c256: 9 h_5_9 - 5.0454385216420743 r_1 - 5.0454385216420743 r_10 - 5.0454385216420743 r_2 - 5.0454385216420743 r_3 - 5.0454385216420743 r_4 - 5.0454385216420743 r_5 - 5.0454385216420743 r_6 - 5.0454385216420743 r_7 - 5.0454385216420743 r_8 - 5.0454385216420743 r_9 <= 0
 c257: 9 h_5_10 - 5.0454385216420743 r_1 - 5.0454385216420743 r_10 - 5.0454385216420743 r_2 - 5.0454385216420743 r_3 - 5.0454385216420743 r_4 - 5.0454385216420743 r_5 - 5.0454385216420743 r_6 - 5.0454385216420743 r_7 - 5.0454385216420743 r_8 - 5.0454385216420743 r_9 <= 0
 c258: 9 h_6_7 - 5.0454385216420743 r_1 - 5.0454385216420743 r_10 - 5.0454385216420743 r_2 - 5.0454385216420743 r_3 - 5.0454385216420743 r_4 - 5.0454385216420743 r_5 - 5.0454385216420743 r_6 - 5.0454385216420743 r_7 - 5.0454385216420743 r_8 - 5.0454385216420743 r_9 <= 0
 c259: 9 h_6_8 - 5.0454385216420743 r_1 - 5.0454385216420743 r_10 - 5.0454385216420743 r_2 - 5.0454385216420743 r_3 - 5.0454385216420743 r_4 - 5.0454385216420743 r_5 - 5.0454385216420743 r_6 - 5.0454385216420743 r_7 - 5.0454385216420743 r_8 - 5.0454385216420743 r_9 <= 0
 c260: 9 h_6_9 - 5.0454385216420743 r_1 - 5.0454385216420743 r_10 - 5.0454385216420743 r_2 - 5.0454385216420743 r_3 - 5.0454385216420743 r_4 - 5.0454385216420743 r_5 - 5.0454385216420743 r_6 - 5.0454385216420743 r_7 - 5.0454385216420743 r_8 - 5.0454385216420743 r_9 <= 0
 c261: 9 h_6_10 - 5.0454385216420743 r_1 - 5.0454385216420743 r_10 - 5.0454385216420743 r_2 - 5.0454385216420743 r_3 - 5.0454385216420743 r_4 - 5.0454385216420743 r_5 - 5.0454385216420743 r_6 - 5.0454385216420743 r_7 - 5.0454385216420743 r_8 - 5.0454385216420743 r_9 <= 0
 c262: 9 h_7_8 - 5.0454385216420743 r_1 - 5.0454385216420743 r_10 - 5.0454385216420743 r_2 - 5.0454385216420743 r_3 - 5.0454385216420743 r_4 - 5.0454385216420743 r_5 - 5.0454385216420743 r_6 - 5.0454385216420743 r_7 - 5.0454385216420743 r_8 - 5.0454385216420743 r_9 <= 0
 c263: 9 h_7_9 - 5.0454385216420743 r_1 - 5.0454385216420743 r_10 - 5.0454385216420743 r_2 - 5.0454385216420743 r_3 - 5.0454385216420743 r_4 - 5.0454385216420743 r_5 - 5.0454385216420743 r_6 - 5.0454385216420743 r_7 - 5.0454385216420743 r_8 - 5.0454385216420743 r_9 <= 0
 c264: 9 h_7_10 - 5.0454385216420743 r_1 - 5.0454385216420743 r_10 - 5.0454385216420743 r_2 - 5.0454385216420743 r_3 - 5.0454385216420743 r_4 - 5.0454385216420743 r_5 - 5.0454385216420743 r_6 - 5.0454385216420743 r_7 - 5.0454385216420743 r_8 - 5.0454385216420743 r_9 <= 0
 c265: 9 h_8_9 - 5.0454385216420743 r_1 - 5.0454385216420743 r_10 - 5.0454385216420743 r_2 - 5.0454385216420743 r_3 - 5.0454385216420743 r_4 - 5.0454385216420743 r_5 - 5.0454385216420743 r_6 - 5.0454385216420743 r_7 - 5.0454385216420743 r_8 - 5.0454385216420743 r_9 <= 0
 c266: 9 h_8_10 - 5.0454385216420743 r_1 - 5.0454385216420743 r_10 - 5.0454385216420743 r_2 - 5.0454385216420743 r_3 - 5.0454385216420743 r_4 - 5.0454385216420743 r_5 - 5.0454385216420743 r_6 - 5.0454385216420743 r_7 - 5.0454385216420743 r_8 - 5.0454385216420743 r_9 <= 0
 c267: 9 h_9_10 - 5.0454385216420743 r_1 - 5.0454385216420743 r_10 - 5.0454385216420743 r_2 - 5.0454385216420743 r_3 - 5.0454385216420743 r_4 - 5.0454385216420743 r_5 - 5.0454385216420743 r_6 - 5.0454385216420743 r_7 - 5.0454385216420743 r_8 - 5.0454385216420743 r_9 <= 0
 c268: r_1 - r_2 <= 7.7391430813695479
 c269: - r_1 + r_2 <= 7.7391430813695479
 c270: r_1 - r_3 <= 7.7391430813695479
 c271: - r_1 + r_3 <= 7.7391430813695479
 c272: r_1 - r_4 <= 7.7391430813695479
 c273: - r_1 + r_4 <= 7.7391430813695479
 c274: r_1 - r_5 <= 7.7391430813695479
 c275: - r_1 + r_5 <= 7.7391430813695479
 c276: r_1 - r_6 <= 7.7391430813695479
 c277: - r_1 + r_6 <= 7.7391430813695479
 c278: r_1 - r_7 <= 7.7391430813695479
 c279: - r_1 + r_7 <= 7.7391430813695479
 c280: r_1 - r_8 <= 7.7391430813695479
 c281: - r_1 + r_8 <= 7.7391430813695479
 c282: r_1 - r_9 <= 7.7391430813695479
 c283: - r_1 + r_9 <= 7.7391430813695479
 c284: r_1 - r_10 <= 7.7391430813695479
 c285: - r_1 + r_10 <= 7.7391430813695479
 c286: r_2 - r_3 <= 7.7391430813695479
 c287: - r_2 + r_3 <= 7.7391430813695479
 c288: r_2 - r_4 <= 7.7391430813695479
 c289: - r_2 + r_4 <= 7.7391430813695479
 c290: r_2 - r_5 <= 7.7391430813695479
 c291: - r_2 + r_5 <= 7.7391430813695479
 c292: r_2 - r_6 <= 7.7391430813695479
 c293: - r_2 + r_6 <= 7.7391430813695479
 c294: r_2 - r_7 <= 7.7391430813695479
 c295: - r_2 + r_7 <= 7.7391430813695479
 c296: r_2 - r_8 <= 7.7391430813695479
 c297: - r_2 + r_8 <= 7.7391430813695479
 c298: r_2 - r_9 <= 7.7391430813695479
 c299: - r_2 + r_9 <= 7.7391430813695479
 c300: - r_10 + r_2 <= 7.7391430813695479
 c301: r_10 - r_2 <= 7.7391430813695479
 c302: r_3 - r_4 <= 7.7391430813695479
 c303: - r_3 + r_4 <= 7.7391430813695479
 c304: r_3 - r_5 <= 7.7391430813695479
 c305: - r_3 + r_5 <= 7.7391430813695479
 c306: r_3 - r_6 <= 7.7391430813695479
 c307: - r_3 + r_6 <= 7.7391430813695479
 c308: r_3 - r_7 <= 7.7391430813695479
 c309: - r_3 + r_7 <= 7.7391430813695479
 c310: r_3 - r_8 <= 7.7391430813695479
 c311: - r_3 + r_8 <= 7.7391430813695479
 c312: r_3 - r_9 <= 7.7391430813695479
 c313: - r_3 + r_9 <= 7.7391430813695479
 c314: - r_10 + r_3 <= 7.7391430813695479
 c315: r_10 - r_3 <= 7.7391430813695479
 c316: r_4 - r_5 <= 7.7391430813695479
 c317: - r_4 + r_5 <= 7.7391430813695479
 c318: r_4 - r_6 <= 7.7391430813695479
 c319: - r_4 + r_6 <= 7.7391430813695479
 c320: r_4 - r_7 <= 7.7391430813695479
 c321: - r_4 + r_7 <= 7.7391430813695479
 c322: r_4 - r_8 <= 7.7391430813695479
 c323: - r_4 + r_8 <= 7.7391430813695479
 c324: r_4 - r_9 <= 7.7391430813695479
 c325: - r_4 + r_9 <= 7.7391430813695479
 c326: - r_10 + r_4 <= 7.7391430813695479
 c327: r_10 - r_4 <= 7.7391430813695479
 c328: r_5 - r_6 <= 7.7391430813695479
 c329: - r_5 + r_6 <= 7.7391430813695479
 c330: r_5 - r_7 <= 7.7391430813695479
 c331: - r_5 + r_7 <= 7.7391430813695479
 c332: r_5 - r_8 <= 7.7391430813695479
 c333: - r_5 + r_8 <= 7.7391430813695479
 c334: r_5 - r_9 <= 7.7391430813695479
 c335: - r_5 + r_9 <= 7.7391430813695479
 c336: - r_10 + r_5 <= 7.7391430813695479
 c337: r_10 - r_5 <= 7.7391430813695479
 c338: r_6 - r_7 <= 7.7391430813695479
 c339: - r_6 + r_7 <= 7.7391430813695479
 c340: r_6 - r_8 <= 7.7391430813695479
 c341: - r_6 + r_8 <= 7.7391430813695479
 c342: r_6 - r_9 <= 7.7391430813695479
 c343: - r_6 + r_9 <= 7.7391430813695479
 c344: - r_10 + r_6 <= 7.7391430813695479
 c345: r_10 - r_6 <= 7.7391430813695479
 c346: r_7 - r_8 <= 7.7391430813695479
 c347: - r_7 + r_8 <= 7.7391430813695479
 c348: r_7 - r_9 <= 7.7391430813695479
 c349: - r_7 + r_9 <= 7.7391430813695479
 c350: - r_10 + r_7 <= 7.7391430813695479
 c351: r_10 - r_7 <= 7.7391430813695479
 c352: r_8 - r_9 <= 7.7391430813695479
 c353: - r_8 + r_9 <= 7.7391430813695479
 c354: - r_10 + r_8 <= 7.7391430813695479
 c355: r_10 - r_8 <= 7.7391430813695479
 c356: - r_10 + r_9 <= 7.7391430813695479
 c357: r_10 - r_9 <= 7.7391430813695479
 c358: 3.9545614783579257 r_1 - 5.0454385216420743 r_10 - 14.045438521642074 r_2 - 5.0454385216420743 r_3 - 5.0454385216420743 r_4 - 5.0454385216420743 r_5 - 5.0454385216420743 r_6 - 5.0454385216420743 r_7 - 5.0454385216420743 r_8 - 5.0454385216420743 r_9 <= 0
 c359: - 14.045438521642074 r_1 - 5.0454385216420743 r_10 + 3.9545614783579257 r_2 - 5.0454385216420743 r_3 - 5.0454385216420743 r_4 - 5.0454385216420743 r_5 - 5.0454385216420743 r_6 - 5.0454385216420743 r_7 - 5.0454385216420743 r_8 - 5.0454385216420743 r_9 <= 0
 c360: 3.9545614783579257 r_1 - 5.0454385216420743 r_10 - 5.0454385216420743 r_2 - 14.045438521642074 r_3 - 5.0454385216420743 r_4 - 5.0454385216420743 r_5 - 5.0454385216420743 r_6 - 5.0454385216420743 r_7 - 5.0454385216420743 r_8 - 5.0454385216420743 r_9 <= 0
 c361: - 14.045438521642074 r_1 - 5.0454385216420743 r_10 - 5.0454385216420743 r_2 + 3.9545614783579257 r_3 - 5.0454385216420743 r_4 - 5.0454385216420743 r_5 - 5.0454385216420743 r_6 - 5.0454385216420743 r_7 - 5.0454385216420743 r_8 - 5.0454385216420743 r_9 <= 0
 c362: 3.9545614783579257 r_1 - 5.0454385216420743 r_10 - 5.0454385216420743 r_2 - 5.0454385216420743 r_3 - 14.045438521642074 r_4 - 5.0454385216420743 r_5 - 5.0454385216420743 r_6 - 5.0454385216420743 r_7 - 5.0454385216420743 r_8 - 5.0454385216420743 r_9 <= 0
 c363: - 14.045438521642074 r_1 - 5.0454385216420743 r_10 - 5.0454385216420743 r_2 - 5.0454385216420743 r_3 + 3.9545614783579257 r_4 - 5.0454385216420743 r_5 - 5.0454385216420743 r_6 - 5.0454385216420743 r_7 - 5.0454385216420743 r_8 - 5.0454385216420743 r_9 <= 0
 c364: 3.9545614783579257 r_1 - 5.0454385216420743 r_10 - 5.0454385216420743 r_2 - 5.0454385216420743 r_3 - 5.0454385216420743 r_4 - 14.045438521642074 r_5 - 5.0454385216420743 r_6 - 5.0454385216420743 r_7 - 5.0454385216420743 r_8 - 5.0454385216420743 r_9 <= 0
 c365: - 14.045438521642074 r_1 - 5.0454385216420743 r_10 - 5.0454385216420743 r_2 - 5.0454385216420743 r_3 - 5.0454385216420743 r_4 + 3.9545614783579257 r_5 - 5.0454385216420743 r_6 - 5.0454385216420743 r_7 - 5.0454385216420743 r_8 - 5.0454385216420743 r_9 <= 0
 c366: 3.9545614783579257 r_1 - 5.0454385216420743 r_10 - 5.0454385216420743 r_2 - 5.0454385216420743 r_3 - 5.0454385216420743 r_4 - 5.0454385216420743 r_5 - 14.045438521642074 r_6 - 5.0454385216420743 r_7 - 5.0454385216420743 r_8 - 5.0454385216420743 r_9 <= 0
 c367: - 14.045438521642074 r_1 - 5.0454385216420743 r_10 - 5.0454385216420743 r_2 - 5.0454385216420743 r_3 - 5.0454385216420743 r_4 - 5.0454385216420743 r_5 + 3.9545614783579257 r_6 - 5.0454385216420743 r_7 - 5.0454385216420743 r_8 - 5.0454385216420743 r_9 <= 0
 c368: 3.9545614783579257 r_1 - 5.0454385216420743 r_10 - 5.0454385216420743 r_2 - 5.0454385216420743 r_3 - 5.0454385216420743 r_4 - 5.0454385216420743 r_5 - 5.0454385216420743 r_6 - 14.045438521642074 r_7 - 5.0454385216420743 r_8 - 5.0454385216420743 r_9 <= 0
 c369: - 14.045438521642074 r_1 - 5.0454385216420743 r_10 - 5.0454385216420743 r_2 - 5.0454385216420743 r_3 - 5.0454385216420743 r_4 - 5.0454385216420743 r_5 - 5.0454385216420743 r_6 + 3.9545614783579257 r_7 - 5.0454385216420743 r_8 - 5.0454385216420743 r_9 <= 0
 c370: 3.9545614783579257 r_1 - 5.0454385216420743 r_10 - 5.0454385216420743 r_2 - 5.0454385216420743 r_3 - 5.0454385216420743 r_4 - 5.0454385216420743 r_5 - 5.0454385216420743 r_6 - 5.0454385216420743 r_7 - 14.045438521642074 r_8 - 5.0454385216420743 r_9 <= 0
 c371: - 14.045438521642074 r_1 - 5.0454385216420743 r_10 - 5.0454385216420743 r_2 - 5.0454385216420743 r_3 - 5.0454385216420743 r_4 - 5.0454385216420743 r_5 - 5.0454385216420743 r_6 - 5.0454385216420743 r_7 + 3.9545614783579257 r_8 - 5.0454385216420743 r_9 <= 0
 c372: 3.9545614783579257 r_1 - 5.0454385216420743 r_10 - 5.0454385216420743 r_2 - 5.0454385216420743 r_3 - 5.0454385216420743 r_4 - 5.0454385216420743 r_5 - 5.0454385216420743 r_6 - 5.0454385216420743 r_7 - 5.0454385216420743 r_8 - 14.045438521642074 r_9 <= 0
 c373: - 14.045438521642074 r_1 - 5.0454385216420743 r_10 - 5.0454385216420743 r_2 - 5.0454385216420743 r_3 - 5.0454385216420743 r_4 - 5.0454385216420743 r_5 - 5.0454385216420743 r_6 - 5.0454385216420743 r_7 - 5.0454385216420743 r_8 + 3.9545614783579257 r_9 <= 0
 c374: 3.9545614783579257 r_1 - 14.045438521642074 r_10 - 5.0454385216420743 r_2 - 5.0454385216420743 r_3 - 5.0454385216420743 r_4 - 5.0454385216420743 r_5 - 5.0454385216420743 r_6 - 5.0454385216420743 r_7 - 5.0454385216420743 r_8 - 5.0454385216420743 r_9 <= 0
 c375: - 14.045438521642074 r_1 + 3.9545614783579257 r_10 - 5.0454385216420743 r_2 - 5.0454385216420743 r_3 - 5.0454385216420743 r_4 - 5.0454385216420743 r_5 - 5.0454385216420743 r_6 - 5.0454385216420743 r_7 - 5.0454385216420743 r_8 - 5.0454385216420743 r_9 <= 0
 c376: - 5.0454385216420743 r_1 - 5.0454385216420743 r_10 + 3.9545614783579257 r_2 - 14.045438521642074 r_3 - 5.0454385216420743 r_4 - 5.0454385216420743 r_5 - 5.0454385216420743 r_6 - 5.0454385216420743 r_7 - 5.0454385216420743 r_8 - 5.0454385216420743 r_9 <= 0
 c377: - 5.0454385216420743 r_1 - 5.0454385216420743 r_10 - 14.045438521642074 r_2 + 3.9545614783579257 r_3 - 5.0454385216420743 r_4 - 5.0454385216420743 r_5 - 5.0454385216420743 r_6 - 5.0454385216420743 r_7 - 5.0454385216420743 r_8 - 5.0454385216420743 r_9 <= 0
 c378: - 5.0454385216420743 r_1 - 5.0454385216420743 r_10 + 3.9545614783579257 r_2 - 5.0454385216420743 r_3 - 14.045438521642074 r_4 - 5.0454385216420743 r_5 - 5.0454385216420743 r_6 - 5.0454385216420743 r_7 - 5.0454385216420743 r_8 - 5.0454385216420743 r_9 <= 0
 c379: - 5.0454385216420743 r_1 - 5.0454385216420743 r_10 - 14.045438521642074 r_2 - 5.0454385216420743 r_3 + 3.9545614783579257 r_4 - 5.0454385216420743 r_5 - 5.0454385216420743 r_6 - 5.0454385216420743 r_7 - 5.0454385216420743 r_8 - 5.0454385216420743 r_9 <= 0
 c380: - 5.0454385216420743 r_1 - 5.0454385216420743 r_10 + 3.9545614783579257 r_2 - 5.0454385216420743 r_3 - 5.0454385216420743 r_4 - 14.045438521642074 r_5 - 5.0454385216420743 r_6 - 5.0454385216420743 r_7 - 5.0454385216420743 r_8 - 5.0454385216420743 r_9 <= 0
 c381: - 5.0454385216420743 r_1 - 5.0454385216420743 r_10 - 14.045438521642074 r_2 - 5.0454385216420743 r_3 - 5.0454385216420743 r_4 + 3.9545614783579257 r_5 - 5.0454385216420743 r_6 - 5.0454385216420743 r_7 - 5.0454385216420743 r_8 - 5.0454385216420743 r_9 <= 0
 c382: - 5.0454385216420743 r_1 - 5.0454385216420743 r_10 + 3.9545614783579257 r_2 - 5.0454385216420743 r_3 - 5.0454385216420743 r_4 - 5.0454385216420743 r_5 - 14.045438521642074 r_6 - 5.0454385216420743 r_7 - 5.0454385216420743 r_8 - 5.0454385216420743 r_9 <= 0
 c383: - 5.0454385216420743 r_1 - 5.0454385216420743 r_10 - 14.045438521642074 r_2 - 5.0454385216420743 r_3 - 5.0454385216420743 r_4 - 5.0454385216420743 r_5 + 3.9545614783579257 r_6 - 5.0454385216420743 r_7 - 5.0454385216420743 r_8 - 5.0454385216420743 r_9 <= 0
 c384: - 5.0454385216420743 r_1 - 5.0454385216420743 r_10 + 3.9545614783579257 r_2 - 5.0454385216420743 r_3 - 5.0454385216420743 r_4 - 5.0454385216420743 r_5 - 5.0454385216420743 r_6 - 14.045438521642074 r_7 - 5.0454385216420743 r_8 - 5.0454385216420743 r_9 <= 0
 c385: - 5.0454385216420743 r_1 - 5.0454385216420743 r_10 - 14.045438521642074 r_2 - 5.0454385216420743 r_3 - 5.0454385216420743 r_4 - 5.0454385216420743 r_5 - 5.0454385216420743 r_6 + 3.9545614783579257 r_7 - 5.0454385216420743 r_8 - 5.0454385216420743 r_9 <= 0
 c386: - 5.0454385216420743 r_1 - 5.0454385216420743 r_10 + 3.9545614783579257 r_2 - 5.0454385216420743 r_3 - 5.0454385216420743 r_4 - 5.0454385216420743 r_5 - 5.0454385216420743 r_6 - 5.0454385216420743 r_7 - 14.045438521642074 r_8 - 5.0454385216420743 r_9 <= 0
 c387: - 5.0454385216420743 r_1 - 5.0454385216420743 r_10 - 14.045438521642074 r_2 - 5.0454385216420743 r_3 - 5.0454385216420743 r_4 - 5.0454385216420743 r_5 - 5.0454385216420743 r_6 - 5.0454385216420743 r_7 + 3.9545614783579257 r_8 - 5.0454385216420743 r_9 <= 0
 c388: - 5.0454385216420743 r_1 - 5.0454385216420743 r_10 + 3.9545614783579257 r_2 - 5.0454385216420743 r_3 - 5.0454385216420743 r_4 - 5.0454385216420743 r_5 - 5.0454385216420743 r_6 - 5.0454385216420743 r_7 - 5.0454385216420743 r_8 - 14.045438521642074 r_9 <= 0
 c389: - 5.0454385216420743 r_1 - 5.0454385216420743 r_10 - 14.045438521642074 r_2 - 5.0454385216420743 r_3 - 5.0454385216420743 r_4 - 5.0454385216420743 r_5 - 5.0454385216420743 r_6 - 5.0454385216420743 r_7 - 5.0454385216420743 r_8 + 3.9545614783579257 r_9 <= 0
 c390: - 5.0454385216420743 r_1 - 14.045438521642074 r_10 + 3.9545614783579257 r_2 - 5.0454385216420743 r_3 - 5.0454385216420743 r_4 - 5.0454385216420743 r_5 - 5.0454385216420743 r_6 - 5.0454385216420743 r_7 - 5.0454385216420743 r_8 - 5.0454385216420743 r_9 <= 0
 c391: - 5.0454385216420743 r_1 + 3.9545614783579257 r_10 - 14.045438521642074 r_2 - 5.0454385216420743 r_3 - 5.0454385216420743 r_4 - 5.0454385216420743 r_5 - 5.0454385216420743 r_6 - 5.0454385216420743 r_7 - 5.0454385216420743 r_8 - 5.0454385216420743 r_9 <= 0
 c392: - 5.0454385216420743 r_1 - 5.0454385216420743 r_10 - 5.0454385216420743 r_2 + 3.9545614783579257 r_3 - 14.045438521642074 r_4 - 5.0454385216420743 r_5 - 5.0454385216420743 r_6 - 5.0454385216420743 r_7 - 5.0454385216420743 r_8 - 5.0454385216420743 r_9 <= 0
 c393: - 5.0454385216420743 r_1 - 5.0454385216420743 r_10 - 5.0454385216420743 r_2 - 14.045438521642074 r_3 + 3.9545614783579257 r_4 - 5.0454385216420743 r_5 - 5.0454385216420743 r_6 - 5.0454385216420743 r_7 - 5.0454385216420743 r_8 - 5.0454385216420743 r_9 <= 0
 c394: - 5.0454385216420743 r_1 - 5.0454385216420743 r_10 - 5.0454385216420743 r_2 + 3.9545614783579257 r_3 - 5.0454385216420743 r_4 - 14.045438521642074 r_5 - 5.0454385216420743 r_6 - 5.0454385216420743 r_7 - 5.0454385216420743 r_8 - 5.0454385216420743 r_9 <= 0
 c395: - 5.0454385216420743 r_1 - 5.0454385216420743 r_10 - 5.0454385216420743 r_2 - 14.045438521642074 r_3 - 5.0454385216420743 r_4 + 3.9545614783579257 r_5 - 5.0454385216420743 r_6 - 5.0454385216420743 r_7 - 5.0454385216420743 r_8 - 5.0454385216420743 r_9 <= 0
 c396: - 5.0454385216420743 r_1 - 5.0454385216420743 r_10 - 5.0454385216420743 r_2 + 3.9545614783579257 r_3 - 5.0454385216420743 r_4 - 5.0454385216420743 r_5 - 14.045438521642074 r_6 - 5.0454385216420743 r_7 - 5.0454385216420743 r_8 - 5.0454385216420743 r_9 <= 0
 c397: - 5.0454385216420743 r_1 - 5.0454385216420743 r_10 - 5.0454385216420743 r_2 - 14.045438521642074 r_3 - 5.0454385216420743 r_4 - 5.0454385216420743 r_5 + 3.9545614783579257 r_6 - 5.0454385216420743 r_7 - 5.0454385216420743 r_8 - 5.0454385216420743 r_9 <= 0
 c398: - 5.0454385216420743 r_1 - 5.0454385216420743 r_10 - 5.0454385216420743 r_2 + 3.9545614783579257 r_3 - 5.0454385216420743 r_4 - 5.0454385216420743 r_5 - 5.0454385216420743 r_6 - 14.045438521642074 r_7 - 5.0454385216420743 r_8 - 5.0454385216420743 r_9 <= 0
 c399: - 5.0454385216420743 r_1 - 5.0454385216420743 r_10 - 5.0454385216420743 r_2 - 14.045438521642074 r_3 - 5.0454385216420743 r_4 - 5.0454385216420743 r_5 - 5.0454385216420743 r_6 + 3.9545614783579257 r_7 - 5.0454385216420743 r_8 - 5.0454385216420743 r_9 <= 0
 c400: - 5.0454385216420743 r_1 - 5.0454385216420743 r_10 - 5.0454385216420743 r_2 + 3.9545614783579257 r_3 - 5.0454385216420743 r_4 - 5.0454385216420743 r_5 - 5.0454385216420743 r_6 - 5.0454385216420743 r_7 - 14.045438521642074 r_8 - 5.0454385216420743 r_9 <= 0
 c401: - 5.0454385216420743 r_1 - 5.0454385216420743 r_10 - 5.0454385216420743 r_2 - 14.045438521642074 r_3 - 5.0454385216420743 r_4 - 5.0454385216420743 r_5 - 5.0454385216420743 r_6 - 5.0454385216420743 r_7 + 3.9545614783579257 r_8 - 5.0454385216420743 r_9 <= 0
 c402: - 5.0454385216420743 r_1 - 5.0454385216420743 r_10 - 5.0454385216420743 r_2 + 3.9545614783579257 r_3 - 5.0454385216420743 r_4 - 5.0454385216420743 r_5 - 5.0454385216420743 r_6 - 5.0454385216420743 r_7 - 5.0454385216420743 r_8 - 14.045438521642074 r_9 <= 0
 c403: - 5.0454385216420743 r_1 - 5.0454385216420743 r_10 - 5.0454385216420743 r_2 - 14.045438521642074 r_3 - 5.0454385216420743 r_4 - 5.0454385216420743 r_5 - 5.0454385216420743 r_6 - 5.0454385216420743 r_7 - 5.0454385216420743 r_8 + 3.9545614783579257 r_9 <= 0
 c404: - 5.0454385216420743 r_1 - 14.045438521642074 r_10 - 5.0454385216420743 r_2 + 3.9545614783579257 r_3 - 5.0454385216420743 r_4 - 5.0454385216420743 r_5 - 5.0454385216420743 r_6 - 5.0454385216420743 r_7 - 5.0454385216420743 r_8 - 5.0454385216420743 r_9 <= 0
 c405: - 5.0454385216420743 r_1 + 3.9545614783579257 r_10 - 5.0454385216420743 r_2 - 14.045438521642074 r_3 - 5.0454385216420743 r_4 - 5.0454385216420743 r_5 - 5.0454385216420743 r_6 - 5.0454385216420743 r_7 - 5.0454385216420743 r_8 - 5.0454385216420743 r_9 <= 0
 c406: - 5.0454385216420743 r_1 - 5.0454385216420743 r_10 - 5.0454385216420743 r_2 - 5.0454385216420743 r_3 + 3.9545614783579257 r_4 - 14.045438521642074 r_5 - 5.0454385216420743 r_6 - 5.0454385216420743 r_7 - 5.0454385216420743 r_8 - 5.0454385216420743 r_9 <= 0
 c407: - 5.0454385216420743 r_1 - 5.0454385216420743 r_10 - 5.0454385216420743 r_2 - 5.0454385216420743 r_3 - 14.045438521642074 r_4 + 3.9545614783579257 r_5 - 5.0454385216420743 r_6 - 5.0454385216420743 r_7 - 5.0454385216420743 r_8 - 5.0454385216420743 r_9 <= 0
 c408: - 5.0454385216420743 r_1 - 5.0454385216420743 r_10 - 5.0454385216420743 r_2 - 5.0454385216420743 r_3 + 3.9545614783579257 r_4 - 5.0454385216420743 r_5 - 14.045438521642074 r_6 - 5.0454385216420743 r_7 - 5.0454385216420743 r_8 - 5.0454385216420743 r_9 <= 0
 c409: - 5.0454385216420743 r_1 - 5.0454385216420743 r_10 - 5.0454385216420743 r_2 - 5.0454385216420743 r_3 - 14.045438521642074 r_4 - 5.0454385216420743 r_5 + 3.9545614783579257 r_6 - 5.0454385216420743 r_7 - 5.0454385216420743 r_8 - 5.0454385216420743 r_9 <= 0
 c410: - 5.0454385216420743 r_1 - 5.0454385216420743 r_10 - 5.0454385216420743 r_2 - 5.0454385216420743 r_3 + 3.9545614783579257 r_4 - 5.0454385216420743 r_5 - 5.0454385216420743 r_6 - 14.045438521642074 r_7 - 5.0454385216420743 r_8 - 5.0454385216420743 r_9 <= 0
 c411: - 5.0454385216420743 r_1 - 5.0454385216420743 r_10 - 5.0454385216420743 r_2 - 5.0454385216420743 r_3 - 14.045438521642074 r_4 - 5.0454385216420743 r_5 - 5.0454385216420743 r_6 + 3.9545614783579257 r_7 - 5.0454385216420743 r_8 - 5.0454385216420743 r_9 <= 0
 c412: - 5.0454385216420743 r_1 - 5.0454385216420743 r_10 - 5.0454385216420743 r_2 - 5.0454385216420743 r_3 + 3.9545614783579257 r_4 - 5.0454385216420743 r_5 - 5.0454385216420743 r_6 - 5.0454385216420743 r_7 - 14.045438521642074 r_8 - 5.0454385216420743 r_9 <= 0
 c413: - 5.0454385216420743 r_1 - 5.0454385216420743 r_10 - 5.0454385216420743 r_2 - 5.0454385216420743 r_3 - 14.045438521642074 r_4 - 5.0454385216420743 r_5 - 5.0454385216420743 r_6 - 5.0454385216420743 r_7 + 3.9545614783579257 r_8 - 5.0454385216420743 r_9 <= 0
 c414: - 5.0454385216420743 r_1 - 5.0454385216420743 r_10 - 5.0454385216420743 r_2 - 5.0454385216420743 r_3 + 3.9545614783579257 r_4 - 5.0454385216420743 r_5 - 5.0454385216420743 r_6 - 5.0454385216420743 r_7 - 5.0454385216420743 r_8 - 14.045438521642074 r_9 <= 0
 c415: - 5.0454385216420743 r_1 - 5.0454385216420743 r_10 - 5.0454385216420743 r_2 - 5.0454385216420743 r_3 - 14.045438521642074 r_4 - 5.0454385216420743 r_5 - 5.0454385216420743 r_6 - 5.0454385216420743 r_7 - 5.0454385216420743 r_8 + 3.9545614783579257 r_9 <= 0
 c416: - 5.0454385216420743 r_1 - 14.045438521642074 r_10 - 5.0454385216420743 r_2 - 5.0454385216420743 r_3 + 3.9545614783579257 r_4 - 5.0454385216420743 r_5 - 5.0454385216420743 r_6 - 5.0454385216420743 r_7 - 5.0454385216420743 r_8 - 5.0454385216420743 r_9 <= 0
 c417: - 5.0454385216420743 r_1 + 3.9545614783579257 r_10 - 5.0454385216420743 r_2 - 5.0454385216420743 r_3 - 14.045438521642074 r_4 - 5.0454385216420743 r_5 - 5.0454385216420743 r_6 - 5.0454385216420743 r_7 - 5.0454385216420743 r_8 - 5.0454385216420743 r_9 <= 0
 c418: - 5.0454385216420743 r_1 - 5.0454385216420743 r_10 - 5.0454385216420743 r_2 - 5.0454385216420743 r_3 - 5.0454385216420743 r_4 + 3.9545614783579257 r_5 - 14.045438521642074 r_6 - 5.0454385216420743 r_7 - 5.0454385216420743 r_8 - 5.0454385216420743 r_9 <= 0
 c419: - 5.0454385216420743 r_1 - 5.0454385216420743 r_10 - 5.0454385216420743 r_2 - 5.0454385216420743 r_3 - 5.0454385216420743 r_4 - 14.045438521642074 r_5 + 3.9545614783579257 r_6 - 5.0454385216420743 r_7 - 5.0454385216420743 r_8 - 5.0454385216420743 r_9 <= 0
 c420: - 5.0454385216420743 r_1 - 5.0454385216420743 r_10 - 5.0454385216420743 r_2 - 5.0454385216420743 r_3 - 5.0454385216420743 r_4 + 3.9545614783579257 r_5 - 5.0454385216420743 r_6 - 14.045438521642074 r_7 - 5.0454385216420743 r_8 - 5.0454385216420743 r_9 <= 0
 c421: - 5.0454385216420743 r_1 - 5.0454385216420743 r_10 - 5.0454385216420743 r_2 - 5.0454385216420743 r_3 - 5.0454385216420743 r_4 - 14.045438521642074 r_5 - 5.0454385216420743 r_6 + 3.9545614783579257 r_7 - 5.0454385216420743 r_8 - 5.0454385216420743 r_9 <= 0
 c422: - 5.0454385216420743 r_1 - 5.0454385216420743 r_10 - 5.0454385216420743 r_2 - 5.0454385216420743 r_3 - 5.0454385216420743 r_4 + 3.9545614783579257 r_5 - 5.0454385216420743 r_6 - 5.0454385216420743 r_7 - 14.045438521642074 r_8 - 5.0454385216420743 r_9 <= 0
 c423: - 5.0454385216420743 r_1 - 5.0454385216420743 r_10 - 5.0454385216420743 r_2 - 5.0454385216420743 r_3 - 5.0454385216420743 r_4 - 14.045438521642074 r_5 - 5.0454385216420743 r_6 - 5.0454385216420743 r_7 + 3.9545614783579257 r_8 - 5.0454385216420743 r_9 <= 0
 c424: - 5.0454385216420743 r_1 - 5.0454385216420743 r_10 - 5.0454385216420743 r_2 - 5.0454385216420743 r_3 - 5.0454385216420743 r_4 + 3.9545614783579257 r_5 - 5.0454385216420743 r_6 - 5.0454385216420743 r_7 - 5.0454385216420743 r_8 - 14.045438521642074 r_9 <= 0
 c425: - 5.0454385216420743 r_1 - 5.0454385216420743 r_10 - 5.0454385216420743 r_2 - 5.0454385216420743 r_3 - 5.0454385216420743 r_4 - 14.045438521642074 r_5 - 5.0454385216420743 r_6 - 5.0454385216420743 r_7 - 5.0454385216420743 r_8 + 3.9545614783579257 r_9 <= 0
 c426: - 5.0454385216420743 r_1 - 14.045438521642074 r_10 - 5.0454385216420743 r_2 - 5.0454385216420743 r_3 - 5.0454385216420743 r_4 + 3.9545614783579257 r_5 - 5.0454385216420743 r_6 - 5.0454385216420743 r_7 - 5.0454385216420743 r_8 - 5.0454385216420743 r_9 <= 0
 c427: - 5.0454385216420743 r_1 + 3.9545614783579257 r_10 - 5.0454385216420743 r_2 - 5.0454385216420743 r_3 - 5.0454385216420743 r_4 - 14.045438521642074 r_5 - 5.0454385216420743 r_6 - 5.0454385216420743 r_7 - 5.0454385216420743 r_8 - 5.0454385216420743 r_9 <= 0
 c428: - 5.0454385216420743 r_1 - 5.0454385216420743 r_10 - 5.0454385216420743 r_2 - 5.0454385216420743 r_3 - 5.0454385216420743 r_4 - 5.0454385216420743 r_5 + 3.9545614783579257 r_6 - 14.045438521642074 r_7 - 5.0454385216420743 r_8 - 5.0454385216420743 r_9 <= 0
 c429: - 5.0454385216420743 r_1 - 5.0454385216420743 r_10 - 5.0454385216420743 r_2 - 5.0454385216420743 r_3 - 5.0454385216420743 r_4 - 5.0454385216420743 r_5 - 14.045438521642074 r_6 + 3.9545614783579257 r_7 - 5.0454385216420743 r_8 - 5.0454385216420743 r_9 <= 0
 c430: - 5.0454385216420743 r_1 - 5.0454385216420743 r_10 - 5.0454385216420743 r_2 - 5.0454385216420743 r_3 - 5.0454385216420743 r_4 - 5.0454385216420743 r_5 + 3.9545614783579257 r_6 - 5.0454385216420743 r_7 - 14.045438521642074 r_8 - 5.0454385216420743 r_9 <= 0
 c431: - 5.0454385216420743 r_1 - 5.0454385216420743 r_10 - 5.0454385216420743 r_2 - 5.0454385216420743 r_3 - 5.0454385216420743 r_4 - 5.0454385216420743 r_5 - 14.045438521642074 r_6 - 5.0454385216420743 r_7 + 3.9545614783579257 r_8 - 5.0454385216420743 r_9 <= 0
 c432: - 5.0454385216420743 r_1 - 5.0454385216420743 r_10 - 5.0454385216420743 r_2 - 5.0454385216420743 r_3 - 5.0454385216420743 r_4 - 5.0454385216420743 r_5 + 3.9545614783579257 r_6 - 5.0454385216420743 r_7 - 5.0454385216420743 r_8 - 14.045438521642074 r_9 <= 0
 c433: - 5.0454385216420743 r_1 - 5.0454385216420743 r_10 - 5.0454385216420743 r_2 - 5.0454385216420743 r_3 - 5.0454385216420743 r_4 - 5.0454385216420743 r_5 - 14.045438521642074 r_6 - 5.0454385216420743 r_7 - 5.0454385216420743 r_8 + 3.9545614783579257 r_9 <= 0
 c434: - 5.0454385216420743 r_1 - 14.045438521642074 r_10 - 5.0454385216420743 r_2 - 5.0454385216420743 r_3 - 5.0454385216420743 r_4 - 5.0454385216420743 r_5 + 3.9545614783579257 r_6 - 5.0454385216420743 r_7 - 5.0454385216420743 r_8 - 5.0454385216420743 r_9 <= 0
 c435: - 5.0454385216420743 r_1 + 3.9545614783579257 r_10 - 5.0454385216420743 r_2 - 5.0454385216420743 r_3 - 5.0454385216420743 r_4 - 5.0454385216420743 r_5 - 14.045438521642074 r_6 - 5.0454385216420743 r_7 - 5.0454385216420743 r_8 - 5.0454385216420743 r_9 <= 0
 c436: - 5.0454385216420743 r_1 - 5.0454385216420743 r_10 - 5.0454385216420743 r_2 - 5.0454385216420743 r_3 - 5.0454385216420743 r_4 - 5.0454385216420743 r_5 - 5.0454385216420743 r_6 + 3.9545614783579257 r_7 - 14.045438521642074 r_8 - 5.0454385216420743 r_9 <= 0
 c437: - 5.0454385216420743 r_1 - 5.0454385216420743 r_10 - 5.0454385216420743 r_2 - 5.0454385216420743 r_3 - 5.0454385216420743 r_4 - 5.0454385216420743 r_5 - 5.0454385216420743 r_6 - 14.045438521642074 r_7 + 3.9545614783579257 r_8 - 5.0454385216420743 r_9 <= 0
 c438: - 5.0454385216420743 r_1 - 5.0454385216420743 r_10 - 5.0454385216420743 r_2 - 5.0454385216420743 r_3 - 5.0454385216420743 r_4 - 5.0454385216420743 r_5 - 5.0454385216420743 r_6 + 3.9545614783579257 r_7 - 5.0454385216420743 r_8 - 14.045438521642074 r_9 <= 0
 c439: - 5.0454385216420743 r_1 - 5.0454385216420743 r_10 - 5.0454385216420743 r_2 - 5.0454385216420743 r_3 - 5.0454385216420743 r_4 - 5.0454385216420743 r_5 - 5.0454385216420743 r_6 - 14.045438521642074 r_7 - 5.0454385216420743 r_8 + 3.9545614783579257 r_9 <= 0
 c440: - 5.0454385216420743 r_1 - 14.045438521642074 r_10 - 5.0454385216420743 r_2 - 5.0454385216420743 r_3 - 5.0454385216420743 r_4 - 5.0454385216420743 r_5 - 5.0454385216420743 r_6 + 3.9545614783579257 r_7 - 5.0454385216420743 r_8 - 5.0454385216420743 r_9 <= 0
 c441: - 5.0454385216420743 r_1 + 3.9545614783579257 r_10 - 5.0454385216420743 r_2 - 5.0454385216420743 r_3 - 5.0454385216420743 r_4 - 5.0454385216420743 r_5 - 5.0454385216420743 r_6 - 14.045438521642074 r_7 - 5.0454385216420743 r_8 - 5.0454385216420743 r_9 <= 0
 c442: - 5.0454385216420743 r_1 - 5.0454385216420743 r_10 - 5.0454385216420743 r_2 - 5.0454385216420743 r_3 - 5.0454385216420743 r_4 - 5.0454385216420743 r_5 - 5.0454385216420743 r_6 - 5.0454385216420743 r_7 + 3.9545614783579257 r_8 - 14.045438521642074 r_9 <= 0
 c443: - 5.0454385216420743 r_1 - 5.0454385216420743 r_10 - 5.0454385216420743 r_2 - 5.0454385216420743 r_3 - 5.0454385216420743 r_4 - 5.0454385216420743 r_5 - 5.0454385216420743 r_6 - 5.0454385216420743 r_7 - 14.045438521642074 r_8 + 3.9545614783579257 r_9 <= 0
 c444: - 5.0454385216420743 r_1 - 14.045438521642074 r_10 - 5.0454385216420743 r_2 - 5.0454385216420743 r_3 - 5.0454385216420743 r_4 - 5.0454385216420743 r_5 - 5.0454385216420743 r_6 - 5.0454385216420743 r_7 + 3.9545614783579257 r_8 - 5.0454385216420743 r_9 <= 0
 c445: - 5.0454385216420743 r_1 + 3.9545614783579257 r_10 - 5.0454385216420743 r_2 - 5.0454385216420743 r_3 - 5.0454385216420743 r_4 - 5.0454385216420743 r_5 - 5.0454385216420743 r_6 - 5.0454385216420743 r_7 - 14.045438521642074 r_8 - 5.0454385216420743 r_9 <= 0
 c446: - 5.0454385216420743 r_1 - 14.045438521642074 r_10 - 5.0454385216420743 r_2 - 5.0454385216420743 r_3 - 5.0454385216420743 r_4 - 5.0454385216420743 r_5 - 5.0454385216420743 r_6 - 5.0454385216420743 r_7 - 5.0454385216420743 r_8 + 3.9545614783579257 r_9 <= 0
 c447: - 5.0454385216420743 r_1 + 3.9545614783579257 r_10 - 5.0454385216420743 r_2 - 5.0454385216420743 r_3 - 5.0454385216420743 r_4 - 5.0454385216420743 r_5 - 5.0454385216420743 r_6 - 5.0454385216420743 r_7 - 5.0454385216420743 r_8 - 14.045438521642074 r_9 <= 0
 c448: G + 0.085945049999999995 e_1 + 0.089469750000000001 e_10 + 0.022499999999999999 e_2 + 0.067146449999999996 e_3 + 0.1152273 e_4 + 0.085945049999999995 e_5 + 0.068863649999999998 e_6 + 0.14999999999999999 e_7 + 0.052305149999999995 e_8 + 0.07548705 e_9 <= 0.50454385216420738
 c449: 11.864715675538278 e_1 + 12.351300572999735 e_10 + 3.1061253987240831 e_2 + 9.2695686124069656 e_3 + 15.907130806951091 e_4 + 11.864715675538278 e_5 + 9.5066281028375865 e_6 + 20.707502658160553 e_7 + 7.2207268844032431 e_8 + 10.420988590211325 e_9 + h_1_10 + h_1_2 + h_1_3 + h_1_4 + h_1_5 + h_1_6 + h_1_7 + h_1_8 + h_1_9 + h_2_10 + h_2_3 + h_2_4 + h_2_5 + h_2_6 + h_2_7 + h_2_8 + h_2_9 + h_3_10 + h_3_4 + h_3_5 + h_3_6 + h_3_7 + h_3_8 + h_3_9 + h_4_10 + h_4_5 + h_4_6 + h_4_7 + h_4_8 + h_4_9 + h_5_10 + h_5_6 + h_5_7 + h_5_8 + h_5_9 + h_6_10 + h_6_7 + h_6_8 + h_6_9 + h_7_10 + h_7_8 + h_7_9 + h_8_10 + h_8_9 + h_9_10 <= 69.652287732325931
 c450: 0.572967 e_1 + 0.59646500000000002 e_10 + 0.14999999999999999 e_2 + 0.44764300000000001 e_3 + 0.76818200000000003 e_4 + 0.572967 e_5 + 0.45909100000000003 e_6 + e_7 + 0.34870099999999998 e_8 + 0.503247 e_9 >= 0.72248906381800471
 c451: e_1 <= 2.9352699903264203
 c452: e_2 <= 11.212085603649054
 c453: e_3 <= 3.7570404106561659
 c454: e_4 <= 2.1893416411050479
 c455: e_5 <= 2.9352699903264203
 c456: e_6 <= 3.6633539767657348
 c457: e_7 <= 1.681812840547358
 c458: e_8 <= 4.8230800615637985
 c459: e_9 <= 3.3419232316285203
 c460: e_10 <= 2.81963374304839
 c461: W_SP - 2.5395992415413535 e_1 - 2.6437509692634364 e_10 - 0.66485484544695073 e_2 - 1.9841174505360626 e_3 - 3.4048634992341968 e_4 - 2.5395992415413535 e_5 - 2.0348591723405738 e_6 - 4.4323656363130048 e_7 - 1.545570329747981 e_8 - 2.2305747093776107 e_9 - 0.72248906381800471 r_1 - 0.72248906381800471 r_10 - 0.72248906381800471 r_2 - 0.72248906381800471 r_3 - 0.72248906381800471 r_4 - 0.72248906381800471 r_5 - 0.72248906381800471 r_6 - 0.72248906381800471 r_7 - 0.72248906381800471 r_8 - 0.72248906381800471 r_9 >= -3.2023356990788776
 c462: W_SP - 7.9098104503588518 e_1 - 8.2342003819998233 e_10 - 2.0707502658160553 e_2 - 6.1797124082713095 e_3 - 10.604753871300726 e_4 - 7.9098104503588518 e_5 - 6.337752068558391 e_6 - 13.805001772107035 e_7 - 4.8138179229354954 e_8 - 6.9473257268075495 e_9 - 5.4149801330251126 r_1 - 5.4149801330251126 r_10 - 5.4149801330251126 r_2 - 5.4149801330251126 r_3 - 5.4149801330251126 r_4 - 5.4149801330251126 r_5 - 5.4149801330251126 r_6 - 5.4149801330251126 r_7 - 5.4149801330251126 r_8 - 5.4149801330251126 r_9 >= -74.753810332336073
 c463: W_SP - 7.9098104503588518 e_1 - 8.2342003819998233 e_10 - 2.0707502658160553 e_2 - 6.1797124082713095 e_3 - 10.604753871300726 e_4 - 7.9098104503588518 e_5 - 6.337752068558391 e_6 - 13.805001772107035 e_7 - 4.8138179229354954 e_8 - 6.9473257268075495 e_9 - 0.72248906381800471 r_1 - 0.72248906381800471 r_10 - 0.72248906381800471 r_2 - 0.72248906381800471 r_3 - 0.72248906381800471 r_4 - 0.72248906381800471 r_5 - 0.72248906381800471 r_6 - 0.72248906381800471 r_7 - 0.72248906381800471 r_8 - 0.72248906381800471 r_9 <= -9.973962806335507
 c464: W_SP - 2.5395992415413535 e_1 - 2.6437509692634364 e_10 - 0.66485484544695073 e_2 - 1.9841174505360626 e_3 - 3.4048634992341968 e_4 - 2.5395992415413535 e_5 - 2.0348591723405738 e_6 - 4.4323656363130048 e_7 - 1.545570329747981 e_8 - 2.2305747093776107 e_9 - 5.4149801330251126 r_1 - 5.4149801330251126 r_10 - 5.4149801330251126 r_2 - 5.4149801330251126 r_3 - 5.4149801330251126 r_4 - 5.4149801330251126 r_5 - 5.4149801330251126 r_6 - 5.4149801330251126 r_7 - 5.4149801330251126 r_8 - 5.4149801330251126 r_9 <= -24.001171862938133
 c465: 1.5 W_SP + h_1_10 + h_1_2 + h_1_3 + h_1_4 + h_1_5 + h_1_6 + h_1_7 + h_1_8 + h_1_9 + h_2_10 + h_2_3 + h_2_4 + h_2_5 + h_2_6 + h_2_7 + h_2_8 + h_2_9 + h_3_10 + h_3_4 + h_3_5 + h_3_6 + h_3_7 + h_3_8 + h_3_9 + h_4_10 + h_4_5 + h_4_6 + h_4_7 + h_4_8 + h_4_9 + h_5_10 + h_5_6 + h_5_7 + h_5_8 + h_5_9 + h_6_10 + h_6_7 + h_6_8 + h_6_9 + h_7_10 + h_7_8 + h_7_9 + h_8_10 + h_8_9 + h_9_10 - 5.0454385216420743 r_1 - 5.0454385216420743 r_10 - 5.0454385216420743 r_2 - 5.0454385216420743 r_3 - 5.0454385216420743 r_4 - 5.0454385216420743 r_5 - 5.0454385216420743 r_6 - 5.0454385216420743 r_7 - 5.0454385216420743 r_8 - 5.0454385216420743 r_9 <= 0
 c466: x_0_0_1 + x_0_0_10 + x_0_0_2 + x_0_0_3 + x_0_0_4 + x_0_0_5 + x_0_0_6 + x_0_0_7 + x_0_0_8 + x_0_0_9 - x_0_10_0 - x_0_1_0 - x_0_2_0 - x_0_3_0 - x_0_4_0 - x_0_5_0 - x_0_6_0 - x_0_7_0 - x_0_8_0 - x_0_9_0 = 0
 c467: x_0_0_1 + x_0_0_10 + x_0_0_2 + x_0_0_3 + x_0_0_4 + x_0_0_5 + x_0_0_6 + x_0_0_7 + x_0_0_8 + x_0_0_9 <= 1
 c468: x_0_0_1 + x_0_10_1 + x_0_2_1 + x_0_3_1 + x_0_4_1 + x_0_5_1 + x_0_6_1 + x_0_7_1 + x_0_8_1 + x_0_9_1 - z_0_1 = 0
 c469: x_0_1_0 + x_0_1_10 + x_0_1_2 + x_0_1_3 + x_0_1_4 + x_0_1_5 + x_0_1_6 + x_0_1_7 + x_0_1_8 + x_0_1_9 - z_0_1 = 0
 c470: x_0_0_2 + x_0_10_2 + x_0_1_2 + x_0_3_2 + x_0_4_2 + x_0_5_2 + x_0_6_2 + x_0_7_2 + x_0_8_2 + x_0_9_2 - z_0_2 = 0
 c471: x_0_2_0 + x_0_2_1 + x_0_2_10 + x_0_2_3 + x_0_2_4 + x_0_2_5 + x_0_2_6 + x_0_2_7 + x_0_2_8 + x_0_2_9 - z_0_2 = 0
 c472: x_0_0_3 + x_0_10_3 + x_0_1_3 + x_0_2_3 + x_0_4_3 + x_0_5_3 + x_0_6_3 + x_0_7_3 + x_0_8_3 + x_0_9_3 - z_0_3 = 0
 c473: x_0_3_0 + x_0_3_1 + x_0_3_10 + x_0_3_2 + x_0_3_4 + x_0_3_5 + x_0_3_6 + x_0_3_7 + x_0_3_8 + x_0_3_9 - z_0_3 = 0
 c474: x_0_0_4 + x_0_10_4 + x_0_1_4 + x_0_2_4 + x_0_3_4 + x_0_5_4 + x_0_6_4 + x_0_7_4 + x_0_8_4 + x_0_9_4 - z_0_4 = 0
 c475: x_0_4_0 + x_0_4_1 + x_0_4_10 + x_0_4_2 + x_0_4_3 + x_0_4_5 + x_0_4_6 + x_0_4_7 + x_0_4_8 + x_0_4_9 - z_0_4 = 0
 c476: x_0_0_5 + x_0_10_5 + x_0_1_5 + x_0_2_5 + x_0_3_5 + x_0_4_5 + x_0_6_5 + x_0_7_5 + x_0_8_5 + x_0_9_5 - z_0_5 = 0
 c477: x_0_5_0 + x_0_5_1 + x_0_5_10 + x_0_5_2 + x_0_5_3 + x_0_5_4 + x_0_5_6 + x_0_5_7 + x_0_5_8 + x_0_5_9 - z_0_5 = 0
 c478: x_0_0_6 + x_0_10_6 + x_0_1_6 + x_0_2_6 + x_0_3_6 + x_0_4_6 + x_0_5_6 + x_0_7_6 + x_0_8_6 + x_0_9_6 - z_0_6 = 0
 c479: x_0_6_0 + x_0_6_1 + x_0_6_10 + x_0_6_2 + x_0_6_3 + x_0_6_4 + x_0_6_5 + x_0_6_7 + x_0_6_8 + x_0_6_9 - z_0_6 = 0
 c480: x_0_0_7 + x_0_10_7 + x_0_1_7 + x_0_2_7 + x_0_3_7 + x_0_4_7 + x_0_5_7 + x_0_6_7 + x_0_8_7 + x_0_9_7 - z_0_7 = 0
 c481: x_0_7_0 + x_0_7_1 + x_0_7_10 + x_0_7_2 + x_0_7_3 + x_0_7_4 + x_0_7_5 + x_0_7_6 + x_0_7_8 + x_0_7_9 - z_0_7 = 0
 c482: x_0_0_8 + x_0_10_8 + x_0_1_8 + x_0_2_8 + x_0_3_8 + x_0_4_8 + x_0_5_8 + x_0_6_8 + x_0_7_8 + x_0_9_8 - z_0_8 = 0
 c483: x_0_8_0 + x_0_8_1 + x_0_8_10 + x_0_8_2 + x_0_8_3 + x_0_8_4 + x_0_8_5 + x_0_8_6 + x_0_8_7 + x_0_8_9 - z_0_8 = 0
 c484: x_0_0_9 + x_0_10_9 + x_0_1_9 + x_0_2_9 + x_0_3_9 + x_0_4_9 + x_0_5_9 + x_0_6_9 + x_0_7_9 + x_0_8_9 - z_0_9 = 0
 c485: x_0_9_0 + x_0_9_1 + x_0_9_10 + x_0_9_2 + x_0_9_3 + x_0_9_4 + x_0_9_5 + x_0_9_6 + x_0_9_7 + x_0_9_8 - z_0_9 = 0
 c486: x_0_0_10 + x_0_1_10 + x_0_2_10 + x_0_3_10 + x_0_4_10 + x_0_5_10 + x_0_6_10 + x_0_7_10 + x_0_8_10 + x_0_9_10 - z_0_10 = 0
 c487: x_0_10_0 + x_0_10_1 + x_0_10_2 + x_0_10_3 + x_0_10_4 + x_0_10_5 + x_0_10_6 + x_0_10_7 + x_0_10_8 + x_0_10_9 - z_0_10 = 0
 c488: x_1_0_1 + x_1_0_10 + x_1_0_2 + x_1_0_3 + x_1_0_4 + x_1_0_5 + x_1_0_6 + x_1_0_7 + x_1_0_8 + x_1_0_9 - x_1_10_0 - x_1_1_0 - x_1_2_0 - x_1_3_0 - x_1_4_0 - x_1_5_0 - x_1_6_0 - x_1_7_0 - x_1_8_0 - x_1_9_0 = 0
 c489: x_1_0_1 + x_1_0_10 + x_1_0_2 + x_1_0_3 + x_1_0_4 + x_1_0_5 + x_1_0_6 + x_1_0_7 + x_1_0_8 + x_1_0_9 <= 1
 c490: x_1_0_1 + x_1_10_1 + x_1_2_1 + x_1_3_1 + x_1_4_1 + x_1_5_1 + x_1_6_1 + x_1_7_1 + x_1_8_1 + x_1_9_1 - z_1_1 = 0
 c491: x_1_1_0 + x_1_1_10 + x_1_1_2 + x_1_1_3 + x_1_1_4 + x_1_1_5 + x_1_1_6 + x_1_1_7 + x_1_1_8 + x_1_1_9 - z_1_1 = 0
 c492: x_1_0_2 + x_1_10_2 + x_1_1_2 + x_1_3_2 + x_1_4_2 + x_1_5_2 + x_1_6_2 + x_1_7_2 + x_1_8_2 + x_1_9_2 - z_1_2 = 0
 c493: x_1_2_0 + x_1_2_1 + x_1_2_10 + x_1_2_3 + x_1_2_4 + x_1_2_5 + x_1_2_6 + x_1_2_7 + x_1_2_8 + x_1_2_9 - z_1_2 = 0
 c494: x_1_0_3 + x_1_10_3 + x_1_1_3 + x_1_2_3 + x_1_4_3 + x_1_5_3 + x_1_6_3 + x_1_7_3 + x_1_8_3 + x_1_9_3 - z_1_3 = 0
 c495: x_1_3_0 + x_1_3_1 + x_1_3_10 + x_1_3_2 + x_1_3_4 + x_1_3_5 + x_1_3_6 + x_1_3_7 + x_1_3_8 + x_1_3_9 - z_1_3 = 0
 c496: x_1_0_4 + x_1_10_4 + x_1_1_4 + x_1_2_4 + x_1_3_4 + x_1_5_4 + x_1_6_4 + x_1_7_4 + x_1_8_4 + x_1_9_4 - z_1_4 = 0
 c497: x_1_4_0 + x_1_4_1 + x_1_4_10 + x_1_4_2 + x_1_4_3 + x_1_4_5 + x_1_4_6 + x_1_4_7 + x_1_4_8 + x_1_4_9 - z_1_4 = 0
 c498: x_1_0_5 + x_1_10_5 + x_1_1_5 + x_1_2_5 + x_1_3_5 + x_1_4_5 + x_1_6_5 + x_1_7_5 + x_1_8_5 + x_1_9_5 - z_1_5 = 0
 c499: x_1_5_0 + x_1_5_1 + x_1_5_10 + x_1_5_2 + x_1_5_3 + x_1_5_4 + x_1_5_6 + x_1_5_7 + x_1_5_8 + x_1_5_9 - z_1_5 = 0
 c500: x_1_0_6 + x_1_10_6 + x_1_1_6 + x_1_2_6 + x_1_3_6 + x_1_4_6 + x_1_5_6 + x_1_7_6 + x_1_8_6 + x_1_9_6 - z_1_6 = 0
 c501: x_1_6_0 + x_1_6_1 + x_1_6_10 + x_1_6_2 + x_1_6_3 + x_1_6_4 + x_1_6_5 + x_1_6_7 + x_1_6_8 + x_1_6_9 - z_1_6 = 0
 c502: x_1_0_7 + x_1_10_7 + x_1_1_7 + x_1_2_7 + x_1_3_7 + x_1_4_7 + x_1_5_7 + x_1_6_7 + x_1_8_7 + x_1_9_7 - z_1_7 = 0
 c503: x_1_7_0 + x_1_7_1 + x_1_7_10 + x_1_7_2 + x_1_7_3 + x_1_7_4 + x_1_7_5 + x_1_7_6 + x_1_7_8 + x_1_7_9 - z_1_7 = 0
 c504: x_1_0_8 + x_1_10_8 + x_1_1_8 + x_1_2_8 + x_1_3_8 + x_1_4_8 + x_1_5_8 + x_1_6_8 + x_1_7_8 + x_1_9_8 - z_1_8 = 0
 c505: x_1_8_0 + x_1_8_1 + x_1_8_10 + x_1_8_2 + x_1_8_3 + x_1_8_4 + x_1_8_5 + x_1_8_6 + x_1_8_7 + x_1_8_9 - z_1_8 = 0
 c506: x_1_0_9 + x_1_10_9 + x_1_1_9 + x_1_2_9 + x_1_3_9 + x_1_4_9 + x_1_5_9 + x_1_6_9 + x_1_7_9 + x_1_8_9 - z_1_9 = 0
 c507: x_1_9_0 + x_1_9_1 + x_1_9_10 + x_1_9_2 + x_1_9_3 + x_1_9_4 + x_1_9_5 + x_1_9_6 + x_1_9_7 + x_1_9_8 - z_1_9 = 0
 c508: x_1_0_10 + x_1_1_10 + x_1_2_10 + x_1_3_10 + x_1_4_10 + x_1_5_10 + x_1_6_10 + x_1_7_10 + x_1_8_10 + x_1_9_10 - z_1_10 = 0
 c509: x_1_10_0 + x_1_10_1 + x_1_10_2 + x_1_10_3 + x_1_10_4 + x_1_10_5 + x_1_10_6 + x_1_10_7 + x_1_10_8 + x_1_10_9 - z_1_10 = 0
 c510: x_2_0_1 + x_2_0_10 + x_2_0_2 + x_2_0_3 + x_2_0_4 + x_2_0_5 + x_2_0_6 + x_2_0_7 + x_2_0_8 + x_2_0_9 - x_2_10_0 - x_2_1_0 - x_2_2_0 - x_2_3_0 - x_2_4_0 - x_2_5_0 - x_2_6_0 - x_2_7_0 - x_2_8_0 - x_2_9_0 = 0
 c511: x_2_0_1 + x_2_0_10 + x_2_0_2 + x_2_0_3 + x_2_0_4 + x_2_0_5 + x_2_0_6 + x_2_0_7 + x_2_0_8 + x_2_0_9 <= 1
 c512: x_2_0_1 + x_2_10_1 + x_2_2_1 + x_2_3_1 + x_2_4_1 + x_2_5_1 + x_2_6_1 + x_2_7_1 + x_2_8_1 + x_2_9_1 - z_2_1 = 0
 c513: x_2_1_0 + x_2_1_10 + x_2_1_2 + x_2_1_3 + x_2_1_4 + x_2_1_5 + x_2_1_6 + x_2_1_7 + x_2_1_8 + x_2_1_9 - z_2_1 = 0
 c514: x_2_0_2 + x_2_10_2 + x_2_1_2 + x_2_3_2 + x_2_4_2 + x_2_5_2 + x_2_6_2 + x_2_7_2 + x_2_8_2 + x_2_9_2 - z_2_2 = 0
 c515: x_2_2_0 + x_2_2_1 + x_2_2_10 + x_2_2_3 + x_2_2_4 + x_2_2_5 + x_2_2_6 + x_2_2_7 + x_2_2_8 + x_2_2_9 - z_2_2 = 0
 c516: x_2_0_3 + x_2_10_3 + x_2_1_3 + x_2_2_3 + x_2_4_3 + x_2_5_3 + x_2_6_3 + x_2_7_3 + x_2_8_3 + x_2_9_3 - z_2_3 = 0
 c517: x_2_3_0 + x_2_3_1 + x_2_3_10 + x_2_3_2 + x_2_3_4 + x_2_3_5 + x_2_3_6 + x_2_3_7 + x_2_3_8 + x_2_3_9 - z_2_3 = 0
 c518: x_2_0_4 + x_2_10_4 + x_2_1_4 + x_2_2_4 + x_2_3_4 + x_2_5_4 + x_2_6_4 + x_2_7_4 + x_2_8_4 + x_2_9_4 - z_2_4 = 0
 c519: x_2_4_0 + x_2_4_1 + x_2_4_10 + x_2_4_2 + x_2_4_3 + x_2_4_5 + x_2_4_6 + x_2_4_7 + x_2_4_8 + x_2_4_9 - z_2_4 = 0
 c520: x_2_0_5 + x_2_10_5 + x_2_1_5 + x_2_2_5 + x_2_3_5 + x_2_4_5 + x_2_6_5 + x_2_7_5 + x_2_8_5 + x_2_9_5 - z_2_5 = 0
 c521: x_2_5_0 + x_2_5_1 + x_2_5_10 + x_2_5_2 + x_2_5_3 + x_2_5_4 + x_2_5_6 + x_2_5_7 + x_2_5_8 + x_2_5_9 - z_2_5 = 0
 c522: x_2_0_6 + x_2_10_6 + x_2_1_6 + x_2_2_6 + x_2_3_6 + x_2_4_6 + x_2_5_6 + x_2_7_6 + x_2_8_6 + x_2_9_6 - z_2_6 = 0
 c523: x_2_6_0 + x_2_6_1 + x_2_6_10 + x_2_6_2 + x_2_6_3 + x_2_6_4 + x_2_6_5 + x_2_6_7 + x_2_6_8 + x_2_6_9 - z_2_6 = 0
 c524: x_2_0_7 + x_2_10_7 + x_2_1_7 + x_2_2_7 + x_2_3_7 + x_2_4_7 + x_2_5_7 + x_2_6_7 + x_2_8_7 + x_2_9_7 - z_2_7 = 0
 c525: x_2_7_0 + x_2_7_1 + x_2_7_10 + x_2_7_2 + x_2_7_3 + x_2_7_4 + x_2_7_5 + x_2_7_6 + x_2_7_8 + x_2_7_9 - z_2_7 = 0
 c526: x_2_0_8 + x_2_10_8 + x_2_1_8 + x_2_2_8 + x_2_3_8 + x_2_4_8 + x_2_5_8 + x_2_6_8 + x_2_7_8 + x_2_9_8 - z_2_8 = 0
 c527: x_2_8_0 + x_2_8_1 + x_2_8_10 + x_2_8_2 + x_2_8_3 + x_2_8_4 + x_2_8_5 + x_2_8_6 + x_2_8_7 + x_2_8_9 - z_2_8 = 0
 c528: x_2_0_9 + x_2_10_9 + x_2_1_9 + x_2_2_9 + x_2_3_9 + x_2_4_9 + x_2_5_9 + x_2_6_9 + x_2_7_9 + x_2_8_9 - z_2_9 = 0
 c529: x_2_9_0 + x_2_9_1 + x_2_9_10 + x_2_9_2 + x_2_9_3 + x_2_9_4 + x_2_9_5 + x_2_9_6 + x_2_9_7 + x_2_9_8 - z_2_9 = 0
 c530: x_2_0_10 + x_2_1_10 + x_2_2_10 + x_2_3_10 + x_2_4_10 + x_2_5_10 + x_2_6_10 + x_2_7_10 + x_2_8_10 + x_2_9_10 - z_2_10 = 0
 c531: x_2_10_0 + x_2_10_1 + x_2_10_2 + x_2_10_3 + x_2_10_4 + x_2_10_5 + x_2_10_6 + x_2_10_7 + x_2_10_8 + x_2_10_9 - z_2_10 = 0
 c532: conn_0_0_1 - 10 x_0_0_1 <= 0
 c533: conn_0_0_2 - 10 x_0_0_2 <= 0
 c534: conn_0_0_3 - 10 x_0_0_3 <= 0
 c535: conn_0_0_4 - 10 x_0_0_4 <= 0
 c536: conn_0_0_5 - 10 x_0_0_5 <= 0
 c537: conn_0_0_6 - 10 x_0_0_6 <= 0
 c538: conn_0_0_7 - 10 x_0_0_7 <= 0
 c539: conn_0_0_8 - 10 x_0_0_8 <= 0
 c540: conn_0_0_9 - 10 x_0_0_9 <= 0
 c541: conn_0_0_10 - 10 x_0_0_10 <= 0
 c542: conn_0_1_0 - 10 x_0_1_0 <= 0
 c543: conn_0_1_2 - 10 x_0_1_2 <= 0
 c544: conn_0_1_3 - 10 x_0_1_3 <= 0
 c545: conn_0_1_4 - 10 x_0_1_4 <= 0
 c546: conn_0_1_5 - 10 x_0_1_5 <= 0
 c547: conn_0_1_6 - 10 x_0_1_6 <= 0
 c548: conn_0_1_7 - 10 x_0_1_7 <= 0
 c549: conn_0_1_8 - 10 x_0_1_8 <= 0
 c550: conn_0_1_9 - 10 x_0_1_9 <= 0
 c551: conn_0_1_10 - 10 x_0_1_10 <= 0
 c552: conn_0_2_0 - 10 x_0_2_0 <= 0
 c553: conn_0_2_1 - 10 x_0_2_1 <= 0
 c554: conn_0_2_3 - 10 x_0_2_3 <= 0
 c555: conn_0_2_4 - 10 x_0_2_4 <= 0
 c556: conn_0_2_5 - 10 x_0_2_5 <= 0
 c557: conn_0_2_6 - 10 x_0_2_6 <= 0
 c558: conn_0_2_7 - 10 x_0_2_7 <= 0
 c559: conn_0_2_8 - 10 x_0_2_8 <= 0
 c560: conn_0_2_9 - 10 x_0_2_9 <= 0
 c561: conn_0_2_10 - 10 x_0_2_10 <= 0
 c562: conn_0_3_0 - 10 x_0_3_0 <= 0
 c563: conn_0_3_1 - 10 x_0_3_1 <= 0
 c564: conn_0_3_2 - 10 x_0_3_2 <= 0
 c565: conn_0_3_4 - 10 x_0_3_4 <= 0
 c566: conn_0_3_5 - 10 x_0_3_5 <= 0
 c567: conn_0_3_6 - 10 x_0_3_6 <= 0
 c568: conn_0_3_7 - 10 x_0_3_7 <= 0
 c569: conn_0_3_8 - 10 x_0_3_8 <= 0
 c570: conn_0_3_9 - 10 x_0_3_9 <= 0
 c571: conn_0_3_10 - 10 x_0_3_10 <= 0
 c572: conn_0_4_0 - 10 x_0_4_0 <= 0
 c573: conn_0_4_1 - 10 x_0_4_1 <= 0
 c574: conn_0_4_2 - 10 x_0_4_2 <= 0
 c575: conn_0_4_3 - 10 x_0_4_3 <= 0
 c576: conn_0_4_5 - 10 x_0_4_5 <= 0
 c577: conn_0_4_6 - 10 x_0_4_6 <= 0
 c578: conn_0_4_7 - 10 x_0_4_7 <= 0
 c579: conn_0_4_8 - 10 x_0_4_8 <= 0
 c580: conn_0_4_9 - 10 x_0_4_9 <= 0
 c581: conn_0_4_10 - 10 x_0_4_10 <= 0
 c582: conn_0_5_0 - 10 x_0_5_0 <= 0
 c583: conn_0_5_1 - 10 x_0_5_1 <= 0
 c584: conn_0_5_2 - 10 x_0_5_2 <= 0
 c585: conn_0_5_3 - 10 x_0_5_3 <= 0
 c586: conn_0_5_4 - 10 x_0_5_4 <= 0
 c587: conn_0_5_6 - 10 x_0_5_6 <= 0
 c588: conn_0_5_7 - 10 x_0_5_7 <= 0
 c589: conn_0_5_8 - 10 x_0_5_8 <= 0
 c590: conn_0_5_9 - 10 x_0_5_9 <= 0
 c591: conn_0_5_10 - 10 x_0_5_10 <= 0
 c592: conn_0_6_0 - 10 x_0_6_0 <= 0
 c593: conn_0_6_1 - 10 x_0_6_1 <= 0
 c594: conn_0_6_2 - 10 x_0_6_2 <= 0
 c595: conn_0_6_3 - 10 x_0_6_3 <= 0
 c596: conn_0_6_4 - 10 x_0_6_4 <= 0
 c597: conn_0_6_5 - 10 x_0_6_5 <= 0
 c598: conn_0_6_7 - 10 x_0_6_7 <= 0
 c599: conn_0_6_8 - 10 x_0_6_8 <= 0
 c600: conn_0_6_9 - 10 x_0_6_9 <= 0
 c601: conn_0_6_10 - 10 x_0_6_10 <= 0
 c602: conn_0_7_0 - 10 x_0_7_0 <= 0
 c603: conn_0_7_1 - 10 x_0_7_1 <= 0
 c604: conn_0_7_2 - 10 x_0_7_2 <= 0
 c605: conn_0_7_3 - 10 x_0_7_3 <= 0
 c606: conn_0_7_4 - 10 x_0_7_4 <= 0
 c607: conn_0_7_5 - 10 x_0_7_5 <= 0
 c608: conn_0_7_6 - 10 x_0_7_6 <= 0
 c609: conn_0_7_8 - 10 x_0_7_8 <= 0
 c610: conn_0_7_9 - 10 x_0_7_9 <= 0
 c611: conn_0_7_10 - 10 x_0_7_10 <= 0
 c612: conn_0_8_0 - 10 x_0_8_0 <= 0
 c613: conn_0_8_1 - 10 x_0_8_1 <= 0
 c614: conn_0_8_2 - 10 x_0_8_2 <= 0
 c615: conn_0_8_3 - 10 x_0_8_3 <= 0
 c616: conn_0_8_4 - 10 x_0_8_4 <= 0
 c617: conn_0_8_5 - 10 x_0_8_5 <= 0
 c618: conn_0_8_6 - 10 x_0_8_6 <= 0
 c619: conn_0_8_7 - 10 x_0_8_7 <= 0
 c620: conn_0_8_9 - 10 x_0_8_9 <= 0
 c621: conn_0_8_10 - 10 x_0_8_10 <= 0
 c622: conn_0_9_0 - 10 x_0_9_0 <= 0
 c623: conn_0_9_1 - 10 x_0_9_1 <= 0
 c624: conn_0_9_2 - 10 x_0_9_2 <= 0
 c625: conn_0_9_3 - 10 x_0_9_3 <= 0
 c626: conn_0_9_4 - 10 x_0_9_4 <= 0
 c627: conn_0_9_5 - 10 x_0_9_5 <= 0
 c628: conn_0_9_6 - 10 x_0_9_6 <= 0
 c629: conn_0_9_7 - 10 x_0_9_7 <= 0
 c630: conn_0_9_8 - 10 x_0_9_8 <= 0
 c631: conn_0_9_10 - 10 x_0_9_10 <= 0
 c632: conn_0_10_0 - 10 x_0_10_0 <= 0
 c633: conn_0_10_1 - 10 x_0_10_1 <= 0
 c634: conn_0_10_2 - 10 x_0_10_2 <= 0
 c635: conn_0_10_3 - 10 x_0_10_3 <= 0
 c636: conn_0_10_4 - 10 x_0_10_4 <= 0
 c637: conn_0_10_5 - 10 x_0_10_5 <= 0
 c638: conn_0_10_6 - 10 x_0_10_6 <= 0
 c639: conn_0_10_7 - 10 x_0_10_7 <= 0
 c640: conn_0_10_8 - 10 x_0_10_8 <= 0
 c641: conn_0_10_9 - 10 x_0_10_9 <= 0
 c642: conn_0_0_1 + conn_0_10_1 - conn_0_1_0 - conn_0_1_10 - conn_0_1_2 - conn_0_1_3 - conn_0_1_4 - conn_0_1_5 - conn_0_1_6 - conn_0_1_7 - conn_0_1_8 - conn_0_1_9 + conn_0_2_1 + conn_0_3_1 + conn_0_4_1 + conn_0_5_1 + conn_0_6_1 + conn_0_7_1 + conn_0_8_1 + conn_0_9_1 - z_0_1 = 0
 c643: conn_0_0_2 + conn_0_10_2 + conn_0_1_2 - conn_0_2_0 - conn_0_2_1 - conn_0_2_10 - conn_0_2_3 - conn_0_2_4 - conn_0_2_5 - conn_0_2_6 - conn_0_2_7 - conn_0_2_8 - conn_0_2_9 + conn_0_3_2 + conn_0_4_2 + conn_0_5_2 + conn_0_6_2 + conn_0_7_2 + conn_0_8_2 + conn_0_9_2 - z_0_2 = 0
 c644: conn_0_0_3 + conn_0_10_3 + conn_0_1_3 + conn_0_2_3 - conn_0_3_0 - conn_0_3_1 - conn_0_3_10 - conn_0_3_2 - conn_0_3_4 - conn_0_3_5 - conn_0_3_6 - conn_0_3_7 - conn_0_3_8 - conn_0_3_9 + conn_0_4_3 + conn_0_5_3 + conn_0_6_3 + conn_0_7_3 + conn_0_8_3 + conn_0_9_3 - z_0_3 = 0
 c645: conn_0_0_4 + conn_0_10_4 + conn_0_1_4 + conn_0_2_4 + conn_0_3_4 - conn_0_4_0 - conn_0_4_1 - conn_0_4_10 - conn_0_4_2 - conn_0_4_3 - conn_0_4_5 - conn_0_4_6 - conn_0_4_7 - conn_0_4_8 - conn_0_4_9 + conn_0_5_4 + conn_0_6_4 + conn_0_7_4 + conn_0_8_4 + conn_0_9_4 - z_0_4 = 0
 c646: conn_0_0_5 + conn_0_10_5 + conn_0_1_5 + conn_0_2_5 + conn_0_3_5 + conn_0_4_5 - conn_0_5_0 - conn_0_5_1 - conn_0_5_10 - conn_0_5_2 - conn_0_5_3 - conn_0_5_4 - conn_0_5_6 - conn_0_5_7 - conn_0_5_8 - conn_0_5_9 + conn_0_6_5 + conn_0_7_5 + conn_0_8_5 + conn_0_9_5 - z_0_5 = 0
 c647: conn_0_0_6 + conn_0_10_6 + conn_0_1_6 + conn_0_2_6 + conn_0_3_6 + conn_0_4_6 + conn_0_5_6 - conn_0_6_0 - conn_0_6_1 - conn_0_6_10 - conn_0_6_2 - conn_0_6_3 - conn_0_6_4 - conn_0_6_5 - conn_0_6_7 - conn_0_6_8 - conn_0_6_9 + conn_0_7_6 + conn_0_8_6 + conn_0_9_6 - z_0_6 = 0
 c648: conn_0_0_7 + conn_0_10_7 + conn_0_1_7 + conn_0_2_7 + conn_0_3_7 + conn_0_4_7 + conn_0_5_7 + conn_0_6_7 - conn_0_7_0 - conn_0_7_1 - conn_0_7_10 - conn_0_7_2 - conn_0_7_3 - conn_0_7_4 - conn_0_7_5 - conn_0_7_6 - conn_0_7_8 - conn_0_7_9 + conn_0_8_7 + conn_0_9_7 - z_0_7 = 0
 c649: conn_0_0_8 + conn_0_10_8 + conn_0_1_8 + conn_0_2_8 + conn_0_3_8 + conn_0_4_8 + conn_0_5_8 + conn_0_6_8 + conn_0_7_8 - conn_0_8_0 - conn_0_8_1 - conn_0_8_10 - conn_0_8_2 - conn_0_8_3 - conn_0_8_4 - conn_0_8_5 - conn_0_8_6 - conn_0_8_7 - conn_0_8_9 + conn_0_9_8 - z_0_8 = 0
 c650: conn_0_0_9 + conn_0_10_9 + conn_0_1_9 + conn_0_2_9 + conn_0_3_9 + conn_0_4_9 + conn_0_5_9 + conn_0_6_9 + conn_0_7_9 + conn_0_8_9 - conn_0_9_0 - conn_0_9_1 - conn_0_9_10 - conn_0_9_2 - conn_0_9_3 - conn_0_9_4 - conn_0_9_5 - conn_0_9_6 - conn_0_9_7 - conn_0_9_8 - z_0_9 = 0
 c651: conn_0_0_10 - conn_0_10_0 - conn_0_10_1 - conn_0_10_2 - conn_0_10_3 - conn_0_10_4 - conn_0_10_5 - conn_0_10_6 - conn_0_10_7 - conn_0_10_8 - conn_0_10_9 + conn_0_1_10 + conn_0_2_10 + conn_0_3_10 + conn_0_4_10 + conn_0_5_10 + conn_0_6_10 + conn_0_7_10 + conn_0_8_10 + conn_0_9_10 - z_0_10 = 0
 c652: conn_0_0_1 + conn_0_0_10 + conn_0_0_2 + conn_0_0_3 + conn_0_0_4 + conn_0_0_5 + conn_0_0_6 + conn_0_0_7 + conn_0_0_8 + conn_0_0_9 - conn_0_10_0 - conn_0_1_0 - conn_0_2_0 - conn_0_3_0 - conn_0_4_0 - conn_0_5_0 - conn_0_6_0 - conn_0_7_0 - conn_0_8_0 - conn_0_9_0 - z_0_1 - z_0_10 - z_0_2 - z_0_3 - z_0_4 - z_0_5 - z_0_6 - z_0_7 - z_0_8 - z_0_9 = 0
 c653: conn_1_0_1 - 10 x_1_0_1 <= 0
 c654: conn_1_0_2 - 10 x_1_0_2 <= 0
 c655: conn_1_0_3 - 10 x_1_0_3 <= 0
 c656: conn_1_0_4 - 10 x_1_0_4 <= 0
 c657: conn_1_0_5 - 10 x_1_0_5 <= 0
 c658: conn_1_0_6 - 10 x_1_0_6 <= 0
 c659: conn_1_0_7 - 10 x_1_0_7 <= 0
 c660: conn_1_0_8 - 10 x_1_0_8 <= 0
 c661: conn_1_0_9 - 10 x_1_0_9 <= 0
 c662: conn_1_0_10 - 10 x_1_0_10 <= 0
 c663: conn_1_1_0 - 10 x_1_1_0 <= 0
 c664: conn_1_1_2 - 10 x_1_1_2 <= 0
 c665: conn_1_1_3 - 10 x_1_1_3 <= 0
 c666: conn_1_1_4 - 10 x_1_1_4 <= 0
 c667: conn_1_1_5 - 10 x_1_1_5 <= 0
 c668: conn_1_1_6 - 10 x_1_1_6 <= 0
 c669: conn_1_1_7 - 10 x_1_1_7 <= 0
 c670: conn_1_1_8 - 10 x_1_1_8 <= 0
 c671: conn_1_1_9 - 10 x_1_1_9 <= 0
 c672: conn_1_1_10 - 10 x_1_1_10 <= 0
 c673: conn_1_2_0 - 10 x_1_2_0 <= 0
 c674: conn_1_2_1 - 10 x_1_2_1 <= 0
 c675: conn_1_2_3 - 10 x_1_2_3 <= 0
 c676: conn_1_2_4 - 10 x_1_2_4 <= 0
 c677: conn_1_2_5 - 10 x_1_2_5 <= 0
 c678: conn_1_2_6 - 10 x_1_2_6 <= 0
 c679: conn_1_2_7 - 10 x_1_2_7 <= 0
 c680: conn_1_2_8 - 10 x_1_2_8 <= 0
 c681: conn_1_2_9 - 10 x_1_2_9 <= 0
 c682: conn_1_2_10 - 10 x_1_2_10 <= 0
 c683: conn_1_3_0 - 10 x_1_3_0 <= 0
 c684: conn_1_3_1 - 10 x_1_3_1 <= 0
 c685: conn_1_3_2 - 10 x_1_3_2 <= 0
 c686: conn_1_3_4 - 10 x_1_3_4 <= 0
 c687: conn_1_3_5 - 10 x_1_3_5 <= 0
 c688: conn_1_3_6 - 10 x_1_3_6 <= 0
 c689: conn_1_3_7 - 10 x_1_3_7 <= 0
 c690: conn_1_3_8 - 10 x_1_3_8 <= 0
 c691: conn_1_3_9 - 10 x_1_3_9 <= 0
 c692: conn_1_3_10 - 10 x_1_3_10 <= 0
 c693: conn_1_4_0 - 10 x_1_4_0 <= 0
 c694: conn_1_4_1 - 10 x_1_4_1 <= 0
 c695: conn_1_4_2 - 10 x_1_4_2 <= 0
 c696: conn_1_4_3 - 10 x_1_4_3 <= 0
 c697: conn_1_4_5 - 10 x_1_4_5 <= 0
 c698: conn_1_4_6 - 10 x_1_4_6 <= 0
 c699: conn_1_4_7 - 10 x_1_4_7 <= 0
 c700: conn_1_4_8 - 10 x_1_4_8 <= 0
 c701: conn_1_4_9 - 10 x_1_4_9 <= 0
 c702: conn_1_4_10 - 10 x_1_4_10 <= 0
 c703: conn_1_5_0 - 10 x_1_5_0 <= 0
 c704: conn_1_5_1 - 10 x_1_5_1 <= 0
 c705: conn_1_5_2 - 10 x_1_5_2 <= 0
 c706: conn_1_5_3 - 10 x_1_5_3 <= 0
 c707: conn_1_5_4 - 10 x_1_5_4 <= 0
 c708: conn_1_5_6 - 10 x_1_5_6 <= 0
 c709: conn_1_5_7 - 10 x_1_5_7 <= 0
 c710: conn_1_5_8 - 10 x_1_5_8 <= 0
 c711: conn_1_5_9 - 10 x_1_5_9 <= 0
 c712: conn_1_5_10 - 10 x_1_5_10 <= 0
 c713: conn_1_6_0 - 10 x_1_6_0 <= 0
 c714: conn_1_6_1 - 10 x_1_6_1 <= 0
 c715: conn_1_6_2 - 10 x_1_6_2 <= 0
 c716: conn_1_6_3 - 10 x_1_6_3 <= 0
 c717: conn_1_6_4 - 10 x_1_6_4 <= 0
 c718: conn_1_6_5 - 10 x_1_6_5 <= 0
 c719: conn_1_6_7 - 10 x_1_6_7 <= 0
 c720: conn_1_6_8 - 10 x_1_6_8 <= 0
 c721: conn_1_6_9 - 10 x_1_6_9 <= 0
 c722: conn_1_6_10 - 10 x_1_6_10 <= 0
 c723: conn_1_7_0 - 10 x_1_7_0 <= 0
 c724: conn_1_7_1 - 10 x_1_7_1 <= 0
 c725: conn_1_7_2 - 10 x_1_7_2 <= 0
 c726: conn_1_7_3 - 10 x_1_7_3 <= 0
 c727: conn_1_7_4 - 10 x_1_7_4 <= 0
 c728: conn_1_7_5 - 10 x_1_7_5 <= 0
 c729: conn_1_7_6 - 10 x_1_7_6 <= 0
 c730: conn_1_7_8 - 10 x_1_7_8 <= 0
 c731: conn_1_7_9 - 10 x_1_7_9 <= 0
 c732: conn_1_7_10 - 10 x_1_7_10 <= 0
 c733: conn_1_8_0 - 10 x_1_8_0 <= 0
 c734: conn_1_8_1 - 10 x_1_8_1 <= 0
 c735: conn_1_8_2 - 10 x_1_8_2 <= 0
 c736: conn_1_8_3 - 10 x_1_8_3 <= 0
 c737: conn_1_8_4 - 10 x_1_8_4 <= 0
 c738: conn_1_8_5 - 10 x_1_8_5 <= 0
 c739: conn_1_8_6 - 10 x_1_8_6 <= 0
 c740: conn_1_8_7 - 10 x_1_8_7 <= 0
 c741: conn_1_8_9 - 10 x_1_8_9 <= 0
 c742: conn_1_8_10 - 10 x_1_8_10 <= 0
 c743: conn_1_9_0 - 10 x_1_9_0 <= 0
 c744: conn_1_9_1 - 10 x_1_9_1 <= 0
 c745: conn_1_9_2 - 10 x_1_9_2 <= 0
 c746: conn_1_9_3 - 10 x_1_9_3 <= 0
 c747: conn_1_9_4 - 10 x_1_9_4 <= 0
 c748: conn_1_9_5 - 10 x_1_9_5 <= 0
 c749: conn_1_9_6 - 10 x_1_9_6 <= 0
 c750: conn_1_9_7 - 10 x_1_9_7 <= 0
 c751: conn_1_9_8 - 10 x_1_9_8 <= 0
 c752: conn_1_9_10 - 10 x_1_9_10 <= 0
 c753: conn_1_10_0 - 10 x_1_10_0 <= 0
 c754: conn_1_10_1 - 10 x_1_10_1 <= 0
 c755: conn_1_10_2 - 10 x_1_10_2 <= 0
 c756: conn_1_10_3 - 10 x_1_10_3 <= 0
 c757: conn_1_10_4 - 10 x_1_10_4 <= 0
 c758: conn_1_10_5 - 10 x_1_10_5 <= 0
 c759: conn_1_10_6 - 10 x_1_10_6 <= 0
 c760: conn_1_10_7 - 10 x_1_10_7 <= 0
 c761: conn_1_10_8 - 10 x_1_10_8 <= 0
 c762: conn_1_10_9 - 10 x_1_10_9 <= 0
 c763: conn_1_0_1 + conn_1_10_1 - conn_1_1_0 - conn_1_1_10 - conn_1_1_2 - conn_1_1_3 - conn_1_1_4 - conn_1_1_5 - conn_1_1_6 - conn_1_1_7 - conn_1_1_8 - conn_1_1_9 + conn_1_2_1 + conn_1_3_1 + conn_1_4_1 + conn_1_5_1 + conn_1_6_1 + conn_1_7_1 + conn_1_8_1 + conn_1_9_1 - z_1_1 = 0
 c764: conn_1_0_2 + conn_1_10_2 + conn_1_1_2 - conn_1_2_0 - conn_1_2_1 - conn_1_2_10 - conn_1_2_3 - conn_1_2_4 - conn_1_2_5 - conn_1_2_6 - conn_1_2_7 - conn_1_2_8 - conn_1_2_9 + conn_1_3_2 + conn_1_4_2 + conn_1_5_2 + conn_1_6_2 + conn_1_7_2 + conn_1_8_2 + conn_1_9_2 - z_1_2 = 0
 c765: conn_1_0_3 + conn_1_10_3 + conn_1_1_3 + conn_1_2_3 - conn_1_3_0 - conn_1_3_1 - conn_1_3_10 - conn_1_3_2 - conn_1_3_4 - conn_1_3_5 - conn_1_3_6 - conn_1_3_7 - conn_1_3_8 - conn_1_3_9 + conn_1_4_3 + conn_1_5_3 + conn_1_6_3 + conn_1_7_3 + conn_1_8_3 + conn_1_9_3 - z_1_3 = 0
 c766: conn_1_0_4 + conn_1_10_4 + conn_1_1_4 + conn_1_2_4 + conn_1_3_4 - conn_1_4_0 - conn_1_4_1 - conn_1_4_10 - conn_1_4_2 - conn_1_4_3 - conn_1_4_5 - conn_1_4_6 - conn_1_4_7 - conn_1_4_8 - conn_1_4_9 + conn_1_5_4 + conn_1_6_4 + conn_1_7_4 + conn_1_8_4 + conn_1_9_4 - z_1_4 = 0
 c767: conn_1_0_5 + conn_1_10_5 + conn_1_1_5 + conn_1_2_5 + conn_1_3_5 + conn_1_4_5 - conn_1_5_0 - conn_1_5_1 - conn_1_5_10 - conn_1_5_2 - conn_1_5_3 - conn_1_5_4 - conn_1_5_6 - conn_1_5_7 - conn_1_5_8 - conn_1_5_9 + conn_1_6_5 + conn_1_7_5 + conn_1_8_5 + conn_1_9_5 - z_1_5 = 0
 c768: conn_1_0_6 + conn_1_10_6 + conn_1_1_6 + conn_1_2_6 + conn_1_3_6 + conn_1_4_6 + conn_1_5_6 - conn_1_6_0 - conn_1_6_1 - conn_1_6_10 - conn_1_6_2 - conn_1_6_3 - conn_1_6_4 - conn_1_6_5 - conn_1_6_7 - conn_1_6_8 - conn_1_6_9 + conn_1_7_6 + conn_1_8_6 + conn_1_9_6 - z_1_6 = 0
 c769: conn_1_0_7 + conn_1_10_7 + conn_1_1_7 + conn_1_2_7 + conn_1_3_7 + conn_1_4_7 + conn_1_5_7 + conn_1_6_7 - conn_1_7_0 - conn_1_7_1 - conn_1_7_10 - conn_1_7_2 - conn_1_7_3 - conn_1_7_4 - conn_1_7_5 - conn_1_7_6 - conn_1_7_8 - conn_1_7_9 + conn_1_8_7 + conn_1_9_7 - z_1_7 = 0
 c770: conn_1_0_8 + conn_1_10_8 + conn_1_1_8 + conn_1_2_8 + conn_1_3_8 + conn_1_4_8 + conn_1_5_8 + conn_1_6_8 + conn_1_7_8 - conn_1_8_0 - conn_1_8_1 - conn_1_8_10 - conn_1_8_2 - conn_1_8_3 - conn_1_8_4 - conn_1_8_5 - conn_1_8_6 - conn_1_8_7 - conn_1_8_9 + conn_1_9_8 - z_1_8 = 0
 c771: conn_1_0_9 + conn_1_10_9 + conn_1_1_9 + conn_1_2_9 + conn_1_3_9 + conn_1_4_9 + conn_1_5_9 + conn_1_6_9 + conn_1_7_9 + conn_1_8_9 - conn_1_9_0 - conn_1_9_1 - conn_1_9_10 - conn_1_9_2 - conn_1_9_3 - conn_1_9_4 - conn_1_9_5 - conn_1_9_6 - conn_1_9_7 - conn_1_9_8 - z_1_9 = 0
 c772: conn_1_0_10 - conn_1_10_0 - conn_1_10_1 - conn_1_10_2 - conn_1_10_3 - conn_1_10_4 - conn_1_10_5 - conn_1_10_6 - conn_1_10_7 - conn_1_10_8 - conn_1_10_9 + conn_1_1_10 + conn_1_2_10 + conn_1_3_10 + conn_1_4_10 + conn_1_5_10 + conn_1_6_10 + conn_1_7_10 + conn_1_8_10 + conn_1_9_10 - z_1_10 = 0
 c773: conn_1_0_1 + conn_1_0_10 + conn_1_0_2 + conn_1_0_3 + conn_1_0_4 + conn_1_0_5 + conn_1_0_6 + conn_1_0_7 + conn_1_0_8 + conn_1_0_9 - conn_1_10_0 - conn_1_1_0 - conn_1_2_0 - conn_1_3_0 - conn_1_4_0 - conn_1_5_0 - conn_1_6_0 - conn_1_7_0 - conn_1_8_0 - conn_1_9_0 - z_1_1 - z_1_10 - z_1_2 - z_1_3 - z_1_4 - z_1_5 - z_1_6 - z_1_7 - z_1_8 - z_1_9 = 0
 c774: conn_2_0_1 - 10 x_2_0_1 <= 0
 c775: conn_2_0_2 - 10 x_2_0_2 <= 0
 c776: conn_2_0_3 - 10 x_2_0_3 <= 0
 c777: conn_2_0_4 - 10 x_2_0_4 <= 0
 c778: conn_2_0_5 - 10 x_2_0_5 <= 0
 c779: conn_2_0_6 - 10 x_2_0_6 <= 0
 c780: conn_2_0_7 - 10 x_2_0_7 <= 0
 c781: conn_2_0_8 - 10 x_2_0_8 <= 0
 c782: conn_2_0_9 - 10 x_2_0_9 <= 0
 c783: conn_2_0_10 - 10 x_2_0_10 <= 0
 c784: conn_2_1_0 - 10 x_2_1_0 <= 0
 c785: conn_2_1_2 - 10 x_2_1_2 <= 0
 c786: conn_2_1_3 - 10 x_2_1_3 <= 0
 c787: conn_2_1_4 - 10 x_2_1_4 <= 0
 c788: conn_2_1_5 - 10 x_2_1_5 <= 0
 c789: conn_2_1_6 - 10 x_2_1_6 <= 0
 c790: conn_2_1_7 - 10 x_2_1_7 <= 0
 c791: conn_2_1_8 - 10 x_2_1_8 <= 0
 c792: conn_2_1_9 - 10 x_2_1_9 <= 0
 c793: conn_2_1_10 - 10 x_2_1_10 <= 0
 c794: conn_2_2_0 - 10 x_2_2_0 <= 0
 c795: conn_2_2_1 - 10 x_2_2_1 <= 0
 c796: conn_2_2_3 - 10 x_2_2_3 <= 0
 c797: conn_2_2_4 - 10 x_2_2_4 <= 0
 c798: conn_2_2_5 - 10 x_2_2_5 <= 0
 c799: conn_2_2_6 - 10 x_2_2_6 <= 0
 c800: conn_2_2_7 - 10 x_2_2_7 <= 0
 c801: conn_2_2_8 - 10 x_2_2_8 <= 0
 c802: conn_2_2_9 - 10 x_2_2_9 <= 0
 c803: conn_2_2_10 - 10 x_2_2_10 <= 0
 c804: conn_2_3_0 - 10 x_2_3_0 <= 0
 c805: conn_2_3_1 - 10 x_2_3_1 <= 0
 c806: conn_2_3_2 - 10 x_2_3_2 <= 0
 c807: conn_2_3_4 - 10 x_2_3_4 <= 0
 c808: conn_2_3_5 - 10 x_2_3_5 <= 0
 c809: conn_2_3_6 - 10 x_2_3_6 <= 0
 c810: conn_2_3_7 - 10 x_2_3_7 <= 0
 c811: conn_2_3_8 - 10 x_2_3_8 <= 0
 c812: conn_2_3_9 - 10 x_2_3_9 <= 0
 c813: conn_2_3_10 - 10 x_2_3_10 <= 0
 c814: conn_2_4_0 - 10 x_2_4_0 <= 0
 c815: conn_2_4_1 - 10 x_2_4_1 <= 0
 c816: conn_2_4_2 - 10 x_2_4_2 <= 0
 c817: conn_2_4_3 - 10 x_2_4_3 <= 0
 c818: conn_2_4_5 - 10 x_2_4_5 <= 0
 c819: conn_2_4_6 - 10 x_2_4_6 <= 0
 c820: conn_2_4_7 - 10 x_2_4_7 <= 0
 c821: conn_2_4_8 - 10 x_2_4_8 <= 0
 c822: conn_2_4_9 - 10 x_2_4_9 <= 0
 c823: conn_2_4_10 - 10 x_2_4_10 <= 0
 c824: conn_2_5_0 - 10 x_2_5_0 <= 0
 c825: conn_2_5_1 - 10 x_2_5_1 <= 0
 c826: conn_2_5_2 - 10 x_2_5_2 <= 0
 c827: conn_2_5_3 - 10 x_2_5_3 <= 0
 c828: conn_2_5_4 - 10 x_2_5_4 <= 0
 c829: conn_2_5_6 - 10 x_2_5_6 <= 0
 c830: conn_2_5_7 - 10 x_2_5_7 <= 0
 c831: conn_2_5_8 - 10 x_2_5_8 <= 0
 c832: conn_2_5_9 - 10 x_2_5_9 <= 0
 c833: conn_2_5_10 - 10 x_2_5_10 <= 0
 c834: conn_2_6_0 - 10 x_2_6_0 <= 0
 c835: conn_2_6_1 - 10 x_2_6_1 <= 0
 c836: conn_2_6_2 - 10 x_2_6_2 <= 0
 c837: conn_2_6_3 - 10 x_2_6_3 <= 0
 c838: conn_2_6_4 - 10 x_2_6_4 <= 0
 c839: conn_2_6_5 - 10 x_2_6_5 <= 0
 c840: conn_2_6_7 - 10 x_2_6_7 <= 0
 c841: conn_2_6_8 - 10 x_2_6_8 <= 0
 c842: conn_2_6_9 - 10 x_2_6_9 <= 0
 c843: conn_2_6_10 - 10 x_2_6_10 <= 0
 c844: conn_2_7_0 - 10 x_2_7_0 <= 0
 c845: conn_2_7_1 - 10 x_2_7_1 <= 0
 c846: conn_2_7_2 - 10 x_2_7_2 <= 0
 c847: conn_2_7_3 - 10 x_2_7_3 <= 0
 c848: conn_2_7_4 - 10 x_2_7_4 <= 0
 c849: conn_2_7_5 - 10 x_2_7_5 <= 0
 c850: conn_2_7_6 - 10 x_2_7_6 <= 0
 c851: conn_2_7_8 - 10 x_2_7_8 <= 0
 c852: conn_2_7_9 - 10 x_2_7_9 <= 0
 c853: conn_2_7_10 - 10 x_2_7_10 <= 0
 c854: conn_2_8_0 - 10 x_2_8_0 <= 0
 c855: conn_2_8_1 - 10 x_2_8_1 <= 0
 c856: conn_2_8_2 - 10 x_2_8_2 <= 0
 c857: conn_2_8_3 - 10 x_2_8_3 <= 0
 c858: conn_2_8_4 - 10 x_2_8_4 <= 0
 c859: conn_2_8_5 - 10 x_2_8_5 <= 0
 c860: conn_2_8_6 - 10 x_2_8_6 <= 0
 c861: conn_2_8_7 - 10 x_2_8_7 <= 0
 c862: conn_2_8_9 - 10 x_2_8_9 <= 0
 c863: conn_2_8_10 - 10 x_2_8_10 <= 0
 c864: conn_2_9_0 - 10 x_2_9_0 <= 0
 c865: conn_2_9_1 - 10 x_2_9_1 <= 0
 c866: conn_2_9_2 - 10 x_2_9_2 <= 0
 c867: conn_2_9_3 - 10 x_2_9_3 <= 0
 c868: conn_2_9_4 - 10 x_2_9_4 <= 0
 c869: conn_2_9_5 - 10 x_2_9_5 <= 0
 c870: conn_2_9_6 - 10 x_2_9_6 <= 0
 c871: conn_2_9_7 - 10 x_2_9_7 <= 0
 c872: conn_2_9_8 - 10 x_2_9_8 <= 0
 c873: conn_2_9_10 - 10 x_2_9_10 <= 0
 c874: conn_2_10_0 - 10 x_2_10_0 <= 0
 c875: conn_2_10_1 - 10 x_2_10_1 <= 0
 c876: conn_2_10_2 - 10 x_2_10_2 <= 0
 c877: conn_2_10_3 - 10 x_2_10_3 <= 0
 c878: conn_2_10_4 - 10 x_2_10_4 <= 0
 c879: conn_2_10_5 - 10 x_2_10_5 <= 0
 c880: conn_2_10_6 - 10 x_2_10_6 <= 0
 c881: conn_2_10_7 - 10 x_2_10_7 <= 0
 c882: conn_2_10_8 - 10 x_2_10_8 <= 0
 c883: conn_2_10_9 - 10 x_2_10_9 <= 0
 c884: conn_2_0_1 + conn_2_10_1 - conn_2_1_0 - conn_2_1_10 - conn_2_1_2 - conn_2_1_3 - conn_2_1_4 - conn_2_1_5 - conn_2_1_6 - conn_2_1_7 - conn_2_1_8 - conn_2_1_9 + conn_2_2_1 + conn_2_3_1 + conn_2_4_1 + conn_2_5_1 + conn_2_6_1 + conn_2_7_1 + conn_2_8_1 + conn_2_9_1 - z_2_1 = 0
 c885: conn_2_0_2 + conn_2_10_2 + conn_2_1_2 - conn_2_2_0 - conn_2_2_1 - conn_2_2_10 - conn_2_2_3 - conn_2_2_4 - conn_2_2_5 - conn_2_2_6 - conn_2_2_7 - conn_2_2_8 - conn_2_2_9 + conn_2_3_2 + conn_2_4_2 + conn_2_5_2 + conn_2_6_2 + conn_2_7_2 + conn_2_8_2 + conn_2_9_2 - z_2_2 = 0
 c886: conn_2_0_3 + conn_2_10_3 + conn_2_1_3 + conn_2_2_3 - conn_2_3_0 - conn_2_3_1 - conn_2_3_10 - conn_2_3_2 - conn_2_3_4 - conn_2_3_5 - conn_2_3_6 - conn_2_3_7 - conn_2_3_8 - conn_2_3_9 + conn_2_4_3 + conn_2_5_3 + conn_2_6_3 + conn_2_7_3 + conn_2_8_3 + conn_2_9_3 - z_2_3 = 0
 c887: conn_2_0_4 + conn_2_10_4 + conn_2_1_4 + conn_2_2_4 + conn_2_3_4 - conn_2_4_0 - conn_2_4_1 - conn_2_4_10 - conn_2_4_2 - conn_2_4_3 - conn_2_4_5 - conn_2_4_6 - conn_2_4_7 - conn_2_4_8 - conn_2_4_9 + conn_2_5_4 + conn_2_6_4 + conn_2_7_4 + conn_2_8_4 + conn_2_9_4 - z_2_4 = 0
 c888: conn_2_0_5 + conn_2_10_5 + conn_2_1_5 + conn_2_2_5 + conn_2_3_5 + conn_2_4_5 - conn_2_5_0 - conn_2_5_1 - conn_2_5_10 - conn_2_5_2 - conn_2_5_3 - conn_2_5_4 - conn_2_5_6 - conn_2_5_7 - conn_2_5_8 - conn_2_5_9 + conn_2_6_5 + conn_2_7_5 + conn_2_8_5 + conn_2_9_5 - z_2_5 = 0
 c889: conn_2_0_6 + conn_2_10_6 + conn_2_1_6 + conn_2_2_6 + conn_2_3_6 + conn_2_4_6 + conn_2_5_6 - conn_2_6_0 - conn_2_6_1 - conn_2_6_10 - conn_2_6_2 - conn_2_6_3 - conn_2_6_4 - conn_2_6_5 - conn_2_6_7 - conn_2_6_8 - conn_2_6_9 + conn_2_7_6 + conn_2_8_6 + conn_2_9_6 - z_2_6 = 0
 c890: conn_2_0_7 + conn_2_10_7 + conn_2_1_7 + conn_2_2_7 + conn_2_3_7 + conn_2_4_7 + conn_2_5_7 + conn_2_6_7 - conn_2_7_0 - conn_2_7_1 - conn_2_7_10 - conn_2_7_2 - conn_2_7_3 - conn_2_7_4 - conn_2_7_5 - conn_2_7_6 - conn_2_7_8 - conn_2_7_9 + conn_2_8_7 + conn_2_9_7 - z_2_7 = 0
 c891: conn_2_0_8 + conn_2_10_8 + conn_2_1_8 + conn_2_2_8 + conn_2_3_8 + conn_2_4_8 + conn_2_5_8 + conn_2_6_8 + conn_2_7_8 - conn_2_8_0 - conn_2_8_1 - conn_2_8_10 - conn_2_8_2 - conn_2_8_3 - conn_2_8_4 - conn_2_8_5 - conn_2_8_6 - conn_2_8_7 - conn_2_8_9 + conn_2_9_8 - z_2_8 = 0
 c892: conn_2_0_9 + conn_2_10_9 + conn_2_1_9 + conn_2_2_9 + conn_2_3_9 + conn_2_4_9 + conn_2_5_9 + conn_2_6_9 + conn_2_7_9 + conn_2_8_9 - conn_2_9_0 - conn_2_9_1 - conn_2_9_10 - conn_2_9_2 - conn_2_9_3 - conn_2_9_4 - conn_2_9_5 - conn_2_9_6 - conn_2_9_7 - conn_2_9_8 - z_2_9 = 0
 c893: conn_2_0_10 - conn_2_10_0 - conn_2_10_1 - conn_2_10_2 - conn_2_10_3 - conn_2_10_4 - conn_2_10_5 - conn_2_10_6 - conn_2_10_7 - conn_2_10_8 - conn_2_10_9 + conn_2_1_10 + conn_2_2_10 + conn_2_3_10 + conn_2_4_10 + conn_2_5_10 + conn_2_6_10 + conn_2_7_10 + conn_2_8_10 + conn_2_9_10 - z_2_10 = 0
 c894: conn_2_0_1 + conn_2_0_10 + conn_2_0_2 + conn_2_0_3 + conn_2_0_4 + conn_2_0_5 + conn_2_0_6 + conn_2_0_7 + conn_2_0_8 + conn_2_0_9 - conn_2_10_0 - conn_2_1_0 - conn_2_2_0 - conn_2_3_0 - conn_2_4_0 - conn_2_5_0 - conn_2_6_0 - conn_2_7_0 - conn_2_8_0 - conn_2_9_0 - z_2_1 - z_2_10 - z_2_2 - z_2_3 - z_2_4 - z_2_5 - z_2_6 - z_2_7 - z_2_8 - z_2_9 = 0
 c895: z_0_1 + z_1_1 + z_2_1 <= 1
 c896: z_0_2 + z_1_2 + z_2_2 <= 1
 c897: z_0_3 + z_1_3 + z_2_3 <= 1
 c898: z_0_4 + z_1_4 + z_2_4 <= 1
 c899: z_0_5 + z_1_5 + z_2_5 <= 1
 c900: z_0_6 + z_1_6 + z_2_6 <= 1
 c901: z_0_7 + z_1_7 + z_2_7 <= 1
 c902: z_0_8 + z_1_8 + z_2_8 <= 1
 c903: z_0_9 + z_1_9 + z_2_9 <= 1
 c904: z_0_10 + z_1_10 + z_2_10 <= 1
 c905: Y_1 + Y_10 + Y_2 + Y_3 + Y_4 + Y_5 + Y_6 + Y_7 + Y_8 + Y_9 <= 154
 c906: Y_1 + Y_10 + Y_2 + Y_3 + Y_4 + Y_5 + Y_6 + Y_7 + Y_8 + Y_9 >= 94
 c907: d_0_1 - p_0_10 - p_0_2 - p_0_4 - p_0_5 - p_0_7 - p_0_8 <= 0
 c908: d_0_2 - p_0_1 - p_0_3 - p_0_4 - p_0_5 - p_0_7 - p_0_8 - p_0_9 <= 0
 c909: d_0_3 - p_0_2 - p_0_5 - p_0_6 - p_0_7 - p_0_8 - p_0_9 <= 0
 c910: d_0_4 - p_0_1 - p_0_10 - p_0_2 - p_0_5 - p_0_7 <= 0
 c911: d_0_5 - p_0_1 - p_0_10 - p_0_2 - p_0_3 - p_0_4 - p_0_7 - p_0_8 - p_0_9 <= 0
 c912: d_0_6 - p_0_3 - p_0_9 <= 0
 c913: d_0_7 - p_0_1 - p_0_10 - p_0_2 - p_0_3 - p_0_4 - p_0_5 - p_0_8 - p_0_9 <= 0
 c914: d_0_8 - p_0_1 - p_0_2 - p_0_3 - p_0_5 - p_0_7 <= 0
 c915: d_0_9 - p_0_2 - p_0_3 - p_0_5 - p_0_6 - p_0_7 <= 0
 c916: d_0_10 - p_0_1 - p_0_4 - p_0_5 - p_0_7 <= 0
 c917: d_1_1 - p_1_10 - p_1_2 - p_1_4 - p_1_5 - p_1_7 - p_1_8 <= 0
 c918: d_1_2 - p_1_1 - p_1_3 - p_1_4 - p_1_5 - p_1_7 - p_1_8 - p_1_9 <= 0
 c919: d_1_3 - p_1_2 - p_1_5 - p_1_6 - p_1_7 - p_1_8 - p_1_9 <= 0
 c920: d_1_4 - p_1_1 - p_1_10 - p_1_2 - p_1_5 - p_1_7 <= 0
 c921: d_1_5 - p_1_1 - p_1_10 - p_1_2 - p_1_3 - p_1_4 - p_1_7 - p_1_8 - p_1_9 <= 0
 c922: d_1_6 - p_1_3 - p_1_9 <= 0
 c923: d_1_7 - p_1_1 - p_1_10 - p_1_2 - p_1_3 - p_1_4 - p_1_5 - p_1_8 - p_1_9 <= 0
 c924: d_1_8 - p_1_1 - p_1_2 - p_1_3 - p_1_5 - p_1_7 <= 0
 c925: d_1_9 - p_1_2 - p_1_3 - p_1_5 - p_1_6 - p_1_7 <= 0
 c926: d_1_10 - p_1_1 - p_1_4 - p_1_5 - p_1_7 <= 0
 c927: d_2_1 - p_2_10 - p_2_2 - p_2_4 - p_2_5 - p_2_7 - p_2_8 <= 0
 c928: d_2_2 - p_2_1 - p_2_3 - p_2_4 - p_2_5 - p_2_7 - p_2_8 - p_2_9 <= 0
 c929: d_2_3 - p_2_2 - p_2_5 - p_2_6 - p_2_7 - p_2_8 - p_2_9 <= 0
 c930: d_2_4 - p_2_1 - p_2_10 - p_2_2 - p_2_5 - p_2_7 <= 0
 c931: d_2_5 - p_2_1 - p_2_10 - p_2_2 - p_2_3 - p_2_4 - p_2_7 - p_2_8 - p_2_9 <= 0
 c932: d_2_6 - p_2_3 - p_2_9 <= 0
 c933: d_2_7 - p_2_1 - p_2_10 - p_2_2 - p_2_3 - p_2_4 - p_2_5 - p_2_8 - p_2_9 <= 0
 c934: d_2_8 - p_2_1 - p_2_2 - p_2_3 - p_2_5 - p_2_7 <= 0
 c935: d_2_9 - p_2_2 - p_2_3 - p_2_5 - p_2_6 - p_2_7 <= 0
 c936: d_2_10 - p_2_1 - p_2_4 - p_2_5 - p_2_7 <= 0
 c937: ord_0_1 - z_0_1 >= 0
 c938: ord_0_1 - 10 z_0_1 <= 0
 c939: ord_0_2 - z_0_2 >= 0
 c940: ord_0_2 - 10 z_0_2 <= 0
 c941: ord_0_3 - z_0_3 >= 0
 c942: ord_0_3 - 10 z_0_3 <= 0
 c943: ord_0_4 - z_0_4 >= 0
 c944: ord_0_4 - 10 z_0_4 <= 0
 c945: ord_0_5 - z_0_5 >= 0
 c946: ord_0_5 - 10 z_0_5 <= 0
 c947: ord_0_6 - z_0_6 >= 0
 c948: ord_0_6 - 10 z_0_6 <= 0
 c949: ord_0_7 - z_0_7 >= 0
 c950: ord_0_7 - 10 z_0_7 <= 0
 c951: ord_0_8 - z_0_8 >= 0
 c952: ord_0_8 - 10 z_0_8 <= 0
 c953: ord_0_9 - z_0_9 >= 0
 c954: ord_0_9 - 10 z_0_9 <= 0
 c955: ord_0_10 - z_0_10 >= 0
 c956: ord_0_10 - 10 z_0_10 <= 0
 c957: ord_0_1 - ord_0_2 + 10 x_0_1_2 <= 9
 c958: ord_0_1 - ord_0_3 + 10 x_0_1_3 <= 9
 c959: ord_0_1 - ord_0_4 + 10 x_0_1_4 <= 9
 c960: ord_0_1 - ord_0_5 + 10 x_0_1_5 <= 9
 c961: ord_0_1 - ord_0_6 + 10 x_0_1_6 <= 9
 c962: ord_0_1 - ord_0_7 + 10 x_0_1_7 <= 9
 c963: ord_0_1 - ord_0_8 + 10 x_0_1_8 <= 9
 c964: ord_0_1 - ord_0_9 + 10 x_0_1_9 <= 9
 c965: ord_0_1 - ord_0_10 + 10 x_0_1_10 <= 9
 c966: - ord_0_1 + ord_0_2 + 10 x_0_2_1 <= 9
 c967: ord_0_2 - ord_0_3 + 10 x_0_2_3 <= 9
 c968: ord_0_2 - ord_0_4 + 10 x_0_2_4 <= 9
 c969: ord_0_2 - ord_0_5 + 10 x_0_2_5 <= 9
 c970: ord_0_2 - ord_0_6 + 10 x_0_2_6 <= 9
 c971: ord_0_2 - ord_0_7 + 10 x_0_2_7 <= 9
 c972: ord_0_2 - ord_0_8 + 10 x_0_2_8 <= 9
 c973: ord_0_2 - ord_0_9 + 10 x_0_2_9 <= 9
 c974: - ord_0_10 + ord_0_2 + 10 x_0_2_10 <= 9
 c975: - ord_0_1 + ord_0_3 + 10 x_0_3_1 <= 9
 c976: - ord_0_2 + ord_0_3 + 10 x_0_3_2 <= 9
 c977: ord_0_3 - ord_0_4 + 10 x_0_3_4 <= 9
 c978: ord_0_3 - ord_0_5 + 10 x_0_3_5 <= 9
 c979: ord_0_3 - ord_0_6 + 10 x_0_3_6 <= 9
 c980: ord_0_3 - ord_0_7 + 10 x_0_3_7 <= 9
 c981: ord_0_3 - ord_0_8 + 10 x_0_3_8 <= 9
 c982: ord_0_3 - ord_0_9 + 10 x_0_3_9 <= 9
 c983: - ord_0_10 + ord_0_3 + 10 x_0_3_10 <= 9
 c984: - ord_0_1 + ord_0_4 + 10 x_0_4_1 <= 9
 c985: - ord_0_2 + ord_0_4 + 10 x_0_4_2 <= 9
 c986: - ord_0_3 + ord_0_4 + 10 x_0_4_3 <= 9
 c987: ord_0_4 - ord_0_5 + 10 x_0_4_5 <= 9
 c988: ord_0_4 - ord_0_6 + 10 x_0_4_6 <= 9
 c989: ord_0_4 - ord_0_7 + 10 x_0_4_7 <= 9
 c990: ord_0_4 - ord_0_8 + 10 x_0_4_8 <= 9
 c991: ord_0_4 - ord_0_9 + 10 x_0_4_9 <= 9
 c992: - ord_0_10 + ord_0_4 + 10 x_0_4_10 <= 9
 c993: - ord_0_1 + ord_0_5 + 10 x_0_5_1 <= 9
 c994: - ord_0_2 + ord_0_5 + 10 x_0_5_2 <= 9
 c995: - ord_0_3 + ord_0_5 + 10 x_0_5_3 <= 9
 c996: - ord_0_4 + ord_0_5 + 10 x_0_5_4 <= 9
 c997: ord_0_5 - ord_0_6 + 10 x_0_5_6 <= 9
 c998: ord_0_5 - ord_0_7 + 10 x_0_5_7 <= 9
 c999: ord_0_5 - ord_0_8 + 10 x_0_5_8 <= 9
 c1000: ord_0_5 - ord_0_9 + 10 x_0_5_9 <= 9
 c1001: - ord_0_10 + ord_0_5 + 10 x_0_5_10 <= 9
 c1002: - ord_0_1 + ord_0_6 + 10 x_0_6_1 <= 9
 c1003: - ord_0_2 + ord_0_6 + 10 x_0_6_2 <= 9
 c1004: - ord_0_3 + ord_0_6 + 10 x_0_6_3 <= 9
 c1005: - ord_0_4 + ord_0_6 + 10 x_0_6_4 <= 9
 c1006: - ord_0_5 + ord_0_6 + 10 x_0_6_5 <= 9
 c1007: ord_0_6 - ord_0_7 + 10 x_0_6_7 <= 9
 c1008: ord_0_6 - ord_0_8 + 10 x_0_6_8 <= 9
 c1009: ord_0_6 - ord_0_9 + 10 x_0_6_9 <= 9
 c1010: - ord_0_10 + ord_0_6 + 10 x_0_6_10 <= 9
 c1011: - ord_0_1 + ord_0_7 + 10 x_0_7_1 <= 9
 c1012: - ord_0_2 + ord_0_7 + 10 x_0_7_2 <= 9
 c1013: - ord_0_3 + ord_0_7 + 10 x_0_7_3 <= 9
 c1014: - ord_0_4 + ord_0_7 + 10 x_0_7_4 <= 9
 c1015: - ord_0_5 + ord_0_7 + 10 x_0_7_5 <= 9
 c1016: - ord_0_6 + ord_0_7 + 10 x_0_7_6 <= 9
 c1017: ord_0_7 - ord_0_8 + 10 x_0_7_8 <= 9
 c1018: ord_0_7 - ord_0_9 + 10 x_0_7_9 <= 9
 c1019: - ord_0_10 + ord_0_7 + 10 x_0_7_10 <= 9
 c1020: - ord_0_1 + ord_0_8 + 10 x_0_8_1 <= 9
 c1021: - ord_0_2 + ord_0_8 + 10 x_0_8_2 <= 9
 c1022: - ord_0_3 + ord_0_8 + 10 x_0_8_3 <= 9
 c1023: - ord_0_4 + ord_0_8 + 10 x_0_8_4 <= 9
 c1024: - ord_0_5 + ord_0_8 + 10 x_0_8_5 <= 9
 c1025: - ord_0_6 + ord_0_8 + 10 x_0_8_6 <= 9
 c1026: - ord_0_7 + ord_0_8 + 10 x_0_8_7 <= 9
 c1027: ord_0_8 - ord_0_9 + 10 x_0_8_9 <= 9
 c1028: - ord_0_10 + ord_0_8 + 10 x_0_8_10 <= 9
 c1029: - ord_0_1 + ord_0_9 + 10 x_0_9_1 <= 9
 c1030: - ord_0_2 + ord_0_9 + 10 x_0_9_2 <= 9
 c1031: - ord_0_3 + ord_0_9 + 10 x_0_9_3 <= 9
 c1032: - ord_0_4 + ord_0_9 + 10 x_0_9_4 <= 9
 c1033: - ord_0_5 + ord_0_9 + 10 x_0_9_5 <= 9
 c1034: - ord_0_6 + ord_0_9 + 10 x_0_9_6 <= 9
 c1035: - ord_0_7 + ord_0_9 + 10 x_0_9_7 <= 9
 c1036: - ord_0_8 + ord_0_9 + 10 x_0_9_8 <= 9
 c1037: - ord_0_10 + ord_0_9 + 10 x_0_9_10 <= 9
 c1038: - ord_0_1 + ord_0_10 + 10 x_0_10_1 <= 9
 c1039: ord_0_10 - ord_0_2 + 10 x_0_10_2 <= 9
 c1040: ord_0_10 - ord_0_3 + 10 x_0_10_3 <= 9
 c1041: ord_0_10 - ord_0_4 + 10 x_0_10_4 <= 9
 c1042: ord_0_10 - ord_0_5 + 10 x_0_10_5 <= 9
 c1043: ord_0_10 - ord_0_6 + 10 x_0_10_6 <= 9
 c1044: ord_0_10 - ord_0_7 + 10 x_0_10_7 <= 9
 c1045: ord_0_10 - ord_0_8 + 10 x_0_10_8 <= 9
 c1046: ord_0_10 - ord_0_9 + 10 x_0_10_9 <= 9
 c1047: ord_1_1 - z_1_1 >= 0
 c1048: ord_1_1 - 10 z_1_1 <= 0
 c1049: ord_1_2 - z_1_2 >= 0
 c1050: ord_1_2 - 10 z_1_2 <= 0
 c1051: ord_1_3 - z_1_3 >= 0
 c1052: ord_1_3 - 10 z_1_3 <= 0
 c1053: ord_1_4 - z_1_4 >= 0
 c1054: ord_1_4 - 10 z_1_4 <= 0
 c1055: ord_1_5 - z_1_5 >= 0
 c1056: ord_1_5 - 10 z_1_5 <= 0
 c1057: ord_1_6 - z_1_6 >= 0
 c1058: ord_1_6 - 10 z_1_6 <= 0
 c1059: ord_1_7 - z_1_7 >= 0
 c1060: ord_1_7 - 10 z_1_7 <= 0
 c1061: ord_1_8 - z_1_8 >= 0
 c1062: ord_1_8 - 10 z_1_8 <= 0
 c1063: ord_1_9 - z_1_9 >= 0
 c1064: ord_1_9 - 10 z_1_9 <= 0
 c1065: ord_1_10 - z_1_10 >= 0
 c1066: ord_1_10 - 10 z_1_10 <= 0
 c1067: ord_1_1 - ord_1_2 + 10 x_1_1_2 <= 9
 c1068: ord_1_1 - ord_1_3 + 10 x_1_1_3 <= 9
 c1069: ord_1_1 - ord_1_4 + 10 x_1_1_4 <= 9
 c1070: ord_1_1 - ord_1_5 + 10 x_1_1_5 <= 9
 c1071: ord_1_1 - ord_1_6 + 10 x_1_1_6 <= 9
 c1072: ord_1_1 - ord_1_7 + 10 x_1_1_7 <= 9
 c1073: ord_1_1 - ord_1_8 + 10 x_1_1_8 <= 9
 c1074: ord_1_1 - ord_1_9 + 10 x_1_1_9 <= 9
 c1075: ord_1_1 - ord_1_10 + 10 x_1_1_10 <= 9
 c1076: - ord_1_1 + ord_1_2 + 10 x_1_2_1 <= 9
 c1077: ord_1_2 - ord_1_3 + 10 x_1_2_3 <= 9
 c1078: ord_1_2 - ord_1_4 + 10 x_1_2_4 <= 9
 c1079: ord_1_2 - ord_1_5 + 10 x_1_2_5 <= 9
 c1080: ord_1_2 - ord_1_6 + 10 x_1_2_6 <= 9
 c1081: ord_1_2 - ord_1_7 + 10 x_1_2_7 <= 9
 c1082: ord_1_2 - ord_1_8 + 10 x_1_2_8 <= 9
 c1083: ord_1_2 - ord_1_9 + 10 x_1_2_9 <= 9
 c1084: - ord_1_10 + ord_1_2 + 10 x_1_2_10 <= 9
 c1085: - ord_1_1 + ord_1_3 + 10 x_1_3_1 <= 9
 c1086: - ord_1_2 + ord_1_3 + 10 x_1_3_2 <= 9
 c1087: ord_1_3 - ord_1_4 + 10 x_1_3_4 <= 9
 c1088: ord_1_3 - ord_1_5 + 10 x_1_3_5 <= 9
 c1089: ord_1_3 - ord_1_6 + 10 x_1_3_6 <= 9
 c1090: ord_1_3 - ord_1_7 + 10 x_1_3_7 <= 9
 c1091: ord_1_3 - ord_1_8 + 10 x_1_3_8 <= 9
 c1092: ord_1_3 - ord_1_9 + 10 x_1_3_9 <= 9
 c1093: - ord_1_10 + ord_1_3 + 10 x_1_3_10 <= 9
 c1094: - ord_1_1 + ord_1_4 + 10 x_1_4_1 <= 9
 c1095: - ord_1_2 + ord_1_4 + 10 x_1_4_2 <= 9
 c1096: - ord_1_3 + ord_1_4 + 10 x_1_4_3 <= 9
 c1097: ord_1_4 - ord_1_5 + 10 x_1_4_5 <= 9
 c1098: ord_1_4 - ord_1_6 + 10 x_1_4_6 <= 9
 c1099: ord_1_4 - ord_1_7 + 10 x_1_4_7 <= 9
 c1100: ord_1_4 - ord_1_8 + 10 x_1_4_8 <= 9
 c1101: ord_1_4 - ord_1_9 + 10 x_1_4_9 <= 9
 c1102: - ord_1_10 + ord_1_4 + 10 x_1_4_10 <= 9
 c1103: - ord_1_1 + ord_1_5 + 10 x_1_5_1 <= 9
 c1104: - ord_1_2 + ord_1_5 + 10 x_1_5_2 <= 9
 c1105: - ord_1_3 + ord_1_5 + 10 x_1_5_3 <= 9
 c1106: - ord_1_4 + ord_1_5 + 10 x_1_5_4 <= 9
 c1107: ord_1_5 - ord_1_6 + 10 x_1_5_6 <= 9
 c1108: ord_1_5 - ord_1_7 + 10 x_1_5_7 <= 9
 c1109: ord_1_5 - ord_1_8 + 10 x_1_5_8 <= 9
 c1110: ord_1_5 - ord_1_9 + 10 x_1_5_9 <= 9
 c1111: - ord_1_10 + ord_1_5 + 10 x_1_5_10 <= 9
 c1112: - ord_1_1 + ord_1_6 + 10 x_1_6_1 <= 9
 c1113: - ord_1_2 + ord_1_6 + 10 x_1_6_2 <= 9
 c1114: - ord_1_3 + ord_1_6 + 10 x_1_6_3 <= 9
 c1115: - ord_1_4 + ord_1_6 + 10 x_1_6_4 <= 9
 c1116: - ord_1_5 + ord_1_6 + 10 x_1_6_5 <= 9
 c1117: ord_1_6 - ord_1_7 + 10 x_1_6_7 <= 9
 c1118: ord_1_6 - ord_1_8 + 10 x_1_6_8 <= 9
 c1119: ord_1_6 - ord_1_9 + 10 x_1_6_9 <= 9
 c1120: - ord_1_10 + ord_1_6 + 10 x_1_6_10 <= 9
 c1121: - ord_1_1 + ord_1_7 + 10 x_1_7_1 <= 9
 c1122: - ord_1_2 + ord_1_7 + 10 x_1_7_2 <= 9
 c1123: - ord_1_3 + ord_1_7 + 10 x_1_7_3 <= 9
 c1124: - ord_1_4 + ord_1_7 + 10 x_1_7_4 <= 9
 c1125: - ord_1_5 + ord_1_7 + 10 x_1_7_5 <= 9
 c1126: - ord_1_6 + ord_1_7 + 10 x_1_7_6 <= 9
 c1127: ord_1_7 - ord_1_8 + 10 x_1_7_8 <= 9
 c1128: ord_1_7 - ord_1_9 + 10 x_1_7_9 <= 9
 c1129: - ord_1_10 + ord_1_7 + 10 x_1_7_10 <= 9
 c1130: - ord_1_1 + ord_1_8 + 10 x_1_8_1 <= 9
 c1131: - ord_1_2 + ord_1_8 + 10 x_1_8_2 <= 9
 c1132: - ord_1_3 + ord_1_8 + 10 x_1_8_3 <= 9
 c1133: - ord_1_4 + ord_1_8 + 10 x_1_8_4 <= 9
 c1134: - ord_1_5 + ord_1_8 + 10 x_1_8_5 <= 9
 c1135: - ord_1_6 + ord_1_8 + 10 x_1_8_6 <= 9
 c1136: - ord_1_7 + ord_1_8 + 10 x_1_8_7 <= 9
 c1137: ord_1_8 - ord_1_9 + 10 x_1_8_9 <= 9
 c1138: - ord_1_10 + ord_1_8 + 10 x_1_8_10 <= 9
 c1139: - ord_1_1 + ord_1_9 + 10 x_1_9_1 <= 9
 c1140: - ord_1_2 + ord_1_9 + 10 x_1_9_2 <= 9
 c1141: - ord_1_3 + ord_1_9 + 10 x_1_9_3 <= 9
 c1142: - ord_1_4 + ord_1_9 + 10 x_1_9_4 <= 9
 c1143: - ord_1_5 + ord_1_9 + 10 x_1_9_5 <= 9
 c1144: - ord_1_6 + ord_1_9 + 10 x_1_9_6 <= 9
 c1145: - ord_1_7 + ord_1_9 + 10 x_1_9_7 <= 9
 c1146: - ord_1_8 + ord_1_9 + 10 x_1_9_8 <= 9
 c1147: - ord_1_10 + ord_1_9 + 10 x_1_9_10 <= 9
 c1148: - ord_1_1 + ord_1_10 + 10 x_1_10_1 <= 9
 c1149: ord_1_10 - ord_1_2 + 10 x_1_10_2 <= 9
 c1150: ord_1_10 - ord_1_3 + 10 x_1_10_3 <= 9
 c1151: ord_1_10 - ord_1_4 + 10 x_1_10_4 <= 9
 c1152: ord_1_10 - ord_1_5 + 10 x_1_10_5 <= 9
 c1153: ord_1_10 - ord_1_6 + 10 x_1_10_6 <= 9
 c1154: ord_1_10 - ord_1_7 + 10 x_1_10_7 <= 9
 c1155: ord_1_10 - ord_1_8 + 10 x_1_10_8 <= 9
 c1156: ord_1_10 - ord_1_9 + 10 x_1_10_9 <= 9
 c1157: ord_2_1 - z_2_1 >= 0
 c1158: ord_2_1 - 10 z_2_1 <= 0
 c1159: ord_2_2 - z_2_2 >= 0
 c1160: ord_2_2 - 10 z_2_2 <= 0
 c1161: ord_2_3 - z_2_3 >= 0
 c1162: ord_2_3 - 10 z_2_3 <= 0
 c1163: ord_2_4 - z_2_4 >= 0
 c1164: ord_2_4 - 10 z_2_4 <= 0
 c1165: ord_2_5 - z_2_5 >= 0
 c1166: ord_2_5 - 10 z_2_5 <= 0
 c1167: ord_2_6 - z_2_6 >= 0
 c1168: ord_2_6 - 10 z_2_6 <= 0
 c1169: ord_2_7 - z_2_7 >= 0
 c1170: ord_2_7 - 10 z_2_7 <= 0
 c1171: ord_2_8 - z_2_8 >= 0
 c1172: ord_2_8 - 10 z_2_8 <= 0
 c1173: ord_2_9 - z_2_9 >= 0
 c1174: ord_2_9 - 10 z_2_9 <= 0
 c1175: ord_2_10 - z_2_10 >= 0
 c1176: ord_2_10 - 10 z_2_10 <= 0
 c1177: ord_2_1 - ord_2_2 + 10 x_2_1_2 <= 9
 c1178: ord_2_1 - ord_2_3 + 10 x_2_1_3 <= 9
 c1179: ord_2_1 - ord_2_4 + 10 x_2_1_4 <= 9
 c1180: ord_2_1 - ord_2_5 + 10 x_2_1_5 <= 9
 c1181: ord_2_1 - ord_2_6 + 10 x_2_1_6 <= 9
 c1182: ord_2_1 - ord_2_7 + 10 x_2_1_7 <= 9
 c1183: ord_2_1 - ord_2_8 + 10 x_2_1_8 <= 9
 c1184: ord_2_1 - ord_2_9 + 10 x_2_1_9 <= 9
 c1185: ord_2_1 - ord_2_10 + 10 x_2_1_10 <= 9
 c1186: - ord_2_1 + ord_2_2 + 10 x_2_2_1 <= 9
 c1187: ord_2_2 - ord_2_3 + 10 x_2_2_3 <= 9
 c1188: ord_2_2 - ord_2_4 + 10 x_2_2_4 <= 9
 c1189: ord_2_2 - ord_2_5 + 10 x_2_2_5 <= 9
 c1190: ord_2_2 - ord_2_6 + 10 x_2_2_6 <= 9
 c1191: ord_2_2 - ord_2_7 + 10 x_2_2_7 <= 9
 c1192: ord_2_2 - ord_2_8 + 10 x_2_2_8 <= 9
 c1193: ord_2_2 - ord_2_9 + 10 x_2_2_9 <= 9
 c1194: - ord_2_10 + ord_2_2 + 10 x_2_2_10 <= 9
 c1195: - ord_2_1 + ord_2_3 + 10 x_2_3_1 <= 9
 c1196: - ord_2_2 + ord_2_3 + 10 x_2_3_2 <= 9
 c1197: ord_2_3 - ord_2_4 + 10 x_2_3_4 <= 9
 c1198: ord_2_3 - ord_2_5 + 10 x_2_3_5 <= 9
 c1199: ord_2_3 - ord_2_6 + 10 x_2_3_6 <= 9
 c1200: ord_2_3 - ord_2_7 + 10 x_2_3_7 <= 9
 c1201: ord_2_3 - ord_2_8 + 10 x_2_3_8 <= 9
 c1202: ord_2_3 - ord_2_9 + 10 x_2_3_9 <= 9
 c1203: - ord_2_10 + ord_2_3 + 10 x_2_3_10 <= 9
 c1204: - ord_2_1 + ord_2_4 + 10 x_2_4_1 <= 9
 c1205: - ord_2_2 + ord_2_4 + 10 x_2_4_2 <= 9
 c1206: - ord_2_3 + ord_2_4 + 10 x_2_4_3 <= 9
 c1207: ord_2_4 - ord_2_5 + 10 x_2_4_5 <= 9
 c1208: ord_2_4 - ord_2_6 + 10 x_2_4_6 <= 9
 c1209: ord_2_4 - ord_2_7 + 10 x_2_4_7 <= 9
 c1210: ord_2_4 - ord_2_8 + 10 x_2_4_8 <= 9
 c1211: ord_2_4 - ord_2_9 + 10 x_2_4_9 <= 9
 c1212: - ord_2_10 + ord_2_4 + 10 x_2_4_10 <= 9
 c1213: - ord_2_1 + ord_2_5 + 10 x_2_5_1 <= 9
 c1214: - ord_2_2 + ord_2_5 + 10 x_2_5_2 <= 9
 c1215: - ord_2_3 + ord_2_5 + 10 x_2_5_3 <= 9
 c1216: - ord_2_4 + ord_2_5 + 10 x_2_5_4 <= 9
 c1217: ord_2_5 - ord_2_6 + 10 x_2_5_6 <= 9
 c1218: ord_2_5 - ord_2_7 + 10 x_2_5_7 <= 9
 c1219: ord_2_5 - ord_2_8 + 10 x_2_5_8 <= 9
 c1220: ord_2_5 - ord_2_9 + 10 x_2_5_9 <= 9
 c1221: - ord_2_10 + ord_2_5 + 10 x_2_5_10 <= 9
 c1222: - ord_2_1 + ord_2_6 + 10 x_2_6_1 <= 9
 c1223: - ord_2_2 + ord_2_6 + 10 x_2_6_2 <= 9
 c1224: - ord_2_3 + ord_2_6 + 10 x_2_6_3 <= 9
 c1225: - ord_2_4 + ord_2_6 + 10 x_2_6_4 <= 9
 c1226: - ord_2_5 + ord_2_6 + 10 x_2_6_5 <= 9
 c1227: ord_2_6 - ord_2_7 + 10 x_2_6_7 <= 9
 c1228: ord_2_6 - ord_2_8 + 10 x_2_6_8 <= 9
 c1229: ord_2_6 - ord_2_9 + 10 x_2_6_9 <= 9
 c1230: - ord_2_10 + ord_2_6 + 10 x_2_6_10 <= 9
 c1231: - ord_2_1 + ord_2_7 + 10 x_2_7_1 <= 9
 c1232: - ord_2_2 + ord_2_7 + 10 x_2_7_2 <= 9
 c1233: - ord_2_3 + ord_2_7 + 10 x_2_7_3 <= 9
 c1234: - ord_2_4 + ord_2_7 + 10 x_2_7_4 <= 9
 c1235: - ord_2_5 + ord_2_7 + 10 x_2_7_5 <= 9
 c1236: - ord_2_6 + ord_2_7 + 10 x_2_7_6 <= 9
 c1237: ord_2_7 - ord_2_8 + 10 x_2_7_8 <= 9
 c1238: ord_2_7 - ord_2_9 + 10 x_2_7_9 <= 9
 c1239: - ord_2_10 + ord_2_7 + 10 x_2_7_10 <= 9
 c1240: - ord_2_1 + ord_2_8 + 10 x_2_8_1 <= 9
 c1241: - ord_2_2 + ord_2_8 + 10 x_2_8_2 <= 9
 c1242: - ord_2_3 + ord_2_8 + 10 x_2_8_3 <= 9
 c1243: - ord_2_4 + ord_2_8 + 10 x_2_8_4 <= 9
 c1244: - ord_2_5 + ord_2_8 + 10 x_2_8_5 <= 9
 c1245: - ord_2_6 + ord_2_8 + 10 x_2_8_6 <= 9
 c1246: - ord_2_7 + ord_2_8 + 10 x_2_8_7 <= 9
 c1247: ord_2_8 - ord_2_9 + 10 x_2_8_9 <= 9
 c1248: - ord_2_10 + ord_2_8 + 10 x_2_8_10 <= 9
 c1249: - ord_2_1 + ord_2_9 + 10 x_2_9_1 <= 9
 c1250: - ord_2_2 + ord_2_9 + 10 x_2_9_2 <= 9
 c1251: - ord_2_3 + ord_2_9 + 10 x_2_9_3 <= 9
 c1252: - ord_2_4 + ord_2_9 + 10 x_2_9_4 <= 9
 c1253: - ord_2_5 + ord_2_9 + 10 x_2_9_5 <= 9
 c1254: - ord_2_6 + ord_2_9 + 10 x_2_9_6 <= 9
 c1255: - ord_2_7 + ord_2_9 + 10 x_2_9_7 <= 9
 c1256: - ord_2_8 + ord_2_9 + 10 x_2_9_8 <= 9
 c1257: - ord_2_10 + ord_2_9 + 10 x_2_9_10 <= 9
 c1258: - ord_2_1 + ord_2_10 + 10 x_2_10_1 <= 9
 c1259: ord_2_10 - ord_2_2 + 10 x_2_10_2 <= 9
 c1260: ord_2_10 - ord_2_3 + 10 x_2_10_3 <= 9
 c1261: ord_2_10 - ord_2_4 + 10 x_2_10_4 <= 9
 c1262: ord_2_10 - ord_2_5 + 10 x_2_10_5 <= 9
 c1263: ord_2_10 - ord_2_6 + 10 x_2_10_6 <= 9
 c1264: ord_2_10 - ord_2_7 + 10 x_2_10_7 <= 9
 c1265: ord_2_10 - ord_2_8 + 10 x_2_10_8 <= 9
 c1266: ord_2_10 - ord_2_9 + 10 x_2_10_9 <= 9
 c1267: p_0_1 - 20 z_0_1 <= 0
 c1268: d_0_1 - z_0_1 <= 0
 c1269: mode_0_1 - z_0_1 <= 0
 c1270: - 20 mode_0_1 + p_0_1 <= 0
 c1271: d_0_1 + mode_0_1 - z_0_1 <= 0
 c1272: d_0_1 + p_0_1 - z_0_1 >= 0
 c1273: load_0_1 - 20 z_0_1 <= 0
 c1274: p_0_2 - 11 z_0_2 <= 0
 c1275: d_0_2 - 15 z_0_2 <= 0
 c1276: mode_0_2 - z_0_2 <= 0
 c1277: - 11 mode_0_2 + p_0_2 <= 0
 c1278: d_0_2 + 15 mode_0_2 - 15 z_0_2 <= 0
 c1279: d_0_2 + p_0_2 - z_0_2 >= 0
 c1280: load_0_2 - 20 z_0_2 <= 0
 c1281: p_0_3 - 14 z_0_3 <= 0
 c1282: d_0_3 - 20 z_0_3 <= 0
 c1283: mode_0_3 - z_0_3 <= 0
 c1284: - 14 mode_0_3 + p_0_3 <= 0
 c1285: d_0_3 + 20 mode_0_3 - 20 z_0_3 <= 0
 c1286: d_0_3 + p_0_3 - z_0_3 >= 0
 c1287: load_0_3 - 20 z_0_3 <= 0
 c1288: p_0_4 <= 0
 c1289: d_0_4 - 20 z_0_4 <= 0
 c1290: mode_0_4 - z_0_4 <= 0
 c1291: p_0_4 <= 0
 c1292: d_0_4 + 20 mode_0_4 - 20 z_0_4 <= 0
 c1293: d_0_4 + p_0_4 - z_0_4 >= 0
 c1294: load_0_4 - 20 z_0_4 <= 0
 c1295: p_0_5 - 6 z_0_5 <= 0
 c1296: d_0_5 - 20 z_0_5 <= 0
 c1297: mode_0_5 - z_0_5 <= 0
 c1298: - 6 mode_0_5 + p_0_5 <= 0
 c1299: d_0_5 + 20 mode_0_5 - 20 z_0_5 <= 0
 c1300: d_0_5 + p_0_5 - z_0_5 >= 0
 c1301: load_0_5 - 20 z_0_5 <= 0
 c1302: p_0_6 - 20 z_0_6 <= 0
 c1303: d_0_6 - 2 z_0_6 <= 0
 c1304: mode_0_6 - z_0_6 <= 0
 c1305: - 20 mode_0_6 + p_0_6 <= 0
 c1306: d_0_6 + 2 mode_0_6 - 2 z_0_6 <= 0
 c1307: d_0_6 + p_0_6 - z_0_6 >= 0
 c1308: load_0_6 - 20 z_0_6 <= 0
 c1309: p_0_7 - 19 z_0_7 <= 0
 c1310: d_0_7 - z_0_7 <= 0
 c1311: mode_0_7 - z_0_7 <= 0
 c1312: - 19 mode_0_7 + p_0_7 <= 0
 c1313: d_0_7 + mode_0_7 - z_0_7 <= 0
 c1314: d_0_7 + p_0_7 - z_0_7 >= 0
 c1315: load_0_7 - 20 z_0_7 <= 0
 c1316: p_0_8 - 20 z_0_8 <= 0
 c1317: d_0_8 - 11 z_0_8 <= 0
 c1318: mode_0_8 - z_0_8 <= 0
 c1319: - 20 mode_0_8 + p_0_8 <= 0
 c1320: d_0_8 + 11 mode_0_8 - 11 z_0_8 <= 0
 c1321: d_0_8 + p_0_8 - z_0_8 >= 0
 c1322: load_0_8 - 20 z_0_8 <= 0
 c1323: p_0_9 - 6 z_0_9 <= 0
 c1324: d_0_9 - 20 z_0_9 <= 0
 c1325: mode_0_9 - z_0_9 <= 0
 c1326: - 6 mode_0_9 + p_0_9 <= 0
 c1327: d_0_9 + 20 mode_0_9 - 20 z_0_9 <= 0
 c1328: d_0_9 + p_0_9 - z_0_9 >= 0
 c1329: load_0_9 - 20 z_0_9 <= 0
 c1330: p_0_10 - 5 z_0_10 <= 0
 c1331: d_0_10 - 20 z_0_10 <= 0
 c1332: mode_0_10 - z_0_10 <= 0
 c1333: - 5 mode_0_10 + p_0_10 <= 0
 c1334: d_0_10 + 20 mode_0_10 - 20 z_0_10 <= 0
 c1335: d_0_10 + p_0_10 - z_0_10 >= 0
 c1336: load_0_10 - 20 z_0_10 <= 0
 c1337: d_0_1 + load_0_1 - p_0_1 + 20 x_0_0_1 <= 20
 c1338: d_0_1 + load_0_1 - p_0_1 - 20 x_0_0_1 >= -20
 c1339: d_0_2 + load_0_2 - p_0_2 + 20 x_0_0_2 <= 20
 c1340: d_0_2 + load_0_2 - p_0_2 - 20 x_0_0_2 >= -20
 c1341: d_0_3 + load_0_3 - p_0_3 + 20 x_0_0_3 <= 20
 c1342: d_0_3 + load_0_3 - p_0_3 - 20 x_0_0_3 >= -20
 c1343: d_0_4 + load_0_4 - p_0_4 + 20 x_0_0_4 <= 20
 c1344: d_0_4 + load_0_4 - p_0_4 - 20 x_0_0_4 >= -20
 c1345: d_0_5 + load_0_5 - p_0_5 + 20 x_0_0_5 <= 20
 c1346: d_0_5 + load_0_5 - p_0_5 - 20 x_0_0_5 >= -20
 c1347: d_0_6 + load_0_6 - p_0_6 + 20 x_0_0_6 <= 20
 c1348: d_0_6 + load_0_6 - p_0_6 - 20 x_0_0_6 >= -20
 c1349: d_0_7 + load_0_7 - p_0_7 + 20 x_0_0_7 <= 20
 c1350: d_0_7 + load_0_7 - p_0_7 - 20 x_0_0_7 >= -20
 c1351: d_0_8 + load_0_8 - p_0_8 + 20 x_0_0_8 <= 20
 c1352: d_0_8 + load_0_8 - p_0_8 - 20 x_0_0_8 >= -20
 c1353: d_0_9 + load_0_9 - p_0_9 + 20 x_0_0_9 <= 20
 c1354: d_0_9 + load_0_9 - p_0_9 - 20 x_0_0_9 >= -20
 c1355: d_0_10 + load_0_10 - p_0_10 + 20 x_0_0_10 <= 20
 c1356: d_0_10 + load_0_10 - p_0_10 - 20 x_0_0_10 >= -20
 c1357: d_0_2 - load_0_1 + load_0_2 - p_0_2 + 20 x_0_1_2 <= 20
 c1358: d_0_2 - load_0_1 + load_0_2 - p_0_2 - 20 x_0_1_2 >= -20
 c1359: d_0_3 - load_0_1 + load_0_3 - p_0_3 + 20 x_0_1_3 <= 20
 c1360: d_0_3 - load_0_1 + load_0_3 - p_0_3 - 20 x_0_1_3 >= -20
 c1361: d_0_4 - load_0_1 + load_0_4 - p_0_4 + 20 x_0_1_4 <= 20
 c1362: d_0_4 - load_0_1 + load_0_4 - p_0_4 - 20 x_0_1_4 >= -20
 c1363: d_0_5 - load_0_1 + load_0_5 - p_0_5 + 20 x_0_1_5 <= 20
 c1364: d_0_5 - load_0_1 + load_0_5 - p_0_5 - 20 x_0_1_5 >= -20
 c1365: d_0_6 - load_0_1 + load_0_6 - p_0_6 + 20 x_0_1_6 <= 20
 c1366: d_0_6 - load_0_1 + load_0_6 - p_0_6 - 20 x_0_1_6 >= -20
 c1367: d_0_7 - load_0_1 + load_0_7 - p_0_7 + 20 x_0_1_7 <= 20
 c1368: d_0_7 - load_0_1 + load_0_7 - p_0_7 - 20 x_0_1_7 >= -20
 c1369: d_0_8 - load_0_1 + load_0_8 - p_0_8 + 20 x_0_1_8 <= 20
 c1370: d_0_8 - load_0_1 + load_0_8 - p_0_8 - 20 x_0_1_8 >= -20
 c1371: d_0_9 - load_0_1 + load_0_9 - p_0_9 + 20 x_0_1_9 <= 20
 c1372: d_0_9 - load_0_1 + load_0_9 - p_0_9 - 20 x_0_1_9 >= -20
 c1373: d_0_10 - load_0_1 + load_0_10 - p_0_10 + 20 x_0_1_10 <= 20
 c1374: d_0_10 - load_0_1 + load_0_10 - p_0_10 - 20 x_0_1_10 >= -20
 c1375: d_0_1 + load_0_1 - load_0_2 - p_0_1 + 20 x_0_2_1 <= 20
 c1376: d_0_1 + load_0_1 - load_0_2 - p_0_1 - 20 x_0_2_1 >= -20
 c1377: d_0_3 - load_0_2 + load_0_3 - p_0_3 + 20 x_0_2_3 <= 20
 c1378: d_0_3 - load_0_2 + load_0_3 - p_0_3 - 20 x_0_2_3 >= -20
 c1379: d_0_4 - load_0_2 + load_0_4 - p_0_4 + 20 x_0_2_4 <= 20
 c1380: d_0_4 - load_0_2 + load_0_4 - p_0_4 - 20 x_0_2_4 >= -20
 c1381: d_0_5 - load_0_2 + load_0_5 - p_0_5 + 20 x_0_2_5 <= 20
 c1382: d_0_5 - load_0_2 + load_0_5 - p_0_5 - 20 x_0_2_5 >= -20
 c1383: d_0_6 - load_0_2 + load_0_6 - p_0_6 + 20 x_0_2_6 <= 20
 c1384: d_0_6 - load_0_2 + load_0_6 - p_0_6 - 20 x_0_2_6 >= -20
 c1385: d_0_7 - load_0_2 + load_0_7 - p_0_7 + 20 x_0_2_7 <= 20
 c1386: d_0_7 - load_0_2 + load_0_7 - p_0_7 - 20 x_0_2_7 >= -20
 c1387: d_0_8 - load_0_2 + load_0_8 - p_0_8 + 20 x_0_2_8 <= 20
 c1388: d_0_8 - load_0_2 + load_0_8 - p_0_8 - 20 x_0_2_8 >= -20
 c1389: d_0_9 - load_0_2 + load_0_9 - p_0_9 + 20 x_0_2_9 <= 20
 c1390: d_0_9 - load_0_2 + load_0_9 - p_0_9 - 20 x_0_2_9 >= -20
 c1391: d_0_10 + load_0_10 - load_0_2 - p_0_10 + 20 x_0_2_10 <= 20
 c1392: d_0_10 + load_0_10 - load_0_2 - p_0_10 - 20 x_0_2_10 >= -20
 c1393: d_0_1 + load_0_1 - load_0_3 - p_0_1 + 20 x_0_3_1 <= 20
 c1394: d_0_1 + load_0_1 - load_0_3 - p_0_1 - 20 x_0_3_1 >= -20
 c1395: d_0_2 + load_0_2 - load_0_3 - p_0_2 + 20 x_0_3_2 <= 20
 c1396: d_0_2 + load_0_2 - load_0_3 - p_0_2 - 20 x_0_3_2 >= -20
 c1397: d_0_4 - load_0_3 + load_0_4 - p_0_4 + 20 x_0_3_4 <= 20
 c1398: d_0_4 - load_0_3 + load_0_4 - p_0_4 - 20 x_0_3_4 >= -20
 c1399: d_0_5 - load_0_3 + load_0_5 - p_0_5 + 20 x_0_3_5 <= 20
 c1400: d_0_5 - load_0_3 + load_0_5 - p_0_5 - 20 x_0_3_5 >= -20
 c1401: d_0_6 - load_0_3 + load_0_6 - p_0_6 + 20 x_0_3_6 <= 20
 c1402: d_0_6 - load_0_3 + load_0_6 - p_0_6 - 20 x_0_3_6 >= -20
 c1403: d_0_7 - load_0_3 + load_0_7 - p_0_7 + 20 x_0_3_7 <= 20
 c1404: d_0_7 - load_0_3 + load_0_7 - p_0_7 - 20 x_0_3_7 >= -20
 c1405: d_0_8 - load_0_3 + load_0_8 - p_0_8 + 20 x_0_3_8 <= 20
 c1406: d_0_8 - load_0_3 + load_0_8 - p_0_8 - 20 x_0_3_8 >= -20
 c1407: d_0_9 - load_0_3 + load_0_9 - p_0_9 + 20 x_0_3_9 <= 20
 c1408: d_0_9 - load_0_3 + load_0_9 - p_0_9 - 20 x_0_3_9 >= -20
 c1409: d_0_10 + load_0_10 - load_0_3 - p_0_10 + 20 x_0_3_10 <= 20
 c1410: d_0_10 + load_0_10 - load_0_3 - p_0_10 - 20 x_0_3_10 >= -20
 c1411: d_0_1 + load_0_1 - load_0_4 - p_0_1 + 20 x_0_4_1 <= 20
 c1412: d_0_1 + load_0_1 - load_0_4 - p_0_1 - 20 x_0_4_1 >= -20
 c1413: d_0_2 + load_0_2 - load_0_4 - p_0_2 + 20 x_0_4_2 <= 20
 c1414: d_0_2 + load_0_2 - load_0_4 - p_0_2 - 20 x_0_4_2 >= -20
 c1415: d_0_3 + load_0_3 - load_0_4 - p_0_3 + 20 x_0_4_3 <= 20
 c1416: d_0_3 + load_0_3 - load_0_4 - p_0_3 - 20 x_0_4_3 >= -20
 c1417: d_0_5 - load_0_4 + load_0_5 - p_0_5 + 20 x_0_4_5 <= 20
 c1418: d_0_5 - load_0_4 + load_0_5 - p_0_5 - 20 x_0_4_5 >= -20
 c1419: d_0_6 - load_0_4 + load_0_6 - p_0_6 + 20 x_0_4_6 <= 20
 c1420: d_0_6 - load_0_4 + load_0_6 - p_0_6 - 20 x_0_4_6 >= -20
 c1421: d_0_7 - load_0_4 + load_0_7 - p_0_7 + 20 x_0_4_7 <= 20
 c1422: d_0_7 - load_0_4 + load_0_7 - p_0_7 - 20 x_0_4_7 >= -20
 c1423: d_0_8 - load_0_4 + load_0_8 - p_0_8 + 20 x_0_4_8 <= 20
 c1424: d_0_8 - load_0_4 + load_0_8 - p_0_8 - 20 x_0_4_8 >= -20
 c1425: d_0_9 - load_0_4 + load_0_9 - p_0_9 + 20 x_0_4_9 <= 20
 c1426: d_0_9 - load_0_4 + load_0_9 - p_0_9 - 20 x_0_4_9 >= -20
 c1427: d_0_10 + load_0_10 - load_0_4 - p_0_10 + 20 x_0_4_10 <= 20
 c1428: d_0_10 + load_0_10 - load_0_4 - p_0_10 - 20 x_0_4_10 >= -20
 c1429: d_0_1 + load_0_1 - load_0_5 - p_0_1 + 20 x_0_5_1 <= 20
 c1430: d_0_1 + load_0_1 - load_0_5 - p_0_1 - 20 x_0_5_1 >= -20
 c1431: d_0_2 + load_0_2 - load_0_5 - p_0_2 + 20 x_0_5_2 <= 20
 c1432: d_0_2 + load_0_2 - load_0_5 - p_0_2 - 20 x_0_5_2 >= -20
 c1433: d_0_3 + load_0_3 - load_0_5 - p_0_3 + 20 x_0_5_3 <= 20
 c1434: d_0_3 + load_0_3 - load_0_5 - p_0_3 - 20 x_0_5_3 >= -20
 c1435: d_0_4 + load_0_4 - load_0_5 - p_0_4 + 20 x_0_5_4 <= 20
 c1436: d_0_4 + load_0_4 - load_0_5 - p_0_4 - 20 x_0_5_4 >= -20
 c1437: d_0_6 - load_0_5 + load_0_6 - p_0_6 + 20 x_0_5_6 <= 20
 c1438: d_0_6 - load_0_5 + load_0_6 - p_0_6 - 20 x_0_5_6 >= -20
 c1439: d_0_7 - load_0_5 + load_0_7 - p_0_7 + 20 x_0_5_7 <= 20
 c1440: d_0_7 - load_0_5 + load_0_7 - p_0_7 - 20 x_0_5_7 >= -20
 c1441: d_0_8 - load_0_5 + load_0_8 - p_0_8 + 20 x_0_5_8 <= 20
 c1442: d_0_8 - load_0_5 + load_0_8 - p_0_8 - 20 x_0_5_8 >= -20
 c1443: d_0_9 - load_0_5 + load_0_9 - p_0_9 + 20 x_0_5_9 <= 20
 c1444: d_0_9 - load_0_5 + load_0_9 - p_0_9 - 20 x_0_5_9 >= -20
 c1445: d_0_10 + load_0_10 - load_0_5 - p_0_10 + 20 x_0_5_10 <= 20
 c1446: d_0_10 + load_0_10 - load_0_5 - p_0_10 - 20 x_0_5_10 >= -20
 c1447: d_0_1 + load_0_1 - load_0_6 - p_0_1 + 20 x_0_6_1 <= 20
 c1448: d_0_1 + load_0_1 - load_0_6 - p_0_1 - 20 x_0_6_1 >= -20
 c1449: d_0_2 + load_0_2 - load_0_6 - p_0_2 + 20 x_0_6_2 <= 20
 c1450: d_0_2 + load_0_2 - load_0_6 - p_0_2 - 20 x_0_6_2 >= -20
 c1451: d_0_3 + load_0_3 - load_0_6 - p_0_3 + 20 x_0_6_3 <= 20
 c1452: d_0_3 + load_0_3 - load_0_6 - p_0_3 - 20 x_0_6_3 >= -20
 c1453: d_0_4 + load_0_4 - load_0_6 - p_0_4 + 20 x_0_6_4 <= 20
 c1454: d_0_4 + load_0_4 - load_0_6 - p_0_4 - 20 x_0_6_4 >= -20
 c1455: d_0_5 + load_0_5 - load_0_6 - p_0_5 + 20 x_0_6_5 <= 20
 c1456: d_0_5 + load_0_5 - load_0_6 - p_0_5 - 20 x_0_6_5 >= -20
 c1457: d_0_7 - load_0_6 + load_0_7 - p_0_7 + 20 x_0_6_7 <= 20
 c1458: d_0_7 - load_0_6 + load_0_7 - p_0_7 - 20 x_0_6_7 >= -20
 c1459: d_0_8 - load_0_6 + load_0_8 - p_0_8 + 20 x_0_6_8 <= 20
 c1460: d_0_8 - load_0_6 + load_0_8 - p_0_8 - 20 x_0_6_8 >= -20
 c1461: d_0_9 - load_0_6 + load_0_9 - p_0_9 + 20 x_0_6_9 <= 20
 c1462: d_0_9 - load_0_6 + load_0_9 - p_0_9 - 20 x_0_6_9 >= -20
 c1463: d_0_10 + load_0_10 - load_0_6 - p_0_10 + 20 x_0_6_10 <= 20
 c1464: d_0_10 + load_0_10 - load_0_6 - p_0_10 - 20 x_0_6_10 >= -20
 c1465: d_0_1 + load_0_1 - load_0_7 - p_0_1 + 20 x_0_7_1 <= 20
 c1466: d_0_1 + load_0_1 - load_0_7 - p_0_1 - 20 x_0_7_1 >= -20
 c1467: d_0_2 + load_0_2 - load_0_7 - p_0_2 + 20 x_0_7_2 <= 20
 c1468: d_0_2 + load_0_2 - load_0_7 - p_0_2 - 20 x_0_7_2 >= -20
 c1469: d_0_3 + load_0_3 - load_0_7 - p_0_3 + 20 x_0_7_3 <= 20
 c1470: d_0_3 + load_0_3 - load_0_7 - p_0_3 - 20 x_0_7_3 >= -20
 c1471: d_0_4 + load_0_4 - load_0_7 - p_0_4 + 20 x_0_7_4 <= 20
 c1472: d_0_4 + load_0_4 - load_0_7 - p_0_4 - 20 x_0_7_4 >= -20
 c1473: d_0_5 + load_0_5 - load_0_7 - p_0_5 + 20 x_0_7_5 <= 20
 c1474: d_0_5 + load_0_5 - load_0_7 - p_0_5 - 20 x_0_7_5 >= -20
 c1475: d_0_6 + load_0_6 - load_0_7 - p_0_6 + 20 x_0_7_6 <= 20
 c1476: d_0_6 + load_0_6 - load_0_7 - p_0_6 - 20 x_0_7_6 >= -20
 c1477: d_0_8 - load_0_7 + load_0_8 - p_0_8 + 20 x_0_7_8 <= 20
 c1478: d_0_8 - load_0_7 + load_0_8 - p_0_8 - 20 x_0_7_8 >= -20
 c1479: d_0_9 - load_0_7 + load_0_9 - p_0_9 + 20 x_0_7_9 <= 20
 c1480: d_0_9 - load_0_7 + load_0_9 - p_0_9 - 20 x_0_7_9 >= -20
 c1481: d_0_10 + load_0_10 - load_0_7 - p_0_10 + 20 x_0_7_10 <= 20
 c1482: d_0_10 + load_0_10 - load_0_7 - p_0_10 - 20 x_0_7_10 >= -20
 c1483: d_0_1 + load_0_1 - load_0_8 - p_0_1 + 20 x_0_8_1 <= 20
 c1484: d_0_1 + load_0_1 - load_0_8 - p_0_1 - 20 x_0_8_1 >= -20
 c1485: d_0_2 + load_0_2 - load_0_8 - p_0_2 + 20 x_0_8_2 <= 20
 c1486: d_0_2 + load_0_2 - load_0_8 - p_0_2 - 20 x_0_8_2 >= -20
 c1487: d_0_3 + load_0_3 - load_0_8 - p_0_3 + 20 x_0_8_3 <= 20
 c1488: d_0_3 + load_0_3 - load_0_8 - p_0_3 - 20 x_0_8_3 >= -20
 c1489: d_0_4 + load_0_4 - load_0_8 - p_0_4 + 20 x_0_8_4 <= 20
 c1490: d_0_4 + load_0_4 - load_0_8 - p_0_4 - 20 x_0_8_4 >= -20
 c1491: d_0_5 + load_0_5 - load_0_8 - p_0_5 + 20 x_0_8_5 <= 20
 c1492: d_0_5 + load_0_5 - load_0_8 - p_0_5 - 20 x_0_8_5 >= -20
 c1493: d_0_6 + load_0_6 - load_0_8 - p_0_6 + 20 x_0_8_6 <= 20
 c1494: d_0_6 + load_0_6 - load_0_8 - p_0_6 - 20 x_0_8_6 >= -20
 c1495: d_0_7 + load_0_7 - load_0_8 - p_0_7 + 20 x_0_8_7 <= 20
 c1496: d_0_7 + load_0_7 - load_0_8 - p_0_7 - 20 x_0_8_7 >= -20
 c1497: d_0_9 - load_0_8 + load_0_9 - p_0_9 + 20 x_0_8_9 <= 20
 c1498: d_0_9 - load_0_8 + load_0_9 - p_0_9 - 20 x_0_8_9 >= -20
 c1499: d_0_10 + load_0_10 - load_0_8 - p_0_10 + 20 x_0_8_10 <= 20
 c1500: d_0_10 + load_0_10 - load_0_8 - p_0_10 - 20 x_0_8_10 >= -20
 c1501: d_0_1 + load_0_1 - load_0_9 - p_0_1 + 20 x_0_9_1 <= 20
 c1502: d_0_1 + load_0_1 - load_0_9 - p_0_1 - 20 x_0_9_1 >= -20
 c1503: d_0_2 + load_0_2 - load_0_9 - p_0_2 + 20 x_0_9_2 <= 20
 c1504: d_0_2 + load_0_2 - load_0_9 - p_0_2 - 20 x_0_9_2 >= -20
 c1505: d_0_3 + load_0_3 - load_0_9 - p_0_3 + 20 x_0_9_3 <= 20
 c1506: d_0_3 + load_0_3 - load_0_9 - p_0_3 - 20 x_0_9_3 >= -20
 c1507: d_0_4 + load_0_4 - load_0_9 - p_0_4 + 20 x_0_9_4 <= 20
 c1508: d_0_4 + load_0_4 - load_0_9 - p_0_4 - 20 x_0_9_4 >= -20
 c1509: d_0_5 + load_0_5 - load_0_9 - p_0_5 + 20 x_0_9_5 <= 20
 c1510: d_0_5 + load_0_5 - load_0_9 - p_0_5 - 20 x_0_9_5 >= -20
 c1511: d_0_6 + load_0_6 - load_0_9 - p_0_6 + 20 x_0_9_6 <= 20
 c1512: d_0_6 + load_0_6 - load_0_9 - p_0_6 - 20 x_0_9_6 >= -20
 c1513: d_0_7 + load_0_7 - load_0_9 - p_0_7 + 20 x_0_9_7 <= 20
 c1514: d_0_7 + load_0_7 - load_0_9 - p_0_7 - 20 x_0_9_7 >= -20
 c1515: d_0_8 + load_0_8 - load_0_9 - p_0_8 + 20 x_0_9_8 <= 20
 c1516: d_0_8 + load_0_8 - load_0_9 - p_0_8 - 20 x_0_9_8 >= -20
 c1517: d_0_10 + load_0_10 - load_0_9 - p_0_10 + 20 x_0_9_10 <= 20
 c1518: d_0_10 + load_0_10 - load_0_9 - p_0_10 - 20 x_0_9_10 >= -20
 c1519: d_0_1 + load_0_1 - load_0_10 - p_0_1 + 20 x_0_10_1 <= 20
 c1520: d_0_1 + load_0_1 - load_0_10 - p_0_1 - 20 x_0_10_1 >= -20
 c1521: d_0_2 - load_0_10 + load_0_2 - p_0_2 + 20 x_0_10_2 <= 20
 c1522: d_0_2 - load_0_10 + load_0_2 - p_0_2 - 20 x_0_10_2 >= -20
 c1523: d_0_3 - load_0_10 + load_0_3 - p_0_3 + 20 x_0_10_3 <= 20
 c1524: d_0_3 - load_0_10 + load_0_3 - p_0_3 - 20 x_0_10_3 >= -20
 c1525: d_0_4 - load_0_10 + load_0_4 - p_0_4 + 20 x_0_10_4 <= 20
 c1526: d_0_4 - load_0_10 + load_0_4 - p_0_4 - 20 x_0_10_4 >= -20
 c1527: d_0_5 - load_0_10 + load_0_5 - p_0_5 + 20 x_0_10_5 <= 20
 c1528: d_0_5 - load_0_10 + load_0_5 - p_0_5 - 20 x_0_10_5 >= -20
 c1529: d_0_6 - load_0_10 + load_0_6 - p_0_6 + 20 x_0_10_6 <= 20
 c1530: d_0_6 - load_0_10 + load_0_6 - p_0_6 - 20 x_0_10_6 >= -20
 c1531: d_0_7 - load_0_10 + load_0_7 - p_0_7 + 20 x_0_10_7 <= 20
 c1532: d_0_7 - load_0_10 + load_0_7 - p_0_7 - 20 x_0_10_7 >= -20
 c1533: d_0_8 - load_0_10 + load_0_8 - p_0_8 + 20 x_0_10_8 <= 20
 c1534: d_0_8 - load_0_10 + load_0_8 - p_0_8 - 20 x_0_10_8 >= -20
 c1535: d_0_9 - load_0_10 + load_0_9 - p_0_9 + 20 x_0_10_9 <= 20
 c1536: d_0_9 - load_0_10 + load_0_9 - p_0_9 - 20 x_0_10_9 >= -20
 c1537: - d_0_1 - d_0_10 - d_0_2 - d_0_3 - d_0_4 - d_0_5 - d_0_6 - d_0_7 - d_0_8 - d_0_9 + p_0_1 + p_0_10 + p_0_2 + p_0_3 + p_0_4 + p_0_5 + p_0_6 + p_0_7 + p_0_8 + p_0_9 >= 0
 c1538: 120 p_0_1 + 120 p_0_10 + 120 p_0_2 + 120 p_0_3 + 120 p_0_4 + 120 p_0_5 + 120 p_0_6 + 120 p_0_7 + 120 p_0_8 + 120 p_0_9 + 594.78980264912536 x_0_0_1 + 760.78396100170221 x_0_0_10 + 479.6408272498208 x_0_0_2 + 624.178181313236 x_0_0_3 + 722.40922339709311 x_0_0_4 + 479.22425168274873 x_0_0_5 + 804.44686549191783 x_0_0_6 + 508.52700675732382 x_0_0_7 + 591.40704496380033 x_0_0_8 + 659.68236630111346 x_0_0_9 + 760.78396100170221 x_0_10_0 + 178.44578105651053 x_0_10_1 + 1058.227706119357 x_0_10_2 + 1269.4270330513189 x_0_10_3 + 91.175860910802967 x_0_10_4 + 1020.7606868997331 x_0_10_5 + 1434.2661597423148 x_0_10_6 + 288.5766617382223 x_0_10_7 + 1084.4609559786738 x_0_10_8 + 1261.2118242026656 x_0_10_9 + 594.78980264912536 x_0_1_0 + 178.44578105651053 x_0_1_10 + 935.95529576090405 x_0_1_2 + 1091.1487082975814 x_0_1_3 + 127.95972110211204 x_0_1_4 + 904.23260956030947 x_0_1_5 + 1256.7249842952558 x_0_1_6 + 196.8819014051131 x_0_1_7 + 980.76061583450519 x_0_1_8 + 1084.0751598427134 x_0_1_9 + 479.6408272498208 x_0_2_0 + 935.95529576090405 x_0_2_1 + 1058.227706119357 x_0_2_10 + 919.5150095424475 x_0_2_3 + 1056.0474215676963 x_0_2_4 + 54.744773083810145 x_0_2_5 + 1079.9774569508975 x_0_2_6 + 769.70785475713546 x_0_2_7 + 141.0037607833172 x_0_2_8 + 989.38169081383421 x_0_2_9 + 624.178181313236 x_0_3_0 + 1091.1487082975814 x_0_3_1 + 1269.4270330513189 x_0_3_10 + 919.5150095424475 x_0_3_2 + 1201.8186916312261 x_0_3_4 + 952.15619711008776 x_0_3_5 + 180.27874267385269 x_0_3_6 + 1082.4578535451747 x_0_3_7 + 1060.2925555899965 x_0_3_8 + 91.654713969815589 x_0_3_9 + 722.40922339709311 x_0_4_0 + 127.95972110211204 x_0_4_1 + 91.175860910802967 x_0_4_10 + 1056.0474215676963 x_0_4_2 + 1201.8186916312261 x_0_4_3 + 1022.2233581736285 x_0_4_5 + 1363.2047171011429 x_0_4_6 + 295.25844553035029 x_0_4_7 + 1093.9378452725889 x_0_4_8 + 1189.2626183779273 x_0_4_9 + 479.22425168274873 x_0_5_0 + 904.23260956030947 x_0_5_1 + 1020.7606868997331 x_0_5_10 + 54.744773083810145 x_0_5_2 + 952.15619711008776 x_0_5_3 + 1022.2233581736285 x_0_5_4 + 1115.9335309432365 x_0_5_6 + 732.79942873627078 x_0_5_7 + 114.97843709328448 x_0_5_8 + 1019.1973362505672 x_0_5_9 + 804.44686549191783 x_0_6_0 + 1256.7249842952558 x_0_6_1 + 1434.2661597423148 x_0_6_10 + 1079.9774569508975 x_0_6_2 + 180.27874267385269 x_0_6_3 + 1363.2047171011429 x_0_6_4 + 1115.9335309432365 x_0_6_5 + 1257.652313289341 x_0_6_7 + 1220.9520081066898 x_0_6_8 + 174.74983503573969 x_0_6_9 + 508.52700675732382 x_0_7_0 + 196.8819014051131 x_0_7_1 + 288.5766617382223 x_0_7_10 + 769.70785475713546 x_0_7_2 + 1082.4578535451747 x_0_7_3 + 295.25844553035029 x_0_7_4 + 732.79942873627078 x_0_7_5 + 1257.652313289341 x_0_7_6 + 800.07605027413229 x_0_7_8 + 1091.9773311899933 x_0_7_9 + 591.40704496380033 x_0_8_0 + 980.76061583450519 x_0_8_1 + 1084.4609559786738 x_0_8_10 + 141.0037607833172 x_0_8_2 + 1060.2925555899965 x_0_8_3 + 1093.9378452725889 x_0_8_4 + 114.97843709328448 x_0_8_5 + 1220.9520081066898 x_0_8_6 + 800.07605027413229 x_0_8_7 + 1129.4519837916439 x_0_8_9 + 659.68236630111346 x_0_9_0 + 1084.0751598427134 x_0_9_1 + 1261.2118242026656 x_0_9_10 + 989.38169081383421 x_0_9_2 + 91.654713969815589 x_0_9_3 + 1189.2626183779273 x_0_9_4 + 1019.1973362505672 x_0_9_5 + 174.74983503573969 x_0_9_6 + 1091.9773311899933 x_0_9_7 + 1129.4519837916439 x_0_9_8 <= 2400
 c1539: p_1_1 - 20 z_1_1 <= 0
 c1540: d_1_1 - z_1_1 <= 0
 c1541: mode_1_1 - z_1_1 <= 0
 c1542: - 20 mode_1_1 + p_1_1 <= 0
 c1543: d_1_1 + mode_1_1 - z_1_1 <= 0
 c1544: d_1_1 + p_1_1 - z_1_1 >= 0
 c1545: load_1_1 - 20 z_1_1 <= 0
 c1546: p_1_2 - 11 z_1_2 <= 0
 c1547: d_1_2 - 15 z_1_2 <= 0
 c1548: mode_1_2 - z_1_2 <= 0
 c1549: - 11 mode_1_2 + p_1_2 <= 0
 c1550: d_1_2 + 15 mode_1_2 - 15 z_1_2 <= 0
 c1551: d_1_2 + p_1_2 - z_1_2 >= 0
 c1552: load_1_2 - 20 z_1_2 <= 0
 c1553: p_1_3 - 14 z_1_3 <= 0
 c1554: d_1_3 - 20 z_1_3 <= 0
 c1555: mode_1_3 - z_1_3 <= 0
 c1556: - 14 mode_1_3 + p_1_3 <= 0
 c1557: d_1_3 + 20 mode_1_3 - 20 z_1_3 <= 0
 c1558: d_1_3 + p_1_3 - z_1_3 >= 0
 c1559: load_1_3 - 20 z_1_3 <= 0
 c1560: p_1_4 <= 0
 c1561: d_1_4 - 20 z_1_4 <= 0
 c1562: mode_1_4 - z_1_4 <= 0
 c1563: p_1_4 <= 0
 c1564: d_1_4 + 20 mode_1_4 - 20 z_1_4 <= 0
 c1565: d_1_4 + p_1_4 - z_1_4 >= 0
 c1566: load_1_4 - 20 z_1_4 <= 0
 c1567: p_1_5 - 6 z_1_5 <= 0
 c1568: d_1_5 - 20 z_1_5 <= 0
 c1569: mode_1_5 - z_1_5 <= 0
 c1570: - 6 mode_1_5 + p_1_5 <= 0
 c1571: d_1_5 + 20 mode_1_5 - 20 z_1_5 <= 0
 c1572: d_1_5 + p_1_5 - z_1_5 >= 0
 c1573: load_1_5 - 20 z_1_5 <= 0
 c1574: p_1_6 - 20 z_1_6 <= 0
 c1575: d_1_6 - 2 z_1_6 <= 0
 c1576: mode_1_6 - z_1_6 <= 0
 c1577: - 20 mode_1_6 + p_1_6 <= 0
 c1578: d_1_6 + 2 mode_1_6 - 2 z_1_6 <= 0
 c1579: d_1_6 + p_1_6 - z_1_6 >= 0
 c1580: load_1_6 - 20 z_1_6 <= 0
 c1581: p_1_7 - 19 z_1_7 <= 0
 c1582: d_1_7 - z_1_7 <= 0
 c1583: mode_1_7 - z_1_7 <= 0
 c1584: - 19 mode_1_7 + p_1_7 <= 0
 c1585: d_1_7 + mode_1_7 - z_1_7 <= 0
 c1586: d_1_7 + p_1_7 - z_1_7 >= 0
 c1587: load_1_7 - 20 z_1_7 <= 0
 c1588: p_1_8 - 20 z_1_8 <= 0
 c1589: d_1_8 - 11 z_1_8 <= 0
 c1590: mode_1_8 - z_1_8 <= 0
 c1591: - 20 mode_1_8 + p_1_8 <= 0
 c1592: d_1_8 + 11 mode_1_8 - 11 z_1_8 <= 0
 c1593: d_1_8 + p_1_8 - z_1_8 >= 0
 c1594: load_1_8 - 20 z_1_8 <= 0
 c1595: p_1_9 - 6 z_1_9 <= 0
 c1596: d_1_9 - 20 z_1_9 <= 0
 c1597: mode_1_9 - z_1_9 <= 0
 c1598: - 6 mode_1_9 + p_1_9 <= 0
 c1599: d_1_9 + 20 mode_1_9 - 20 z_1_9 <= 0
 c1600: d_1_9 + p_1_9 - z_1_9 >= 0
 c1601: load_1_9 - 20 z_1_9 <= 0
 c1602: p_1_10 - 5 z_1_10 <= 0
 c1603: d_1_10 - 20 z_1_10 <= 0
 c1604: mode_1_10 - z_1_10 <= 0
 c1605: - 5 mode_1_10 + p_1_10 <= 0
 c1606: d_1_10 + 20 mode_1_10 - 20 z_1_10 <= 0
 c1607: d_1_10 + p_1_10 - z_1_10 >= 0
 c1608: load_1_10 - 20 z_1_10 <= 0
 c1609: d_1_1 + load_1_1 - p_1_1 + 20 x_1_0_1 <= 20
 c1610: d_1_1 + load_1_1 - p_1_1 - 20 x_1_0_1 >= -20
 c1611: d_1_2 + load_1_2 - p_1_2 + 20 x_1_0_2 <= 20
 c1612: d_1_2 + load_1_2 - p_1_2 - 20 x_1_0_2 >= -20
 c1613: d_1_3 + load_1_3 - p_1_3 + 20 x_1_0_3 <= 20
 c1614: d_1_3 + load_1_3 - p_1_3 - 20 x_1_0_3 >= -20
 c1615: d_1_4 + load_1_4 - p_1_4 + 20 x_1_0_4 <= 20
 c1616: d_1_4 + load_1_4 - p_1_4 - 20 x_1_0_4 >= -20
 c1617: d_1_5 + load_1_5 - p_1_5 + 20 x_1_0_5 <= 20
 c1618: d_1_5 + load_1_5 - p_1_5 - 20 x_1_0_5 >= -20
 c1619: d_1_6 + load_1_6 - p_1_6 + 20 x_1_0_6 <= 20
 c1620: d_1_6 + load_1_6 - p_1_6 - 20 x_1_0_6 >= -20
 c1621: d_1_7 + load_1_7 - p_1_7 + 20 x_1_0_7 <= 20
 c1622: d_1_7 + load_1_7 - p_1_7 - 20 x_1_0_7 >= -20
 c1623: d_1_8 + load_1_8 - p_1_8 + 20 x_1_0_8 <= 20
 c1624: d_1_8 + load_1_8 - p_1_8 - 20 x_1_0_8 >= -20
 c1625: d_1_9 + load_1_9 - p_1_9 + 20 x_1_0_9 <= 20
 c1626: d_1_9 + load_1_9 - p_1_9 - 20 x_1_0_9 >= -20
 c1627: d_1_10 + load_1_10 - p_1_10 + 20 x_1_0_10 <= 20
 c1628: d_1_10 + load_1_10 - p_1_10 - 20 x_1_0_10 >= -20
 c1629: d_1_2 - load_1_1 + load_1_2 - p_1_2 + 20 x_1_1_2 <= 20
 c1630: d_1_2 - load_1_1 + load_1_2 - p_1_2 - 20 x_1_1_2 >= -20
 c1631: d_1_3 - load_1_1 + load_1_3 - p_1_3 + 20 x_1_1_3 <= 20
 c1632: d_1_3 - load_1_1 + load_1_3 - p_1_3 - 20 x_1_1_3 >= -20
 c1633: d_1_4 - load_1_1 + load_1_4 - p_1_4 + 20 x_1_1_4 <= 20
 c1634: d_1_4 - load_1_1 + load_1_4 - p_1_4 - 20 x_1_1_4 >= -20
 c1635: d_1_5 - load_1_1 + load_1_5 - p_1_5 + 20 x_1_1_5 <= 20
 c1636: d_1_5 - load_1_1 + load_1_5 - p_1_5 - 20 x_1_1_5 >= -20
 c1637: d_1_6 - load_1_1 + load_1_6 - p_1_6 + 20 x_1_1_6 <= 20
 c1638: d_1_6 - load_1_1 + load_1_6 - p_1_6 - 20 x_1_1_6 >= -20
 c1639: d_1_7 - load_1_1 + load_1_7 - p_1_7 + 20 x_1_1_7 <= 20
 c1640: d_1_7 - load_1_1 + load_1_7 - p_1_7 - 20 x_1_1_7 >= -20
 c1641: d_1_8 - load_1_1 + load_1_8 - p_1_8 + 20 x_1_1_8 <= 20
 c1642: d_1_8 - load_1_1 + load_1_8 - p_1_8 - 20 x_1_1_8 >= -20
 c1643: d_1_9 - load_1_1 + load_1_9 - p_1_9 + 20 x_1_1_9 <= 20
 c1644: d_1_9 - load_1_1 + load_1_9 - p_1_9 - 20 x_1_1_9 >= -20
 c1645: d_1_10 - load_1_1 + load_1_10 - p_1_10 + 20 x_1_1_10 <= 20
 c1646: d_1_10 - load_1_1 + load_1_10 - p_1_10 - 20 x_1_1_10 >= -20
 c1647: d_1_1 + load_1_1 - load_1_2 - p_1_1 + 20 x_1_2_1 <= 20
 c1648: d_1_1 + load_1_1 - load_1_2 - p_1_1 - 20 x_1_2_1 >= -20
 c1649: d_1_3 - load_1_2 + load_1_3 - p_1_3 + 20 x_1_2_3 <= 20
 c1650: d_1_3 - load_1_2 + load_1_3 - p_1_3 - 20 x_1_2_3 >= -20
 c1651: d_1_4 - load_1_2 + load_1_4 - p_1_4 + 20 x_1_2_4 <= 20
 c1652: d_1_4 - load_1_2 + load_1_4 - p_1_4 - 20 x_1_2_4 >= -20
 c1653: d_1_5 - load_1_2 + load_1_5 - p_1_5 + 20 x_1_2_5 <= 20
 c1654: d_1_5 - load_1_2 + load_1_5 - p_1_5 - 20 x_1_2_5 >= -20
 c1655: d_1_6 - load_1_2 + load_1_6 - p_1_6 + 20 x_1_2_6 <= 20
 c1656: d_1_6 - load_1_2 + load_1_6 - p_1_6 - 20 x_1_2_6 >= -20
 c1657: d_1_7 - load_1_2 + load_1_7 - p_1_7 + 20 x_1_2_7 <= 20
 c1658: d_1_7 - load_1_2 + load_1_7 - p_1_7 - 20 x_1_2_7 >= -20
 c1659: d_1_8 - load_1_2 + load_1_8 - p_1_8 + 20 x_1_2_8 <= 20
 c1660: d_1_8 - load_1_2 + load_1_8 - p_1_8 - 20 x_1_2_8 >= -20
 c1661: d_1_9 - load_1_2 + load_1_9 - p_1_9 + 20 x_1_2_9 <= 20
 c1662: d_1_9 - load_1_2 + load_1_9 - p_1_9 - 20 x_1_2_9 >= -20
 c1663: d_1_10 + load_1_10 - load_1_2 - p_1_10 + 20 x_1_2_10 <= 20
 c1664: d_1_10 + load_1_10 - load_1_2 - p_1_10 - 20 x_1_2_10 >= -20
 c1665: d_1_1 + load_1_1 - load_1_3 - p_1_1 + 20 x_1_3_1 <= 20
 c1666: d_1_1 + load_1_1 - load_1_3 - p_1_1 - 20 x_1_3_1 >= -20
 c1667: d_1_2 + load_1_2 - load_1_3 - p_1_2 + 20 x_1_3_2 <= 20
 c1668: d_1_2 + load_1_2 - load_1_3 - p_1_2 - 20 x_1_3_2 >= -20
 c1669: d_1_4 - load_1_3 + load_1_4 - p_1_4 + 20 x_1_3_4 <= 20
 c1670: d_1_4 - load_1_3 + load_1_4 - p_1_4 - 20 x_1_3_4 >= -20
 c1671: d_1_5 - load_1_3 + load_1_5 - p_1_5 + 20 x_1_3_5 <= 20
 c1672: d_1_5 - load_1_3 + load_1_5 - p_1_5 - 20 x_1_3_5 >= -20
 c1673: d_1_6 - load_1_3 + load_1_6 - p_1_6 + 20 x_1_3_6 <= 20
 c1674: d_1_6 - load_1_3 + load_1_6 - p_1_6 - 20 x_1_3_6 >= -20
 c1675: d_1_7 - load_1_3 + load_1_7 - p_1_7 + 20 x_1_3_7 <= 20
 c1676: d_1_7 - load_1_3 + load_1_7 - p_1_7 - 20 x_1_3_7 >= -20
 c1677: d_1_8 - load_1_3 + load_1_8 - p_1_8 + 20 x_1_3_8 <= 20
 c1678: d_1_8 - load_1_3 + load_1_8 - p_1_8 - 20 x_1_3_8 >= -20
 c1679: d_1_9 - load_1_3 + load_1_9 - p_1_9 + 20 x_1_3_9 <= 20
 c1680: d_1_9 - load_1_3 + load_1_9 - p_1_9 - 20 x_1_3_9 >= -20
 c1681: d_1_10 + load_1_10 - load_1_3 - p_1_10 + 20 x_1_3_10 <= 20
 c1682: d_1_10 + load_1_10 - load_1_3 - p_1_10 - 20 x_1_3_10 >= -20
 c1683: d_1_1 + load_1_1 - load_1_4 - p_1_1 + 20 x_1_4_1 <= 20
 c1684: d_1_1 + load_1_1 - load_1_4 - p_1_1 - 20 x_1_4_1 >= -20
 c1685: d_1_2 + load_1_2 - load_1_4 - p_1_2 + 20 x_1_4_2 <= 20
 c1686: d_1_2 + load_1_2 - load_1_4 - p_1_2 - 20 x_1_4_2 >= -20
 c1687: d_1_3 + load_1_3 - load_1_4 - p_1_3 + 20 x_1_4_3 <= 20
 c1688: d_1_3 + load_1_3 - load_1_4 - p_1_3 - 20 x_1_4_3 >= -20
 c1689: d_1_5 - load_1_4 + load_1_5 - p_1_5 + 20 x_1_4_5 <= 20
 c1690: d_1_5 - load_1_4 + load_1_5 - p_1_5 - 20 x_1_4_5 >= -20
 c1691: d_1_6 - load_1_4 + load_1_6 - p_1_6 + 20 x_1_4_6 <= 20
 c1692: d_1_6 - load_1_4 + load_1_6 - p_1_6 - 20 x_1_4_6 >= -20
 c1693: d_1_7 - load_1_4 + load_1_7 - p_1_7 + 20 x_1_4_7 <= 20
 c1694: d_1_7 - load_1_4 + load_1_7 - p_1_7 - 20 x_1_4_7 >= -20
 c1695: d_1_8 - load_1_4 + load_1_8 - p_1_8 + 20 x_1_4_8 <= 20
 c1696: d_1_8 - load_1_4 + load_1_8 - p_1_8 - 20 x_1_4_8 >= -20
 c1697: d_1_9 - load_1_4 + load_1_9 - p_1_9 + 20 x_1_4_9 <= 20
 c1698: d_1_9 - load_1_4 + load_1_9 - p_1_9 - 20 x_1_4_9 >= -20
 c1699: d_1_10 + load_1_10 - load_1_4 - p_1_10 + 20 x_1_4_10 <= 20
 c1700: d_1_10 + load_1_10 - load_1_4 - p_1_10 - 20 x_1_4_10 >= -20
 c1701: d_1_1 + load_1_1 - load_1_5 - p_1_1 + 20 x_1_5_1 <= 20
 c1702: d_1_1 + load_1_1 - load_1_5 - p_1_1 - 20 x_1_5_1 >= -20
 c1703: d_1_2 + load_1_2 - load_1_5 - p_1_2 + 20 x_1_5_2 <= 20
 c1704: d_1_2 + load_1_2 - load_1_5 - p_1_2 - 20 x_1_5_2 >= -20
 c1705: d_1_3 + load_1_3 - load_1_5 - p_1_3 + 20 x_1_5_3 <= 20
 c1706: d_1_3 + load_1_3 - load_1_5 - p_1_3 - 20 x_1_5_3 >= -20
 c1707: d_1_4 + load_1_4 - load_1_5 - p_1_4 + 20 x_1_5_4 <= 20
 c1708: d_1_4 + load_1_4 - load_1_5 - p_1_4 - 20 x_1_5_4 >= -20
 c1709: d_1_6 - load_1_5 + load_1_6 - p_1_6 + 20 x_1_5_6 <= 20
 c1710: d_1_6 - load_1_5 + load_1_6 - p_1_6 - 20 x_1_5_6 >= -20
 c1711: d_1_7 - load_1_5 + load_1_7 - p_1_7 + 20 x_1_5_7 <= 20
 c1712: d_1_7 - load_1_5 + load_1_7 - p_1_7 - 20 x_1_5_7 >= -20
 c1713: d_1_8 - load_1_5 + load_1_8 - p_1_8 + 20 x_1_5_8 <= 20
 c1714: d_1_8 - load_1_5 + load_1_8 - p_1_8 - 20 x_1_5_8 >= -20
 c1715: d_1_9 - load_1_5 + load_1_9 - p_1_9 + 20 x_1_5_9 <= 20
 c1716: d_1_9 - load_1_5 + load_1_9 - p_1_9 - 20 x_1_5_9 >= -20
 c1717: d_1_10 + load_1_10 - load_1_5 - p_1_10 + 20 x_1_5_10 <= 20
 c1718: d_1_10 + load_1_10 - load_1_5 - p_1_10 - 20 x_1_5_10 >= -20
 c1719: d_1_1 + load_1_1 - load_1_6 - p_1_1 + 20 x_1_6_1 <= 20
 c1720: d_1_1 + load_1_1 - load_1_6 - p_1_1 - 20 x_1_6_1 >= -20
 c1721: d_1_2 + load_1_2 - load_1_6 - p_1_2 + 20 x_1_6_2 <= 20
 c1722: d_1_2 + load_1_2 - load_1_6 - p_1_2 - 20 x_1_6_2 >= -20
 c1723: d_1_3 + load_1_3 - load_1_6 - p_1_3 + 20 x_1_6_3 <= 20
 c1724: d_1_3 + load_1_3 - load_1_6 - p_1_3 - 20 x_1_6_3 >= -20
 c1725: d_1_4 + load_1_4 - load_1_6 - p_1_4 + 20 x_1_6_4 <= 20
 c1726: d_1_4 + load_1_4 - load_1_6 - p_1_4 - 20 x_1_6_4 >= -20
 c1727: d_1_5 + load_1_5 - load_1_6 - p_1_5 + 20 x_1_6_5 <= 20
 c1728: d_1_5 + load_1_5 - load_1_6 - p_1_5 - 20 x_1_6_5 >= -20
 c1729: d_1_7 - load_1_6 + load_1_7 - p_1_7 + 20 x_1_6_7 <= 20
 c1730: d_1_7 - load_1_6 + load_1_7 - p_1_7 - 20 x_1_6_7 >= -20
 c1731: d_1_8 - load_1_6 + load_1_8 - p_1_8 + 20 x_1_6_8 <= 20
 c1732: d_1_8 - load_1_6 + load_1_8 - p_1_8 - 20 x_1_6_8 >= -20
 c1733: d_1_9 - load_1_6 + load_1_9 - p_1_9 + 20 x_1_6_9 <= 20
 c1734: d_1_9 - load_1_6 + load_1_9 - p_1_9 - 20 x_1_6_9 >= -20
 c1735: d_1_10 + load_1_10 - load_1_6 - p_1_10 + 20 x_1_6_10 <= 20
 c1736: d_1_10 + load_1_10 - load_1_6 - p_1_10 - 20 x_1_6_10 >= -20
 c1737: d_1_1 + load_1_1 - load_1_7 - p_1_1 + 20 x_1_7_1 <= 20
 c1738: d_1_1 + load_1_1 - load_1_7 - p_1_1 - 20 x_1_7_1 >= -20
 c1739: d_1_2 + load_1_2 - load_1_7 - p_1_2 + 20 x_1_7_2 <= 20
 c1740: d_1_2 + load_1_2 - load_1_7 - p_1_2 - 20 x_1_7_2 >= -20
 c1741: d_1_3 + load_1_3 - load_1_7 - p_1_3 + 20 x_1_7_3 <= 20
 c1742: d_1_3 + load_1_3 - load_1_7 - p_1_3 - 20 x_1_7_3 >= -20
 c1743: d_1_4 + load_1_4 - load_1_7 - p_1_4 + 20 x_1_7_4 <= 20
 c1744: d_1_4 + load_1_4 - load_1_7 - p_1_4 - 20 x_1_7_4 >= -20
 c1745: d_1_5 + load_1_5 - load_1_7 - p_1_5 + 20 x_1_7_5 <= 20
 c1746: d_1_5 + load_1_5 - load_1_7 - p_1_5 - 20 x_1_7_5 >= -20
 c1747: d_1_6 + load_1_6 - load_1_7 - p_1_6 + 20 x_1_7_6 <= 20
 c1748: d_1_6 + load_1_6 - load_1_7 - p_1_6 - 20 x_1_7_6 >= -20
 c1749: d_1_8 - load_1_7 + load_1_8 - p_1_8 + 20 x_1_7_8 <= 20
 c1750: d_1_8 - load_1_7 + load_1_8 - p_1_8 - 20 x_1_7_8 >= -20
 c1751: d_1_9 - load_1_7 + load_1_9 - p_1_9 + 20 x_1_7_9 <= 20
 c1752: d_1_9 - load_1_7 + load_1_9 - p_1_9 - 20 x_1_7_9 >= -20
 c1753: d_1_10 + load_1_10 - load_1_7 - p_1_10 + 20 x_1_7_10 <= 20
 c1754: d_1_10 + load_1_10 - load_1_7 - p_1_10 - 20 x_1_7_10 >= -20
 c1755: d_1_1 + load_1_1 - load_1_8 - p_1_1 + 20 x_1_8_1 <= 20
 c1756: d_1_1 + load_1_1 - load_1_8 - p_1_1 - 20 x_1_8_1 >= -20
 c1757: d_1_2 + load_1_2 - load_1_8 - p_1_2 + 20 x_1_8_2 <= 20
 c1758: d_1_2 + load_1_2 - load_1_8 - p_1_2 - 20 x_1_8_2 >= -20
 c1759: d_1_3 + load_1_3 - load_1_8 - p_1_3 + 20 x_1_8_3 <= 20
 c1760: d_1_3 + load_1_3 - load_1_8 - p_1_3 - 20 x_1_8_3 >= -20
 c1761: d_1_4 + load_1_4 - load_1_8 - p_1_4 + 20 x_1_8_4 <= 20
 c1762: d_1_4 + load_1_4 - load_1_8 - p_1_4 - 20 x_1_8_4 >= -20
 c1763: d_1_5 + load_1_5 - load_1_8 - p_1_5 + 20 x_1_8_5 <= 20
 c1764: d_1_5 + load_1_5 - load_1_8 - p_1_5 - 20 x_1_8_5 >= -20
 c1765: d_1_6 + load_1_6 - load_1_8 - p_1_6 + 20 x_1_8_6 <= 20
 c1766: d_1_6 + load_1_6 - load_1_8 - p_1_6 - 20 x_1_8_6 >= -20
 c1767: d_1_7 + load_1_7 - load_1_8 - p_1_7 + 20 x_1_8_7 <= 20
 c1768: d_1_7 + load_1_7 - load_1_8 - p_1_7 - 20 x_1_8_7 >= -20
 c1769: d_1_9 - load_1_8 + load_1_9 - p_1_9 + 20 x_1_8_9 <= 20
 c1770: d_1_9 - load_1_8 + load_1_9 - p_1_9 - 20 x_1_8_9 >= -20
 c1771: d_1_10 + load_1_10 - load_1_8 - p_1_10 + 20 x_1_8_10 <= 20
 c1772: d_1_10 + load_1_10 - load_1_8 - p_1_10 - 20 x_1_8_10 >= -20
 c1773: d_1_1 + load_1_1 - load_1_9 - p_1_1 + 20 x_1_9_1 <= 20
 c1774: d_1_1 + load_1_1 - load_1_9 - p_1_1 - 20 x_1_9_1 >= -20
 c1775: d_1_2 + load_1_2 - load_1_9 - p_1_2 + 20 x_1_9_2 <= 20
 c1776: d_1_2 + load_1_2 - load_1_9 - p_1_2 - 20 x_1_9_2 >= -20
 c1777: d_1_3 + load_1_3 - load_1_9 - p_1_3 + 20 x_1_9_3 <= 20
 c1778: d_1_3 + load_1_3 - load_1_9 - p_1_3 - 20 x_1_9_3 >= -20
 c1779: d_1_4 + load_1_4 - load_1_9 - p_1_4 + 20 x_1_9_4 <= 20
 c1780: d_1_4 + load_1_4 - load_1_9 - p_1_4 - 20 x_1_9_4 >= -20
 c1781: d_1_5 + load_1_5 - load_1_9 - p_1_5 + 20 x_1_9_5 <= 20
 c1782: d_1_5 + load_1_5 - load_1_9 - p_1_5 - 20 x_1_9_5 >= -20
 c1783: d_1_6 + load_1_6 - load_1_9 - p_1_6 + 20 x_1_9_6 <= 20
 c1784: d_1_6 + load_1_6 - load_1_9 - p_1_6 - 20 x_1_9_6 >= -20
 c1785: d_1_7 + load_1_7 - load_1_9 - p_1_7 + 20 x_1_9_7 <= 20
 c1786: d_1_7 + load_1_7 - load_1_9 - p_1_7 - 20 x_1_9_7 >= -20
 c1787: d_1_8 + load_1_8 - load_1_9 - p_1_8 + 20 x_1_9_8 <= 20
 c1788: d_1_8 + load_1_8 - load_1_9 - p_1_8 - 20 x_1_9_8 >= -20
 c1789: d_1_10 + load_1_10 - load_1_9 - p_1_10 + 20 x_1_9_10 <= 20
 c1790: d_1_10 + load_1_10 - load_1_9 - p_1_10 - 20 x_1_9_10 >= -20
 c1791: d_1_1 + load_1_1 - load_1_10 - p_1_1 + 20 x_1_10_1 <= 20
 c1792: d_1_1 + load_1_1 - load_1_10 - p_1_1 - 20 x_1_10_1 >= -20
 c1793: d_1_2 - load_1_10 + load_1_2 - p_1_2 + 20 x_1_10_2 <= 20
 c1794: d_1_2 - load_1_10 + load_1_2 - p_1_2 - 20 x_1_10_2 >= -20
 c1795: d_1_3 - load_1_10 + load_1_3 - p_1_3 + 20 x_1_10_3 <= 20
 c1796: d_1_3 - load_1_10 + load_1_3 - p_1_3 - 20 x_1_10_3 >= -20
 c1797: d_1_4 - load_1_10 + load_1_4 - p_1_4 + 20 x_1_10_4 <= 20
 c1798: d_1_4 - load_1_10 + load_1_4 - p_1_4 - 20 x_1_10_4 >= -20
 c1799: d_1_5 - load_1_10 + load_1_5 - p_1_5 + 20 x_1_10_5 <= 20
 c1800: d_1_5 - load_1_10 + load_1_5 - p_1_5 - 20 x_1_10_5 >= -20
 c1801: d_1_6 - load_1_10 + load_1_6 - p_1_6 + 20 x_1_10_6 <= 20
 c1802: d_1_6 - load_1_10 + load_1_6 - p_1_6 - 20 x_1_10_6 >= -20
 c1803: d_1_7 - load_1_10 + load_1_7 - p_1_7 + 20 x_1_10_7 <= 20
 c1804: d_1_7 - load_1_10 + load_1_7 - p_1_7 - 20 x_1_10_7 >= -20
 c1805: d_1_8 - load_1_10 + load_1_8 - p_1_8 + 20 x_1_10_8 <= 20
 c1806: d_1_8 - load_1_10 + load_1_8 - p_1_8 - 20 x_1_10_8 >= -20
 c1807: d_1_9 - load_1_10 + load_1_9 - p_1_9 + 20 x_1_10_9 <= 20
 c1808: d_1_9 - load_1_10 + load_1_9 - p_1_9 - 20 x_1_10_9 >= -20
 c1809: - d_1_1 - d_1_10 - d_1_2 - d_1_3 - d_1_4 - d_1_5 - d_1_6 - d_1_7 - d_1_8 - d_1_9 + p_1_1 + p_1_10 + p_1_2 + p_1_3 + p_1_4 + p_1_5 + p_1_6 + p_1_7 + p_1_8 + p_1_9 >= 0
 c1810: 120 p_1_1 + 120 p_1_10 + 120 p_1_2 + 120 p_1_3 + 120 p_1_4 + 120 p_1_5 + 120 p_1_6 + 120 p_1_7 + 120 p_1_8 + 120 p_1_9 + 594.78980264912536 x_1_0_1 + 760.78396100170221 x_1_0_10 + 479.6408272498208 x_1_0_2 + 624.178181313236 x_1_0_3 + 722.40922339709311 x_1_0_4 + 479.22425168274873 x_1_0_5 + 804.44686549191783 x_1_0_6 + 508.52700675732382 x_1_0_7 + 591.40704496380033 x_1_0_8 + 659.68236630111346 x_1_0_9 + 760.78396100170221 x_1_10_0 + 178.44578105651053 x_1_10_1 + 1058.227706119357 x_1_10_2 + 1269.4270330513189 x_1_10_3 + 91.175860910802967 x_1_10_4 + 1020.7606868997331 x_1_10_5 + 1434.2661597423148 x_1_10_6 + 288.5766617382223 x_1_10_7 + 1084.4609559786738 x_1_10_8 + 1261.2118242026656 x_1_10_9 + 594.78980264912536 x_1_1_0 + 178.44578105651053 x_1_1_10 + 935.95529576090405 x_1_1_2 + 1091.1487082975814 x_1_1_3 + 127.95972110211204 x_1_1_4 + 904.23260956030947 x_1_1_5 + 1256.7249842952558 x_1_1_6 + 196.8819014051131 x_1_1_7 + 980.76061583450519 x_1_1_8 + 1084.0751598427134 x_1_1_9 + 479.6408272498208 x_1_2_0 + 935.95529576090405 x_1_2_1 + 1058.227706119357 x_1_2_10 + 919.5150095424475 x_1_2_3 + 1056.0474215676963 x_1_2_4 + 54.744773083810145 x_1_2_5 + 1079.9774569508975 x_1_2_6 + 769.70785475713546 x_1_2_7 + 141.0037607833172 x_1_2_8 + 989.38169081383421 x_1_2_9 + 624.178181313236 x_1_3_0 + 1091.1487082975814 x_1_3_1 + 1269.4270330513189 x_1_3_10 + 919.5150095424475 x_1_3_2 + 1201.8186916312261 x_1_3_4 + 952.15619711008776 x_1_3_5 + 180.27874267385269 x_1_3_6 + 1082.4578535451747 x_1_3_7 + 1060.2925555899965 x_1_3_8 + 91.654713969815589 x_1_3_9 + 722.40922339709311 x_1_4_0 + 127.95972110211204 x_1_4_1 + 91.175860910802967 x_1_4_10 + 1056.0474215676963 x_1_4_2 + 1201.8186916312261 x_1_4_3 + 1022.2233581736285 x_1_4_5 + 1363.2047171011429 x_1_4_6 + 295.25844553035029 x_1_4_7 + 1093.9378452725889 x_1_4_8 + 1189.2626183779273 x_1_4_9 + 479.22425168274873 x_1_5_0 + 904.23260956030947 x_1_5_1 + 1020.7606868997331 x_1_5_10 + 54.744773083810145 x_1_5_2 + 952.15619711008776 x_1_5_3 + 1022.2233581736285 x_1_5_4 + 1115.9335309432365 x_1_5_6 + 732.79942873627078 x_1_5_7 + 114.97843709328448 x_1_5_8 + 1019.1973362505672 x_1_5_9 + 804.44686549191783 x_1_6_0 + 1256.7249842952558 x_1_6_1 + 1434.2661597423148 x_1_6_10 + 1079.9774569508975 x_1_6_2 + 180.27874267385269 x_1_6_3 + 1363.2047171011429 x_1_6_4 + 1115.9335309432365 x_1_6_5 + 1257.652313289341 x_1_6_7 + 1220.9520081066898 x_1_6_8 + 174.74983503573969 x_1_6_9 + 508.52700675732382 x_1_7_0 + 196.8819014051131 x_1_7_1 + 288.5766617382223 x_1_7_10 + 769.70785475713546 x_1_7_2 + 1082.4578535451747 x_1_7_3 + 295.25844553035029 x_1_7_4 + 732.79942873627078 x_1_7_5 + 1257.652313289341 x_1_7_6 + 800.07605027413229 x_1_7_8 + 1091.9773311899933 x_1_7_9 + 591.40704496380033 x_1_8_0 + 980.76061583450519 x_1_8_1 + 1084.4609559786738 x_1_8_10 + 141.0037607833172 x_1_8_2 + 1060.2925555899965 x_1_8_3 + 1093.9378452725889 x_1_8_4 + 114.97843709328448 x_1_8_5 + 1220.9520081066898 x_1_8_6 + 800.07605027413229 x_1_8_7 + 1129.4519837916439 x_1_8_9 + 659.68236630111346 x_1_9_0 + 1084.0751598427134 x_1_9_1 + 1261.2118242026656 x_1_9_10 + 989.38169081383421 x_1_9_2 + 91.654713969815589 x_1_9_3 + 1189.2626183779273 x_1_9_4 + 1019.1973362505672 x_1_9_5 + 174.74983503573969 x_1_9_6 + 1091.9773311899933 x_1_9_7 + 1129.4519837916439 x_1_9_8 <= 2400
 c1811: p_2_1 - 20 z_2_1 <= 0
 c1812: d_2_1 - z_2_1 <= 0
 c1813: mode_2_1 - z_2_1 <= 0
 c1814: - 20 mode_2_1 + p_2_1 <= 0
 c1815: d_2_1 + mode_2_1 - z_2_1 <= 0
 c1816: d_2_1 + p_2_1 - z_2_1 >= 0
 c1817: load_2_1 - 20 z_2_1 <= 0
 c1818: p_2_2 - 11 z_2_2 <= 0
 c1819: d_2_2 - 15 z_2_2 <= 0
 c1820: mode_2_2 - z_2_2 <= 0
 c1821: - 11 mode_2_2 + p_2_2 <= 0
 c1822: d_2_2 + 15 mode_2_2 - 15 z_2_2 <= 0
 c1823: d_2_2 + p_2_2 - z_2_2 >= 0
 c1824: load_2_2 - 20 z_2_2 <= 0
 c1825: p_2_3 - 14 z_2_3 <= 0
 c1826: d_2_3 - 20 z_2_3 <= 0
 c1827: mode_2_3 - z_2_3 <= 0
 c1828: - 14 mode_2_3 + p_2_3 <= 0
 c1829: d_2_3 + 20 mode_2_3 - 20 z_2_3 <= 0
 c1830: d_2_3 + p_2_3 - z_2_3 >= 0
 c1831: load_2_3 - 20 z_2_3 <= 0
 c1832: p_2_4 <= 0
 c1833: d_2_4 - 20 z_2_4 <= 0
 c1834: mode_2_4 - z_2_4 <= 0
 c1835: p_2_4 <= 0
 c1836: d_2_4 + 20 mode_2_4 - 20 z_2_4 <= 0
 c1837: d_2_4 + p_2_4 - z_2_4 >= 0
 c1838: load_2_4 - 20 z_2_4 <= 0
 c1839: p_2_5 - 6 z_2_5 <= 0
 c1840: d_2_5 - 20 z_2_5 <= 0
 c1841: mode_2_5 - z_2_5 <= 0
 c1842: - 6 mode_2_5 + p_2_5 <= 0
 c1843: d_2_5 + 20 mode_2_5 - 20 z_2_5 <= 0
 c1844: d_2_5 + p_2_5 - z_2_5 >= 0
 c1845: load_2_5 - 20 z_2_5 <= 0
 c1846: p_2_6 - 20 z_2_6 <= 0
 c1847: d_2_6 - 2 z_2_6 <= 0
 c1848: mode_2_6 - z_2_6 <= 0
 c1849: - 20 mode_2_6 + p_2_6 <= 0
 c1850: d_2_6 + 2 mode_2_6 - 2 z_2_6 <= 0
 c1851: d_2_6 + p_2_6 - z_2_6 >= 0
 c1852: load_2_6 - 20 z_2_6 <= 0
 c1853: p_2_7 - 19 z_2_7 <= 0
 c1854: d_2_7 - z_2_7 <= 0
 c1855: mode_2_7 - z_2_7 <= 0
 c1856: - 19 mode_2_7 + p_2_7 <= 0
 c1857: d_2_7 + mode_2_7 - z_2_7 <= 0
 c1858: d_2_7 + p_2_7 - z_2_7 >= 0
 c1859: load_2_7 - 20 z_2_7 <= 0
 c1860: p_2_8 - 20 z_2_8 <= 0
 c1861: d_2_8 - 11 z_2_8 <= 0
 c1862: mode_2_8 - z_2_8 <= 0
 c1863: - 20 mode_2_8 + p_2_8 <= 0
 c1864: d_2_8 + 11 mode_2_8 - 11 z_2_8 <= 0
 c1865: d_2_8 + p_2_8 - z_2_8 >= 0
 c1866: load_2_8 - 20 z_2_8 <= 0
 c1867: p_2_9 - 6 z_2_9 <= 0
 c1868: d_2_9 - 20 z_2_9 <= 0
 c1869: mode_2_9 - z_2_9 <= 0
 c1870: - 6 mode_2_9 + p_2_9 <= 0
 c1871: d_2_9 + 20 mode_2_9 - 20 z_2_9 <= 0
 c1872: d_2_9 + p_2_9 - z_2_9 >= 0
 c1873: load_2_9 - 20 z_2_9 <= 0
 c1874: p_2_10 - 5 z_2_10 <= 0
 c1875: d_2_10 - 20 z_2_10 <= 0
 c1876: mode_2_10 - z_2_10 <= 0
 c1877: - 5 mode_2_10 + p_2_10 <= 0
 c1878: d_2_10 + 20 mode_2_10 - 20 z_2_10 <= 0
 c1879: d_2_10 + p_2_10 - z_2_10 >= 0
 c1880: load_2_10 - 20 z_2_10 <= 0
 c1881: d_2_1 + load_2_1 - p_2_1 + 20 x_2_0_1 <= 20
 c1882: d_2_1 + load_2_1 - p_2_1 - 20 x_2_0_1 >= -20
 c1883: d_2_2 + load_2_2 - p_2_2 + 20 x_2_0_2 <= 20
 c1884: d_2_2 + load_2_2 - p_2_2 - 20 x_2_0_2 >= -20
 c1885: d_2_3 + load_2_3 - p_2_3 + 20 x_2_0_3 <= 20
 c1886: d_2_3 + load_2_3 - p_2_3 - 20 x_2_0_3 >= -20
 c1887: d_2_4 + load_2_4 - p_2_4 + 20 x_2_0_4 <= 20
 c1888: d_2_4 + load_2_4 - p_2_4 - 20 x_2_0_4 >= -20
 c1889: d_2_5 + load_2_5 - p_2_5 + 20 x_2_0_5 <= 20
 c1890: d_2_5 + load_2_5 - p_2_5 - 20 x_2_0_5 >= -20
 c1891: d_2_6 + load_2_6 - p_2_6 + 20 x_2_0_6 <= 20
 c1892: d_2_6 + load_2_6 - p_2_6 - 20 x_2_0_6 >= -20
 c1893: d_2_7 + load_2_7 - p_2_7 + 20 x_2_0_7 <= 20
 c1894: d_2_7 + load_2_7 - p_2_7 - 20 x_2_0_7 >= -20
 c1895: d_2_8 + load_2_8 - p_2_8 + 20 x_2_0_8 <= 20
 c1896: d_2_8 + load_2_8 - p_2_8 - 20 x_2_0_8 >= -20
 c1897: d_2_9 + load_2_9 - p_2_9 + 20 x_2_0_9 <= 20
 c1898: d_2_9 + load_2_9 - p_2_9 - 20 x_2_0_9 >= -20
 c1899: d_2_10 + load_2_10 - p_2_10 + 20 x_2_0_10 <= 20
 c1900: d_2_10 + load_2_10 - p_2_10 - 20 x_2_0_10 >= -20
 c1901: d_2_2 - load_2_1 + load_2_2 - p_2_2 + 20 x_2_1_2 <= 20
 c1902: d_2_2 - load_2_1 + load_2_2 - p_2_2 - 20 x_2_1_2 >= -20
 c1903: d_2_3 - load_2_1 + load_2_3 - p_2_3 + 20 x_2_1_3 <= 20
 c1904: d_2_3 - load_2_1 + load_2_3 - p_2_3 - 20 x_2_1_3 >= -20
 c1905: d_2_4 - load_2_1 + load_2_4 - p_2_4 + 20 x_2_1_4 <= 20
 c1906: d_2_4 - load_2_1 + load_2_4 - p_2_4 - 20 x_2_1_4 >= -20
 c1907: d_2_5 - load_2_1 + load_2_5 - p_2_5 + 20 x_2_1_5 <= 20
 c1908: d_2_5 - load_2_1 + load_2_5 - p_2_5 - 20 x_2_1_5 >= -20
 c1909: d_2_6 - load_2_1 + load_2_6 - p_2_6 + 20 x_2_1_6 <= 20
 c1910: d_2_6 - load_2_1 + load_2_6 - p_2_6 - 20 x_2_1_6 >= -20
 c1911: d_2_7 - load_2_1 + load_2_7 - p_2_7 + 20 x_2_1_7 <= 20
 c1912: d_2_7 - load_2_1 + load_2_7 - p_2_7 - 20 x_2_1_7 >= -20
 c1913: d_2_8 - load_2_1 + load_2_8 - p_2_8 + 20 x_2_1_8 <= 20
 c1914: d_2_8 - load_2_1 + load_2_8 - p_2_8 - 20 x_2_1_8 >= -20
 c1915: d_2_9 - load_2_1 + load_2_9 - p_2_9 + 20 x_2_1_9 <= 20
 c1916: d_2_9 - load_2_1 + load_2_9 - p_2_9 - 20 x_2_1_9 >= -20
 c1917: d_2_10 - load_2_1 + load_2_10 - p_2_10 + 20 x_2_1_10 <= 20
 c1918: d_2_10 - load_2_1 + load_2_10 - p_2_10 - 20 x_2_1_10 >= -20
 c1919: d_2_1 + load_2_1 - load_2_2 - p_2_1 + 20 x_2_2_1 <= 20
 c1920: d_2_1 + load_2_1 - load_2_2 - p_2_1 - 20 x_2_2_1 >= -20
 c1921: d_2_3 - load_2_2 + load_2_3 - p_2_3 + 20 x_2_2_3 <= 20
 c1922: d_2_3 - load_2_2 + load_2_3 - p_2_3 - 20 x_2_2_3 >= -20
 c1923: d_2_4 - load_2_2 + load_2_4 - p_2_4 + 20 x_2_2_4 <= 20
 c1924: d_2_4 - load_2_2 + load_2_4 - p_2_4 - 20 x_2_2_4 >= -20
 c1925: d_2_5 - load_2_2 + load_2_5 - p_2_5 + 20 x_2_2_5 <= 20
 c1926: d_2_5 - load_2_2 + load_2_5 - p_2_5 - 20 x_2_2_5 >= -20
 c1927: d_2_6 - load_2_2 + load_2_6 - p_2_6 + 20 x_2_2_6 <= 20
 c1928: d_2_6 - load_2_2 + load_2_6 - p_2_6 - 20 x_2_2_6 >= -20
 c1929: d_2_7 - load_2_2 + load_2_7 - p_2_7 + 20 x_2_2_7 <= 20
 c1930: d_2_7 - load_2_2 + load_2_7 - p_2_7 - 20 x_2_2_7 >= -20
 c1931: d_2_8 - load_2_2 + load_2_8 - p_2_8 + 20 x_2_2_8 <= 20
 c1932: d_2_8 - load_2_2 + load_2_8 - p_2_8 - 20 x_2_2_8 >= -20
 c1933: d_2_9 - load_2_2 + load_2_9 - p_2_9 + 20 x_2_2_9 <= 20
 c1934: d_2_9 - load_2_2 + load_2_9 - p_2_9 - 20 x_2_2_9 >= -20
 c1935: d_2_10 + load_2_10 - load_2_2 - p_2_10 + 20 x_2_2_10 <= 20
 c1936: d_2_10 + load_2_10 - load_2_2 - p_2_10 - 20 x_2_2_10 >= -20
 c1937: d_2_1 + load_2_1 - load_2_3 - p_2_1 + 20 x_2_3_1 <= 20
 c1938: d_2_1 + load_2_1 - load_2_3 - p_2_1 - 20 x_2_3_1 >= -20
 c1939: d_2_2 + load_2_2 - load_2_3 - p_2_2 + 20 x_2_3_2 <= 20
 c1940: d_2_2 + load_2_2 - load_2_3 - p_2_2 - 20 x_2_3_2 >= -20
 c1941: d_2_4 - load_2_3 + load_2_4 - p_2_4 + 20 x_2_3_4 <= 20
 c1942: d_2_4 - load_2_3 + load_2_4 - p_2_4 - 20 x_2_3_4 >= -20
 c1943: d_2_5 - load_2_3 + load_2_5 - p_2_5 + 20 x_2_3_5 <= 20
 c1944: d_2_5 - load_2_3 + load_2_5 - p_2_5 - 20 x_2_3_5 >= -20
 c1945: d_2_6 - load_2_3 + load_2_6 - p_2_6 + 20 x_2_3_6 <= 20
 c1946: d_2_6 - load_2_3 + load_2_6 - p_2_6 - 20 x_2_3_6 >= -20
 c1947: d_2_7 - load_2_3 + load_2_7 - p_2_7 + 20 x_2_3_7 <= 20
 c1948: d_2_7 - load_2_3 + load_2_7 - p_2_7 - 20 x_2_3_7 >= -20
 c1949: d_2_8 - load_2_3 + load_2_8 - p_2_8 + 20 x_2_3_8 <= 20
 c1950: d_2_8 - load_2_3 + load_2_8 - p_2_8 - 20 x_2_3_8 >= -20
 c1951: d_2_9 - load_2_3 + load_2_9 - p_2_9 + 20 x_2_3_9 <= 20
 c1952: d_2_9 - load_2_3 + load_2_9 - p_2_9 - 20 x_2_3_9 >= -20
 c1953: d_2_10 + load_2_10 - load_2_3 - p_2_10 + 20 x_2_3_10 <= 20
 c1954: d_2_10 + load_2_10 - load_2_3 - p_2_10 - 20 x_2_3_10 >= -20
 c1955: d_2_1 + load_2_1 - load_2_4 - p_2_1 + 20 x_2_4_1 <= 20
 c1956: d_2_1 + load_2_1 - load_2_4 - p_2_1 - 20 x_2_4_1 >= -20
 c1957: d_2_2 + load_2_2 - load_2_4 - p_2_2 + 20 x_2_4_2 <= 20
 c1958: d_2_2 + load_2_2 - load_2_4 - p_2_2 - 20 x_2_4_2 >= -20
 c1959: d_2_3 + load_2_3 - load_2_4 - p_2_3 + 20 x_2_4_3 <= 20
 c1960: d_2_3 + load_2_3 - load_2_4 - p_2_3 - 20 x_2_4_3 >= -20
 c1961: d_2_5 - load_2_4 + load_2_5 - p_2_5 + 20 x_2_4_5 <= 20
 c1962: d_2_5 - load_2_4 + load_2_5 - p_2_5 - 20 x_2_4_5 >= -20
 c1963: d_2_6 - load_2_4 + load_2_6 - p_2_6 + 20 x_2_4_6 <= 20
 c1964: d_2_6 - load_2_4 + load_2_6 - p_2_6 - 20 x_2_4_6 >= -20
 c1965: d_2_7 - load_2_4 + load_2_7 - p_2_7 + 20 x_2_4_7 <= 20
 c1966: d_2_7 - load_2_4 + load_2_7 - p_2_7 - 20 x_2_4_7 >= -20
 c1967: d_2_8 - load_2_4 + load_2_8 - p_2_8 + 20 x_2_4_8 <= 20
 c1968: d_2_8 - load_2_4 + load_2_8 - p_2_8 - 20 x_2_4_8 >= -20
 c1969: d_2_9 - load_2_4 + load_2_9 - p_2_9 + 20 x_2_4_9 <= 20
 c1970: d_2_9 - load_2_4 + load_2_9 - p_2_9 - 20 x_2_4_9 >= -20
 c1971: d_2_10 + load_2_10 - load_2_4 - p_2_10 + 20 x_2_4_10 <= 20
 c1972: d_2_10 + load_2_10 - load_2_4 - p_2_10 - 20 x_2_4_10 >= -20
 c1973: d_2_1 + load_2_1 - load_2_5 - p_2_1 + 20 x_2_5_1 <= 20
 c1974: d_2_1 + load_2_1 - load_2_5 - p_2_1 - 20 x_2_5_1 >= -20
 c1975: d_2_2 + load_2_2 - load_2_5 - p_2_2 + 20 x_2_5_2 <= 20
 c1976: d_2_2 + load_2_2 - load_2_5 - p_2_2 - 20 x_2_5_2 >= -20
 c1977: d_2_3 + load_2_3 - load_2_5 - p_2_3 + 20 x_2_5_3 <= 20
 c1978: d_2_3 + load_2_3 - load_2_5 - p_2_3 - 20 x_2_5_3 >= -20
 c1979: d_2_4 + load_2_4 - load_2_5 - p_2_4 + 20 x_2_5_4 <= 20
 c1980: d_2_4 + load_2_4 - load_2_5 - p_2_4 - 20 x_2_5_4 >= -20
 c1981: d_2_6 - load_2_5 + load_2_6 - p_2_6 + 20 x_2_5_6 <= 20
 c1982: d_2_6 - load_2_5 + load_2_6 - p_2_6 - 20 x_2_5_6 >= -20
 c1983: d_2_7 - load_2_5 + load_2_7 - p_2_7 + 20 x_2_5_7 <= 20
 c1984: d_2_7 - load_2_5 + load_2_7 - p_2_7 - 20 x_2_5_7 >= -20
 c1985: d_2_8 - load_2_5 + load_2_8 - p_2_8 + 20 x_2_5_8 <= 20
 c1986: d_2_8 - load_2_5 + load_2_8 - p_2_8 - 20 x_2_5_8 >= -20
 c1987: d_2_9 - load_2_5 + load_2_9 - p_2_9 + 20 x_2_5_9 <= 20
 c1988: d_2_9 - load_2_5 + load_2_9 - p_2_9 - 20 x_2_5_9 >= -20
 c1989: d_2_10 + load_2_10 - load_2_5 - p_2_10 + 20 x_2_5_10 <= 20
 c1990: d_2_10 + load_2_10 - load_2_5 - p_2_10 - 20 x_2_5_10 >= -20
 c1991: d_2_1 + load_2_1 - load_2_6 - p_2_1 + 20 x_2_6_1 <= 20
 c1992: d_2_1 + load_2_1 - load_2_6 - p_2_1 - 20 x_2_6_1 >= -20
 c1993: d_2_2 + load_2_2 - load_2_6 - p_2_2 + 20 x_2_6_2 <= 20
 c1994: d_2_2 + load_2_2 - load_2_6 - p_2_2 - 20 x_2_6_2 >= -20
 c1995: d_2_3 + load_2_3 - load_2_6 - p_2_3 + 20 x_2_6_3 <= 20
 c1996: d_2_3 + load_2_3 - load_2_6 - p_2_3 - 20 x_2_6_3 >= -20
 c1997: d_2_4 + load_2_4 - load_2_6 - p_2_4 + 20 x_2_6_4 <= 20
 c1998: d_2_4 + load_2_4 - load_2_6 - p_2_4 - 20 x_2_6_4 >= -20
 c1999: d_2_5 + load_2_5 - load_2_6 - p_2_5 + 20 x_2_6_5 <= 20
 c2000: d_2_5 + load_2_5 - load_2_6 - p_2_5 - 20 x_2_6_5 >= -20
 c2001: d_2_7 - load_2_6 + load_2_7 - p_2_7 + 20 x_2_6_7 <= 20
 c2002: d_2_7 - load_2_6 + load_2_7 - p_2_7 - 20 x_2_6_7 >= -20
 c2003: d_2_8 - load_2_6 + load_2_8 - p_2_8 + 20 x_2_6_8 <= 20
 c2004: d_2_8 - load_2_6 + load_2_8 - p_2_8 - 20 x_2_6_8 >= -20
 c2005: d_2_9 - load_2_6 + load_2_9 - p_2_9 + 20 x_2_6_9 <= 20
 c2006: d_2_9 - load_2_6 + load_2_9 - p_2_9 - 20 x_2_6_9 >= -20
 c2007: d_2_10 + load_2_10 - load_2_6 - p_2_10 + 20 x_2_6_10 <= 20
 c2008: d_2_10 + load_2_10 - load_2_6 - p_2_10 - 20 x_2_6_10 >= -20
 c2009: d_2_1 + load_2_1 - load_2_7 - p_2_1 + 20 x_2_7_1 <= 20
 c2010: d_2_1 + load_2_1 - load_2_7 - p_2_1 - 20 x_2_7_1 >= -20
 c2011: d_2_2 + load_2_2 - load_2_7 - p_2_2 + 20 x_2_7_2 <= 20
 c2012: d_2_2 + load_2_2 - load_2_7 - p_2_2 - 20 x_2_7_2 >= -20
 c2013: d_2_3 + load_2_3 - load_2_7 - p_2_3 + 20 x_2_7_3 <= 20
 c2014: d_2_3 + load_2_3 - load_2_7 - p_2_3 - 20 x_2_7_3 >= -20
 c2015: d_2_4 + load_2_4 - load_2_7 - p_2_4 + 20 x_2_7_4 <= 20
 c2016: d_2_4 + load_2_4 - load_2_7 - p_2_4 - 20 x_2_7_4 >= -20
 c2017: d_2_5 + load_2_5 - load_2_7 - p_2_5 + 20 x_2_7_5 <= 20
 c2018: d_2_5 + load_2_5 - load_2_7 - p_2_5 - 20 x_2_7_5 >= -20
 c2019: d_2_6 + load_2_6 - load_2_7 - p_2_6 + 20 x_2_7_6 <= 20
 c2020: d_2_6 + load_2_6 - load_2_7 - p_2_6 - 20 x_2_7_6 >= -20
 c2021: d_2_8 - load_2_7 + load_2_8 - p_2_8 + 20 x_2_7_8 <= 20
 c2022: d_2_8 - load_2_7 + load_2_8 - p_2_8 - 20 x_2_7_8 >= -20
 c2023: d_2_9 - load_2_7 + load_2_9 - p_2_9 + 20 x_2_7_9 <= 20
 c2024: d_2_9 - load_2_7 + load_2_9 - p_2_9 - 20 x_2_7_9 >= -20
 c2025: d_2_10 + load_2_10 - load_2_7 - p_2_10 + 20 x_2_7_10 <= 20
 c2026: d_2_10 + load_2_10 - load_2_7 - p_2_10 - 20 x_2_7_10 >= -20
 c2027: d_2_1 + load_2_1 - load_2_8 - p_2_1 + 20 x_2_8_1 <= 20
 c2028: d_2_1 + load_2_1 - load_2_8 - p_2_1 - 20 x_2_8_1 >= -20
 c2029: d_2_2 + load_2_2 - load_2_8 - p_2_2 + 20 x_2_8_2 <= 20
 c2030: d_2_2 + load_2_2 - load_2_8 - p_2_2 - 20 x_2_8_2 >= -20
 c2031: d_2_3 + load_2_3 - load_2_8 - p_2_3 + 20 x_2_8_3 <= 20
 c2032: d_2_3 + load_2_3 - load_2_8 - p_2_3 - 20 x_2_8_3 >= -20
 c2033: d_2_4 + load_2_4 - load_2_8 - p_2_4 + 20 x_2_8_4 <= 20
 c2034: d_2_4 + load_2_4 - load_2_8 - p_2_4 - 20 x_2_8_4 >= -20
 c2035: d_2_5 + load_2_5 - load_2_8 - p_2_5 + 20 x_2_8_5 <= 20
 c2036: d_2_5 + load_2_5 - load_2_8 - p_2_5 - 20 x_2_8_5 >= -20
 c2037: d_2_6 + load_2_6 - load_2_8 - p_2_6 + 20 x_2_8_6 <= 20
 c2038: d_2_6 + load_2_6 - load_2_8 - p_2_6 - 20 x_2_8_6 >= -20
 c2039: d_2_7 + load_2_7 - load_2_8 - p_2_7 + 20 x_2_8_7 <= 20
 c2040: d_2_7 + load_2_7 - load_2_8 - p_2_7 - 20 x_2_8_7 >= -20
 c2041: d_2_9 - load_2_8 + load_2_9 - p_2_9 + 20 x_2_8_9 <= 20
 c2042: d_2_9 - load_2_8 + load_2_9 - p_2_9 - 20 x_2_8_9 >= -20
 c2043: d_2_10 + load_2_10 - load_2_8 - p_2_10 + 20 x_2_8_10 <= 20
 c2044: d_2_10 + load_2_10 - load_2_8 - p_2_10 - 20 x_2_8_10 >= -20
 c2045: d_2_1 + load_2_1 - load_2_9 - p_2_1 + 20 x_2_9_1 <= 20
 c2046: d_2_1 + load_2_1 - load_2_9 - p_2_1 - 20 x_2_9_1 >= -20
 c2047: d_2_2 + load_2_2 - load_2_9 - p_2_2 + 20 x_2_9_2 <= 20
 c2048: d_2_2 + load_2_2 - load_2_9 - p_2_2 - 20 x_2_9_2 >= -20
 c2049: d_2_3 + load_2_3 - load_2_9 - p_2_3 + 20 x_2_9_3 <= 20
 c2050: d_2_3 + load_2_3 - load_2_9 - p_2_3 - 20 x_2_9_3 >= -20
 c2051: d_2_4 + load_2_4 - load_2_9 - p_2_4 + 20 x_2_9_4 <= 20
 c2052: d_2_4 + load_2_4 - load_2_9 - p_2_4 - 20 x_2_9_4 >= -20
 c2053: d_2_5 + load_2_5 - load_2_9 - p_2_5 + 20 x_2_9_5 <= 20
 c2054: d_2_5 + load_2_5 - load_2_9 - p_2_5 - 20 x_2_9_5 >= -20
 c2055: d_2_6 + load_2_6 - load_2_9 - p_2_6 + 20 x_2_9_6 <= 20
 c2056: d_2_6 + load_2_6 - load_2_9 - p_2_6 - 20 x_2_9_6 >= -20
 c2057: d_2_7 + load_2_7 - load_2_9 - p_2_7 + 20 x_2_9_7 <= 20
 c2058: d_2_7 + load_2_7 - load_2_9 - p_2_7 - 20 x_2_9_7 >= -20
 c2059: d_2_8 + load_2_8 - load_2_9 - p_2_8 + 20 x_2_9_8 <= 20
 c2060: d_2_8 + load_2_8 - load_2_9 - p_2_8 - 20 x_2_9_8 >= -20
 c2061: d_2_10 + load_2_10 - load_2_9 - p_2_10 + 20 x_2_9_10 <= 20
 c2062: d_2_10 + load_2_10 - load_2_9 - p_2_10 - 20 x_2_9_10 >= -20
 c2063: d_2_1 + load_2_1 - load_2_10 - p_2_1 + 20 x_2_10_1 <= 20
 c2064: d_2_1 + load_2_1 - load_2_10 - p_2_1 - 20 x_2_10_1 >= -20
 c2065: d_2_2 - load_2_10 + load_2_2 - p_2_2 + 20 x_2_10_2 <= 20
 c2066: d_2_2 - load_2_10 + load_2_2 - p_2_2 - 20 x_2_10_2 >= -20
 c2067: d_2_3 - load_2_10 + load_2_3 - p_2_3 + 20 x_2_10_3 <= 20
 c2068: d_2_3 - load_2_10 + load_2_3 - p_2_3 - 20 x_2_10_3 >= -20
 c2069: d_2_4 - load_2_10 + load_2_4 - p_2_4 + 20 x_2_10_4 <= 20
 c2070: d_2_4 - load_2_10 + load_2_4 - p_2_4 - 20 x_2_10_4 >= -20
 c2071: d_2_5 - load_2_10 + load_2_5 - p_2_5 + 20 x_2_10_5 <= 20
 c2072: d_2_5 - load_2_10 + load_2_5 - p_2_5 - 20 x_2_10_5 >= -20
 c2073: d_2_6 - load_2_10 + load_2_6 - p_2_6 + 20 x_2_10_6 <= 20
 c2074: d_2_6 - load_2_10 + load_2_6 - p_2_6 - 20 x_2_10_6 >= -20
 c2075: d_2_7 - load_2_10 + load_2_7 - p_2_7 + 20 x_2_10_7 <= 20
 c2076: d_2_7 - load_2_10 + load_2_7 - p_2_7 - 20 x_2_10_7 >= -20
 c2077: d_2_8 - load_2_10 + load_2_8 - p_2_8 + 20 x_2_10_8 <= 20
 c2078: d_2_8 - load_2_10 + load_2_8 - p_2_8 - 20 x_2_10_8 >= -20
 c2079: d_2_9 - load_2_10 + load_2_9 - p_2_9 + 20 x_2_10_9 <= 20
 c2080: d_2_9 - load_2_10 + load_2_9 - p_2_9 - 20 x_2_10_9 >= -20
 c2081: - d_2_1 - d_2_10 - d_2_2 - d_2_3 - d_2_4 - d_2_5 - d_2_6 - d_2_7 - d_2_8 - d_2_9 + p_2_1 + p_2_10 + p_2_2 + p_2_3 + p_2_4 + p_2_5 + p_2_6 + p_2_7 + p_2_8 + p_2_9 >= 0
 c2082: 120 p_2_1 + 120 p_2_10 + 120 p_2_2 + 120 p_2_3 + 120 p_2_4 + 120 p_2_5 + 120 p_2_6 + 120 p_2_7 + 120 p_2_8 + 120 p_2_9 + 594.78980264912536 x_2_0_1 + 760.78396100170221 x_2_0_10 + 479.6408272498208 x_2_0_2 + 624.178181313236 x_2_0_3 + 722.40922339709311 x_2_0_4 + 479.22425168274873 x_2_0_5 + 804.44686549191783 x_2_0_6 + 508.52700675732382 x_2_0_7 + 591.40704496380033 x_2_0_8 + 659.68236630111346 x_2_0_9 + 760.78396100170221 x_2_10_0 + 178.44578105651053 x_2_10_1 + 1058.227706119357 x_2_10_2 + 1269.4270330513189 x_2_10_3 + 91.175860910802967 x_2_10_4 + 1020.7606868997331 x_2_10_5 + 1434.2661597423148 x_2_10_6 + 288.5766617382223 x_2_10_7 + 1084.4609559786738 x_2_10_8 + 1261.2118242026656 x_2_10_9 + 594.78980264912536 x_2_1_0 + 178.44578105651053 x_2_1_10 + 935.95529576090405 x_2_1_2 + 1091.1487082975814 x_2_1_3 + 127.95972110211204 x_2_1_4 + 904.23260956030947 x_2_1_5 + 1256.7249842952558 x_2_1_6 + 196.8819014051131 x_2_1_7 + 980.76061583450519 x_2_1_8 + 1084.0751598427134 x_2_1_9 + 479.6408272498208 x_2_2_0 + 935.95529576090405 x_2_2_1 + 1058.227706119357 x_2_2_10 + 919.5150095424475 x_2_2_3 + 1056.0474215676963 x_2_2_4 + 54.744773083810145 x_2_2_5 + 1079.9774569508975 x_2_2_6 + 769.70785475713546 x_2_2_7 + 141.0037607833172 x_2_2_8 + 989.38169081383421 x_2_2_9 + 624.178181313236 x_2_3_0 + 1091.1487082975814 x_2_3_1 + 1269.4270330513189 x_2_3_10 + 919.5150095424475 x_2_3_2 + 1201.8186916312261 x_2_3_4 + 952.15619711008776 x_2_3_5 + 180.27874267385269 x_2_3_6 + 1082.4578535451747 x_2_3_7 + 1060.2925555899965 x_2_3_8 + 91.654713969815589 x_2_3_9 + 722.40922339709311 x_2_4_0 + 127.95972110211204 x_2_4_1 + 91.175860910802967 x_2_4_10 + 1056.0474215676963 x_2_4_2 + 1201.8186916312261 x_2_4_3 + 1022.2233581736285 x_2_4_5 + 1363.2047171011429 x_2_4_6 + 295.25844553035029 x_2_4_7 + 1093.9378452725889 x_2_4_8 + 1189.2626183779273 x_2_4_9 + 479.22425168274873 x_2_5_0 + 904.23260956030947 x_2_5_1 + 1020.7606868997331 x_2_5_10 + 54.744773083810145 x_2_5_2 + 952.15619711008776 x_2_5_3 + 1022.2233581736285 x_2_5_4 + 1115.9335309432365 x_2_5_6 + 732.79942873627078 x_2_5_7 + 114.97843709328448 x_2_5_8 + 1019.1973362505672 x_2_5_9 + 804.44686549191783 x_2_6_0 + 1256.7249842952558 x_2_6_1 + 1434.2661597423148 x_2_6_10 + 1079.9774569508975 x_2_6_2 + 180.27874267385269 x_2_6_3 + 1363.2047171011429 x_2_6_4 + 1115.9335309432365 x_2_6_5 + 1257.652313289341 x_2_6_7 + 1220.9520081066898 x_2_6_8 + 174.74983503573969 x_2_6_9 + 508.52700675732382 x_2_7_0 + 196.8819014051131 x_2_7_1 + 288.5766617382223 x_2_7_10 + 769.70785475713546 x_2_7_2 + 1082.4578535451747 x_2_7_3 + 295.25844553035029 x_2_7_4 + 732.79942873627078 x_2_7_5 + 1257.652313289341 x_2_7_6 + 800.07605027413229 x_2_7_8 + 1091.9773311899933 x_2_7_9 + 591.40704496380033 x_2_8_0 + 980.76061583450519 x_2_8_1 + 1084.4609559786738 x_2_8_10 + 141.0037607833172 x_2_8_2 + 1060.2925555899965 x_2_8_3 + 1093.9378452725889 x_2_8_4 + 114.97843709328448 x_2_8_5 + 1220.9520081066898 x_2_8_6 + 800.07605027413229 x_2_8_7 + 1129.4519837916439 x_2_8_9 + 659.68236630111346 x_2_9_0 + 1084.0751598427134 x_2_9_1 + 1261.2118242026656 x_2_9_10 + 989.38169081383421 x_2_9_2 + 91.654713969815589 x_2_9_3 + 1189.2626183779273 x_2_9_4 + 1019.1973362505672 x_2_9_5 + 174.74983503573969 x_2_9_6 + 1091.9773311899933 x_2_9_7 + 1129.4519837916439 x_2_9_8 <= 2400
 c2083: 120 p_0_1 + 100000 z_0_1 <= 101210.42039470175
 c2084: 120 p_0_2 + 100000 z_0_2 <= 101440.71834550035
 c2085: 120 p_0_1 + 120 p_0_2 + 100000 z_0_1 + 100000 z_0_2 <= 200389.61407434015
 c2086: 120 p_0_3 + 100000 z_0_3 <= 101151.64363737353
 c2087: 120 p_0_1 + 120 p_0_3 + 100000 z_0_1 + 100000 z_0_3 <= 200089.88330774006
 c2088: 120 p_0_2 + 120 p_0_3 + 100000 z_0_2 + 100000 z_0_3 <= 200376.6659818945
 c2089: 120 p_0_1 + 120 p_0_2 + 120 p_0_3 + 100000 z_0_1 + 100000 z_0_2 + 100000 z_0_3 <= 299325.56171073427
 c2090: 120 p_0_4 + 100000 z_0_4 <= 100955.18155320581
 c2091: 120 p_0_1 + 120 p_0_4 + 100000 z_0_1 + 100000 z_0_4 <= 200954.84125285168
 c2092: 120 p_0_2 + 120 p_0_4 + 100000 z_0_2 + 100000 z_0_4 <= 200141.90252778539
 c2093: 120 p_0_1 + 120 p_0_2 + 120 p_0_4 + 100000 z_0_1 + 100000 z_0_2 + 100000 z_0_4 <= 300141.56222743122
 c2094: 120 p_0_3 + 120 p_0_4 + 100000 z_0_3 + 100000 z_0_4 <= 199851.59390365845
 c2095: 120 p_0_1 + 120 p_0_3 + 120 p_0_4 + 100000 z_0_1 + 100000 z_0_3 + 100000 z_0_4 <= 299851.25360330433
 c2096: 120 p_0_2 + 120 p_0_3 + 120 p_0_4 + 100000 z_0_2 + 100000 z_0_3 + 100000 z_0_4 <= 299077.85016417952
 c2097: 120 p_0_1 + 120 p_0_2 + 120 p_0_3 + 120 p_0_4 + 100000 z_0_1 + 100000 z_0_2 + 100000 z_0_3 + 100000 z_0_4 <= 399077.5098638254
 c2098: 120 p_0_5 + 100000 z_0_5 <= 101441.55149663451
 c2099: 120 p_0_1 + 120 p_0_5 + 100000 z_0_1 + 100000 z_0_5 <= 200421.75333610782
 c2100: 120 p_0_2 + 120 p_0_5 + 100000 z_0_2 + 100000 z_0_5 <= 201386.39014798362
 c2101: 120 p_0_1 + 120 p_0_2 + 120 p_0_5 + 100000 z_0_1 + 100000 z_0_2 + 100000 z_0_5 <= 300366.59198745695
 c2102: 120 p_0_3 + 120 p_0_5 + 100000 z_0_3 + 100000 z_0_5 <= 200344.44136989393
 c2103: 120 p_0_1 + 120 p_0_3 + 120 p_0_5 + 100000 z_0_1 + 100000 z_0_3 + 100000 z_0_5 <= 299324.64320936723
 c2104: 120 p_0_2 + 120 p_0_3 + 120 p_0_5 + 100000 z_0_2 + 100000 z_0_3 + 100000 z_0_5 <= 300322.33778437774
 c2105: 120 p_0_1 + 120 p_0_2 + 120 p_0_3 + 120 p_0_5 + 100000 z_0_1 + 100000 z_0_2 + 100000 z_0_3 + 100000 z_0_5 <= 399302.53962385107
 c2106: 120 p_0_4 + 120 p_0_5 + 100000 z_0_4 + 100000 z_0_5 <= 200176.14316674654
 c2107: 120 p_0_1 + 120 p_0_4 + 120 p_0_5 + 100000 z_0_1 + 100000 z_0_4 + 100000 z_0_5 <= 300175.80286639236
 c2108: 120 p_0_2 + 120 p_0_4 + 120 p_0_5 + 100000 z_0_2 + 100000 z_0_4 + 100000 z_0_5 <= 300120.98181809566
 c2109: 120 p_0_1 + 120 p_0_2 + 120 p_0_4 + 120 p_0_5 + 100000 z_0_1 + 100000 z_0_2 + 100000 z_0_4 + 100000 z_0_5 <= 400120.64151774149
 c2110: 120 p_0_3 + 120 p_0_4 + 120 p_0_5 + 100000 z_0_3 + 100000 z_0_4 + 100000 z_0_5 <= 299079.03304000595
 c2111: 120 p_0_1 + 120 p_0_3 + 120 p_0_4 + 120 p_0_5 + 100000 z_0_1 + 100000 z_0_3 + 100000 z_0_4 + 100000 z_0_5 <= 399078.69273965183
 c2112: 120 p_0_2 + 120 p_0_3 + 120 p_0_4 + 120 p_0_5 + 100000 z_0_2 + 100000 z_0_3 + 100000 z_0_4 + 100000 z_0_5 <= 399056.92945448979
 c2113: 120 p_0_1 + 120 p_0_2 + 120 p_0_3 + 120 p_0_4 + 120 p_0_5 + 100000 z_0_1 + 100000 z_0_2 + 100000 z_0_3 + 100000 z_0_4 + 100000 z_0_5 <= 499056.58915413567
 c2114: 120 p_0_6 + 100000 z_0_6 <= 100791.10626901616
 c2115: 120 p_0_1 + 120 p_0_6 + 100000 z_0_1 + 100000 z_0_6 <= 199744.03834756371
 c2116: 120 p_0_2 + 120 p_0_6 + 100000 z_0_2 + 100000 z_0_6 <= 200035.93485030736
 c2117: 120 p_0_1 + 120 p_0_2 + 120 p_0_6 + 100000 z_0_1 + 100000 z_0_2 + 100000 z_0_6 <= 298988.8669288549
 c2118: 120 p_0_3 + 120 p_0_6 + 100000 z_0_3 + 100000 z_0_6 <= 200791.09621052101
 c2119: 120 p_0_1 + 120 p_0_3 + 120 p_0_6 + 100000 z_0_1 + 100000 z_0_3 + 100000 z_0_6 <= 299744.02828906855
 c2120: 120 p_0_2 + 120 p_0_3 + 120 p_0_6 + 100000 z_0_2 + 100000 z_0_3 + 100000 z_0_6 <= 300035.9247918122
 c2121: 120 p_0_1 + 120 p_0_2 + 120 p_0_3 + 120 p_0_6 + 100000 z_0_1 + 100000 z_0_2 + 100000 z_0_3 + 100000 z_0_6 <= 398984.82052065199
 c2122: 120 p_0_4 + 120 p_0_6 + 100000 z_0_4 + 100000 z_0_6 <= 199509.93919400984
 c2123: 120 p_0_1 + 120 p_0_4 + 120 p_0_6 + 100000 z_0_1 + 100000 z_0_4 + 100000 z_0_6 <= 299509.5988936557
 c2124: 120 p_0_2 + 120 p_0_4 + 120 p_0_6 + 100000 z_0_2 + 100000 z_0_4 + 100000 z_0_6 <= 298754.76777530106
 c2125: 120 p_0_1 + 120 p_0_2 + 120 p_0_4 + 120 p_0_6 + 100000 z_0_1 + 100000 z_0_2 + 100000 z_0_4 + 100000 z_0_6 <= 398754.42747494689
 c2126: 120 p_0_3 + 120 p_0_4 + 120 p_0_6 + 100000 z_0_3 + 100000 z_0_4 + 100000 z_0_6 <= 299509.92913551466
 c2127: 120 p_0_1 + 120 p_0_3 + 120 p_0_4 + 120 p_0_6 + 100000 z_0_1 + 100000 z_0_3 + 100000 z_0_4 + 100000 z_0_6 <= 399509.58883516054
 c2128: 120 p_0_2 + 120 p_0_3 + 120 p_0_4 + 120 p_0_6 + 100000 z_0_2 + 100000 z_0_3 + 100000 z_0_4 + 100000 z_0_6 <= 398737.10897409724
 c2129: 120 p_0_1 + 120 p_0_2 + 120 p_0_3 + 120 p_0_4 + 120 p_0_6 + 100000 z_0_1 + 100000 z_0_2 + 100000 z_0_3 + 100000 z_0_4 + 100000 z_0_6 <= 498736.76867374306
 c2130: 120 p_0_5 + 120 p_0_6 + 100000 z_0_5 + 100000 z_0_6 <= 200000.39535188209
 c2131: 120 p_0_1 + 120 p_0_5 + 120 p_0_6 + 100000 z_0_1 + 100000 z_0_5 + 100000 z_0_6 <= 298980.59719135542
 c2132: 120 p_0_2 + 120 p_0_5 + 120 p_0_6 + 100000 z_0_2 + 100000 z_0_5 + 100000 z_0_6 <= 299981.60665279062
 c2133: 120 p_0_1 + 120 p_0_2 + 120 p_0_5 + 120 p_0_6 + 100000 z_0_1 + 100000 z_0_2 + 100000 z_0_5 + 100000 z_0_6 <= 398961.80849226395
 c2134: 120 p_0_3 + 120 p_0_5 + 120 p_0_6 + 100000 z_0_3 + 100000 z_0_5 + 100000 z_0_6 <= 300000.38529338693
 c2135: 120 p_0_1 + 120 p_0_3 + 120 p_0_5 + 120 p_0_6 + 100000 z_0_1 + 100000 z_0_3 + 100000 z_0_5 + 100000 z_0_6 <= 398980.58713286027
 c2136: 120 p_0_2 + 120 p_0_3 + 120 p_0_5 + 120 p_0_6 + 100000 z_0_2 + 100000 z_0_3 + 100000 z_0_5 + 100000 z_0_6 <= 399981.59659429546
 c2137: 120 p_0_1 + 120 p_0_2 + 120 p_0_3 + 120 p_0_5 + 120 p_0_6 + 100000 z_0_1 + 100000 z_0_2 + 100000 z_0_3 + 100000 z_0_5 + 100000 z_0_6 <= 498961.7984337688
 c2138: 120 p_0_4 + 120 p_0_5 + 120 p_0_6 + 100000 z_0_4 + 100000 z_0_5 + 100000 z_0_6 <= 298734.98702199414
 c2139: 120 p_0_1 + 120 p_0_4 + 120 p_0_5 + 120 p_0_6 + 100000 z_0_1 + 100000 z_0_4 + 100000 z_0_5 + 100000 z_0_6 <= 398734.64672163996
 c2140: 120 p_0_2 + 120 p_0_4 + 120 p_0_5 + 120 p_0_6 + 100000 z_0_2 + 100000 z_0_4 + 100000 z_0_5 + 100000 z_0_6 <= 398716.19832290267
 c2141: 120 p_0_1 + 120 p_0_2 + 120 p_0_4 + 120 p_0_5 + 120 p_0_6 + 100000 z_0_1 + 100000 z_0_2 + 100000 z_0_4 + 100000 z_0_5 + 100000 z_0_6 <= 498715.85802254849
 c2142: 120 p_0_3 + 120 p_0_4 + 120 p_0_5 + 120 p_0_6 + 100000 z_0_3 + 100000 z_0_4 + 100000 z_0_5 + 100000 z_0_6 <= 398734.97696349898
 c2143: 120 p_0_1 + 120 p_0_3 + 120 p_0_4 + 120 p_0_5 + 120 p_0_6 + 100000 z_0_1 + 100000 z_0_3 + 100000 z_0_4 + 100000 z_0_5 + 100000 z_0_6 <= 498734.6366631448
 c2144: 120 p_0_2 + 120 p_0_3 + 120 p_0_4 + 120 p_0_5 + 120 p_0_6 + 100000 z_0_2 + 100000 z_0_3 + 100000 z_0_4 + 100000 z_0_5 + 100000 z_0_6 <= 498716.18826440751
 c2145: 120 p_0_1 + 120 p_0_2 + 120 p_0_3 + 120 p_0_4 + 120 p_0_5 + 120 p_0_6 + 100000 z_0_1 + 100000 z_0_2 + 100000 z_0_3 + 100000 z_0_4 + 100000 z_0_5 + 100000 z_0_6 <= 598715.84796405339
 c2146: 120 p_0_7 + 100000 z_0_7 <= 101382.94598648536
 c2147: 120 p_0_1 + 120 p_0_7 + 100000 z_0_1 + 100000 z_0_7 <= 201099.80128918844
 c2148: 120 p_0_2 + 120 p_0_7 + 100000 z_0_2 + 100000 z_0_7 <= 200642.12431123573
 c2149: 120 p_0_1 + 120 p_0_2 + 120 p_0_7 + 100000 z_0_1 + 100000 z_0_2 + 100000 z_0_7 <= 300358.97961393883
 c2150: 120 p_0_3 + 120 p_0_7 + 100000 z_0_3 + 100000 z_0_7 <= 200184.83695838426
 c2151: 120 p_0_1 + 120 p_0_3 + 120 p_0_7 + 100000 z_0_1 + 100000 z_0_3 + 100000 z_0_7 <= 299979.26420222677
 c2152: 120 p_0_2 + 120 p_0_3 + 120 p_0_7 + 100000 z_0_2 + 100000 z_0_3 + 100000 z_0_7 <= 299578.07194762985
 c2153: 120 p_0_1 + 120 p_0_2 + 120 p_0_3 + 120 p_0_7 + 100000 z_0_1 + 100000 z_0_2 + 100000 z_0_3 + 100000 z_0_7 <= 399294.92725033296
 c2154: 120 p_0_4 + 120 p_0_7 + 100000 z_0_4 + 100000 z_0_7 <= 200873.80532431524
 c2155: 120 p_0_1 + 120 p_0_4 + 120 p_0_7 + 100000 z_0_1 + 100000 z_0_4 + 100000 z_0_7 <= 300873.46502396109
 c2156: 120 p_0_2 + 120 p_0_4 + 120 p_0_7 + 100000 z_0_2 + 100000 z_0_4 + 100000 z_0_7 <= 300132.9836490656
 c2157: 120 p_0_1 + 120 p_0_2 + 120 p_0_4 + 120 p_0_7 + 100000 z_0_1 + 100000 z_0_2 + 100000 z_0_4 + 100000 z_0_7 <= 400132.64334871148
 c2158: 120 p_0_3 + 120 p_0_4 + 120 p_0_7 + 100000 z_0_3 + 100000 z_0_4 + 100000 z_0_7 <= 299770.21767476789
 c2159: 120 p_0_1 + 120 p_0_3 + 120 p_0_4 + 120 p_0_7 + 100000 z_0_1 + 100000 z_0_3 + 100000 z_0_4 + 100000 z_0_7 <= 399752.92793699942
 c2160: 120 p_0_2 + 120 p_0_3 + 120 p_0_4 + 120 p_0_7 + 100000 z_0_2 + 100000 z_0_3 + 100000 z_0_4 + 100000 z_0_7 <= 399068.93128545972
 c2161: 120 p_0_1 + 120 p_0_2 + 120 p_0_3 + 120 p_0_4 + 120 p_0_7 + 100000 z_0_1 + 100000 z_0_2 + 100000 z_0_3 + 100000 z_0_4 + 100000 z_0_7 <= 499068.59098510561
 c2162: 120 p_0_5 + 120 p_0_7 + 100000 z_0_5 + 100000 z_0_7 <= 200679.44931282365
 c2163: 120 p_0_1 + 120 p_0_5 + 120 p_0_7 + 100000 z_0_1 + 100000 z_0_5 + 100000 z_0_7 <= 300396.30461552675
 c2164: 120 p_0_2 + 120 p_0_5 + 120 p_0_7 + 100000 z_0_2 + 100000 z_0_5 + 100000 z_0_7 <= 300624.28796417278
 c2165: 120 p_0_1 + 120 p_0_2 + 120 p_0_5 + 120 p_0_7 + 100000 z_0_1 + 100000 z_0_2 + 100000 z_0_5 + 100000 z_0_7 <= 400341.14326687588
 c2166: 120 p_0_3 + 120 p_0_5 + 120 p_0_7 + 100000 z_0_3 + 100000 z_0_5 + 100000 z_0_7 <= 299582.33918608306
 c2167: 120 p_0_1 + 120 p_0_3 + 120 p_0_5 + 120 p_0_7 + 100000 z_0_1 + 100000 z_0_3 + 100000 z_0_5 + 100000 z_0_7 <= 399299.19448878616
 c2168: 120 p_0_2 + 120 p_0_3 + 120 p_0_5 + 120 p_0_7 + 100000 z_0_2 + 100000 z_0_3 + 100000 z_0_5 + 100000 z_0_7 <= 399560.2356005669
 c2169: 120 p_0_1 + 120 p_0_2 + 120 p_0_3 + 120 p_0_5 + 120 p_0_7 + 100000 z_0_1 + 100000 z_0_2 + 100000 z_0_3 + 100000 z_0_5 + 100000 z_0_7 <= 499277.09090327
 c2170: 120 p_0_4 + 120 p_0_5 + 120 p_0_7 + 100000 z_0_4 + 100000 z_0_5 + 100000 z_0_7 <= 300170.30865065352
 c2171: 120 p_0_1 + 120 p_0_4 + 120 p_0_5 + 120 p_0_7 + 100000 z_0_1 + 100000 z_0_4 + 100000 z_0_5 + 100000 z_0_7 <= 400169.9683502994
 c2172: 120 p_0_2 + 120 p_0_4 + 120 p_0_5 + 120 p_0_7 + 100000 z_0_2 + 100000 z_0_4 + 100000 z_0_5 + 100000 z_0_7 <= 400115.14730200265
 c2173: 120 p_0_1 + 120 p_0_2 + 120 p_0_4 + 120 p_0_5 + 120 p_0_7 + 100000 z_0_1 + 100000 z_0_2 + 100000 z_0_4 + 100000 z_0_5 + 100000 z_0_7 <= 500114.80700164853
 c2174: 120 p_0_3 + 120 p_0_4 + 120 p_0_5 + 120 p_0_7 + 100000 z_0_3 + 100000 z_0_4 + 100000 z_0_5 + 100000 z_0_7 <= 399073.19852391299
 c2175: 120 p_0_1 + 120 p_0_3 + 120 p_0_4 + 120 p_0_5 + 120 p_0_7 + 100000 z_0_1 + 100000 z_0_3 + 100000 z_0_4 + 100000 z_0_5 + 100000 z_0_7 <= 499072.85822355881
 c2176: 120 p_0_2 + 120 p_0_3 + 120 p_0_4 + 120 p_0_5 + 120 p_0_7 + 100000 z_0_2 + 100000 z_0_3 + 100000 z_0_4 + 100000 z_0_5 + 100000 z_0_7 <= 499051.09493839677
 c2177: 120 p_0_1 + 120 p_0_2 + 120 p_0_3 + 120 p_0_4 + 120 p_0_5 + 120 p_0_7 + 100000 z_0_1 + 100000 z_0_2 + 100000 z_0_3 + 100000 z_0_4 + 100000 z_0_5 + 100000 z_0_7 <= 599050.75463804265
 c2178: 120 p_0_6 + 120 p_0_7 + 100000 z_0_6 + 100000 z_0_7 <= 199829.3738144614
 c2179: 120 p_0_1 + 120 p_0_6 + 120 p_0_7 + 100000 z_0_1 + 100000 z_0_6 + 100000 z_0_7 <= 299633.41924205038
 c2180: 120 p_0_2 + 120 p_0_6 + 120 p_0_7 + 100000 z_0_2 + 100000 z_0_6 + 100000 z_0_7 <= 299237.34081604274
 c2181: 120 p_0_1 + 120 p_0_2 + 120 p_0_6 + 120 p_0_7 + 100000 z_0_1 + 100000 z_0_2 + 100000 z_0_6 + 100000 z_0_7 <= 398954.19611874584
 c2182: 120 p_0_3 + 120 p_0_6 + 120 p_0_7 + 100000 z_0_3 + 100000 z_0_6 + 100000 z_0_7 <= 299829.36375596625
 c2183: 120 p_0_1 + 120 p_0_3 + 120 p_0_6 + 120 p_0_7 + 100000 z_0_1 + 100000 z_0_3 + 100000 z_0_6 + 100000 z_0_7 <= 399633.40918355522
 c2184: 120 p_0_2 + 120 p_0_3 + 120 p_0_6 + 120 p_0_7 + 100000 z_0_2 + 100000 z_0_3 + 100000 z_0_6 + 100000 z_0_7 <= 399237.33075754758
 c2185: 120 p_0_1 + 120 p_0_2 + 120 p_0_3 + 120 p_0_6 + 120 p_0_7 + 100000 z_0_1 + 100000 z_0_2 + 100000 z_0_3 + 100000 z_0_6 + 100000 z_0_7 <= 498954.18606025062
 c2186: 120 p_0_4 + 120 p_0_6 + 120 p_0_7 + 100000 z_0_4 + 100000 z_0_6 + 100000 z_0_7 <= 299428.56296511926
 c2187: 120 p_0_1 + 120 p_0_4 + 120 p_0_6 + 120 p_0_7 + 100000 z_0_1 + 100000 z_0_4 + 100000 z_0_6 + 100000 z_0_7 <= 399407.08297682303
 c2188: 120 p_0_2 + 120 p_0_4 + 120 p_0_6 + 120 p_0_7 + 100000 z_0_2 + 100000 z_0_4 + 100000 z_0_6 + 100000 z_0_7 <= 398728.2001538726
 c2189: 120 p_0_1 + 120 p_0_2 + 120 p_0_4 + 120 p_0_6 + 120 p_0_7 + 100000 z_0_1 + 100000 z_0_2 + 100000 z_0_4 + 100000 z_0_6 + 100000 z_0_7 <= 498727.85985351849
 c2190: 120 p_0_3 + 120 p_0_4 + 120 p_0_6 + 120 p_0_7 + 100000 z_0_3 + 100000 z_0_4 + 100000 z_0_6 + 100000 z_0_7 <= 399428.5529066241
 c2191: 120 p_0_1 + 120 p_0_3 + 120 p_0_4 + 120 p_0_6 + 120 p_0_7 + 100000 z_0_1 + 100000 z_0_3 + 100000 z_0_4 + 100000 z_0_6 + 100000 z_0_7 <= 499407.07291832787
 c2192: 120 p_0_2 + 120 p_0_3 + 120 p_0_4 + 120 p_0_6 + 120 p_0_7 + 100000 z_0_2 + 100000 z_0_3 + 100000 z_0_4 + 100000 z_0_6 + 100000 z_0_7 <= 498728.19009537745
 c2193: 120 p_0_1 + 120 p_0_2 + 120 p_0_3 + 120 p_0_4 + 120 p_0_6 + 120 p_0_7 + 100000 z_0_1 + 100000 z_0_2 + 100000 z_0_3 + 100000 z_0_4 + 100000 z_0_6 + 100000 z_0_7 <= 598727.84979502333
 c2194: 120 p_0_5 + 120 p_0_6 + 120 p_0_7 + 100000 z_0_5 + 100000 z_0_6 + 100000 z_0_7 <= 299238.29316807125
 c2195: 120 p_0_1 + 120 p_0_5 + 120 p_0_6 + 120 p_0_7 + 100000 z_0_1 + 100000 z_0_5 + 100000 z_0_6 + 100000 z_0_7 <= 398955.14847077435
 c2196: 120 p_0_2 + 120 p_0_5 + 120 p_0_6 + 120 p_0_7 + 100000 z_0_2 + 100000 z_0_5 + 100000 z_0_6 + 100000 z_0_7 <= 399219.50446897978
 c2197: 120 p_0_1 + 120 p_0_2 + 120 p_0_5 + 120 p_0_6 + 120 p_0_7 + 100000 z_0_1 + 100000 z_0_2 + 100000 z_0_5 + 100000 z_0_6 + 100000 z_0_7 <= 498936.35977168288
 c2198: 120 p_0_3 + 120 p_0_5 + 120 p_0_6 + 120 p_0_7 + 100000 z_0_3 + 100000 z_0_5 + 100000 z_0_6 + 100000 z_0_7 <= 399238.28310957609
 c2199: 120 p_0_1 + 120 p_0_3 + 120 p_0_5 + 120 p_0_6 + 120 p_0_7 + 100000 z_0_1 + 100000 z_0_3 + 100000 z_0_5 + 100000 z_0_6 + 100000 z_0_7 <= 498955.13841227919
 c2200: 120 p_0_2 + 120 p_0_3 + 120 p_0_5 + 120 p_0_6 + 120 p_0_7 + 100000 z_0_2 + 100000 z_0_3 + 100000 z_0_5 + 100000 z_0_6 + 100000 z_0_7 <= 499219.49441048462
 c2201: 120 p_0_1 + 120 p_0_2 + 120 p_0_3 + 120 p_0_5 + 120 p_0_6 + 120 p_0_7 + 100000 z_0_1 + 100000 z_0_2 + 100000 z_0_3 + 100000 z_0_5 + 100000 z_0_6 + 100000 z_0_7 <= 598936.34971318766
 c2202: 120 p_0_4 + 120 p_0_5 + 120 p_0_6 + 120 p_0_7 + 100000 z_0_4 + 100000 z_0_5 + 100000 z_0_6 + 100000 z_0_7 <= 398729.15250590112
 c2203: 120 p_0_1 + 120 p_0_4 + 120 p_0_5 + 120 p_0_6 + 120 p_0_7 + 100000 z_0_1 + 100000 z_0_4 + 100000 z_0_5 + 100000 z_0_6 + 100000 z_0_7 <= 498728.812205547
 c2204: 120 p_0_2 + 120 p_0_4 + 120 p_0_5 + 120 p_0_6 + 120 p_0_7 + 100000 z_0_2 + 100000 z_0_4 + 100000 z_0_5 + 100000 z_0_6 + 100000 z_0_7 <= 498710.36380680965
 c2205: 120 p_0_1 + 120 p_0_2 + 120 p_0_4 + 120 p_0_5 + 120 p_0_6 + 120 p_0_7 + 100000 z_0_1 + 100000 z_0_2 + 100000 z_0_4 + 100000 z_0_5 + 100000 z_0_6 + 100000 z_0_7 <= 598710.02350645547
 c2206: 120 p_0_3 + 120 p_0_4 + 120 p_0_5 + 120 p_0_6 + 120 p_0_7 + 100000 z_0_3 + 100000 z_0_4 + 100000 z_0_5 + 100000 z_0_6 + 100000 z_0_7 <= 498729.14244740596
 c2207: 120 p_0_1 + 120 p_0_3 + 120 p_0_4 + 120 p_0_5 + 120 p_0_6 + 120 p_0_7 + 100000 z_0_1 + 100000 z_0_3 + 100000 z_0_4 + 100000 z_0_5 + 100000 z_0_6 + 100000 z_0_7 <= 598728.80214705179
 c2208: 120 p_0_2 + 120 p_0_3 + 120 p_0_4 + 120 p_0_5 + 120 p_0_6 + 120 p_0_7 + 100000 z_0_2 + 100000 z_0_3 + 100000 z_0_4 + 100000 z_0_5 + 100000 z_0_6 + 100000 z_0_7 <= 598710.35374831443
 c2209: 120 p_0_1 + 120 p_0_2 + 120 p_0_3 + 120 p_0_4 + 120 p_0_5 + 120 p_0_6 + 120 p_0_7 + 100000 z_0_1 + 100000 z_0_2 + 100000 z_0_3 + 100000 z_0_4 + 100000 z_0_5 + 100000 z_0_6 + 100000 z_0_7 <= 698710.01344796037
 c2210: 120 p_0_8 + 100000 z_0_8 <= 101217.1859100724
 c2211: 120 p_0_1 + 120 p_0_8 + 100000 z_0_1 + 100000 z_0_8 <= 200233.04253655256
 c2212: 120 p_0_2 + 120 p_0_8 + 100000 z_0_2 + 100000 z_0_8 <= 201187.94836700306
 c2213: 120 p_0_1 + 120 p_0_2 + 120 p_0_8 + 100000 z_0_1 + 100000 z_0_2 + 100000 z_0_8 <= 300203.80499348324
 c2214: 120 p_0_3 + 120 p_0_8 + 100000 z_0_3 + 100000 z_0_8 <= 200124.12221813298
 c2215: 120 p_0_1 + 120 p_0_3 + 120 p_0_8 + 100000 z_0_1 + 100000 z_0_3 + 100000 z_0_8 <= 299139.97884461313
 c2216: 120 p_0_2 + 120 p_0_3 + 120 p_0_8 + 100000 z_0_2 + 100000 z_0_3 + 100000 z_0_8 <= 300123.89600339718
 c2217: 120 p_0_1 + 120 p_0_2 + 120 p_0_3 + 120 p_0_8 + 100000 z_0_1 + 100000 z_0_2 + 100000 z_0_3 + 100000 z_0_8 <= 399139.75262987736
 c2218: 120 p_0_4 + 120 p_0_8 + 100000 z_0_4 + 100000 z_0_8 <= 199992.24588636652
 c2219: 120 p_0_1 + 120 p_0_4 + 120 p_0_8 + 100000 z_0_1 + 100000 z_0_4 + 100000 z_0_8 <= 299991.90558601235
 c2220: 120 p_0_2 + 120 p_0_4 + 120 p_0_8 + 100000 z_0_2 + 100000 z_0_4 + 100000 z_0_8 <= 299963.00834329717
 c2221: 120 p_0_1 + 120 p_0_2 + 120 p_0_4 + 120 p_0_8 + 100000 z_0_1 + 100000 z_0_2 + 100000 z_0_4 + 100000 z_0_8 <= 399962.66804294306
 c2222: 120 p_0_3 + 120 p_0_4 + 120 p_0_8 + 100000 z_0_3 + 100000 z_0_4 + 100000 z_0_8 <= 298899.18219442706
 c2223: 120 p_0_1 + 120 p_0_3 + 120 p_0_4 + 120 p_0_8 + 100000 z_0_1 + 100000 z_0_3 + 100000 z_0_4 + 100000 z_0_8 <= 398898.84189407295
 c2224: 120 p_0_2 + 120 p_0_3 + 120 p_0_4 + 120 p_0_8 + 100000 z_0_2 + 100000 z_0_3 + 100000 z_0_4 + 100000 z_0_8 <= 398898.95597969129
 c2225: 120 p_0_1 + 120 p_0_2 + 120 p_0_3 + 120 p_0_4 + 120 p_0_8 + 100000 z_0_1 + 100000 z_0_2 + 100000 z_0_3 + 100000 z_0_4 + 100000 z_0_8 <= 498898.61567933718
 c2226: 120 p_0_5 + 120 p_0_8 + 100000 z_0_5 + 100000 z_0_8 <= 201214.39026626016
 c2227: 120 p_0_1 + 120 p_0_5 + 120 p_0_8 + 100000 z_0_1 + 100000 z_0_5 + 100000 z_0_8 <= 300230.24689274031
 c2228: 120 p_0_2 + 120 p_0_5 + 120 p_0_8 + 100000 z_0_2 + 100000 z_0_5 + 100000 z_0_8 <= 301185.15272319084
 c2229: 120 p_0_1 + 120 p_0_2 + 120 p_0_5 + 120 p_0_8 + 100000 z_0_1 + 100000 z_0_2 + 100000 z_0_5 + 100000 z_0_8 <= 400175.08554408944
 c2230: 120 p_0_3 + 120 p_0_5 + 120 p_0_8 + 100000 z_0_3 + 100000 z_0_5 + 100000 z_0_8 <= 300121.32657432073
 c2231: 120 p_0_1 + 120 p_0_3 + 120 p_0_5 + 120 p_0_8 + 100000 z_0_1 + 100000 z_0_3 + 100000 z_0_5 + 100000 z_0_8 <= 399133.13676599978
 c2232: 120 p_0_2 + 120 p_0_3 + 120 p_0_5 + 120 p_0_8 + 100000 z_0_2 + 100000 z_0_3 + 100000 z_0_5 + 100000 z_0_8 <= 400121.10035958496
 c2233: 120 p_0_1 + 120 p_0_2 + 120 p_0_3 + 120 p_0_5 + 120 p_0_8 + 100000 z_0_1 + 100000 z_0_2 + 100000 z_0_3 + 100000 z_0_5 + 100000 z_0_8 <= 499111.03318048362
 c2234: 120 p_0_4 + 120 p_0_5 + 120 p_0_8 + 100000 z_0_4 + 100000 z_0_5 + 100000 z_0_8 <= 299989.4502425543
 c2235: 120 p_0_1 + 120 p_0_4 + 120 p_0_5 + 120 p_0_8 + 100000 z_0_1 + 100000 z_0_4 + 100000 z_0_5 + 100000 z_0_8 <= 399989.10994220013
 c2236: 120 p_0_2 + 120 p_0_4 + 120 p_0_5 + 120 p_0_8 + 100000 z_0_2 + 100000 z_0_4 + 100000 z_0_5 + 100000 z_0_8 <= 399934.28889390343
 c2237: 120 p_0_1 + 120 p_0_2 + 120 p_0_4 + 120 p_0_5 + 120 p_0_8 + 100000 z_0_1 + 100000 z_0_2 + 100000 z_0_4 + 100000 z_0_5 + 100000 z_0_8 <= 499933.94859354926
 c2238: 120 p_0_3 + 120 p_0_4 + 120 p_0_5 + 120 p_0_8 + 100000 z_0_3 + 100000 z_0_4 + 100000 z_0_5 + 100000 z_0_8 <= 398892.34011581371
 c2239: 120 p_0_1 + 120 p_0_3 + 120 p_0_4 + 120 p_0_5 + 120 p_0_8 + 100000 z_0_1 + 100000 z_0_3 + 100000 z_0_4 + 100000 z_0_5 + 100000 z_0_8 <= 498891.99981545954
 c2240: 120 p_0_2 + 120 p_0_3 + 120 p_0_4 + 120 p_0_5 + 120 p_0_8 + 100000 z_0_2 + 100000 z_0_3 + 100000 z_0_4 + 100000 z_0_5 + 100000 z_0_8 <= 498870.23653029755
 c2241: 120 p_0_1 + 120 p_0_2 + 120 p_0_3 + 120 p_0_4 + 120 p_0_5 + 120 p_0_8 + 100000 z_0_1 + 100000 z_0_2 + 100000 z_0_3 + 100000 z_0_4 + 100000 z_0_5 + 100000 z_0_8 <= 598869.89622994338
 c2242: 120 p_0_6 + 120 p_0_8 + 100000 z_0_6 + 100000 z_0_8 <= 199783.1940814376
 c2243: 120 p_0_1 + 120 p_0_6 + 120 p_0_8 + 100000 z_0_1 + 100000 z_0_6 + 100000 z_0_8 <= 298799.05070791778
 c2244: 120 p_0_2 + 120 p_0_6 + 120 p_0_8 + 100000 z_0_2 + 100000 z_0_6 + 100000 z_0_8 <= 299783.16487181006
 c2245: 120 p_0_1 + 120 p_0_2 + 120 p_0_6 + 120 p_0_8 + 100000 z_0_1 + 100000 z_0_2 + 100000 z_0_6 + 100000 z_0_8 <= 398799.02149829024
 c2246: 120 p_0_3 + 120 p_0_6 + 120 p_0_8 + 100000 z_0_3 + 100000 z_0_6 + 100000 z_0_8 <= 299783.18402294244
 c2247: 120 p_0_1 + 120 p_0_3 + 120 p_0_6 + 120 p_0_8 + 100000 z_0_1 + 100000 z_0_3 + 100000 z_0_6 + 100000 z_0_8 <= 398799.04064942262
 c2248: 120 p_0_2 + 120 p_0_3 + 120 p_0_6 + 120 p_0_8 + 100000 z_0_2 + 100000 z_0_3 + 100000 z_0_6 + 100000 z_0_8 <= 399783.1548133149
 c2249: 120 p_0_1 + 120 p_0_2 + 120 p_0_3 + 120 p_0_6 + 120 p_0_8 + 100000 z_0_1 + 100000 z_0_2 + 100000 z_0_3 + 100000 z_0_6 + 100000 z_0_8 <= 498799.01143979508
 c2250: 120 p_0_4 + 120 p_0_6 + 120 p_0_8 + 100000 z_0_4 + 100000 z_0_6 + 100000 z_0_8 <= 298558.25405773171
 c2251: 120 p_0_1 + 120 p_0_4 + 120 p_0_6 + 120 p_0_8 + 100000 z_0_1 + 100000 z_0_4 + 100000 z_0_6 + 100000 z_0_8 <= 398557.9137573776
 c2252: 120 p_0_2 + 120 p_0_4 + 120 p_0_6 + 120 p_0_8 + 100000 z_0_2 + 100000 z_0_4 + 100000 z_0_6 + 100000 z_0_8 <= 398558.22484810418
 c2253: 120 p_0_1 + 120 p_0_2 + 120 p_0_4 + 120 p_0_6 + 120 p_0_8 + 100000 z_0_1 + 100000 z_0_2 + 100000 z_0_4 + 100000 z_0_6 + 100000 z_0_8 <= 498557.88454775006
 c2254: 120 p_0_3 + 120 p_0_4 + 120 p_0_6 + 120 p_0_8 + 100000 z_0_3 + 100000 z_0_4 + 100000 z_0_6 + 100000 z_0_8 <= 398558.24399923655
 c2255: 120 p_0_1 + 120 p_0_3 + 120 p_0_4 + 120 p_0_6 + 120 p_0_8 + 100000 z_0_1 + 100000 z_0_3 + 100000 z_0_4 + 100000 z_0_6 + 100000 z_0_8 <= 498557.90369888238
 c2256: 120 p_0_2 + 120 p_0_3 + 120 p_0_4 + 120 p_0_6 + 120 p_0_8 + 100000 z_0_2 + 100000 z_0_3 + 100000 z_0_4 + 100000 z_0_6 + 100000 z_0_8 <= 498558.21478960902
 c2257: 120 p_0_1 + 120 p_0_2 + 120 p_0_3 + 120 p_0_4 + 120 p_0_6 + 120 p_0_8 + 100000 z_0_1 + 100000 z_0_2 + 100000 z_0_3 + 100000 z_0_4 + 100000 z_0_6 + 100000 z_0_8 <= 598557.8744892549
 c2258: 120 p_0_5 + 120 p_0_6 + 120 p_0_8 + 100000 z_0_5 + 100000 z_0_6 + 100000 z_0_8 <= 299780.39843762538
 c2259: 120 p_0_1 + 120 p_0_5 + 120 p_0_6 + 120 p_0_8 + 100000 z_0_1 + 100000 z_0_5 + 100000 z_0_6 + 100000 z_0_8 <= 398789.09074798791
 c2260: 120 p_0_2 + 120 p_0_5 + 120 p_0_6 + 120 p_0_8 + 100000 z_0_2 + 100000 z_0_5 + 100000 z_0_6 + 100000 z_0_8 <= 399780.36922799784
 c2261: 120 p_0_1 + 120 p_0_2 + 120 p_0_5 + 120 p_0_6 + 120 p_0_8 + 100000 z_0_1 + 100000 z_0_2 + 100000 z_0_5 + 100000 z_0_6 + 100000 z_0_8 <= 498770.30204889644
 c2262: 120 p_0_3 + 120 p_0_5 + 120 p_0_6 + 120 p_0_8 + 100000 z_0_3 + 100000 z_0_5 + 100000 z_0_6 + 100000 z_0_8 <= 399780.38837913016
 c2263: 120 p_0_1 + 120 p_0_3 + 120 p_0_5 + 120 p_0_6 + 120 p_0_8 + 100000 z_0_1 + 100000 z_0_3 + 100000 z_0_5 + 100000 z_0_6 + 100000 z_0_8 <= 498789.08068949275
 c2264: 120 p_0_2 + 120 p_0_3 + 120 p_0_5 + 120 p_0_6 + 120 p_0_8 + 100000 z_0_2 + 100000 z_0_3 + 100000 z_0_5 + 100000 z_0_6 + 100000 z_0_8 <= 499780.35916950268
 c2265: 120 p_0_1 + 120 p_0_2 + 120 p_0_3 + 120 p_0_5 + 120 p_0_6 + 120 p_0_8 + 100000 z_0_1 + 100000 z_0_2 + 100000 z_0_3 + 100000 z_0_5 + 100000 z_0_6 + 100000 z_0_8 <= 598770.29199040134
 c2266: 120 p_0_4 + 120 p_0_5 + 120 p_0_6 + 120 p_0_8 + 100000 z_0_4 + 100000 z_0_5 + 100000 z_0_6 + 100000 z_0_8 <= 398548.2940978019
 c2267: 120 p_0_1 + 120 p_0_4 + 120 p_0_5 + 120 p_0_6 + 120 p_0_8 + 100000 z_0_1 + 100000 z_0_4 + 100000 z_0_5 + 100000 z_0_6 + 100000 z_0_8 <= 498547.95379744773
 c2268: 120 p_0_2 + 120 p_0_4 + 120 p_0_5 + 120 p_0_6 + 120 p_0_8 + 100000 z_0_2 + 100000 z_0_4 + 100000 z_0_5 + 100000 z_0_6 + 100000 z_0_8 <= 498529.50539871043
 c2269: 120 p_0_1 + 120 p_0_2 + 120 p_0_4 + 120 p_0_5 + 120 p_0_6 + 120 p_0_8 + 100000 z_0_1 + 100000 z_0_2 + 100000 z_0_4 + 100000 z_0_5 + 100000 z_0_6 + 100000 z_0_8 <= 598529.16509835632
 c2270: 120 p_0_3 + 120 p_0_4 + 120 p_0_5 + 120 p_0_6 + 120 p_0_8 + 100000 z_0_3 + 100000 z_0_4 + 100000 z_0_5 + 100000 z_0_6 + 100000 z_0_8 <= 498548.28403930669
 c2271: 120 p_0_1 + 120 p_0_3 + 120 p_0_4 + 120 p_0_5 + 120 p_0_6 + 120 p_0_8 + 100000 z_0_1 + 100000 z_0_3 + 100000 z_0_4 + 100000 z_0_5 + 100000 z_0_6 + 100000 z_0_8 <= 598547.94373895251
 c2272: 120 p_0_2 + 120 p_0_3 + 120 p_0_4 + 120 p_0_5 + 120 p_0_6 + 120 p_0_8 + 100000 z_0_2 + 100000 z_0_3 + 100000 z_0_4 + 100000 z_0_5 + 100000 z_0_6 + 100000 z_0_8 <= 598529.49534021528
 c2273: 120 p_0_1 + 120 p_0_2 + 120 p_0_3 + 120 p_0_4 + 120 p_0_5 + 120 p_0_6 + 120 p_0_8 + 100000 z_0_1 + 100000 z_0_2 + 100000 z_0_3 + 100000 z_0_4 + 100000 z_0_5 + 100000 z_0_6 + 100000 z_0_8 <= 698529.1550398611
 c2274: 120 p_0_7 + 120 p_0_8 + 100000 z_0_7 + 100000 z_0_8 <= 200499.98989800474
 c2275: 120 p_0_1 + 120 p_0_7 + 120 p_0_8 + 100000 z_0_1 + 100000 z_0_7 + 100000 z_0_8 <= 300216.84520070784
 c2276: 120 p_0_2 + 120 p_0_7 + 120 p_0_8 + 100000 z_0_2 + 100000 z_0_7 + 100000 z_0_8 <= 300470.75235493539
 c2277: 120 p_0_1 + 120 p_0_2 + 120 p_0_7 + 120 p_0_8 + 100000 z_0_1 + 100000 z_0_2 + 100000 z_0_7 + 100000 z_0_8 <= 400187.60765763849
 c2278: 120 p_0_3 + 120 p_0_7 + 120 p_0_8 + 100000 z_0_3 + 100000 z_0_7 + 100000 z_0_8 <= 299406.92620606528
 c2279: 120 p_0_1 + 120 p_0_3 + 120 p_0_7 + 120 p_0_8 + 100000 z_0_1 + 100000 z_0_3 + 100000 z_0_7 + 100000 z_0_8 <= 399123.78150876838
 c2280: 120 p_0_2 + 120 p_0_3 + 120 p_0_7 + 120 p_0_8 + 100000 z_0_2 + 100000 z_0_3 + 100000 z_0_7 + 100000 z_0_8 <= 399406.69999132951
 c2281: 120 p_0_1 + 120 p_0_2 + 120 p_0_3 + 120 p_0_7 + 120 p_0_8 + 100000 z_0_1 + 100000 z_0_2 + 100000 z_0_3 + 100000 z_0_7 + 100000 z_0_8 <= 499123.55529403262
 c2282: 120 p_0_4 + 120 p_0_7 + 120 p_0_8 + 100000 z_0_4 + 100000 z_0_7 + 100000 z_0_8 <= 299990.84923583461
 c2283: 120 p_0_1 + 120 p_0_4 + 120 p_0_7 + 120 p_0_8 + 100000 z_0_1 + 100000 z_0_4 + 100000 z_0_7 + 100000 z_0_8 <= 399990.50893548049
 c2284: 120 p_0_2 + 120 p_0_4 + 120 p_0_7 + 120 p_0_8 + 100000 z_0_2 + 100000 z_0_4 + 100000 z_0_7 + 100000 z_0_8 <= 399961.61169276526
 c2285: 120 p_0_1 + 120 p_0_2 + 120 p_0_4 + 120 p_0_7 + 120 p_0_8 + 100000 z_0_1 + 100000 z_0_2 + 100000 z_0_4 + 100000 z_0_7 + 100000 z_0_8 <= 499961.27139241114
 c2286: 120 p_0_3 + 120 p_0_4 + 120 p_0_7 + 120 p_0_8 + 100000 z_0_3 + 100000 z_0_4 + 100000 z_0_7 + 100000 z_0_8 <= 398897.78554389521
 c2287: 120 p_0_1 + 120 p_0_3 + 120 p_0_4 + 120 p_0_7 + 120 p_0_8 + 100000 z_0_1 + 100000 z_0_3 + 100000 z_0_4 + 100000 z_0_7 + 100000 z_0_8 <= 498897.44524354103
 c2288: 120 p_0_2 + 120 p_0_3 + 120 p_0_4 + 120 p_0_7 + 120 p_0_8 + 100000 z_0_2 + 100000 z_0_3 + 100000 z_0_4 + 100000 z_0_7 + 100000 z_0_8 <= 498897.55932915944
 c2289: 120 p_0_1 + 120 p_0_2 + 120 p_0_3 + 120 p_0_4 + 120 p_0_7 + 120 p_0_8 + 100000 z_0_1 + 100000 z_0_2 + 100000 z_0_3 + 100000 z_0_4 + 100000 z_0_7 + 100000 z_0_8 <= 598897.21902880527
 c2290: 120 p_0_5 + 120 p_0_7 + 120 p_0_8 + 100000 z_0_5 + 100000 z_0_7 + 100000 z_0_8 <= 300497.19425419252
 c2291: 120 p_0_1 + 120 p_0_5 + 120 p_0_7 + 120 p_0_8 + 100000 z_0_1 + 100000 z_0_5 + 100000 z_0_7 + 100000 z_0_8 <= 400214.04955689562
 c2292: 120 p_0_2 + 120 p_0_5 + 120 p_0_7 + 120 p_0_8 + 100000 z_0_2 + 100000 z_0_5 + 100000 z_0_7 + 100000 z_0_8 <= 400442.03290554165
 c2293: 120 p_0_1 + 120 p_0_2 + 120 p_0_5 + 120 p_0_7 + 120 p_0_8 + 100000 z_0_1 + 100000 z_0_2 + 100000 z_0_5 + 100000 z_0_7 + 100000 z_0_8 <= 500158.88820824469
 c2294: 120 p_0_3 + 120 p_0_5 + 120 p_0_7 + 120 p_0_8 + 100000 z_0_3 + 100000 z_0_5 + 100000 z_0_7 + 100000 z_0_8 <= 399400.08412745193
 c2295: 120 p_0_1 + 120 p_0_3 + 120 p_0_5 + 120 p_0_7 + 120 p_0_8 + 100000 z_0_1 + 100000 z_0_3 + 100000 z_0_5 + 100000 z_0_7 + 100000 z_0_8 <= 499116.93943015503
 c2296: 120 p_0_2 + 120 p_0_3 + 120 p_0_5 + 120 p_0_7 + 120 p_0_8 + 100000 z_0_2 + 100000 z_0_3 + 100000 z_0_5 + 100000 z_0_7 + 100000 z_0_8 <= 499377.98054193577
 c2297: 120 p_0_1 + 120 p_0_2 + 120 p_0_3 + 120 p_0_5 + 120 p_0_7 + 120 p_0_8 + 100000 z_0_1 + 100000 z_0_2 + 100000 z_0_3 + 100000 z_0_5 + 100000 z_0_7 + 100000 z_0_8 <= 599094.83584463887
 c2298: 120 p_0_4 + 120 p_0_5 + 120 p_0_7 + 120 p_0_8 + 100000 z_0_4 + 100000 z_0_5 + 100000 z_0_7 + 100000 z_0_8 <= 399988.05359202239
 c2299: 120 p_0_1 + 120 p_0_4 + 120 p_0_5 + 120 p_0_7 + 120 p_0_8 + 100000 z_0_1 + 100000 z_0_4 + 100000 z_0_5 + 100000 z_0_7 + 100000 z_0_8 <= 499987.71329166827
 c2300: 120 p_0_2 + 120 p_0_4 + 120 p_0_5 + 120 p_0_7 + 120 p_0_8 + 100000 z_0_2 + 100000 z_0_4 + 100000 z_0_5 + 100000 z_0_7 + 100000 z_0_8 <= 499932.89224337152
 c2301: 120 p_0_1 + 120 p_0_2 + 120 p_0_4 + 120 p_0_5 + 120 p_0_7 + 120 p_0_8 + 100000 z_0_1 + 100000 z_0_2 + 100000 z_0_4 + 100000 z_0_5 + 100000 z_0_7 + 100000 z_0_8 <= 599932.5519430174
 c2302: 120 p_0_3 + 120 p_0_4 + 120 p_0_5 + 120 p_0_7 + 120 p_0_8 + 100000 z_0_3 + 100000 z_0_4 + 100000 z_0_5 + 100000 z_0_7 + 100000 z_0_8 <= 498890.9434652818
 c2303: 120 p_0_1 + 120 p_0_3 + 120 p_0_4 + 120 p_0_5 + 120 p_0_7 + 120 p_0_8 + 100000 z_0_1 + 100000 z_0_3 + 100000 z_0_4 + 100000 z_0_5 + 100000 z_0_7 + 100000 z_0_8 <= 598890.60316492768
 c2304: 120 p_0_2 + 120 p_0_3 + 120 p_0_4 + 120 p_0_5 + 120 p_0_7 + 120 p_0_8 + 100000 z_0_2 + 100000 z_0_3 + 100000 z_0_4 + 100000 z_0_5 + 100000 z_0_7 + 100000 z_0_8 <= 598868.83987976564
 c2305: 120 p_0_1 + 120 p_0_2 + 120 p_0_3 + 120 p_0_4 + 120 p_0_5 + 120 p_0_7 + 120 p_0_8 + 100000 z_0_1 + 100000 z_0_2 + 100000 z_0_3 + 100000 z_0_4 + 100000 z_0_5 + 100000 z_0_7 + 100000 z_0_8 <= 698868.49957941147
 c2306: 120 p_0_6 + 120 p_0_7 + 120 p_0_8 + 100000 z_0_6 + 100000 z_0_7 + 100000 z_0_8 <= 299065.99806936993
 c2307: 120 p_0_1 + 120 p_0_6 + 120 p_0_7 + 120 p_0_8 + 100000 z_0_1 + 100000 z_0_6 + 100000 z_0_7 + 100000 z_0_8 <= 398782.85337207303
 c2308: 120 p_0_2 + 120 p_0_6 + 120 p_0_7 + 120 p_0_8 + 100000 z_0_2 + 100000 z_0_6 + 100000 z_0_7 + 100000 z_0_8 <= 399065.9688597424
 c2309: 120 p_0_1 + 120 p_0_2 + 120 p_0_6 + 120 p_0_7 + 120 p_0_8 + 100000 z_0_1 + 100000 z_0_2 + 100000 z_0_6 + 100000 z_0_7 + 100000 z_0_8 <= 498782.8241624455
 c2310: 120 p_0_3 + 120 p_0_6 + 120 p_0_7 + 120 p_0_8 + 100000 z_0_3 + 100000 z_0_6 + 100000 z_0_7 + 100000 z_0_8 <= 399065.98801087477
 c2311: 120 p_0_1 + 120 p_0_3 + 120 p_0_6 + 120 p_0_7 + 120 p_0_8 + 100000 z_0_1 + 100000 z_0_3 + 100000 z_0_6 + 100000 z_0_7 + 100000 z_0_8 <= 498782.84331357788
 c2312: 120 p_0_2 + 120 p_0_3 + 120 p_0_6 + 120 p_0_7 + 120 p_0_8 + 100000 z_0_2 + 100000 z_0_3 + 100000 z_0_6 + 100000 z_0_7 + 100000 z_0_8 <= 499065.95880124724
 c2313: 120 p_0_1 + 120 p_0_2 + 120 p_0_3 + 120 p_0_6 + 120 p_0_7 + 120 p_0_8 + 100000 z_0_1 + 100000 z_0_2 + 100000 z_0_3 + 100000 z_0_6 + 100000 z_0_7 + 100000 z_0_8 <= 598782.81410395028
 c2314: 120 p_0_4 + 120 p_0_6 + 120 p_0_7 + 120 p_0_8 + 100000 z_0_4 + 100000 z_0_6 + 100000 z_0_7 + 100000 z_0_8 <= 398556.8574071998
 c2315: 120 p_0_1 + 120 p_0_4 + 120 p_0_6 + 120 p_0_7 + 120 p_0_8 + 100000 z_0_1 + 100000 z_0_4 + 100000 z_0_6 + 100000 z_0_7 + 100000 z_0_8 <= 498556.51710684568
 c2316: 120 p_0_2 + 120 p_0_4 + 120 p_0_6 + 120 p_0_7 + 120 p_0_8 + 100000 z_0_2 + 100000 z_0_4 + 100000 z_0_6 + 100000 z_0_7 + 100000 z_0_8 <= 498556.82819757226
 c2317: 120 p_0_1 + 120 p_0_2 + 120 p_0_4 + 120 p_0_6 + 120 p_0_7 + 120 p_0_8 + 100000 z_0_1 + 100000 z_0_2 + 100000 z_0_4 + 100000 z_0_6 + 100000 z_0_7 + 100000 z_0_8 <= 598556.48789721821
 c2318: 120 p_0_3 + 120 p_0_4 + 120 p_0_6 + 120 p_0_7 + 120 p_0_8 + 100000 z_0_3 + 100000 z_0_4 + 100000 z_0_6 + 100000 z_0_7 + 100000 z_0_8 <= 498556.84734870464
 c2319: 120 p_0_1 + 120 p_0_3 + 120 p_0_4 + 120 p_0_6 + 120 p_0_7 + 120 p_0_8 + 100000 z_0_1 + 100000 z_0_3 + 100000 z_0_4 + 100000 z_0_6 + 100000 z_0_7 + 100000 z_0_8 <= 598556.50704835053
 c2320: 120 p_0_2 + 120 p_0_3 + 120 p_0_4 + 120 p_0_6 + 120 p_0_7 + 120 p_0_8 + 100000 z_0_2 + 100000 z_0_3 + 100000 z_0_4 + 100000 z_0_6 + 100000 z_0_7 + 100000 z_0_8 <= 598556.81813907716
 c2321: 120 p_0_1 + 120 p_0_2 + 120 p_0_3 + 120 p_0_4 + 120 p_0_6 + 120 p_0_7 + 120 p_0_8 + 100000 z_0_1 + 100000 z_0_2 + 100000 z_0_3 + 100000 z_0_4 + 100000 z_0_6 + 100000 z_0_7 + 100000 z_0_8 <= 698556.47783872299
 c2322: 120 p_0_5 + 120 p_0_6 + 120 p_0_7 + 120 p_0_8 + 100000 z_0_5 + 100000 z_0_6 + 100000 z_0_7 + 100000 z_0_8 <= 399056.03810944012
 c2323: 120 p_0_1 + 120 p_0_5 + 120 p_0_6 + 120 p_0_7 + 120 p_0_8 + 100000 z_0_1 + 100000 z_0_5 + 100000 z_0_6 + 100000 z_0_7 + 100000 z_0_8 <= 498772.89341214317
 c2324: 120 p_0_2 + 120 p_0_5 + 120 p_0_6 + 120 p_0_7 + 120 p_0_8 + 100000 z_0_2 + 100000 z_0_5 + 100000 z_0_6 + 100000 z_0_7 + 100000 z_0_8 <= 499037.24941034865
 c2325: 120 p_0_1 + 120 p_0_2 + 120 p_0_5 + 120 p_0_6 + 120 p_0_7 + 120 p_0_8 + 100000 z_0_1 + 100000 z_0_2 + 100000 z_0_5 + 100000 z_0_6 + 100000 z_0_7 + 100000 z_0_8 <= 598754.1047130517
 c2326: 120 p_0_3 + 120 p_0_5 + 120 p_0_6 + 120 p_0_7 + 120 p_0_8 + 100000 z_0_3 + 100000 z_0_5 + 100000 z_0_6 + 100000 z_0_7 + 100000 z_0_8 <= 499056.02805094491
 c2327: 120 p_0_1 + 120 p_0_3 + 120 p_0_5 + 120 p_0_6 + 120 p_0_7 + 120 p_0_8 + 100000 z_0_1 + 100000 z_0_3 + 100000 z_0_5 + 100000 z_0_6 + 100000 z_0_7 + 100000 z_0_8 <= 598772.88335364801
 c2328: 120 p_0_2 + 120 p_0_3 + 120 p_0_5 + 120 p_0_6 + 120 p_0_7 + 120 p_0_8 + 100000 z_0_2 + 100000 z_0_3 + 100000 z_0_5 + 100000 z_0_6 + 100000 z_0_7 + 100000 z_0_8 <= 599037.2393518535
 c2329: 120 p_0_1 + 120 p_0_2 + 120 p_0_3 + 120 p_0_5 + 120 p_0_6 + 120 p_0_7 + 120 p_0_8 + 100000 z_0_1 + 100000 z_0_2 + 100000 z_0_3 + 100000 z_0_5 + 100000 z_0_6 + 100000 z_0_7 + 100000 z_0_8 <= 698754.0946545566
 c2330: 120 p_0_4 + 120 p_0_5 + 120 p_0_6 + 120 p_0_7 + 120 p_0_8 + 100000 z_0_4 + 100000 z_0_5 + 100000 z_0_6 + 100000 z_0_7 + 100000 z_0_8 <= 498546.89744726999
 c2331: 120 p_0_1 + 120 p_0_4 + 120 p_0_5 + 120 p_0_6 + 120 p_0_7 + 120 p_0_8 + 100000 z_0_1 + 100000 z_0_4 + 100000 z_0_5 + 100000 z_0_6 + 100000 z_0_7 + 100000 z_0_8 <= 598546.55714691582
 c2332: 120 p_0_2 + 120 p_0_4 + 120 p_0_5 + 120 p_0_6 + 120 p_0_7 + 120 p_0_8 + 100000 z_0_2 + 100000 z_0_4 + 100000 z_0_5 + 100000 z_0_6 + 100000 z_0_7 + 100000 z_0_8 <= 598528.10874817846
 c2333: 120 p_0_1 + 120 p_0_2 + 120 p_0_4 + 120 p_0_5 + 120 p_0_6 + 120 p_0_7 + 120 p_0_8 + 100000 z_0_1 + 100000 z_0_2 + 100000 z_0_4 + 100000 z_0_5 + 100000 z_0_6 + 100000 z_0_7 + 100000 z_0_8 <= 698527.7684478244
 c2334: 120 p_0_3 + 120 p_0_4 + 120 p_0_5 + 120 p_0_6 + 120 p_0_7 + 120 p_0_8 + 100000 z_0_3 + 100000 z_0_4 + 100000 z_0_5 + 100000 z_0_6 + 100000 z_0_7 + 100000 z_0_8 <= 598546.88738877478
 c2335: 120 p_0_1 + 120 p_0_3 + 120 p_0_4 + 120 p_0_5 + 120 p_0_6 + 120 p_0_7 + 120 p_0_8 + 100000 z_0_1 + 100000 z_0_3 + 100000 z_0_4 + 100000 z_0_5 + 100000 z_0_6 + 100000 z_0_7 + 100000 z_0_8 <= 698546.54708842072
 c2336: 120 p_0_2 + 120 p_0_3 + 120 p_0_4 + 120 p_0_5 + 120 p_0_6 + 120 p_0_7 + 120 p_0_8 + 100000 z_0_2 + 100000 z_0_3 + 100000 z_0_4 + 100000 z_0_5 + 100000 z_0_6 + 100000 z_0_7 + 100000 z_0_8 <= 698528.09868968336
 c2337: 120 p_0_1 + 120 p_0_2 + 120 p_0_3 + 120 p_0_4 + 120 p_0_5 + 120 p_0_6 + 120 p_0_7 + 120 p_0_8 + 100000 z_0_1 + 100000 z_0_2 + 100000 z_0_3 + 100000 z_0_4 + 100000 z_0_5 + 100000 z_0_6 + 100000 z_0_7 + 100000 z_0_8 <= 798527.75838932919
 c2338: 120 p_0_9 + 100000 z_0_9 <= 101080.63526739777
 c2339: 120 p_0_1 + 120 p_0_9 + 100000 z_0_1 + 100000 z_0_9 <= 200061.45267120705
 c2340: 120 p_0_2 + 120 p_0_9 + 100000 z_0_2 + 100000 z_0_9 <= 200271.29511563524
 c2341: 120 p_0_1 + 120 p_0_2 + 120 p_0_9 + 100000 z_0_1 + 100000 z_0_2 + 100000 z_0_9 <= 299252.11251944449
 c2342: 120 p_0_3 + 120 p_0_9 + 100000 z_0_3 + 100000 z_0_9 <= 201024.48473841583
 c2343: 120 p_0_1 + 120 p_0_3 + 120 p_0_9 + 100000 z_0_1 + 100000 z_0_3 + 100000 z_0_9 <= 300005.30214222509
 c2344: 120 p_0_2 + 120 p_0_3 + 120 p_0_9 + 100000 z_0_2 + 100000 z_0_3 + 100000 z_0_9 <= 300249.50708293682
 c2345: 120 p_0_1 + 120 p_0_2 + 120 p_0_3 + 120 p_0_9 + 100000 z_0_1 + 100000 z_0_2 + 100000 z_0_3 + 100000 z_0_9 <= 399230.3244867461
 c2346: 120 p_0_4 + 120 p_0_9 + 100000 z_0_4 + 100000 z_0_9 <= 199828.64579192386
 c2347: 120 p_0_1 + 120 p_0_4 + 120 p_0_9 + 100000 z_0_1 + 100000 z_0_4 + 100000 z_0_9 <= 299828.30549156974
 c2348: 120 p_0_2 + 120 p_0_4 + 120 p_0_9 + 100000 z_0_2 + 100000 z_0_4 + 100000 z_0_9 <= 299019.30564016133
 c2349: 120 p_0_1 + 120 p_0_2 + 120 p_0_4 + 120 p_0_9 + 100000 z_0_1 + 100000 z_0_2 + 100000 z_0_4 + 100000 z_0_9 <= 399018.96533980715
 c2350: 120 p_0_3 + 120 p_0_4 + 120 p_0_9 + 100000 z_0_3 + 100000 z_0_4 + 100000 z_0_9 <= 299772.49526294193
 c2351: 120 p_0_1 + 120 p_0_3 + 120 p_0_4 + 120 p_0_9 + 100000 z_0_1 + 100000 z_0_3 + 100000 z_0_4 + 100000 z_0_9 <= 399772.15496258781
 c2352: 120 p_0_2 + 120 p_0_3 + 120 p_0_4 + 120 p_0_9 + 100000 z_0_2 + 100000 z_0_3 + 100000 z_0_4 + 100000 z_0_9 <= 398997.51760746288
 c2353: 120 p_0_1 + 120 p_0_2 + 120 p_0_3 + 120 p_0_4 + 120 p_0_9 + 100000 z_0_1 + 100000 z_0_2 + 100000 z_0_3 + 100000 z_0_4 + 100000 z_0_9 <= 498997.17730710877
 c2354: 120 p_0_5 + 120 p_0_9 + 100000 z_0_5 + 100000 z_0_9 <= 200241.89604576558
 c2355: 120 p_0_1 + 120 p_0_5 + 120 p_0_9 + 100000 z_0_1 + 100000 z_0_5 + 100000 z_0_9 <= 299272.78561261314
 c2356: 120 p_0_2 + 120 p_0_5 + 120 p_0_9 + 100000 z_0_2 + 100000 z_0_5 + 100000 z_0_9 <= 300216.96691811847
 c2357: 120 p_0_1 + 120 p_0_2 + 120 p_0_5 + 120 p_0_9 + 100000 z_0_1 + 100000 z_0_2 + 100000 z_0_5 + 100000 z_0_9 <= 399217.62426396221
 c2358: 120 p_0_3 + 120 p_0_5 + 120 p_0_9 + 100000 z_0_3 + 100000 z_0_5 + 100000 z_0_9 <= 300217.28247093625
 c2359: 120 p_0_1 + 120 p_0_3 + 120 p_0_5 + 120 p_0_9 + 100000 z_0_1 + 100000 z_0_3 + 100000 z_0_5 + 100000 z_0_9 <= 399216.6350836312
 c2360: 120 p_0_2 + 120 p_0_3 + 120 p_0_5 + 120 p_0_9 + 100000 z_0_2 + 100000 z_0_3 + 100000 z_0_5 + 100000 z_0_9 <= 400195.17888542009
 c2361: 120 p_0_1 + 120 p_0_2 + 120 p_0_3 + 120 p_0_5 + 120 p_0_9 + 100000 z_0_1 + 100000 z_0_2 + 100000 z_0_3 + 100000 z_0_5 + 100000 z_0_9 <= 499175.99628922931
 c2362: 120 p_0_4 + 120 p_0_5 + 120 p_0_9 + 100000 z_0_4 + 100000 z_0_5 + 100000 z_0_9 <= 299049.60740546457
 c2363: 120 p_0_1 + 120 p_0_4 + 120 p_0_5 + 120 p_0_9 + 100000 z_0_1 + 100000 z_0_4 + 100000 z_0_5 + 100000 z_0_9 <= 399039.6384329758
 c2364: 120 p_0_2 + 120 p_0_4 + 120 p_0_5 + 120 p_0_9 + 100000 z_0_2 + 100000 z_0_4 + 100000 z_0_5 + 100000 z_0_9 <= 398994.4460568137
 c2365: 120 p_0_1 + 120 p_0_2 + 120 p_0_4 + 120 p_0_5 + 120 p_0_9 + 100000 z_0_1 + 100000 z_0_2 + 100000 z_0_4 + 100000 z_0_5 + 100000 z_0_9 <= 498984.47708432493
 c2366: 120 p_0_3 + 120 p_0_4 + 120 p_0_5 + 120 p_0_9 + 100000 z_0_3 + 100000 z_0_4 + 100000 z_0_5 + 100000 z_0_9 <= 398993.45687648264
 c2367: 120 p_0_1 + 120 p_0_3 + 120 p_0_4 + 120 p_0_5 + 120 p_0_9 + 100000 z_0_1 + 100000 z_0_3 + 100000 z_0_4 + 100000 z_0_5 + 100000 z_0_9 <= 498983.48790399387
 c2368: 120 p_0_2 + 120 p_0_3 + 120 p_0_4 + 120 p_0_5 + 120 p_0_9 + 100000 z_0_2 + 100000 z_0_3 + 100000 z_0_4 + 100000 z_0_5 + 100000 z_0_9 <= 498943.18940994615
 c2369: 120 p_0_1 + 120 p_0_2 + 120 p_0_3 + 120 p_0_4 + 120 p_0_5 + 120 p_0_9 + 100000 z_0_1 + 100000 z_0_2 + 100000 z_0_3 + 100000 z_0_4 + 100000 z_0_5 + 100000 z_0_9 <= 598942.84910959203
 c2370: 120 p_0_6 + 120 p_0_9 + 100000 z_0_6 + 100000 z_0_9 <= 200761.12093317122
 c2371: 120 p_0_1 + 120 p_0_6 + 120 p_0_9 + 100000 z_0_1 + 100000 z_0_6 + 100000 z_0_9 <= 299741.93833698053
 c2372: 120 p_0_2 + 120 p_0_6 + 120 p_0_9 + 100000 z_0_2 + 100000 z_0_6 + 100000 z_0_9 <= 300005.94951446244
 c2373: 120 p_0_1 + 120 p_0_2 + 120 p_0_6 + 120 p_0_9 + 100000 z_0_1 + 100000 z_0_2 + 100000 z_0_6 + 100000 z_0_9 <= 398986.76691827172
 c2374: 120 p_0_3 + 120 p_0_6 + 120 p_0_9 + 100000 z_0_3 + 100000 z_0_6 + 100000 z_0_9 <= 300761.11087467603
 c2375: 120 p_0_1 + 120 p_0_3 + 120 p_0_6 + 120 p_0_9 + 100000 z_0_1 + 100000 z_0_3 + 100000 z_0_6 + 100000 z_0_9 <= 399741.92827848531
 c2376: 120 p_0_2 + 120 p_0_3 + 120 p_0_6 + 120 p_0_9 + 100000 z_0_2 + 100000 z_0_3 + 100000 z_0_6 + 100000 z_0_9 <= 399986.13321919704
 c2377: 120 p_0_1 + 120 p_0_2 + 120 p_0_3 + 120 p_0_6 + 120 p_0_9 + 100000 z_0_1 + 100000 z_0_2 + 100000 z_0_3 + 100000 z_0_6 + 100000 z_0_9 <= 498966.95062300633
 c2378: 120 p_0_4 + 120 p_0_6 + 120 p_0_9 + 100000 z_0_4 + 100000 z_0_6 + 100000 z_0_9 <= 299509.13145769731
 c2379: 120 p_0_1 + 120 p_0_4 + 120 p_0_6 + 120 p_0_9 + 100000 z_0_1 + 100000 z_0_4 + 100000 z_0_6 + 100000 z_0_9 <= 399508.79115734319
 c2380: 120 p_0_2 + 120 p_0_4 + 120 p_0_6 + 120 p_0_9 + 100000 z_0_2 + 100000 z_0_4 + 100000 z_0_6 + 100000 z_0_9 <= 398753.9600389885
 c2381: 120 p_0_1 + 120 p_0_2 + 120 p_0_4 + 120 p_0_6 + 120 p_0_9 + 100000 z_0_1 + 100000 z_0_2 + 100000 z_0_4 + 100000 z_0_6 + 100000 z_0_9 <= 498753.61973863438
 c2382: 120 p_0_3 + 120 p_0_4 + 120 p_0_6 + 120 p_0_9 + 100000 z_0_3 + 100000 z_0_4 + 100000 z_0_6 + 100000 z_0_9 <= 399509.12139920215
 c2383: 120 p_0_1 + 120 p_0_3 + 120 p_0_4 + 120 p_0_6 + 120 p_0_9 + 100000 z_0_1 + 100000 z_0_3 + 100000 z_0_4 + 100000 z_0_6 + 100000 z_0_9 <= 499508.78109884803
 c2384: 120 p_0_2 + 120 p_0_3 + 120 p_0_4 + 120 p_0_6 + 120 p_0_9 + 100000 z_0_2 + 100000 z_0_3 + 100000 z_0_4 + 100000 z_0_6 + 100000 z_0_9 <= 498734.14374372311
 c2385: 120 p_0_1 + 120 p_0_2 + 120 p_0_3 + 120 p_0_4 + 120 p_0_6 + 120 p_0_9 + 100000 z_0_1 + 100000 z_0_2 + 100000 z_0_3 + 100000 z_0_4 + 100000 z_0_6 + 100000 z_0_9 <= 598733.80344336899
 c2386: 120 p_0_5 + 120 p_0_6 + 120 p_0_9 + 100000 z_0_5 + 100000 z_0_6 + 100000 z_0_9 <= 299970.41001603717
 c2387: 120 p_0_1 + 120 p_0_5 + 120 p_0_6 + 120 p_0_9 + 100000 z_0_1 + 100000 z_0_5 + 100000 z_0_6 + 100000 z_0_9 <= 398953.27127838659
 c2388: 120 p_0_2 + 120 p_0_5 + 120 p_0_6 + 120 p_0_9 + 100000 z_0_2 + 100000 z_0_5 + 100000 z_0_6 + 100000 z_0_9 <= 399951.6213169457
 c2389: 120 p_0_1 + 120 p_0_2 + 120 p_0_5 + 120 p_0_6 + 120 p_0_9 + 100000 z_0_1 + 100000 z_0_2 + 100000 z_0_5 + 100000 z_0_6 + 100000 z_0_9 <= 498932.43872075499
 c2390: 120 p_0_3 + 120 p_0_5 + 120 p_0_6 + 120 p_0_9 + 100000 z_0_3 + 100000 z_0_5 + 100000 z_0_6 + 100000 z_0_9 <= 399953.90860719647
 c2391: 120 p_0_1 + 120 p_0_3 + 120 p_0_5 + 120 p_0_6 + 120 p_0_9 + 100000 z_0_1 + 100000 z_0_3 + 100000 z_0_5 + 100000 z_0_6 + 100000 z_0_9 <= 498953.26121989143
 c2392: 120 p_0_2 + 120 p_0_3 + 120 p_0_5 + 120 p_0_6 + 120 p_0_9 + 100000 z_0_2 + 100000 z_0_3 + 100000 z_0_5 + 100000 z_0_6 + 100000 z_0_9 <= 499931.80502168031
 c2393: 120 p_0_1 + 120 p_0_2 + 120 p_0_3 + 120 p_0_5 + 120 p_0_6 + 120 p_0_9 + 100000 z_0_1 + 100000 z_0_2 + 100000 z_0_3 + 100000 z_0_5 + 100000 z_0_6 + 100000 z_0_9 <= 598912.62242548959
 c2394: 120 p_0_4 + 120 p_0_5 + 120 p_0_6 + 120 p_0_9 + 100000 z_0_4 + 100000 z_0_5 + 100000 z_0_6 + 100000 z_0_9 <= 398730.09307123802
 c2395: 120 p_0_1 + 120 p_0_4 + 120 p_0_5 + 120 p_0_6 + 120 p_0_9 + 100000 z_0_1 + 100000 z_0_4 + 100000 z_0_5 + 100000 z_0_6 + 100000 z_0_9 <= 498720.12409874925
 c2396: 120 p_0_2 + 120 p_0_4 + 120 p_0_5 + 120 p_0_6 + 120 p_0_9 + 100000 z_0_2 + 100000 z_0_4 + 100000 z_0_5 + 100000 z_0_6 + 100000 z_0_9 <= 498699.63184147177
 c2397: 120 p_0_1 + 120 p_0_2 + 120 p_0_4 + 120 p_0_5 + 120 p_0_6 + 120 p_0_9 + 100000 z_0_1 + 100000 z_0_2 + 100000 z_0_4 + 100000 z_0_5 + 100000 z_0_6 + 100000 z_0_9 <= 598699.29154111759
 c2398: 120 p_0_3 + 120 p_0_4 + 120 p_0_5 + 120 p_0_6 + 120 p_0_9 + 100000 z_0_3 + 100000 z_0_4 + 100000 z_0_5 + 100000 z_0_6 + 100000 z_0_9 <= 498730.08301274286
 c2399: 120 p_0_1 + 120 p_0_3 + 120 p_0_4 + 120 p_0_5 + 120 p_0_6 + 120 p_0_9 + 100000 z_0_1 + 100000 z_0_3 + 100000 z_0_4 + 100000 z_0_5 + 100000 z_0_6 + 100000 z_0_9 <= 598720.11404025403
 c2400: 120 p_0_2 + 120 p_0_3 + 120 p_0_4 + 120 p_0_5 + 120 p_0_6 + 120 p_0_9 + 100000 z_0_2 + 100000 z_0_3 + 100000 z_0_4 + 100000 z_0_5 + 100000 z_0_6 + 100000 z_0_9 <= 598679.81554620643
 c2401: 120 p_0_1 + 120 p_0_2 + 120 p_0_3 + 120 p_0_4 + 120 p_0_5 + 120 p_0_6 + 120 p_0_9 + 100000 z_0_1 + 100000 z_0_2 + 100000 z_0_3 + 100000 z_0_4 + 100000 z_0_5 + 100000 z_0_6 + 100000 z_0_9 <= 698679.47524585226
 c2402: 120 p_0_7 + 120 p_0_9 + 100000 z_0_7 + 100000 z_0_9 <= 200139.81329575158
 c2403: 120 p_0_1 + 120 p_0_7 + 120 p_0_9 + 100000 z_0_1 + 100000 z_0_7 + 100000 z_0_9 <= 299950.83356569376
 c2404: 120 p_0_2 + 120 p_0_7 + 120 p_0_9 + 100000 z_0_2 + 100000 z_0_7 + 100000 z_0_9 <= 299472.70108137059
 c2405: 120 p_0_1 + 120 p_0_2 + 120 p_0_7 + 120 p_0_9 + 100000 z_0_1 + 100000 z_0_2 + 100000 z_0_7 + 100000 z_0_9 <= 399210.01189044409
 c2406: 120 p_0_3 + 120 p_0_7 + 120 p_0_9 + 100000 z_0_3 + 100000 z_0_7 + 100000 z_0_9 <= 300083.66276676964
 c2407: 120 p_0_1 + 120 p_0_3 + 120 p_0_7 + 120 p_0_9 + 100000 z_0_1 + 100000 z_0_3 + 100000 z_0_7 + 100000 z_0_9 <= 399894.68303671182
 c2408: 120 p_0_2 + 120 p_0_3 + 120 p_0_7 + 120 p_0_9 + 100000 z_0_2 + 100000 z_0_3 + 100000 z_0_7 + 100000 z_0_9 <= 399450.91304867214
 c2409: 120 p_0_1 + 120 p_0_2 + 120 p_0_3 + 120 p_0_7 + 120 p_0_9 + 100000 z_0_1 + 100000 z_0_2 + 100000 z_0_3 + 100000 z_0_7 + 100000 z_0_9 <= 499167.76835137524
 c2410: 120 p_0_4 + 120 p_0_7 + 120 p_0_9 + 100000 z_0_4 + 100000 z_0_7 + 100000 z_0_9 <= 299747.2695630333
 c2411: 120 p_0_1 + 120 p_0_4 + 120 p_0_7 + 120 p_0_9 + 100000 z_0_1 + 100000 z_0_4 + 100000 z_0_7 + 100000 z_0_9 <= 399724.49730046641
 c2412: 120 p_0_2 + 120 p_0_4 + 120 p_0_7 + 120 p_0_9 + 100000 z_0_2 + 100000 z_0_4 + 100000 z_0_7 + 100000 z_0_9 <= 399006.44788778364
 c2413: 120 p_0_1 + 120 p_0_2 + 120 p_0_4 + 120 p_0_7 + 120 p_0_9 + 100000 z_0_1 + 100000 z_0_2 + 100000 z_0_4 + 100000 z_0_7 + 100000 z_0_9 <= 498983.67562521674
 c2414: 120 p_0_3 + 120 p_0_4 + 120 p_0_7 + 120 p_0_9 + 100000 z_0_3 + 100000 z_0_4 + 100000 z_0_7 + 100000 z_0_9 <= 399691.11903405137
 c2415: 120 p_0_1 + 120 p_0_3 + 120 p_0_4 + 120 p_0_7 + 120 p_0_9 + 100000 z_0_1 + 100000 z_0_3 + 100000 z_0_4 + 100000 z_0_7 + 100000 z_0_9 <= 499668.34677148447
 c2416: 120 p_0_2 + 120 p_0_3 + 120 p_0_4 + 120 p_0_7 + 120 p_0_9 + 100000 z_0_2 + 100000 z_0_3 + 100000 z_0_4 + 100000 z_0_7 + 100000 z_0_9 <= 498950.2973588017
 c2417: 120 p_0_1 + 120 p_0_2 + 120 p_0_3 + 120 p_0_4 + 120 p_0_7 + 120 p_0_9 + 100000 z_0_1 + 100000 z_0_2 + 100000 z_0_3 + 100000 z_0_4 + 100000 z_0_7 + 100000 z_0_9 <= 598941.43208614795
 c2418: 120 p_0_5 + 120 p_0_7 + 120 p_0_9 + 100000 z_0_5 + 100000 z_0_7 + 100000 z_0_9 <= 299479.79386195471
 c2419: 120 p_0_1 + 120 p_0_5 + 120 p_0_7 + 120 p_0_9 + 100000 z_0_1 + 100000 z_0_5 + 100000 z_0_7 + 100000 z_0_9 <= 399247.33689203206
 c2420: 120 p_0_2 + 120 p_0_5 + 120 p_0_7 + 120 p_0_9 + 100000 z_0_2 + 100000 z_0_5 + 100000 z_0_7 + 100000 z_0_9 <= 399454.86473430763
 c2421: 120 p_0_1 + 120 p_0_2 + 120 p_0_5 + 120 p_0_7 + 120 p_0_9 + 100000 z_0_1 + 100000 z_0_2 + 100000 z_0_5 + 100000 z_0_7 + 100000 z_0_9 <= 499192.17554338113
 c2422: 120 p_0_3 + 120 p_0_5 + 120 p_0_7 + 120 p_0_9 + 100000 z_0_3 + 100000 z_0_5 + 100000 z_0_7 + 100000 z_0_9 <= 399455.1802871254
 c2423: 120 p_0_1 + 120 p_0_3 + 120 p_0_5 + 120 p_0_7 + 120 p_0_9 + 100000 z_0_1 + 100000 z_0_3 + 100000 z_0_5 + 100000 z_0_7 + 100000 z_0_9 <= 499191.18636305007
 c2424: 120 p_0_2 + 120 p_0_3 + 120 p_0_5 + 120 p_0_7 + 120 p_0_9 + 100000 z_0_2 + 100000 z_0_3 + 100000 z_0_5 + 100000 z_0_7 + 100000 z_0_9 <= 499433.07670160924
 c2425: 120 p_0_1 + 120 p_0_2 + 120 p_0_3 + 120 p_0_5 + 120 p_0_7 + 120 p_0_9 + 100000 z_0_1 + 100000 z_0_2 + 100000 z_0_3 + 100000 z_0_5 + 100000 z_0_7 + 100000 z_0_9 <= 599149.93200431229
 c2426: 120 p_0_4 + 120 p_0_5 + 120 p_0_7 + 120 p_0_9 + 100000 z_0_4 + 100000 z_0_5 + 100000 z_0_7 + 100000 z_0_9 <= 399043.77288937161
 c2427: 120 p_0_1 + 120 p_0_4 + 120 p_0_5 + 120 p_0_7 + 120 p_0_9 + 100000 z_0_1 + 100000 z_0_4 + 100000 z_0_5 + 100000 z_0_7 + 100000 z_0_9 <= 499021.00062680471
 c2428: 120 p_0_2 + 120 p_0_4 + 120 p_0_5 + 120 p_0_7 + 120 p_0_9 + 100000 z_0_2 + 100000 z_0_4 + 100000 z_0_5 + 100000 z_0_7 + 100000 z_0_9 <= 498988.61154072068
 c2429: 120 p_0_1 + 120 p_0_2 + 120 p_0_4 + 120 p_0_5 + 120 p_0_7 + 120 p_0_9 + 100000 z_0_1 + 100000 z_0_2 + 100000 z_0_4 + 100000 z_0_5 + 100000 z_0_7 + 100000 z_0_9 <= 598965.83927815384
 c2430: 120 p_0_3 + 120 p_0_4 + 120 p_0_5 + 120 p_0_7 + 120 p_0_9 + 100000 z_0_3 + 100000 z_0_4 + 100000 z_0_5 + 100000 z_0_7 + 100000 z_0_9 <= 498987.62236038968
 c2431: 120 p_0_1 + 120 p_0_3 + 120 p_0_4 + 120 p_0_5 + 120 p_0_7 + 120 p_0_9 + 100000 z_0_1 + 100000 z_0_3 + 100000 z_0_4 + 100000 z_0_5 + 100000 z_0_7 + 100000 z_0_9 <= 598964.85009782272
 c2432: 120 p_0_2 + 120 p_0_3 + 120 p_0_4 + 120 p_0_5 + 120 p_0_7 + 120 p_0_9 + 100000 z_0_2 + 100000 z_0_3 + 100000 z_0_4 + 100000 z_0_5 + 100000 z_0_7 + 100000 z_0_9 <= 598932.46101173875
 c2433: 120 p_0_1 + 120 p_0_2 + 120 p_0_3 + 120 p_0_4 + 120 p_0_5 + 120 p_0_7 + 120 p_0_9 + 100000 z_0_1 + 100000 z_0_2 + 100000 z_0_3 + 100000 z_0_4 + 100000 z_0_5 + 100000 z_0_7 + 100000 z_0_9 <= 698923.59573908499
 c2434: 120 p_0_6 + 120 p_0_7 + 120 p_0_9 + 100000 z_0_6 + 100000 z_0_7 + 100000 z_0_9 <= 299820.29896152503
 c2435: 120 p_0_1 + 120 p_0_6 + 120 p_0_7 + 120 p_0_9 + 100000 z_0_1 + 100000 z_0_6 + 100000 z_0_7 + 100000 z_0_9 <= 399631.31923146721
 c2436: 120 p_0_2 + 120 p_0_6 + 120 p_0_7 + 120 p_0_9 + 100000 z_0_2 + 100000 z_0_6 + 100000 z_0_7 + 100000 z_0_9 <= 399207.35548019782
 c2437: 120 p_0_1 + 120 p_0_2 + 120 p_0_6 + 120 p_0_7 + 120 p_0_9 + 100000 z_0_1 + 100000 z_0_2 + 100000 z_0_6 + 100000 z_0_7 + 100000 z_0_9 <= 498924.21078290086
 c2438: 120 p_0_3 + 120 p_0_6 + 120 p_0_7 + 120 p_0_9 + 100000 z_0_3 + 100000 z_0_6 + 100000 z_0_7 + 100000 z_0_9 <= 399820.28890302987
 c2439: 120 p_0_1 + 120 p_0_3 + 120 p_0_6 + 120 p_0_7 + 120 p_0_9 + 100000 z_0_1 + 100000 z_0_3 + 100000 z_0_6 + 100000 z_0_7 + 100000 z_0_9 <= 499631.30917297205
 c2440: 120 p_0_2 + 120 p_0_3 + 120 p_0_6 + 120 p_0_7 + 120 p_0_9 + 100000 z_0_2 + 100000 z_0_3 + 100000 z_0_6 + 100000 z_0_7 + 100000 z_0_9 <= 499187.53918493236
 c2441: 120 p_0_1 + 120 p_0_2 + 120 p_0_3 + 120 p_0_6 + 120 p_0_7 + 120 p_0_9 + 100000 z_0_1 + 100000 z_0_2 + 100000 z_0_3 + 100000 z_0_6 + 100000 z_0_7 + 100000 z_0_9 <= 598904.39448763547
 c2442: 120 p_0_4 + 120 p_0_6 + 120 p_0_7 + 120 p_0_9 + 100000 z_0_4 + 100000 z_0_6 + 100000 z_0_7 + 100000 z_0_9 <= 399427.75522880675
 c2443: 120 p_0_1 + 120 p_0_4 + 120 p_0_6 + 120 p_0_7 + 120 p_0_9 + 100000 z_0_1 + 100000 z_0_4 + 100000 z_0_6 + 100000 z_0_7 + 100000 z_0_9 <= 499404.98296623986
 c2444: 120 p_0_2 + 120 p_0_4 + 120 p_0_6 + 120 p_0_7 + 120 p_0_9 + 100000 z_0_2 + 100000 z_0_4 + 100000 z_0_6 + 100000 z_0_7 + 100000 z_0_9 <= 498698.21481802769
 c2445: 120 p_0_1 + 120 p_0_2 + 120 p_0_4 + 120 p_0_6 + 120 p_0_7 + 120 p_0_9 + 100000 z_0_1 + 100000 z_0_2 + 100000 z_0_4 + 100000 z_0_6 + 100000 z_0_7 + 100000 z_0_9 <= 598697.87451767351
 c2446: 120 p_0_3 + 120 p_0_4 + 120 p_0_6 + 120 p_0_7 + 120 p_0_9 + 100000 z_0_3 + 100000 z_0_4 + 100000 z_0_6 + 100000 z_0_7 + 100000 z_0_9 <= 499427.74517031159
 c2447: 120 p_0_1 + 120 p_0_3 + 120 p_0_4 + 120 p_0_6 + 120 p_0_7 + 120 p_0_9 + 100000 z_0_1 + 100000 z_0_3 + 100000 z_0_4 + 100000 z_0_6 + 100000 z_0_7 + 100000 z_0_9 <= 599404.9729077447
 c2448: 120 p_0_2 + 120 p_0_3 + 120 p_0_4 + 120 p_0_6 + 120 p_0_7 + 120 p_0_9 + 100000 z_0_2 + 100000 z_0_3 + 100000 z_0_4 + 100000 z_0_6 + 100000 z_0_7 + 100000 z_0_9 <= 598686.92349506193
 c2449: 120 p_0_1 + 120 p_0_2 + 120 p_0_3 + 120 p_0_4 + 120 p_0_6 + 120 p_0_7 + 120 p_0_9 + 100000 z_0_1 + 100000 z_0_2 + 100000 z_0_3 + 100000 z_0_4 + 100000 z_0_6 + 100000 z_0_7 + 100000 z_0_9 <= 698678.05822240817
 c2450: 120 p_0_5 + 120 p_0_6 + 120 p_0_7 + 120 p_0_9 + 100000 z_0_5 + 100000 z_0_6 + 100000 z_0_7 + 100000 z_0_9 <= 399208.30783222633
 c2451: 120 p_0_1 + 120 p_0_5 + 120 p_0_6 + 120 p_0_7 + 120 p_0_9 + 100000 z_0_1 + 100000 z_0_5 + 100000 z_0_6 + 100000 z_0_7 + 100000 z_0_9 <= 498927.82255780551
 c2452: 120 p_0_2 + 120 p_0_5 + 120 p_0_6 + 120 p_0_7 + 120 p_0_9 + 100000 z_0_2 + 100000 z_0_5 + 100000 z_0_6 + 100000 z_0_7 + 100000 z_0_9 <= 499189.51913313486
 c2453: 120 p_0_1 + 120 p_0_2 + 120 p_0_5 + 120 p_0_6 + 120 p_0_7 + 120 p_0_9 + 100000 z_0_1 + 100000 z_0_2 + 100000 z_0_5 + 100000 z_0_6 + 100000 z_0_7 + 100000 z_0_9 <= 598906.37443583796
 c2454: 120 p_0_3 + 120 p_0_5 + 120 p_0_6 + 120 p_0_7 + 120 p_0_9 + 100000 z_0_3 + 100000 z_0_5 + 100000 z_0_6 + 100000 z_0_7 + 100000 z_0_9 <= 499191.80642338563
 c2455: 120 p_0_1 + 120 p_0_3 + 120 p_0_5 + 120 p_0_6 + 120 p_0_7 + 120 p_0_9 + 100000 z_0_1 + 100000 z_0_3 + 100000 z_0_5 + 100000 z_0_6 + 100000 z_0_7 + 100000 z_0_9 <= 598927.81249931036
 c2456: 120 p_0_2 + 120 p_0_3 + 120 p_0_5 + 120 p_0_6 + 120 p_0_7 + 120 p_0_9 + 100000 z_0_2 + 100000 z_0_3 + 100000 z_0_5 + 100000 z_0_6 + 100000 z_0_7 + 100000 z_0_9 <= 599169.70283786941
 c2457: 120 p_0_1 + 120 p_0_2 + 120 p_0_3 + 120 p_0_5 + 120 p_0_6 + 120 p_0_7 + 120 p_0_9 + 100000 z_0_1 + 100000 z_0_2 + 100000 z_0_3 + 100000 z_0_5 + 100000 z_0_6 + 100000 z_0_7 + 100000 z_0_9 <= 698886.55814057251
 c2458: 120 p_0_4 + 120 p_0_5 + 120 p_0_6 + 120 p_0_7 + 120 p_0_9 + 100000 z_0_4 + 100000 z_0_5 + 100000 z_0_6 + 100000 z_0_7 + 100000 z_0_9 <= 498724.25855514506
 c2459: 120 p_0_1 + 120 p_0_4 + 120 p_0_5 + 120 p_0_6 + 120 p_0_7 + 120 p_0_9 + 100000 z_0_1 + 100000 z_0_4 + 100000 z_0_5 + 100000 z_0_6 + 100000 z_0_7 + 100000 z_0_9 <= 598701.48629257816
 c2460: 120 p_0_2 + 120 p_0_4 + 120 p_0_5 + 120 p_0_6 + 120 p_0_7 + 120 p_0_9 + 100000 z_0_2 + 100000 z_0_4 + 100000 z_0_5 + 100000 z_0_6 + 100000 z_0_7 + 100000 z_0_9 <= 598680.37847096473
 c2461: 120 p_0_1 + 120 p_0_2 + 120 p_0_4 + 120 p_0_5 + 120 p_0_6 + 120 p_0_7 + 120 p_0_9 + 100000 z_0_1 + 100000 z_0_2 + 100000 z_0_4 + 100000 z_0_5 + 100000 z_0_6 + 100000 z_0_7 + 100000 z_0_9 <= 698680.03817061055
 c2462: 120 p_0_3 + 120 p_0_4 + 120 p_0_5 + 120 p_0_6 + 120 p_0_7 + 120 p_0_9 + 100000 z_0_3 + 100000 z_0_4 + 100000 z_0_5 + 100000 z_0_6 + 100000 z_0_7 + 100000 z_0_9 <= 598724.2484966499
 c2463: 120 p_0_1 + 120 p_0_3 + 120 p_0_4 + 120 p_0_5 + 120 p_0_6 + 120 p_0_7 + 120 p_0_9 + 100000 z_0_1 + 100000 z_0_3 + 100000 z_0_4 + 100000 z_0_5 + 100000 z_0_6 + 100000 z_0_7 + 100000 z_0_9 <= 698701.47623408295
 c2464: 120 p_0_2 + 120 p_0_3 + 120 p_0_4 + 120 p_0_5 + 120 p_0_6 + 120 p_0_7 + 120 p_0_9 + 100000 z_0_2 + 100000 z_0_3 + 100000 z_0_4 + 100000 z_0_5 + 100000 z_0_6 + 100000 z_0_7 + 100000 z_0_9 <= 698669.08714799897
 c2465: 120 p_0_1 + 120 p_0_2 + 120 p_0_3 + 120 p_0_4 + 120 p_0_5 + 120 p_0_6 + 120 p_0_7 + 120 p_0_9 + 100000 z_0_1 + 100000 z_0_2 + 100000 z_0_3 + 100000 z_0_4 + 100000 z_0_5 + 100000 z_0_6 + 100000 z_0_7 + 100000 z_0_9 <= 798660.22187534522
 c2466: 120 p_0_8 + 120 p_0_9 + 100000 z_0_8 + 100000 z_0_9 <= 200019.45860494344
 c2467: 120 p_0_1 + 120 p_0_8 + 120 p_0_9 + 100000 z_0_1 + 100000 z_0_8 + 100000 z_0_9 <= 299084.07481305784
 c2468: 120 p_0_2 + 120 p_0_8 + 120 p_0_9 + 100000 z_0_2 + 100000 z_0_8 + 100000 z_0_9 <= 300018.52513713791
 c2469: 120 p_0_1 + 120 p_0_2 + 120 p_0_8 + 120 p_0_9 + 100000 z_0_1 + 100000 z_0_2 + 100000 z_0_8 + 100000 z_0_9 <= 399054.83726998855
 c2470: 120 p_0_3 + 120 p_0_8 + 120 p_0_9 + 100000 z_0_3 + 100000 z_0_8 + 100000 z_0_9 <= 299996.96331917529
 c2471: 120 p_0_1 + 120 p_0_3 + 120 p_0_8 + 120 p_0_9 + 100000 z_0_1 + 100000 z_0_3 + 100000 z_0_8 + 100000 z_0_9 <= 399027.92428407591
 c2472: 120 p_0_2 + 120 p_0_3 + 120 p_0_8 + 120 p_0_9 + 100000 z_0_2 + 100000 z_0_3 + 100000 z_0_8 + 100000 z_0_9 <= 399996.73710443953
 c2473: 120 p_0_1 + 120 p_0_2 + 120 p_0_3 + 120 p_0_8 + 120 p_0_9 + 100000 z_0_1 + 100000 z_0_2 + 100000 z_0_3 + 100000 z_0_8 + 100000 z_0_9 <= 499012.5937309197
 c2474: 120 p_0_4 + 120 p_0_8 + 120 p_0_9 + 100000 z_0_4 + 100000 z_0_8 + 100000 z_0_9 <= 298865.71012508456
 c2475: 120 p_0_1 + 120 p_0_4 + 120 p_0_8 + 120 p_0_9 + 100000 z_0_1 + 100000 z_0_4 + 100000 z_0_8 + 100000 z_0_9 <= 398850.92763342056
 c2476: 120 p_0_2 + 120 p_0_4 + 120 p_0_8 + 120 p_0_9 + 100000 z_0_2 + 100000 z_0_4 + 100000 z_0_8 + 100000 z_0_9 <= 398836.47258201521
 c2477: 120 p_0_1 + 120 p_0_2 + 120 p_0_4 + 120 p_0_8 + 120 p_0_9 + 100000 z_0_1 + 100000 z_0_2 + 100000 z_0_4 + 100000 z_0_8 + 100000 z_0_9 <= 498821.69009035121
 c2478: 120 p_0_3 + 120 p_0_4 + 120 p_0_8 + 120 p_0_9 + 100000 z_0_3 + 100000 z_0_4 + 100000 z_0_8 + 100000 z_0_9 <= 398809.55959610263
 c2479: 120 p_0_1 + 120 p_0_3 + 120 p_0_4 + 120 p_0_8 + 120 p_0_9 + 100000 z_0_1 + 100000 z_0_3 + 100000 z_0_4 + 100000 z_0_8 + 100000 z_0_9 <= 498794.77710443863
 c2480: 120 p_0_2 + 120 p_0_3 + 120 p_0_4 + 120 p_0_8 + 120 p_0_9 + 100000 z_0_2 + 100000 z_0_3 + 100000 z_0_4 + 100000 z_0_8 + 100000 z_0_9 <= 498780.32205303328
 c2481: 120 p_0_1 + 120 p_0_2 + 120 p_0_3 + 120 p_0_4 + 120 p_0_8 + 120 p_0_9 + 100000 z_0_1 + 100000 z_0_2 + 100000 z_0_3 + 100000 z_0_4 + 100000 z_0_8 + 100000 z_0_9 <= 598771.45678037952
 c2482: 120 p_0_5 + 120 p_0_8 + 120 p_0_9 + 100000 z_0_5 + 100000 z_0_8 + 100000 z_0_9 <= 300016.66296113119
 c2483: 120 p_0_1 + 120 p_0_5 + 120 p_0_8 + 120 p_0_9 + 100000 z_0_1 + 100000 z_0_5 + 100000 z_0_8 + 100000 z_0_9 <= 399081.27916924562
 c2484: 120 p_0_2 + 120 p_0_5 + 120 p_0_8 + 120 p_0_9 + 100000 z_0_2 + 100000 z_0_5 + 100000 z_0_8 + 100000 z_0_9 <= 400015.72949332569
 c2485: 120 p_0_1 + 120 p_0_2 + 120 p_0_5 + 120 p_0_8 + 120 p_0_9 + 100000 z_0_1 + 100000 z_0_2 + 100000 z_0_5 + 100000 z_0_8 + 100000 z_0_9 <= 499026.11782059475
 c2486: 120 p_0_3 + 120 p_0_5 + 120 p_0_8 + 120 p_0_9 + 100000 z_0_3 + 100000 z_0_5 + 100000 z_0_8 + 100000 z_0_9 <= 399994.16767536302
 c2487: 120 p_0_1 + 120 p_0_3 + 120 p_0_5 + 120 p_0_8 + 120 p_0_9 + 100000 z_0_1 + 100000 z_0_3 + 100000 z_0_5 + 100000 z_0_8 + 100000 z_0_9 <= 499025.12864026369
 c2488: 120 p_0_2 + 120 p_0_3 + 120 p_0_5 + 120 p_0_8 + 120 p_0_9 + 100000 z_0_2 + 100000 z_0_3 + 100000 z_0_5 + 100000 z_0_8 + 100000 z_0_9 <= 499993.94146062725
 c2489: 120 p_0_1 + 120 p_0_2 + 120 p_0_3 + 120 p_0_5 + 120 p_0_8 + 120 p_0_9 + 100000 z_0_1 + 100000 z_0_2 + 100000 z_0_3 + 100000 z_0_5 + 100000 z_0_8 + 100000 z_0_9 <= 598983.87428152584
 c2490: 120 p_0_4 + 120 p_0_5 + 120 p_0_8 + 120 p_0_9 + 100000 z_0_4 + 100000 z_0_5 + 100000 z_0_8 + 100000 z_0_9 <= 398862.91448127234
 c2491: 120 p_0_1 + 120 p_0_4 + 120 p_0_5 + 120 p_0_8 + 120 p_0_9 + 100000 z_0_1 + 100000 z_0_4 + 100000 z_0_5 + 100000 z_0_8 + 100000 z_0_9 <= 498848.13198960829
 c2492: 120 p_0_2 + 120 p_0_4 + 120 p_0_5 + 120 p_0_8 + 120 p_0_9 + 100000 z_0_2 + 100000 z_0_4 + 100000 z_0_5 + 100000 z_0_8 + 100000 z_0_9 <= 498807.75313262147
 c2493: 120 p_0_1 + 120 p_0_2 + 120 p_0_4 + 120 p_0_5 + 120 p_0_8 + 120 p_0_9 + 100000 z_0_1 + 100000 z_0_2 + 100000 z_0_4 + 100000 z_0_5 + 100000 z_0_8 + 100000 z_0_9 <= 598792.97064095747
 c2494: 120 p_0_3 + 120 p_0_4 + 120 p_0_5 + 120 p_0_8 + 120 p_0_9 + 100000 z_0_3 + 100000 z_0_4 + 100000 z_0_5 + 100000 z_0_8 + 100000 z_0_9 <= 498806.76395229041
 c2495: 120 p_0_1 + 120 p_0_3 + 120 p_0_4 + 120 p_0_5 + 120 p_0_8 + 120 p_0_9 + 100000 z_0_1 + 100000 z_0_3 + 100000 z_0_4 + 100000 z_0_5 + 100000 z_0_8 + 100000 z_0_9 <= 598791.98146062635
 c2496: 120 p_0_2 + 120 p_0_3 + 120 p_0_4 + 120 p_0_5 + 120 p_0_8 + 120 p_0_9 + 100000 z_0_2 + 100000 z_0_3 + 100000 z_0_4 + 100000 z_0_5 + 100000 z_0_8 + 100000 z_0_9 <= 598751.60260363948
 c2497: 120 p_0_1 + 120 p_0_2 + 120 p_0_3 + 120 p_0_4 + 120 p_0_5 + 120 p_0_8 + 120 p_0_9 + 100000 z_0_1 + 100000 z_0_2 + 100000 z_0_3 + 100000 z_0_4 + 100000 z_0_5 + 100000 z_0_8 + 100000 z_0_9 <= 698742.73733098572
 c2498: 120 p_0_6 + 120 p_0_8 + 120 p_0_9 + 100000 z_0_6 + 100000 z_0_8 + 100000 z_0_9 <= 299753.20874559268
 c2499: 120 p_0_1 + 120 p_0_6 + 120 p_0_8 + 120 p_0_9 + 100000 z_0_1 + 100000 z_0_6 + 100000 z_0_8 + 100000 z_0_9 <= 398769.0653720728
 c2500: 120 p_0_2 + 120 p_0_6 + 120 p_0_8 + 120 p_0_9 + 100000 z_0_2 + 100000 z_0_6 + 100000 z_0_8 + 100000 z_0_9 <= 399753.17953596514
 c2501: 120 p_0_1 + 120 p_0_2 + 120 p_0_6 + 120 p_0_8 + 120 p_0_9 + 100000 z_0_1 + 100000 z_0_2 + 100000 z_0_6 + 100000 z_0_8 + 100000 z_0_9 <= 498769.03616244532
 c2502: 120 p_0_3 + 120 p_0_6 + 120 p_0_8 + 120 p_0_9 + 100000 z_0_3 + 100000 z_0_6 + 100000 z_0_8 + 100000 z_0_9 <= 399733.58945543552
 c2503: 120 p_0_1 + 120 p_0_3 + 120 p_0_6 + 120 p_0_8 + 120 p_0_9 + 100000 z_0_1 + 100000 z_0_3 + 100000 z_0_6 + 100000 z_0_8 + 100000 z_0_9 <= 498764.55042033613
 c2504: 120 p_0_2 + 120 p_0_3 + 120 p_0_6 + 120 p_0_8 + 120 p_0_9 + 100000 z_0_2 + 100000 z_0_3 + 100000 z_0_6 + 100000 z_0_8 + 100000 z_0_9 <= 499733.36324069975
 c2505: 120 p_0_1 + 120 p_0_2 + 120 p_0_3 + 120 p_0_6 + 120 p_0_8 + 120 p_0_9 + 100000 z_0_1 + 100000 z_0_2 + 100000 z_0_3 + 100000 z_0_6 + 100000 z_0_8 + 100000 z_0_9 <= 598749.21986717987
 c2506: 120 p_0_4 + 120 p_0_6 + 120 p_0_8 + 120 p_0_9 + 100000 z_0_4 + 100000 z_0_6 + 100000 z_0_8 + 100000 z_0_9 <= 398546.19579085801
 c2507: 120 p_0_1 + 120 p_0_4 + 120 p_0_6 + 120 p_0_8 + 120 p_0_9 + 100000 z_0_1 + 100000 z_0_4 + 100000 z_0_6 + 100000 z_0_8 + 100000 z_0_9 <= 498531.41329919401
 c2508: 120 p_0_2 + 120 p_0_4 + 120 p_0_6 + 120 p_0_8 + 120 p_0_9 + 100000 z_0_2 + 100000 z_0_4 + 100000 z_0_6 + 100000 z_0_8 + 100000 z_0_9 <= 498528.23951225926
 c2509: 120 p_0_1 + 120 p_0_2 + 120 p_0_4 + 120 p_0_6 + 120 p_0_8 + 120 p_0_9 + 100000 z_0_1 + 100000 z_0_2 + 100000 z_0_4 + 100000 z_0_6 + 100000 z_0_8 + 100000 z_0_9 <= 598527.89921190508
 c2510: 120 p_0_3 + 120 p_0_4 + 120 p_0_6 + 120 p_0_8 + 120 p_0_9 + 100000 z_0_3 + 100000 z_0_4 + 100000 z_0_6 + 100000 z_0_8 + 100000 z_0_9 <= 498546.18573236285
 c2511: 120 p_0_1 + 120 p_0_3 + 120 p_0_4 + 120 p_0_6 + 120 p_0_8 + 120 p_0_9 + 100000 z_0_1 + 100000 z_0_3 + 100000 z_0_4 + 100000 z_0_6 + 100000 z_0_8 + 100000 z_0_9 <= 598531.40324069886
 c2512: 120 p_0_2 + 120 p_0_3 + 120 p_0_4 + 120 p_0_6 + 120 p_0_8 + 120 p_0_9 + 100000 z_0_2 + 100000 z_0_3 + 100000 z_0_4 + 100000 z_0_6 + 100000 z_0_8 + 100000 z_0_9 <= 598516.9481892935
 c2513: 120 p_0_1 + 120 p_0_2 + 120 p_0_3 + 120 p_0_4 + 120 p_0_6 + 120 p_0_8 + 120 p_0_9 + 100000 z_0_1 + 100000 z_0_2 + 100000 z_0_3 + 100000 z_0_4 + 100000 z_0_6 + 100000 z_0_8 + 100000 z_0_9 <= 698508.08291663975
 c2514: 120 p_0_5 + 120 p_0_6 + 120 p_0_8 + 120 p_0_9 + 100000 z_0_5 + 100000 z_0_6 + 100000 z_0_8 + 100000 z_0_9 <= 399750.4131017804
 c2515: 120 p_0_1 + 120 p_0_5 + 120 p_0_6 + 120 p_0_8 + 120 p_0_9 + 100000 z_0_1 + 100000 z_0_5 + 100000 z_0_6 + 100000 z_0_8 + 100000 z_0_9 <= 498761.76483501907
 c2516: 120 p_0_2 + 120 p_0_5 + 120 p_0_6 + 120 p_0_8 + 120 p_0_9 + 100000 z_0_2 + 100000 z_0_5 + 100000 z_0_6 + 100000 z_0_8 + 100000 z_0_9 <= 499750.38389215292
 c2517: 120 p_0_1 + 120 p_0_2 + 120 p_0_5 + 120 p_0_6 + 120 p_0_8 + 120 p_0_9 + 100000 z_0_1 + 100000 z_0_2 + 100000 z_0_5 + 100000 z_0_6 + 100000 z_0_8 + 100000 z_0_9 <= 598740.31671305152
 c2518: 120 p_0_3 + 120 p_0_5 + 120 p_0_6 + 120 p_0_8 + 120 p_0_9 + 100000 z_0_3 + 100000 z_0_5 + 100000 z_0_6 + 100000 z_0_8 + 100000 z_0_9 <= 499730.79381162324
 c2519: 120 p_0_1 + 120 p_0_3 + 120 p_0_5 + 120 p_0_6 + 120 p_0_8 + 120 p_0_9 + 100000 z_0_1 + 100000 z_0_3 + 100000 z_0_5 + 100000 z_0_6 + 100000 z_0_8 + 100000 z_0_9 <= 598761.75477652391
 c2520: 120 p_0_2 + 120 p_0_3 + 120 p_0_5 + 120 p_0_6 + 120 p_0_8 + 120 p_0_9 + 100000 z_0_2 + 100000 z_0_3 + 100000 z_0_5 + 100000 z_0_6 + 100000 z_0_8 + 100000 z_0_9 <= 599730.56759688747
 c2521: 120 p_0_1 + 120 p_0_2 + 120 p_0_3 + 120 p_0_5 + 120 p_0_6 + 120 p_0_8 + 120 p_0_9 + 100000 z_0_1 + 100000 z_0_2 + 100000 z_0_3 + 100000 z_0_5 + 100000 z_0_6 + 100000 z_0_8 + 100000 z_0_9 <= 698720.50041778607
 c2522: 120 p_0_4 + 120 p_0_5 + 120 p_0_6 + 120 p_0_8 + 120 p_0_9 + 100000 z_0_4 + 100000 z_0_5 + 100000 z_0_6 + 100000 z_0_8 + 100000 z_0_9 <= 498543.40014704579
 c2523: 120 p_0_1 + 120 p_0_4 + 120 p_0_5 + 120 p_0_6 + 120 p_0_8 + 120 p_0_9 + 100000 z_0_1 + 100000 z_0_4 + 100000 z_0_5 + 100000 z_0_6 + 100000 z_0_8 + 100000 z_0_9 <= 598528.61765538179
 c2524: 120 p_0_2 + 120 p_0_4 + 120 p_0_5 + 120 p_0_6 + 120 p_0_8 + 120 p_0_9 + 100000 z_0_2 + 100000 z_0_4 + 100000 z_0_5 + 100000 z_0_6 + 100000 z_0_8 + 100000 z_0_9 <= 598499.52006286546
 c2525: 120 p_0_1 + 120 p_0_2 + 120 p_0_4 + 120 p_0_5 + 120 p_0_6 + 120 p_0_8 + 120 p_0_9 + 100000 z_0_1 + 100000 z_0_2 + 100000 z_0_4 + 100000 z_0_5 + 100000 z_0_6 + 100000 z_0_8 + 100000 z_0_9 <= 698499.17976251128
 c2526: 120 p_0_3 + 120 p_0_4 + 120 p_0_5 + 120 p_0_6 + 120 p_0_8 + 120 p_0_9 + 100000 z_0_3 + 100000 z_0_4 + 100000 z_0_5 + 100000 z_0_6 + 100000 z_0_8 + 100000 z_0_9 <= 598543.39008855063
 c2527: 120 p_0_1 + 120 p_0_3 + 120 p_0_4 + 120 p_0_5 + 120 p_0_6 + 120 p_0_8 + 120 p_0_9 + 100000 z_0_1 + 100000 z_0_3 + 100000 z_0_4 + 100000 z_0_5 + 100000 z_0_6 + 100000 z_0_8 + 100000 z_0_9 <= 698528.60759688658
 c2528: 120 p_0_2 + 120 p_0_3 + 120 p_0_4 + 120 p_0_5 + 120 p_0_6 + 120 p_0_8 + 120 p_0_9 + 100000 z_0_2 + 100000 z_0_3 + 100000 z_0_4 + 100000 z_0_5 + 100000 z_0_6 + 100000 z_0_8 + 100000 z_0_9 <= 698488.2287398997
 c2529: 120 p_0_1 + 120 p_0_2 + 120 p_0_3 + 120 p_0_4 + 120 p_0_5 + 120 p_0_6 + 120 p_0_8 + 120 p_0_9 + 100000 z_0_1 + 100000 z_0_2 + 100000 z_0_3 + 100000 z_0_4 + 100000 z_0_5 + 100000 z_0_6 + 100000 z_0_8 + 100000 z_0_9 <= 798479.36346724594
 c2530: 120 p_0_7 + 120 p_0_8 + 120 p_0_9 + 100000 z_0_7 + 100000 z_0_8 + 100000 z_0_9 <= 299302.26259287581
 c2531: 120 p_0_1 + 120 p_0_7 + 120 p_0_8 + 120 p_0_9 + 100000 z_0_1 + 100000 z_0_7 + 100000 z_0_8 + 100000 z_0_9 <= 399067.8774772131
 c2532: 120 p_0_2 + 120 p_0_7 + 120 p_0_8 + 120 p_0_9 + 100000 z_0_2 + 100000 z_0_7 + 100000 z_0_8 + 100000 z_0_9 <= 399301.3291250703
 c2533: 120 p_0_1 + 120 p_0_2 + 120 p_0_7 + 120 p_0_8 + 120 p_0_9 + 100000 z_0_1 + 100000 z_0_2 + 100000 z_0_7 + 100000 z_0_8 + 100000 z_0_9 <= 499038.63993414381
 c2534: 120 p_0_3 + 120 p_0_7 + 120 p_0_8 + 120 p_0_9 + 100000 z_0_3 + 100000 z_0_7 + 100000 z_0_8 + 100000 z_0_9 <= 399279.76730710763
 c2535: 120 p_0_1 + 120 p_0_3 + 120 p_0_7 + 120 p_0_8 + 120 p_0_9 + 100000 z_0_1 + 100000 z_0_3 + 100000 z_0_7 + 100000 z_0_8 + 100000 z_0_9 <= 499011.72694823117
 c2536: 120 p_0_2 + 120 p_0_3 + 120 p_0_7 + 120 p_0_8 + 120 p_0_9 + 100000 z_0_2 + 100000 z_0_3 + 100000 z_0_7 + 100000 z_0_8 + 100000 z_0_9 <= 499279.54109237186
 c2537: 120 p_0_1 + 120 p_0_2 + 120 p_0_3 + 120 p_0_7 + 120 p_0_8 + 120 p_0_9 + 100000 z_0_1 + 100000 z_0_2 + 100000 z_0_3 + 100000 z_0_7 + 100000 z_0_8 + 100000 z_0_9 <= 598996.3963950749
 c2538: 120 p_0_4 + 120 p_0_7 + 120 p_0_8 + 120 p_0_9 + 100000 z_0_4 + 100000 z_0_7 + 100000 z_0_8 + 100000 z_0_9 <= 398864.31347455265
 c2539: 120 p_0_1 + 120 p_0_4 + 120 p_0_7 + 120 p_0_8 + 120 p_0_9 + 100000 z_0_1 + 100000 z_0_4 + 100000 z_0_7 + 100000 z_0_8 + 100000 z_0_9 <= 498841.54121198575
 c2540: 120 p_0_2 + 120 p_0_4 + 120 p_0_7 + 120 p_0_8 + 120 p_0_9 + 100000 z_0_2 + 100000 z_0_4 + 100000 z_0_7 + 100000 z_0_8 + 100000 z_0_9 <= 498835.07593148336
 c2541: 120 p_0_1 + 120 p_0_2 + 120 p_0_4 + 120 p_0_7 + 120 p_0_8 + 120 p_0_9 + 100000 z_0_1 + 100000 z_0_2 + 100000 z_0_4 + 100000 z_0_7 + 100000 z_0_8 + 100000 z_0_9 <= 598812.30366891646
 c2542: 120 p_0_3 + 120 p_0_4 + 120 p_0_7 + 120 p_0_8 + 120 p_0_9 + 100000 z_0_3 + 100000 z_0_4 + 100000 z_0_7 + 100000 z_0_8 + 100000 z_0_9 <= 498808.16294557072
 c2543: 120 p_0_1 + 120 p_0_3 + 120 p_0_4 + 120 p_0_7 + 120 p_0_8 + 120 p_0_9 + 100000 z_0_1 + 100000 z_0_3 + 100000 z_0_4 + 100000 z_0_7 + 100000 z_0_8 + 100000 z_0_9 <= 598785.39068300382
 c2544: 120 p_0_2 + 120 p_0_3 + 120 p_0_4 + 120 p_0_7 + 120 p_0_8 + 120 p_0_9 + 100000 z_0_2 + 100000 z_0_3 + 100000 z_0_4 + 100000 z_0_7 + 100000 z_0_8 + 100000 z_0_9 <= 598778.92540250137
 c2545: 120 p_0_1 + 120 p_0_2 + 120 p_0_3 + 120 p_0_4 + 120 p_0_7 + 120 p_0_8 + 120 p_0_9 + 100000 z_0_1 + 100000 z_0_2 + 100000 z_0_3 + 100000 z_0_4 + 100000 z_0_7 + 100000 z_0_8 + 100000 z_0_9 <= 698770.06012984761
 c2546: 120 p_0_5 + 120 p_0_7 + 120 p_0_8 + 120 p_0_9 + 100000 z_0_5 + 100000 z_0_7 + 100000 z_0_8 + 100000 z_0_9 <= 399297.53880332358
 c2547: 120 p_0_1 + 120 p_0_5 + 120 p_0_7 + 120 p_0_8 + 120 p_0_9 + 100000 z_0_1 + 100000 z_0_5 + 100000 z_0_7 + 100000 z_0_8 + 100000 z_0_9 <= 499065.08183340088
 c2548: 120 p_0_2 + 120 p_0_5 + 120 p_0_7 + 120 p_0_8 + 120 p_0_9 + 100000 z_0_2 + 100000 z_0_5 + 100000 z_0_7 + 100000 z_0_8 + 100000 z_0_9 <= 499272.6096756765
 c2549: 120 p_0_1 + 120 p_0_2 + 120 p_0_5 + 120 p_0_7 + 120 p_0_8 + 120 p_0_9 + 100000 z_0_1 + 100000 z_0_2 + 100000 z_0_5 + 100000 z_0_7 + 100000 z_0_8 + 100000 z_0_9 <= 599009.92048475007
 c2550: 120 p_0_3 + 120 p_0_5 + 120 p_0_7 + 120 p_0_8 + 120 p_0_9 + 100000 z_0_3 + 100000 z_0_5 + 100000 z_0_7 + 100000 z_0_8 + 100000 z_0_9 <= 499272.92522849422
 c2551: 120 p_0_1 + 120 p_0_3 + 120 p_0_5 + 120 p_0_7 + 120 p_0_8 + 120 p_0_9 + 100000 z_0_1 + 100000 z_0_3 + 100000 z_0_5 + 100000 z_0_7 + 100000 z_0_8 + 100000 z_0_9 <= 599008.93130441895
 c2552: 120 p_0_2 + 120 p_0_3 + 120 p_0_5 + 120 p_0_7 + 120 p_0_8 + 120 p_0_9 + 100000 z_0_2 + 100000 z_0_3 + 100000 z_0_5 + 100000 z_0_7 + 100000 z_0_8 + 100000 z_0_9 <= 599250.82164297812
 c2553: 120 p_0_1 + 120 p_0_2 + 120 p_0_3 + 120 p_0_5 + 120 p_0_7 + 120 p_0_8 + 120 p_0_9 + 100000 z_0_1 + 100000 z_0_2 + 100000 z_0_3 + 100000 z_0_5 + 100000 z_0_7 + 100000 z_0_8 + 100000 z_0_9 <= 698967.6769456811
 c2554: 120 p_0_4 + 120 p_0_5 + 120 p_0_7 + 120 p_0_8 + 120 p_0_9 + 100000 z_0_4 + 100000 z_0_5 + 100000 z_0_7 + 100000 z_0_8 + 100000 z_0_9 <= 498861.51783074043
 c2555: 120 p_0_1 + 120 p_0_4 + 120 p_0_5 + 120 p_0_7 + 120 p_0_8 + 120 p_0_9 + 100000 z_0_1 + 100000 z_0_4 + 100000 z_0_5 + 100000 z_0_7 + 100000 z_0_8 + 100000 z_0_9 <= 598838.74556817359
 c2556: 120 p_0_2 + 120 p_0_4 + 120 p_0_5 + 120 p_0_7 + 120 p_0_8 + 120 p_0_9 + 100000 z_0_2 + 100000 z_0_4 + 100000 z_0_5 + 100000 z_0_7 + 100000 z_0_8 + 100000 z_0_9 <= 598806.35648208961
 c2557: 120 p_0_1 + 120 p_0_2 + 120 p_0_4 + 120 p_0_5 + 120 p_0_7 + 120 p_0_8 + 120 p_0_9 + 100000 z_0_1 + 100000 z_0_2 + 100000 z_0_4 + 100000 z_0_5 + 100000 z_0_7 + 100000 z_0_8 + 100000 z_0_9 <= 698783.58421952266
 c2558: 120 p_0_3 + 120 p_0_4 + 120 p_0_5 + 120 p_0_7 + 120 p_0_8 + 120 p_0_9 + 100000 z_0_3 + 100000 z_0_4 + 100000 z_0_5 + 100000 z_0_7 + 100000 z_0_8 + 100000 z_0_9 <= 598805.3673017585
 c2559: 120 p_0_1 + 120 p_0_3 + 120 p_0_4 + 120 p_0_5 + 120 p_0_7 + 120 p_0_8 + 120 p_0_9 + 100000 z_0_1 + 100000 z_0_3 + 100000 z_0_4 + 100000 z_0_5 + 100000 z_0_7 + 100000 z_0_8 + 100000 z_0_9 <= 698782.59503919166
 c2560: 120 p_0_2 + 120 p_0_3 + 120 p_0_4 + 120 p_0_5 + 120 p_0_7 + 120 p_0_8 + 120 p_0_9 + 100000 z_0_2 + 100000 z_0_3 + 100000 z_0_4 + 100000 z_0_5 + 100000 z_0_7 + 100000 z_0_8 + 100000 z_0_9 <= 698750.20595310768
 c2561: 120 p_0_1 + 120 p_0_2 + 120 p_0_3 + 120 p_0_4 + 120 p_0_5 + 120 p_0_7 + 120 p_0_8 + 120 p_0_9 + 100000 z_0_1 + 100000 z_0_2 + 100000 z_0_3 + 100000 z_0_4 + 100000 z_0_5 + 100000 z_0_7 + 100000 z_0_8 + 100000 z_0_9 <= 798741.34068045381
 c2562: 120 p_0_6 + 120 p_0_7 + 120 p_0_8 + 120 p_0_9 + 100000 z_0_6 + 100000 z_0_7 + 100000 z_0_8 + 100000 z_0_9 <= 399036.01273352501
 c2563: 120 p_0_1 + 120 p_0_6 + 120 p_0_7 + 120 p_0_8 + 120 p_0_9 + 100000 z_0_1 + 100000 z_0_6 + 100000 z_0_7 + 100000 z_0_8 + 100000 z_0_9 <= 498752.86803622812
 c2564: 120 p_0_2 + 120 p_0_6 + 120 p_0_7 + 120 p_0_8 + 120 p_0_9 + 100000 z_0_2 + 100000 z_0_6 + 100000 z_0_7 + 100000 z_0_8 + 100000 z_0_9 <= 499035.98352389748
 c2565: 120 p_0_1 + 120 p_0_2 + 120 p_0_6 + 120 p_0_7 + 120 p_0_8 + 120 p_0_9 + 100000 z_0_1 + 100000 z_0_2 + 100000 z_0_6 + 100000 z_0_7 + 100000 z_0_8 + 100000 z_0_9 <= 598752.83882660058
 c2566: 120 p_0_3 + 120 p_0_6 + 120 p_0_7 + 120 p_0_8 + 120 p_0_9 + 100000 z_0_3 + 100000 z_0_6 + 100000 z_0_7 + 100000 z_0_8 + 100000 z_0_9 <= 499016.39344336785
 c2567: 120 p_0_1 + 120 p_0_3 + 120 p_0_6 + 120 p_0_7 + 120 p_0_8 + 120 p_0_9 + 100000 z_0_1 + 100000 z_0_3 + 100000 z_0_6 + 100000 z_0_7 + 100000 z_0_8 + 100000 z_0_9 <= 598748.35308449145
 c2568: 120 p_0_2 + 120 p_0_3 + 120 p_0_6 + 120 p_0_7 + 120 p_0_8 + 120 p_0_9 + 100000 z_0_2 + 100000 z_0_3 + 100000 z_0_6 + 100000 z_0_7 + 100000 z_0_8 + 100000 z_0_9 <= 599016.16722863202
 c2569: 120 p_0_1 + 120 p_0_2 + 120 p_0_3 + 120 p_0_6 + 120 p_0_7 + 120 p_0_8 + 120 p_0_9 + 100000 z_0_1 + 100000 z_0_2 + 100000 z_0_3 + 100000 z_0_6 + 100000 z_0_7 + 100000 z_0_8 + 100000 z_0_9 <= 698733.02253133513
 c2570: 120 p_0_4 + 120 p_0_6 + 120 p_0_7 + 120 p_0_8 + 120 p_0_9 + 100000 z_0_4 + 100000 z_0_6 + 100000 z_0_7 + 100000 z_0_8 + 100000 z_0_9 <= 498544.79914032615
 c2571: 120 p_0_1 + 120 p_0_4 + 120 p_0_6 + 120 p_0_7 + 120 p_0_8 + 120 p_0_9 + 100000 z_0_1 + 100000 z_0_4 + 100000 z_0_6 + 100000 z_0_7 + 100000 z_0_8 + 100000 z_0_9 <= 598526.53177100071
 c2572: 120 p_0_2 + 120 p_0_4 + 120 p_0_6 + 120 p_0_7 + 120 p_0_8 + 120 p_0_9 + 100000 z_0_2 + 100000 z_0_4 + 100000 z_0_6 + 100000 z_0_7 + 100000 z_0_8 + 100000 z_0_9 <= 598526.84286172735
 c2573: 120 p_0_1 + 120 p_0_2 + 120 p_0_4 + 120 p_0_6 + 120 p_0_7 + 120 p_0_8 + 120 p_0_9 + 100000 z_0_1 + 100000 z_0_2 + 100000 z_0_4 + 100000 z_0_6 + 100000 z_0_7 + 100000 z_0_8 + 100000 z_0_9 <= 698526.50256137317
 c2574: 120 p_0_3 + 120 p_0_4 + 120 p_0_6 + 120 p_0_7 + 120 p_0_8 + 120 p_0_9 + 100000 z_0_3 + 100000 z_0_4 + 100000 z_0_6 + 100000 z_0_7 + 100000 z_0_8 + 100000 z_0_9 <= 598544.789081831
 c2575: 120 p_0_1 + 120 p_0_3 + 120 p_0_4 + 120 p_0_6 + 120 p_0_7 + 120 p_0_8 + 120 p_0_9 + 100000 z_0_1 + 100000 z_0_3 + 100000 z_0_4 + 100000 z_0_6 + 100000 z_0_7 + 100000 z_0_8 + 100000 z_0_9 <= 698522.01681926404
 c2576: 120 p_0_2 + 120 p_0_3 + 120 p_0_4 + 120 p_0_6 + 120 p_0_7 + 120 p_0_8 + 120 p_0_9 + 100000 z_0_2 + 100000 z_0_3 + 100000 z_0_4 + 100000 z_0_6 + 100000 z_0_7 + 100000 z_0_8 + 100000 z_0_9 <= 698515.55153876159
 c2577: 120 p_0_1 + 120 p_0_2 + 120 p_0_3 + 120 p_0_4 + 120 p_0_6 + 120 p_0_7 + 120 p_0_8 + 120 p_0_9 + 100000 z_0_1 + 100000 z_0_2 + 100000 z_0_3 + 100000 z_0_4 + 100000 z_0_6 + 100000 z_0_7 + 100000 z_0_8 + 100000 z_0_9 <= 798506.68626610783
 c2578: 120 p_0_5 + 120 p_0_6 + 120 p_0_7 + 120 p_0_8 + 120 p_0_9 + 100000 z_0_5 + 100000 z_0_6 + 100000 z_0_7 + 100000 z_0_8 + 100000 z_0_9 <= 499026.05277359515
 c2579: 120 p_0_1 + 120 p_0_5 + 120 p_0_6 + 120 p_0_7 + 120 p_0_8 + 120 p_0_9 + 100000 z_0_1 + 100000 z_0_5 + 100000 z_0_6 + 100000 z_0_7 + 100000 z_0_8 + 100000 z_0_9 <= 598745.56749917439
 c2580: 120 p_0_2 + 120 p_0_5 + 120 p_0_6 + 120 p_0_7 + 120 p_0_8 + 120 p_0_9 + 100000 z_0_2 + 100000 z_0_5 + 100000 z_0_6 + 100000 z_0_7 + 100000 z_0_8 + 100000 z_0_9 <= 599007.26407450368
 c2581: 120 p_0_1 + 120 p_0_2 + 120 p_0_5 + 120 p_0_6 + 120 p_0_7 + 120 p_0_8 + 120 p_0_9 + 100000 z_0_1 + 100000 z_0_2 + 100000 z_0_5 + 100000 z_0_6 + 100000 z_0_7 + 100000 z_0_8 + 100000 z_0_9 <= 698724.11937720678
 c2582: 120 p_0_3 + 120 p_0_5 + 120 p_0_6 + 120 p_0_7 + 120 p_0_8 + 120 p_0_9 + 100000 z_0_3 + 100000 z_0_5 + 100000 z_0_6 + 100000 z_0_7 + 100000 z_0_8 + 100000 z_0_9 <= 599009.55136475444
 c2583: 120 p_0_1 + 120 p_0_3 + 120 p_0_5 + 120 p_0_6 + 120 p_0_7 + 120 p_0_8 + 120 p_0_9 + 100000 z_0_1 + 100000 z_0_3 + 100000 z_0_5 + 100000 z_0_6 + 100000 z_0_7 + 100000 z_0_8 + 100000 z_0_9 <= 698745.55744067917
 c2584: 120 p_0_2 + 120 p_0_3 + 120 p_0_5 + 120 p_0_6 + 120 p_0_7 + 120 p_0_8 + 120 p_0_9 + 100000 z_0_2 + 100000 z_0_3 + 100000 z_0_5 + 100000 z_0_6 + 100000 z_0_7 + 100000 z_0_8 + 100000 z_0_9 <= 698987.44777923834
 c2585: 120 p_0_1 + 120 p_0_2 + 120 p_0_3 + 120 p_0_5 + 120 p_0_6 + 120 p_0_7 + 120 p_0_8 + 120 p_0_9 + 100000 z_0_1 + 100000 z_0_2 + 100000 z_0_3 + 100000 z_0_5 + 100000 z_0_6 + 100000 z_0_7 + 100000 z_0_8 + 100000 z_0_9 <= 798704.30308194133
 c2586: 120 p_0_4 + 120 p_0_5 + 120 p_0_6 + 120 p_0_7 + 120 p_0_8 + 120 p_0_9 + 100000 z_0_4 + 100000 z_0_5 + 100000 z_0_6 + 100000 z_0_7 + 100000 z_0_8 + 100000 z_0_9 <= 598542.00349651393
 c2587: 120 p_0_1 + 120 p_0_4 + 120 p_0_5 + 120 p_0_6 + 120 p_0_7 + 120 p_0_8 + 120 p_0_9 + 100000 z_0_1 + 100000 z_0_4 + 100000 z_0_5 + 100000 z_0_6 + 100000 z_0_7 + 100000 z_0_8 + 100000 z_0_9 <= 698519.23123394698
 c2588: 120 p_0_2 + 120 p_0_4 + 120 p_0_5 + 120 p_0_6 + 120 p_0_7 + 120 p_0_8 + 120 p_0_9 + 100000 z_0_2 + 100000 z_0_4 + 100000 z_0_5 + 100000 z_0_6 + 100000 z_0_7 + 100000 z_0_8 + 100000 z_0_9 <= 698498.12341233355
 c2589: 120 p_0_1 + 120 p_0_2 + 120 p_0_4 + 120 p_0_5 + 120 p_0_6 + 120 p_0_7 + 120 p_0_8 + 120 p_0_9 + 100000 z_0_1 + 100000 z_0_2 + 100000 z_0_4 + 100000 z_0_5 + 100000 z_0_6 + 100000 z_0_7 + 100000 z_0_8 + 100000 z_0_9 <= 798497.78311197949
 c2590: 120 p_0_3 + 120 p_0_4 + 120 p_0_5 + 120 p_0_6 + 120 p_0_7 + 120 p_0_8 + 120 p_0_9 + 100000 z_0_3 + 100000 z_0_4 + 100000 z_0_5 + 100000 z_0_6 + 100000 z_0_7 + 100000 z_0_8 + 100000 z_0_9 <= 698541.99343801872
 c2591: 120 p_0_1 + 120 p_0_3 + 120 p_0_4 + 120 p_0_5 + 120 p_0_6 + 120 p_0_7 + 120 p_0_8 + 120 p_0_9 + 100000 z_0_1 + 100000 z_0_3 + 100000 z_0_4 + 100000 z_0_5 + 100000 z_0_6 + 100000 z_0_7 + 100000 z_0_8 + 100000 z_0_9 <= 798519.22117545188
 c2592: 120 p_0_2 + 120 p_0_3 + 120 p_0_4 + 120 p_0_5 + 120 p_0_6 + 120 p_0_7 + 120 p_0_8 + 120 p_0_9 + 100000 z_0_2 + 100000 z_0_3 + 100000 z_0_4 + 100000 z_0_5 + 100000 z_0_6 + 100000 z_0_7 + 100000 z_0_8 + 100000 z_0_9 <= 798486.83208936779
 c2593: 120 p_0_1 + 120 p_0_2 + 120 p_0_3 + 120 p_0_4 + 120 p_0_5 + 120 p_0_6 + 120 p_0_7 + 120 p_0_8 + 120 p_0_9 + 100000 z_0_1 + 100000 z_0_2 + 100000 z_0_3 + 100000 z_0_4 + 100000 z_0_5 + 100000 z_0_6 + 100000 z_0_7 + 100000 z_0_8 + 100000 z_0_9 <= 898477.96681671403
 c2594: 120 p_0_10 + 100000 z_0_10 <= 100878.43207799659
 c2595: 120 p_0_1 + 120 p_0_10 + 100000 z_0_1 + 100000 z_0_10 <= 200865.98045529265
 c2596: 120 p_0_10 + 120 p_0_2 + 100000 z_0_10 + 100000 z_0_2 <= 200101.34750562912
 c2597: 120 p_0_1 + 120 p_0_10 + 120 p_0_2 + 100000 z_0_1 + 100000 z_0_10 + 100000 z_0_2 <= 300088.89588292519
 c2598: 120 p_0_10 + 120 p_0_3 + 100000 z_0_10 + 100000 z_0_3 <= 199745.61082463374
 c2599: 120 p_0_1 + 120 p_0_10 + 120 p_0_3 + 100000 z_0_1 + 100000 z_0_10 + 100000 z_0_3 <= 299745.44336833095
 c2600: 120 p_0_10 + 120 p_0_2 + 120 p_0_3 + 100000 z_0_10 + 100000 z_0_2 + 100000 z_0_3 <= 299037.29514202324
 c2601: 120 p_0_1 + 120 p_0_10 + 120 p_0_2 + 120 p_0_3 + 100000 z_0_1 + 100000 z_0_10 + 100000 z_0_2 + 100000 z_0_3 <= 399024.84351931931
 c2602: 120 p_0_10 + 120 p_0_4 + 100000 z_0_10 + 100000 z_0_4 <= 200825.63095469039
 c2603: 120 p_0_1 + 120 p_0_10 + 120 p_0_4 + 100000 z_0_1 + 100000 z_0_10 + 100000 z_0_4 <= 300825.29065433628
 c2604: 120 p_0_10 + 120 p_0_2 + 120 p_0_4 + 100000 z_0_10 + 100000 z_0_2 + 100000 z_0_4 <= 300048.54638232291
 c2605: 120 p_0_1 + 120 p_0_10 + 120 p_0_2 + 120 p_0_4 + 100000 z_0_1 + 100000 z_0_10 + 100000 z_0_2 + 100000 z_0_4 <= 400048.20608196879
 c2606: 120 p_0_10 + 120 p_0_3 + 120 p_0_4 + 100000 z_0_10 + 100000 z_0_3 + 100000 z_0_4 <= 299722.04330514302
 c2607: 120 p_0_1 + 120 p_0_10 + 120 p_0_3 + 120 p_0_4 + 100000 z_0_1 + 100000 z_0_10 + 100000 z_0_3 + 100000 z_0_4 <= 399709.59168243909
 c2608: 120 p_0_10 + 120 p_0_2 + 120 p_0_3 + 120 p_0_4 + 100000 z_0_10 + 100000 z_0_2 + 100000 z_0_3 + 100000 z_0_4 <= 398984.49401871709
 c2609: 120 p_0_1 + 120 p_0_10 + 120 p_0_2 + 120 p_0_3 + 120 p_0_4 + 100000 z_0_1 + 100000 z_0_10 + 100000 z_0_2 + 100000 z_0_3 + 100000 z_0_4 <= 498984.15371836291
 c2610: 120 p_0_10 + 120 p_0_5 + 100000 z_0_10 + 100000 z_0_5 <= 200139.23110041581
 c2611: 120 p_0_1 + 120 p_0_10 + 120 p_0_5 + 100000 z_0_1 + 100000 z_0_10 + 100000 z_0_5 <= 300126.77947771188
 c2612: 120 p_0_10 + 120 p_0_2 + 120 p_0_5 + 100000 z_0_10 + 100000 z_0_2 + 100000 z_0_5 <= 300084.06975176494
 c2613: 120 p_0_1 + 120 p_0_10 + 120 p_0_2 + 120 p_0_5 + 100000 z_0_1 + 100000 z_0_10 + 100000 z_0_2 + 100000 z_0_5 <= 400071.61812906101
 c2614: 120 p_0_10 + 120 p_0_3 + 120 p_0_5 + 100000 z_0_10 + 100000 z_0_3 + 100000 z_0_5 <= 299042.12097367522
 c2615: 120 p_0_1 + 120 p_0_10 + 120 p_0_3 + 120 p_0_5 + 100000 z_0_1 + 100000 z_0_10 + 100000 z_0_3 + 100000 z_0_5 <= 399029.66935097129
 c2616: 120 p_0_10 + 120 p_0_2 + 120 p_0_3 + 120 p_0_5 + 100000 z_0_10 + 100000 z_0_2 + 100000 z_0_3 + 100000 z_0_5 <= 399020.01738815906
 c2617: 120 p_0_1 + 120 p_0_10 + 120 p_0_2 + 120 p_0_3 + 120 p_0_5 + 100000 z_0_1 + 100000 z_0_10 + 100000 z_0_2 + 100000 z_0_3 + 100000 z_0_5 <= 499007.56576545513
 c2618: 120 p_0_10 + 120 p_0_4 + 120 p_0_5 + 100000 z_0_10 + 100000 z_0_4 + 100000 z_0_5 <= 300086.4299771096
 c2619: 120 p_0_1 + 120 p_0_10 + 120 p_0_4 + 120 p_0_5 + 100000 z_0_1 + 100000 z_0_10 + 100000 z_0_4 + 100000 z_0_5 <= 400086.08967675548
 c2620: 120 p_0_10 + 120 p_0_2 + 120 p_0_4 + 120 p_0_5 + 100000 z_0_10 + 100000 z_0_2 + 100000 z_0_4 + 100000 z_0_5 <= 400031.26862845873
 c2621: 120 p_0_1 + 120 p_0_10 + 120 p_0_2 + 120 p_0_4 + 120 p_0_5 + 100000 z_0_1 + 100000 z_0_10 + 100000 z_0_2 + 100000 z_0_4 + 100000 z_0_5 <= 500030.92832810461
 c2622: 120 p_0_10 + 120 p_0_3 + 120 p_0_4 + 120 p_0_5 + 100000 z_0_10 + 100000 z_0_3 + 100000 z_0_4 + 100000 z_0_5 <= 398989.31985036907
 c2623: 120 p_0_1 + 120 p_0_10 + 120 p_0_3 + 120 p_0_4 + 120 p_0_5 + 100000 z_0_1 + 100000 z_0_10 + 100000 z_0_3 + 100000 z_0_4 + 100000 z_0_5 <= 498988.97955001489
 c2624: 120 p_0_10 + 120 p_0_2 + 120 p_0_3 + 120 p_0_4 + 120 p_0_5 + 100000 z_0_10 + 100000 z_0_2 + 100000 z_0_3 + 100000 z_0_4 + 100000 z_0_5 <= 498967.2162648529
 c2625: 120 p_0_1 + 120 p_0_10 + 120 p_0_2 + 120 p_0_3 + 120 p_0_4 + 120 p_0_5 + 100000 z_0_1 + 100000 z_0_10 + 100000 z_0_2 + 100000 z_0_3 + 100000 z_0_4 + 100000 z_0_5 <= 598966.87596449873
 c2626: 120 p_0_10 + 120 p_0_6 + 100000 z_0_10 + 100000 z_0_6 <= 199400.50301376407
 c2627: 120 p_0_1 + 120 p_0_10 + 120 p_0_6 + 100000 z_0_1 + 100000 z_0_10 + 100000 z_0_6 <= 299399.59840815462
 c2628: 120 p_0_10 + 120 p_0_2 + 120 p_0_6 + 100000 z_0_10 + 100000 z_0_2 + 100000 z_0_6 <= 298696.56401043612
 c2629: 120 p_0_1 + 120 p_0_10 + 120 p_0_2 + 120 p_0_6 + 100000 z_0_1 + 100000 z_0_10 + 100000 z_0_2 + 100000 z_0_6 <= 398684.1123877322
 c2630: 120 p_0_10 + 120 p_0_3 + 120 p_0_6 + 100000 z_0_10 + 100000 z_0_3 + 100000 z_0_6 <= 299400.49295526888
 c2631: 120 p_0_1 + 120 p_0_10 + 120 p_0_3 + 120 p_0_6 + 100000 z_0_1 + 100000 z_0_10 + 100000 z_0_3 + 100000 z_0_6 <= 399399.58834965946
 c2632: 120 p_0_10 + 120 p_0_2 + 120 p_0_3 + 120 p_0_6 + 100000 z_0_10 + 100000 z_0_2 + 100000 z_0_3 + 100000 z_0_6 <= 398696.55395194096
 c2633: 120 p_0_1 + 120 p_0_10 + 120 p_0_2 + 120 p_0_3 + 120 p_0_6 + 100000 z_0_1 + 100000 z_0_10 + 100000 z_0_2 + 100000 z_0_3 + 100000 z_0_6 <= 498684.10232923704
 c2634: 120 p_0_10 + 120 p_0_4 + 120 p_0_6 + 100000 z_0_10 + 100000 z_0_4 + 100000 z_0_6 <= 299380.38859549444
 c2635: 120 p_0_1 + 120 p_0_10 + 120 p_0_4 + 120 p_0_6 + 100000 z_0_1 + 100000 z_0_10 + 100000 z_0_4 + 100000 z_0_6 <= 399367.93697279051
 c2636: 120 p_0_10 + 120 p_0_2 + 120 p_0_4 + 120 p_0_6 + 100000 z_0_10 + 100000 z_0_2 + 100000 z_0_4 + 100000 z_0_6 <= 398643.76288712991
 c2637: 120 p_0_1 + 120 p_0_10 + 120 p_0_2 + 120 p_0_4 + 120 p_0_6 + 100000 z_0_1 + 100000 z_0_10 + 100000 z_0_2 + 100000 z_0_4 + 100000 z_0_6 <= 498643.42258677579
 c2638: 120 p_0_10 + 120 p_0_3 + 120 p_0_4 + 120 p_0_6 + 100000 z_0_10 + 100000 z_0_3 + 100000 z_0_4 + 100000 z_0_6 <= 399380.37853699928
 c2639: 120 p_0_1 + 120 p_0_10 + 120 p_0_3 + 120 p_0_4 + 120 p_0_6 + 100000 z_0_1 + 100000 z_0_10 + 100000 z_0_3 + 100000 z_0_4 + 100000 z_0_6 <= 499367.92691429536
 c2640: 120 p_0_10 + 120 p_0_2 + 120 p_0_3 + 120 p_0_4 + 120 p_0_6 + 100000 z_0_10 + 100000 z_0_2 + 100000 z_0_3 + 100000 z_0_4 + 100000 z_0_6 <= 498643.75282863475
 c2641: 120 p_0_1 + 120 p_0_10 + 120 p_0_2 + 120 p_0_3 + 120 p_0_4 + 120 p_0_6 + 100000 z_0_1 + 100000 z_0_10 + 100000 z_0_2 + 100000 z_0_3 + 100000 z_0_4 + 100000 z_0_6 <= 598643.41252828063
 c2642: 120 p_0_10 + 120 p_0_5 + 120 p_0_6 + 100000 z_0_10 + 100000 z_0_5 + 100000 z_0_6 <= 298698.07495566341
 c2643: 120 p_0_1 + 120 p_0_10 + 120 p_0_5 + 120 p_0_6 + 100000 z_0_1 + 100000 z_0_10 + 100000 z_0_5 + 100000 z_0_6 <= 398685.62333295948
 c2644: 120 p_0_10 + 120 p_0_2 + 120 p_0_5 + 120 p_0_6 + 100000 z_0_10 + 100000 z_0_2 + 100000 z_0_5 + 100000 z_0_6 <= 398679.28625657194
 c2645: 120 p_0_1 + 120 p_0_10 + 120 p_0_2 + 120 p_0_5 + 120 p_0_6 + 100000 z_0_1 + 100000 z_0_10 + 100000 z_0_2 + 100000 z_0_5 + 100000 z_0_6 <= 498666.83463386801
 c2646: 120 p_0_10 + 120 p_0_3 + 120 p_0_5 + 120 p_0_6 + 100000 z_0_10 + 100000 z_0_3 + 100000 z_0_5 + 100000 z_0_6 <= 398698.06489716825
 c2647: 120 p_0_1 + 120 p_0_10 + 120 p_0_3 + 120 p_0_5 + 120 p_0_6 + 100000 z_0_1 + 100000 z_0_10 + 100000 z_0_3 + 100000 z_0_5 + 100000 z_0_6 <= 498685.61327446433
 c2648: 120 p_0_10 + 120 p_0_2 + 120 p_0_3 + 120 p_0_5 + 120 p_0_6 + 100000 z_0_10 + 100000 z_0_2 + 100000 z_0_3 + 100000 z_0_5 + 100000 z_0_6 <= 498679.27619807678
 c2649: 120 p_0_1 + 120 p_0_10 + 120 p_0_2 + 120 p_0_3 + 120 p_0_5 + 120 p_0_6 + 100000 z_0_1 + 100000 z_0_10 + 100000 z_0_2 + 100000 z_0_3 + 100000 z_0_5 + 100000 z_0_6 <= 598666.82457537286
 c2650: 120 p_0_10 + 120 p_0_4 + 120 p_0_5 + 120 p_0_6 + 100000 z_0_10 + 100000 z_0_4 + 100000 z_0_5 + 100000 z_0_6 <= 398645.2738323572
 c2651: 120 p_0_1 + 120 p_0_10 + 120 p_0_4 + 120 p_0_5 + 120 p_0_6 + 100000 z_0_1 + 100000 z_0_10 + 100000 z_0_4 + 100000 z_0_5 + 100000 z_0_6 <= 498644.93353200308
 c2652: 120 p_0_10 + 120 p_0_2 + 120 p_0_4 + 120 p_0_5 + 120 p_0_6 + 100000 z_0_10 + 100000 z_0_2 + 100000 z_0_4 + 100000 z_0_5 + 100000 z_0_6 <= 498626.48513326573
 c2653: 120 p_0_1 + 120 p_0_10 + 120 p_0_2 + 120 p_0_4 + 120 p_0_5 + 120 p_0_6 + 100000 z_0_1 + 100000 z_0_10 + 100000 z_0_2 + 100000 z_0_4 + 100000 z_0_5 + 100000 z_0_6 <= 598626.14483291155
 c2654: 120 p_0_10 + 120 p_0_3 + 120 p_0_4 + 120 p_0_5 + 120 p_0_6 + 100000 z_0_10 + 100000 z_0_3 + 100000 z_0_4 + 100000 z_0_5 + 100000 z_0_6 <= 498645.26377386204
 c2655: 120 p_0_1 + 120 p_0_10 + 120 p_0_3 + 120 p_0_4 + 120 p_0_5 + 120 p_0_6 + 100000 z_0_1 + 100000 z_0_10 + 100000 z_0_3 + 100000 z_0_4 + 100000 z_0_5 + 100000 z_0_6 <= 598644.92347350786
 c2656: 120 p_0_10 + 120 p_0_2 + 120 p_0_3 + 120 p_0_4 + 120 p_0_5 + 120 p_0_6 + 100000 z_0_10 + 100000 z_0_2 + 100000 z_0_3 + 100000 z_0_4 + 100000 z_0_5 + 100000 z_0_6 <= 598626.47507477063
 c2657: 120 p_0_1 + 120 p_0_10 + 120 p_0_2 + 120 p_0_3 + 120 p_0_4 + 120 p_0_5 + 120 p_0_6 + 100000 z_0_1 + 100000 z_0_10 + 100000 z_0_2 + 100000 z_0_3 + 100000 z_0_4 + 100000 z_0_5 + 100000 z_0_6 <= 698626.13477441645
 c2658: 120 p_0_10 + 120 p_0_7 + 100000 z_0_10 + 100000 z_0_7 <= 200842.11237050276
 c2659: 120 p_0_1 + 120 p_0_10 + 120 p_0_7 + 100000 z_0_1 + 100000 z_0_10 + 100000 z_0_7 <= 300829.6607477988
 c2660: 120 p_0_10 + 120 p_0_2 + 120 p_0_7 + 100000 z_0_10 + 100000 z_0_2 + 100000 z_0_7 <= 300101.29069525312
 c2661: 120 p_0_1 + 120 p_0_10 + 120 p_0_2 + 120 p_0_7 + 100000 z_0_1 + 100000 z_0_10 + 100000 z_0_2 + 100000 z_0_7 <= 400088.83907254919
 c2662: 120 p_0_10 + 120 p_0_3 + 120 p_0_7 + 100000 z_0_10 + 100000 z_0_3 + 100000 z_0_7 <= 299709.29111713992
 c2663: 120 p_0_1 + 120 p_0_10 + 120 p_0_3 + 120 p_0_7 + 100000 z_0_1 + 100000 z_0_10 + 100000 z_0_3 + 100000 z_0_7 <= 399709.12366083713
 c2664: 120 p_0_10 + 120 p_0_2 + 120 p_0_3 + 120 p_0_7 + 100000 z_0_10 + 100000 z_0_2 + 100000 z_0_3 + 100000 z_0_7 <= 399037.23833164724
 c2665: 120 p_0_1 + 120 p_0_10 + 120 p_0_2 + 120 p_0_3 + 120 p_0_7 + 100000 z_0_1 + 100000 z_0_10 + 100000 z_0_2 + 100000 z_0_3 + 100000 z_0_7 <= 499024.78670894331
 c2666: 120 p_0_10 + 120 p_0_4 + 120 p_0_7 + 100000 z_0_10 + 100000 z_0_4 + 100000 z_0_7 <= 300789.31124719657
 c2667: 120 p_0_1 + 120 p_0_10 + 120 p_0_4 + 120 p_0_7 + 100000 z_0_1 + 100000 z_0_10 + 100000 z_0_4 + 100000 z_0_7 <= 400788.9709468424
 c2668: 120 p_0_10 + 120 p_0_2 + 120 p_0_4 + 120 p_0_7 + 100000 z_0_10 + 100000 z_0_2 + 100000 z_0_4 + 100000 z_0_7 <= 400048.48957194691
 c2669: 120 p_0_1 + 120 p_0_10 + 120 p_0_2 + 120 p_0_4 + 120 p_0_7 + 100000 z_0_1 + 100000 z_0_10 + 100000 z_0_2 + 100000 z_0_4 + 100000 z_0_7 <= 500048.14927159279
 c2670: 120 p_0_10 + 120 p_0_3 + 120 p_0_4 + 120 p_0_7 + 100000 z_0_10 + 100000 z_0_3 + 100000 z_0_4 + 100000 z_0_7 <= 399685.72359764919
 c2671: 120 p_0_1 + 120 p_0_10 + 120 p_0_3 + 120 p_0_4 + 120 p_0_7 + 100000 z_0_1 + 100000 z_0_10 + 100000 z_0_3 + 100000 z_0_4 + 100000 z_0_7 <= 499668.43385988072
 c2672: 120 p_0_10 + 120 p_0_2 + 120 p_0_3 + 120 p_0_4 + 120 p_0_7 + 100000 z_0_10 + 100000 z_0_2 + 100000 z_0_3 + 100000 z_0_4 + 100000 z_0_7 <= 498984.43720834109
 c2673: 120 p_0_1 + 120 p_0_10 + 120 p_0_2 + 120 p_0_3 + 120 p_0_4 + 120 p_0_7 + 100000 z_0_1 + 100000 z_0_10 + 100000 z_0_2 + 100000 z_0_3 + 100000 z_0_4 + 100000 z_0_7 <= 598984.09690798691
 c2674: 120 p_0_10 + 120 p_0_5 + 120 p_0_7 + 100000 z_0_10 + 100000 z_0_5 + 100000 z_0_7 <= 300138.61569684104
 c2675: 120 p_0_1 + 120 p_0_10 + 120 p_0_5 + 120 p_0_7 + 100000 z_0_1 + 100000 z_0_10 + 100000 z_0_5 + 100000 z_0_7 <= 400126.16407413711
 c2676: 120 p_0_10 + 120 p_0_2 + 120 p_0_5 + 120 p_0_7 + 100000 z_0_10 + 100000 z_0_2 + 100000 z_0_5 + 100000 z_0_7 <= 400083.45434819016
 c2677: 120 p_0_1 + 120 p_0_10 + 120 p_0_2 + 120 p_0_5 + 120 p_0_7 + 100000 z_0_1 + 100000 z_0_10 + 100000 z_0_2 + 100000 z_0_5 + 100000 z_0_7 <= 500071.00272548624
 c2678: 120 p_0_10 + 120 p_0_3 + 120 p_0_5 + 120 p_0_7 + 100000 z_0_10 + 100000 z_0_3 + 100000 z_0_5 + 100000 z_0_7 <= 399041.5055701005
 c2679: 120 p_0_1 + 120 p_0_10 + 120 p_0_3 + 120 p_0_5 + 120 p_0_7 + 100000 z_0_1 + 100000 z_0_10 + 100000 z_0_3 + 100000 z_0_5 + 100000 z_0_7 <= 499029.05394739658
 c2680: 120 p_0_10 + 120 p_0_2 + 120 p_0_3 + 120 p_0_5 + 120 p_0_7 + 100000 z_0_10 + 100000 z_0_2 + 100000 z_0_3 + 100000 z_0_5 + 100000 z_0_7 <= 499019.40198458428
 c2681: 120 p_0_1 + 120 p_0_10 + 120 p_0_2 + 120 p_0_3 + 120 p_0_5 + 120 p_0_7 + 100000 z_0_1 + 100000 z_0_10 + 100000 z_0_2 + 100000 z_0_3 + 100000 z_0_5 + 100000 z_0_7 <= 599006.95036188036
 c2682: 120 p_0_10 + 120 p_0_4 + 120 p_0_5 + 120 p_0_7 + 100000 z_0_10 + 100000 z_0_4 + 100000 z_0_5 + 100000 z_0_7 <= 400085.81457353488
 c2683: 120 p_0_1 + 120 p_0_10 + 120 p_0_4 + 120 p_0_5 + 120 p_0_7 + 100000 z_0_1 + 100000 z_0_10 + 100000 z_0_4 + 100000 z_0_5 + 100000 z_0_7 <= 500085.47427318071
 c2684: 120 p_0_10 + 120 p_0_2 + 120 p_0_4 + 120 p_0_5 + 120 p_0_7 + 100000 z_0_10 + 100000 z_0_2 + 100000 z_0_4 + 100000 z_0_5 + 100000 z_0_7 <= 500030.65322488401
 c2685: 120 p_0_1 + 120 p_0_10 + 120 p_0_2 + 120 p_0_4 + 120 p_0_5 + 120 p_0_7 + 100000 z_0_1 + 100000 z_0_10 + 100000 z_0_2 + 100000 z_0_4 + 100000 z_0_5 + 100000 z_0_7 <= 600030.31292452989
 c2686: 120 p_0_10 + 120 p_0_3 + 120 p_0_4 + 120 p_0_5 + 120 p_0_7 + 100000 z_0_10 + 100000 z_0_3 + 100000 z_0_4 + 100000 z_0_5 + 100000 z_0_7 <= 498988.70444679429
 c2687: 120 p_0_1 + 120 p_0_10 + 120 p_0_3 + 120 p_0_4 + 120 p_0_5 + 120 p_0_7 + 100000 z_0_1 + 100000 z_0_10 + 100000 z_0_3 + 100000 z_0_4 + 100000 z_0_5 + 100000 z_0_7 <= 598988.36414644017
 c2688: 120 p_0_10 + 120 p_0_2 + 120 p_0_3 + 120 p_0_4 + 120 p_0_5 + 120 p_0_7 + 100000 z_0_10 + 100000 z_0_2 + 100000 z_0_3 + 100000 z_0_4 + 100000 z_0_5 + 100000 z_0_7 <= 598966.60086127813
 c2689: 120 p_0_1 + 120 p_0_10 + 120 p_0_2 + 120 p_0_3 + 120 p_0_4 + 120 p_0_5 + 120 p_0_7 + 100000 z_0_1 + 100000 z_0_10 + 100000 z_0_2 + 100000 z_0_3 + 100000 z_0_4 + 100000 z_0_5 + 100000 z_0_7 <= 698966.26056092395
 c2690: 120 p_0_10 + 120 p_0_6 + 120 p_0_7 + 100000 z_0_10 + 100000 z_0_6 + 100000 z_0_7 <= 299364.18330627022
 c2691: 120 p_0_1 + 120 p_0_10 + 120 p_0_6 + 120 p_0_7 + 100000 z_0_1 + 100000 z_0_10 + 100000 z_0_6 + 100000 z_0_7 <= 399363.2787006608
 c2692: 120 p_0_10 + 120 p_0_2 + 120 p_0_6 + 120 p_0_7 + 100000 z_0_10 + 100000 z_0_2 + 100000 z_0_6 + 100000 z_0_7 <= 398696.50720006012
 c2693: 120 p_0_1 + 120 p_0_10 + 120 p_0_2 + 120 p_0_6 + 120 p_0_7 + 100000 z_0_1 + 100000 z_0_10 + 100000 z_0_2 + 100000 z_0_6 + 100000 z_0_7 <= 498684.05557735619
 c2694: 120 p_0_10 + 120 p_0_3 + 120 p_0_6 + 120 p_0_7 + 100000 z_0_10 + 100000 z_0_3 + 100000 z_0_6 + 100000 z_0_7 <= 399364.17324777506
 c2695: 120 p_0_1 + 120 p_0_10 + 120 p_0_3 + 120 p_0_6 + 120 p_0_7 + 100000 z_0_1 + 100000 z_0_10 + 100000 z_0_3 + 100000 z_0_6 + 100000 z_0_7 <= 499363.26864216558
 c2696: 120 p_0_10 + 120 p_0_2 + 120 p_0_3 + 120 p_0_6 + 120 p_0_7 + 100000 z_0_10 + 100000 z_0_2 + 100000 z_0_3 + 100000 z_0_6 + 100000 z_0_7 <= 498696.49714156496
 c2697: 120 p_0_1 + 120 p_0_10 + 120 p_0_2 + 120 p_0_3 + 120 p_0_6 + 120 p_0_7 + 100000 z_0_1 + 100000 z_0_10 + 100000 z_0_2 + 100000 z_0_3 + 100000 z_0_6 + 100000 z_0_7 <= 598684.04551886104
 c2698: 120 p_0_10 + 120 p_0_4 + 120 p_0_6 + 120 p_0_7 + 100000 z_0_10 + 100000 z_0_4 + 100000 z_0_6 + 100000 z_0_7 <= 399344.06888800056
 c2699: 120 p_0_1 + 120 p_0_10 + 120 p_0_4 + 120 p_0_6 + 120 p_0_7 + 100000 z_0_1 + 100000 z_0_10 + 100000 z_0_4 + 100000 z_0_6 + 100000 z_0_7 <= 499322.58889970439
 c2700: 120 p_0_10 + 120 p_0_2 + 120 p_0_4 + 120 p_0_6 + 120 p_0_7 + 100000 z_0_10 + 100000 z_0_2 + 100000 z_0_4 + 100000 z_0_6 + 100000 z_0_7 <= 498643.70607675391
 c2701: 120 p_0_1 + 120 p_0_10 + 120 p_0_2 + 120 p_0_4 + 120 p_0_6 + 120 p_0_7 + 100000 z_0_1 + 100000 z_0_10 + 100000 z_0_2 + 100000 z_0_4 + 100000 z_0_6 + 100000 z_0_7 <= 598643.36577639973
 c2702: 120 p_0_10 + 120 p_0_3 + 120 p_0_4 + 120 p_0_6 + 120 p_0_7 + 100000 z_0_10 + 100000 z_0_3 + 100000 z_0_4 + 100000 z_0_6 + 100000 z_0_7 <= 499344.0588295054
 c2703: 120 p_0_1 + 120 p_0_10 + 120 p_0_3 + 120 p_0_4 + 120 p_0_6 + 120 p_0_7 + 100000 z_0_1 + 100000 z_0_10 + 100000 z_0_3 + 100000 z_0_4 + 100000 z_0_6 + 100000 z_0_7 <= 599322.57884120918
 c2704: 120 p_0_10 + 120 p_0_2 + 120 p_0_3 + 120 p_0_4 + 120 p_0_6 + 120 p_0_7 + 100000 z_0_10 + 100000 z_0_2 + 100000 z_0_3 + 100000 z_0_4 + 100000 z_0_6 + 100000 z_0_7 <= 598643.69601825881
 c2705: 120 p_0_1 + 120 p_0_10 + 120 p_0_2 + 120 p_0_3 + 120 p_0_4 + 120 p_0_6 + 120 p_0_7 + 100000 z_0_1 + 100000 z_0_10 + 100000 z_0_2 + 100000 z_0_3 + 100000 z_0_4 + 100000 z_0_6 + 100000 z_0_7 <= 698643.35571790463
 c2706: 120 p_0_10 + 120 p_0_5 + 120 p_0_6 + 120 p_0_7 + 100000 z_0_10 + 100000 z_0_5 + 100000 z_0_6 + 100000 z_0_7 <= 398697.45955208864
 c2707: 120 p_0_1 + 120 p_0_10 + 120 p_0_5 + 120 p_0_6 + 120 p_0_7 + 100000 z_0_1 + 100000 z_0_10 + 100000 z_0_5 + 100000 z_0_6 + 100000 z_0_7 <= 498685.00792938471
 c2708: 120 p_0_10 + 120 p_0_2 + 120 p_0_5 + 120 p_0_6 + 120 p_0_7 + 100000 z_0_10 + 100000 z_0_2 + 100000 z_0_5 + 100000 z_0_6 + 100000 z_0_7 <= 498678.67085299717
 c2709: 120 p_0_1 + 120 p_0_10 + 120 p_0_2 + 120 p_0_5 + 120 p_0_6 + 120 p_0_7 + 100000 z_0_1 + 100000 z_0_10 + 100000 z_0_2 + 100000 z_0_5 + 100000 z_0_6 + 100000 z_0_7 <= 598666.2192302933
 c2710: 120 p_0_10 + 120 p_0_3 + 120 p_0_5 + 120 p_0_6 + 120 p_0_7 + 100000 z_0_10 + 100000 z_0_3 + 100000 z_0_5 + 100000 z_0_6 + 100000 z_0_7 <= 498697.44949359348
 c2711: 120 p_0_1 + 120 p_0_10 + 120 p_0_3 + 120 p_0_5 + 120 p_0_6 + 120 p_0_7 + 100000 z_0_1 + 100000 z_0_10 + 100000 z_0_3 + 100000 z_0_5 + 100000 z_0_6 + 100000 z_0_7 <= 598684.99787088949
 c2712: 120 p_0_10 + 120 p_0_2 + 120 p_0_3 + 120 p_0_5 + 120 p_0_6 + 120 p_0_7 + 100000 z_0_10 + 100000 z_0_2 + 100000 z_0_3 + 100000 z_0_5 + 100000 z_0_6 + 100000 z_0_7 <= 598678.66079450201
 c2713: 120 p_0_1 + 120 p_0_10 + 120 p_0_2 + 120 p_0_3 + 120 p_0_5 + 120 p_0_6 + 120 p_0_7 + 100000 z_0_1 + 100000 z_0_10 + 100000 z_0_2 + 100000 z_0_3 + 100000 z_0_5 + 100000 z_0_6 + 100000 z_0_7 <= 698666.20917179808
 c2714: 120 p_0_10 + 120 p_0_4 + 120 p_0_5 + 120 p_0_6 + 120 p_0_7 + 100000 z_0_10 + 100000 z_0_4 + 100000 z_0_5 + 100000 z_0_6 + 100000 z_0_7 <= 498644.65842878248
 c2715: 120 p_0_1 + 120 p_0_10 + 120 p_0_4 + 120 p_0_5 + 120 p_0_6 + 120 p_0_7 + 100000 z_0_1 + 100000 z_0_10 + 100000 z_0_4 + 100000 z_0_5 + 100000 z_0_6 + 100000 z_0_7 <= 598644.31812842831
 c2716: 120 p_0_10 + 120 p_0_2 + 120 p_0_4 + 120 p_0_5 + 120 p_0_6 + 120 p_0_7 + 100000 z_0_10 + 100000 z_0_2 + 100000 z_0_4 + 100000 z_0_5 + 100000 z_0_6 + 100000 z_0_7 <= 598625.86972969095
 c2717: 120 p_0_1 + 120 p_0_10 + 120 p_0_2 + 120 p_0_4 + 120 p_0_5 + 120 p_0_6 + 120 p_0_7 + 100000 z_0_1 + 100000 z_0_10 + 100000 z_0_2 + 100000 z_0_4 + 100000 z_0_5 + 100000 z_0_6 + 100000 z_0_7 <= 698625.52942933689
 c2718: 120 p_0_10 + 120 p_0_3 + 120 p_0_4 + 120 p_0_5 + 120 p_0_6 + 120 p_0_7 + 100000 z_0_10 + 100000 z_0_3 + 100000 z_0_4 + 100000 z_0_5 + 100000 z_0_6 + 100000 z_0_7 <= 598644.64837028726
 c2719: 120 p_0_1 + 120 p_0_10 + 120 p_0_3 + 120 p_0_4 + 120 p_0_5 + 120 p_0_6 + 120 p_0_7 + 100000 z_0_1 + 100000 z_0_10 + 100000 z_0_3 + 100000 z_0_4 + 100000 z_0_5 + 100000 z_0_6 + 100000 z_0_7 <= 698644.30806993309
 c2720: 120 p_0_10 + 120 p_0_2 + 120 p_0_3 + 120 p_0_4 + 120 p_0_5 + 120 p_0_6 + 120 p_0_7 + 100000 z_0_10 + 100000 z_0_2 + 100000 z_0_3 + 100000 z_0_4 + 100000 z_0_5 + 100000 z_0_6 + 100000 z_0_7 <= 698625.85967119585
 c2721: 120 p_0_1 + 120 p_0_10 + 120 p_0_2 + 120 p_0_3 + 120 p_0_4 + 120 p_0_5 + 120 p_0_6 + 120 p_0_7 + 100000 z_0_1 + 100000 z_0_10 + 100000 z_0_2 + 100000 z_0_3 + 100000 z_0_4 + 100000 z_0_5 + 100000 z_0_6 + 100000 z_0_7 <= 798625.51937084168
 c2722: 120 p_0_10 + 120 p_0_8 + 100000 z_0_10 + 100000 z_0_8 <= 199963.34803805582
 c2723: 120 p_0_1 + 120 p_0_10 + 120 p_0_8 + 100000 z_0_1 + 100000 z_0_10 + 100000 z_0_8 <= 299950.89641535189
 c2724: 120 p_0_10 + 120 p_0_2 + 120 p_0_8 + 100000 z_0_10 + 100000 z_0_2 + 100000 z_0_8 <= 299934.11049498647
 c2725: 120 p_0_1 + 120 p_0_10 + 120 p_0_2 + 120 p_0_8 + 100000 z_0_1 + 100000 z_0_10 + 100000 z_0_2 + 100000 z_0_8 <= 399921.65887228254
 c2726: 120 p_0_10 + 120 p_0_3 + 120 p_0_8 + 100000 z_0_10 + 100000 z_0_3 + 100000 z_0_8 <= 298870.28434611642
 c2727: 120 p_0_1 + 120 p_0_10 + 120 p_0_3 + 120 p_0_8 + 100000 z_0_1 + 100000 z_0_10 + 100000 z_0_3 + 100000 z_0_8 <= 398857.83272341243
 c2728: 120 p_0_10 + 120 p_0_2 + 120 p_0_3 + 120 p_0_8 + 100000 z_0_10 + 100000 z_0_2 + 100000 z_0_3 + 100000 z_0_8 <= 398870.05813138065
 c2729: 120 p_0_1 + 120 p_0_10 + 120 p_0_2 + 120 p_0_3 + 120 p_0_8 + 100000 z_0_1 + 100000 z_0_10 + 100000 z_0_2 + 100000 z_0_3 + 100000 z_0_8 <= 498857.60650867666
 c2730: 120 p_0_10 + 120 p_0_4 + 120 p_0_8 + 100000 z_0_10 + 100000 z_0_4 + 100000 z_0_8 <= 299910.5469147496
 c2731: 120 p_0_1 + 120 p_0_10 + 120 p_0_4 + 120 p_0_8 + 100000 z_0_1 + 100000 z_0_10 + 100000 z_0_4 + 100000 z_0_8 <= 399910.20661439549
 c2732: 120 p_0_10 + 120 p_0_2 + 120 p_0_4 + 120 p_0_8 + 100000 z_0_10 + 100000 z_0_2 + 100000 z_0_4 + 100000 z_0_8 <= 399881.30937168031
 c2733: 120 p_0_1 + 120 p_0_10 + 120 p_0_2 + 120 p_0_4 + 120 p_0_8 + 100000 z_0_1 + 100000 z_0_10 + 100000 z_0_2 + 100000 z_0_4 + 100000 z_0_8 <= 499880.96907132614
 c2734: 120 p_0_10 + 120 p_0_3 + 120 p_0_4 + 120 p_0_8 + 100000 z_0_10 + 100000 z_0_3 + 100000 z_0_4 + 100000 z_0_8 <= 398817.4832228102
 c2735: 120 p_0_1 + 120 p_0_10 + 120 p_0_3 + 120 p_0_4 + 120 p_0_8 + 100000 z_0_1 + 100000 z_0_10 + 100000 z_0_3 + 100000 z_0_4 + 100000 z_0_8 <= 498817.14292245603
 c2736: 120 p_0_10 + 120 p_0_2 + 120 p_0_3 + 120 p_0_4 + 120 p_0_8 + 100000 z_0_10 + 100000 z_0_2 + 100000 z_0_3 + 100000 z_0_4 + 100000 z_0_8 <= 498817.25700807443
 c2737: 120 p_0_1 + 120 p_0_10 + 120 p_0_2 + 120 p_0_3 + 120 p_0_4 + 120 p_0_8 + 100000 z_0_1 + 100000 z_0_10 + 100000 z_0_2 + 100000 z_0_3 + 100000 z_0_4 + 100000 z_0_8 <= 598816.91670772026
 c2738: 120 p_0_10 + 120 p_0_5 + 120 p_0_8 + 100000 z_0_10 + 100000 z_0_5 + 100000 z_0_8 <= 299960.5523942436
 c2739: 120 p_0_1 + 120 p_0_10 + 120 p_0_5 + 120 p_0_8 + 100000 z_0_1 + 100000 z_0_10 + 100000 z_0_5 + 100000 z_0_8 <= 399948.10077153967
 c2740: 120 p_0_10 + 120 p_0_2 + 120 p_0_5 + 120 p_0_8 + 100000 z_0_10 + 100000 z_0_2 + 100000 z_0_5 + 100000 z_0_8 <= 399905.39104559273
 c2741: 120 p_0_1 + 120 p_0_10 + 120 p_0_2 + 120 p_0_5 + 120 p_0_8 + 100000 z_0_1 + 100000 z_0_10 + 100000 z_0_2 + 100000 z_0_5 + 100000 z_0_8 <= 499892.9394228888
 c2742: 120 p_0_10 + 120 p_0_3 + 120 p_0_5 + 120 p_0_8 + 100000 z_0_10 + 100000 z_0_3 + 100000 z_0_5 + 100000 z_0_8 <= 398863.44226750301
 c2743: 120 p_0_1 + 120 p_0_10 + 120 p_0_3 + 120 p_0_5 + 120 p_0_8 + 100000 z_0_1 + 100000 z_0_10 + 100000 z_0_3 + 100000 z_0_5 + 100000 z_0_8 <= 498850.99064479908
 c2744: 120 p_0_10 + 120 p_0_2 + 120 p_0_3 + 120 p_0_5 + 120 p_0_8 + 100000 z_0_10 + 100000 z_0_2 + 100000 z_0_3 + 100000 z_0_5 + 100000 z_0_8 <= 498841.33868198685
 c2745: 120 p_0_1 + 120 p_0_10 + 120 p_0_2 + 120 p_0_3 + 120 p_0_5 + 120 p_0_8 + 100000 z_0_1 + 100000 z_0_10 + 100000 z_0_2 + 100000 z_0_3 + 100000 z_0_5 + 100000 z_0_8 <= 598828.88705928286
 c2746: 120 p_0_10 + 120 p_0_4 + 120 p_0_5 + 120 p_0_8 + 100000 z_0_10 + 100000 z_0_4 + 100000 z_0_5 + 100000 z_0_8 <= 399907.75127093738
 c2747: 120 p_0_1 + 120 p_0_10 + 120 p_0_4 + 120 p_0_5 + 120 p_0_8 + 100000 z_0_1 + 100000 z_0_10 + 100000 z_0_4 + 100000 z_0_5 + 100000 z_0_8 <= 499907.41097058327
 c2748: 120 p_0_10 + 120 p_0_2 + 120 p_0_4 + 120 p_0_5 + 120 p_0_8 + 100000 z_0_10 + 100000 z_0_2 + 100000 z_0_4 + 100000 z_0_5 + 100000 z_0_8 <= 499852.58992228651
 c2749: 120 p_0_1 + 120 p_0_10 + 120 p_0_2 + 120 p_0_4 + 120 p_0_5 + 120 p_0_8 + 100000 z_0_1 + 100000 z_0_10 + 100000 z_0_2 + 100000 z_0_4 + 100000 z_0_5 + 100000 z_0_8 <= 599852.24962193239
 c2750: 120 p_0_10 + 120 p_0_3 + 120 p_0_4 + 120 p_0_5 + 120 p_0_8 + 100000 z_0_10 + 100000 z_0_3 + 100000 z_0_4 + 100000 z_0_5 + 100000 z_0_8 <= 498810.64114419679
 c2751: 120 p_0_1 + 120 p_0_10 + 120 p_0_3 + 120 p_0_4 + 120 p_0_5 + 120 p_0_8 + 100000 z_0_1 + 100000 z_0_10 + 100000 z_0_3 + 100000 z_0_4 + 100000 z_0_5 + 100000 z_0_8 <= 598810.30084384268
 c2752: 120 p_0_10 + 120 p_0_2 + 120 p_0_3 + 120 p_0_4 + 120 p_0_5 + 120 p_0_8 + 100000 z_0_10 + 100000 z_0_2 + 100000 z_0_3 + 100000 z_0_4 + 100000 z_0_5 + 100000 z_0_8 <= 598788.53755868063
 c2753: 120 p_0_1 + 120 p_0_10 + 120 p_0_2 + 120 p_0_3 + 120 p_0_4 + 120 p_0_5 + 120 p_0_8 + 100000 z_0_1 + 100000 z_0_10 + 100000 z_0_2 + 100000 z_0_3 + 100000 z_0_4 + 100000 z_0_5 + 100000 z_0_8 <= 698788.19725832646
 c2754: 120 p_0_10 + 120 p_0_6 + 120 p_0_8 + 100000 z_0_10 + 100000 z_0_6 + 100000 z_0_8 <= 298529.35620942101
 c2755: 120 p_0_1 + 120 p_0_10 + 120 p_0_6 + 120 p_0_8 + 100000 z_0_1 + 100000 z_0_10 + 100000 z_0_6 + 100000 z_0_8 <= 398516.90458671708
 c2756: 120 p_0_10 + 120 p_0_2 + 120 p_0_6 + 120 p_0_8 + 100000 z_0_10 + 100000 z_0_2 + 100000 z_0_6 + 100000 z_0_8 <= 398529.32699979347
 c2757: 120 p_0_1 + 120 p_0_10 + 120 p_0_2 + 120 p_0_6 + 120 p_0_8 + 100000 z_0_1 + 100000 z_0_10 + 100000 z_0_2 + 100000 z_0_6 + 100000 z_0_8 <= 498516.87537708954
 c2758: 120 p_0_10 + 120 p_0_3 + 120 p_0_6 + 120 p_0_8 + 100000 z_0_10 + 100000 z_0_3 + 100000 z_0_6 + 100000 z_0_8 <= 398529.34615092585
 c2759: 120 p_0_1 + 120 p_0_10 + 120 p_0_3 + 120 p_0_6 + 120 p_0_8 + 100000 z_0_1 + 100000 z_0_10 + 100000 z_0_3 + 100000 z_0_6 + 100000 z_0_8 <= 498516.89452822192
 c2760: 120 p_0_10 + 120 p_0_2 + 120 p_0_3 + 120 p_0_6 + 120 p_0_8 + 100000 z_0_10 + 100000 z_0_2 + 100000 z_0_3 + 100000 z_0_6 + 100000 z_0_8 <= 498529.31694129831
 c2761: 120 p_0_1 + 120 p_0_10 + 120 p_0_2 + 120 p_0_3 + 120 p_0_6 + 120 p_0_8 + 100000 z_0_1 + 100000 z_0_10 + 100000 z_0_2 + 100000 z_0_3 + 100000 z_0_6 + 100000 z_0_8 <= 598516.86531859438
 c2762: 120 p_0_10 + 120 p_0_4 + 120 p_0_6 + 120 p_0_8 + 100000 z_0_10 + 100000 z_0_4 + 100000 z_0_6 + 100000 z_0_8 <= 398476.55508611485
 c2763: 120 p_0_1 + 120 p_0_10 + 120 p_0_4 + 120 p_0_6 + 120 p_0_8 + 100000 z_0_1 + 100000 z_0_10 + 100000 z_0_4 + 100000 z_0_6 + 100000 z_0_8 <= 498476.21478576068
 c2764: 120 p_0_10 + 120 p_0_2 + 120 p_0_4 + 120 p_0_6 + 120 p_0_8 + 100000 z_0_10 + 100000 z_0_2 + 100000 z_0_4 + 100000 z_0_6 + 100000 z_0_8 <= 498476.52587648731
 c2765: 120 p_0_1 + 120 p_0_10 + 120 p_0_2 + 120 p_0_4 + 120 p_0_6 + 120 p_0_8 + 100000 z_0_1 + 100000 z_0_10 + 100000 z_0_2 + 100000 z_0_4 + 100000 z_0_6 + 100000 z_0_8 <= 598476.1855761332
 c2766: 120 p_0_10 + 120 p_0_3 + 120 p_0_4 + 120 p_0_6 + 120 p_0_8 + 100000 z_0_10 + 100000 z_0_3 + 100000 z_0_4 + 100000 z_0_6 + 100000 z_0_8 <= 498476.54502761964
 c2767: 120 p_0_1 + 120 p_0_10 + 120 p_0_3 + 120 p_0_4 + 120 p_0_6 + 120 p_0_8 + 100000 z_0_1 + 100000 z_0_10 + 100000 z_0_3 + 100000 z_0_4 + 100000 z_0_6 + 100000 z_0_8 <= 598476.20472726552
 c2768: 120 p_0_10 + 120 p_0_2 + 120 p_0_3 + 120 p_0_4 + 120 p_0_6 + 120 p_0_8 + 100000 z_0_10 + 100000 z_0_2 + 100000 z_0_3 + 100000 z_0_4 + 100000 z_0_6 + 100000 z_0_8 <= 598476.51581799216
 c2769: 120 p_0_1 + 120 p_0_10 + 120 p_0_2 + 120 p_0_3 + 120 p_0_4 + 120 p_0_6 + 120 p_0_8 + 100000 z_0_1 + 100000 z_0_10 + 100000 z_0_2 + 100000 z_0_3 + 100000 z_0_4 + 100000 z_0_6 + 100000 z_0_8 <= 698476.17551763798
 c2770: 120 p_0_10 + 120 p_0_5 + 120 p_0_6 + 120 p_0_8 + 100000 z_0_10 + 100000 z_0_5 + 100000 z_0_6 + 100000 z_0_8 <= 398519.3962494912
 c2771: 120 p_0_1 + 120 p_0_10 + 120 p_0_5 + 120 p_0_6 + 120 p_0_8 + 100000 z_0_1 + 100000 z_0_10 + 100000 z_0_5 + 100000 z_0_6 + 100000 z_0_8 <= 498506.94462678727
 c2772: 120 p_0_10 + 120 p_0_2 + 120 p_0_5 + 120 p_0_6 + 120 p_0_8 + 100000 z_0_10 + 100000 z_0_2 + 100000 z_0_5 + 100000 z_0_6 + 100000 z_0_8 <= 498500.60755039973
 c2773: 120 p_0_1 + 120 p_0_10 + 120 p_0_2 + 120 p_0_5 + 120 p_0_6 + 120 p_0_8 + 100000 z_0_1 + 100000 z_0_10 + 100000 z_0_2 + 100000 z_0_5 + 100000 z_0_6 + 100000 z_0_8 <= 598488.1559276958
 c2774: 120 p_0_10 + 120 p_0_3 + 120 p_0_5 + 120 p_0_6 + 120 p_0_8 + 100000 z_0_10 + 100000 z_0_3 + 100000 z_0_5 + 100000 z_0_6 + 100000 z_0_8 <= 498519.38619099604
 c2775: 120 p_0_1 + 120 p_0_10 + 120 p_0_3 + 120 p_0_5 + 120 p_0_6 + 120 p_0_8 + 100000 z_0_1 + 100000 z_0_10 + 100000 z_0_3 + 100000 z_0_5 + 100000 z_0_6 + 100000 z_0_8 <= 598506.93456829211
 c2776: 120 p_0_10 + 120 p_0_2 + 120 p_0_3 + 120 p_0_5 + 120 p_0_6 + 120 p_0_8 + 100000 z_0_10 + 100000 z_0_2 + 100000 z_0_3 + 100000 z_0_5 + 100000 z_0_6 + 100000 z_0_8 <= 598500.59749190451
 c2777: 120 p_0_1 + 120 p_0_10 + 120 p_0_2 + 120 p_0_3 + 120 p_0_5 + 120 p_0_6 + 120 p_0_8 + 100000 z_0_1 + 100000 z_0_10 + 100000 z_0_2 + 100000 z_0_3 + 100000 z_0_5 + 100000 z_0_6 + 100000 z_0_8 <= 698488.14586920058
 c2778: 120 p_0_10 + 120 p_0_4 + 120 p_0_5 + 120 p_0_6 + 120 p_0_8 + 100000 z_0_10 + 100000 z_0_4 + 100000 z_0_5 + 100000 z_0_6 + 100000 z_0_8 <= 498466.59512618498
 c2779: 120 p_0_1 + 120 p_0_10 + 120 p_0_4 + 120 p_0_5 + 120 p_0_6 + 120 p_0_8 + 100000 z_0_1 + 100000 z_0_10 + 100000 z_0_4 + 100000 z_0_5 + 100000 z_0_6 + 100000 z_0_8 <= 598466.25482583081
 c2780: 120 p_0_10 + 120 p_0_2 + 120 p_0_4 + 120 p_0_5 + 120 p_0_6 + 120 p_0_8 + 100000 z_0_10 + 100000 z_0_2 + 100000 z_0_4 + 100000 z_0_5 + 100000 z_0_6 + 100000 z_0_8 <= 598447.80642709357
 c2781: 120 p_0_1 + 120 p_0_10 + 120 p_0_2 + 120 p_0_4 + 120 p_0_5 + 120 p_0_6 + 120 p_0_8 + 100000 z_0_1 + 100000 z_0_10 + 100000 z_0_2 + 100000 z_0_4 + 100000 z_0_5 + 100000 z_0_6 + 100000 z_0_8 <= 698447.4661267394
 c2782: 120 p_0_10 + 120 p_0_3 + 120 p_0_4 + 120 p_0_5 + 120 p_0_6 + 120 p_0_8 + 100000 z_0_10 + 100000 z_0_3 + 100000 z_0_4 + 100000 z_0_5 + 100000 z_0_6 + 100000 z_0_8 <= 598466.58506768977
 c2783: 120 p_0_1 + 120 p_0_10 + 120 p_0_3 + 120 p_0_4 + 120 p_0_5 + 120 p_0_6 + 120 p_0_8 + 100000 z_0_1 + 100000 z_0_10 + 100000 z_0_3 + 100000 z_0_4 + 100000 z_0_5 + 100000 z_0_6 + 100000 z_0_8 <= 698466.24476733571
 c2784: 120 p_0_10 + 120 p_0_2 + 120 p_0_3 + 120 p_0_4 + 120 p_0_5 + 120 p_0_6 + 120 p_0_8 + 100000 z_0_10 + 100000 z_0_2 + 100000 z_0_3 + 100000 z_0_4 + 100000 z_0_5 + 100000 z_0_6 + 100000 z_0_8 <= 698447.79636859836
 c2785: 120 p_0_1 + 120 p_0_10 + 120 p_0_2 + 120 p_0_3 + 120 p_0_4 + 120 p_0_5 + 120 p_0_6 + 120 p_0_8 + 100000 z_0_1 + 100000 z_0_10 + 100000 z_0_2 + 100000 z_0_3 + 100000 z_0_4 + 100000 z_0_5 + 100000 z_0_6 + 100000 z_0_8 <= 798447.45606824418
 c2786: 120 p_0_10 + 120 p_0_7 + 120 p_0_8 + 100000 z_0_10 + 100000 z_0_7 + 100000 z_0_8 <= 299959.15628202213
 c2787: 120 p_0_1 + 120 p_0_10 + 120 p_0_7 + 120 p_0_8 + 100000 z_0_1 + 100000 z_0_10 + 100000 z_0_7 + 100000 z_0_8 <= 399946.7046593182
 c2788: 120 p_0_10 + 120 p_0_2 + 120 p_0_7 + 120 p_0_8 + 100000 z_0_10 + 100000 z_0_2 + 100000 z_0_7 + 100000 z_0_8 <= 399929.91873895278
 c2789: 120 p_0_1 + 120 p_0_10 + 120 p_0_2 + 120 p_0_7 + 120 p_0_8 + 100000 z_0_1 + 100000 z_0_10 + 100000 z_0_2 + 100000 z_0_7 + 100000 z_0_8 <= 499917.46711624885
 c2790: 120 p_0_10 + 120 p_0_3 + 120 p_0_7 + 120 p_0_8 + 100000 z_0_10 + 100000 z_0_3 + 100000 z_0_7 + 100000 z_0_8 <= 398866.09259008273
 c2791: 120 p_0_1 + 120 p_0_10 + 120 p_0_3 + 120 p_0_7 + 120 p_0_8 + 100000 z_0_1 + 100000 z_0_10 + 100000 z_0_3 + 100000 z_0_7 + 100000 z_0_8 <= 498853.6409673788
 c2792: 120 p_0_10 + 120 p_0_2 + 120 p_0_3 + 120 p_0_7 + 120 p_0_8 + 100000 z_0_10 + 100000 z_0_2 + 100000 z_0_3 + 100000 z_0_7 + 100000 z_0_8 <= 498865.86637534696
 c2793: 120 p_0_1 + 120 p_0_10 + 120 p_0_2 + 120 p_0_3 + 120 p_0_7 + 120 p_0_8 + 100000 z_0_1 + 100000 z_0_10 + 100000 z_0_2 + 100000 z_0_3 + 100000 z_0_7 + 100000 z_0_8 <= 598853.41475264297
 c2794: 120 p_0_10 + 120 p_0_4 + 120 p_0_7 + 120 p_0_8 + 100000 z_0_10 + 100000 z_0_4 + 100000 z_0_7 + 100000 z_0_8 <= 399906.35515871597
 c2795: 120 p_0_1 + 120 p_0_10 + 120 p_0_4 + 120 p_0_7 + 120 p_0_8 + 100000 z_0_1 + 100000 z_0_10 + 100000 z_0_4 + 100000 z_0_7 + 100000 z_0_8 <= 499906.0148583618
 c2796: 120 p_0_10 + 120 p_0_2 + 120 p_0_4 + 120 p_0_7 + 120 p_0_8 + 100000 z_0_10 + 100000 z_0_2 + 100000 z_0_4 + 100000 z_0_7 + 100000 z_0_8 <= 499877.11761564662
 c2797: 120 p_0_1 + 120 p_0_10 + 120 p_0_2 + 120 p_0_4 + 120 p_0_7 + 120 p_0_8 + 100000 z_0_1 + 100000 z_0_10 + 100000 z_0_2 + 100000 z_0_4 + 100000 z_0_7 + 100000 z_0_8 <= 599876.77731529251
 c2798: 120 p_0_10 + 120 p_0_3 + 120 p_0_4 + 120 p_0_7 + 120 p_0_8 + 100000 z_0_10 + 100000 z_0_3 + 100000 z_0_4 + 100000 z_0_7 + 100000 z_0_8 <= 498813.29146677651
 c2799: 120 p_0_1 + 120 p_0_10 + 120 p_0_3 + 120 p_0_4 + 120 p_0_7 + 120 p_0_8 + 100000 z_0_1 + 100000 z_0_10 + 100000 z_0_3 + 100000 z_0_4 + 100000 z_0_7 + 100000 z_0_8 <= 598812.95116642234
 c2800: 120 p_0_10 + 120 p_0_2 + 120 p_0_3 + 120 p_0_4 + 120 p_0_7 + 120 p_0_8 + 100000 z_0_10 + 100000 z_0_2 + 100000 z_0_3 + 100000 z_0_4 + 100000 z_0_7 + 100000 z_0_8 <= 598813.06525204075
 c2801: 120 p_0_1 + 120 p_0_10 + 120 p_0_2 + 120 p_0_3 + 120 p_0_4 + 120 p_0_7 + 120 p_0_8 + 100000 z_0_1 + 100000 z_0_10 + 100000 z_0_2 + 100000 z_0_3 + 100000 z_0_4 + 100000 z_0_7 + 100000 z_0_8 <= 698812.72495168657
 c2802: 120 p_0_10 + 120 p_0_5 + 120 p_0_7 + 120 p_0_8 + 100000 z_0_10 + 100000 z_0_5 + 100000 z_0_7 + 100000 z_0_8 <= 399956.36063820991
 c2803: 120 p_0_1 + 120 p_0_10 + 120 p_0_5 + 120 p_0_7 + 120 p_0_8 + 100000 z_0_1 + 100000 z_0_10 + 100000 z_0_5 + 100000 z_0_7 + 100000 z_0_8 <= 499943.90901550598
 c2804: 120 p_0_10 + 120 p_0_2 + 120 p_0_5 + 120 p_0_7 + 120 p_0_8 + 100000 z_0_10 + 100000 z_0_2 + 100000 z_0_5 + 100000 z_0_7 + 100000 z_0_8 <= 499901.19928955904
 c2805: 120 p_0_1 + 120 p_0_10 + 120 p_0_2 + 120 p_0_5 + 120 p_0_7 + 120 p_0_8 + 100000 z_0_1 + 100000 z_0_10 + 100000 z_0_2 + 100000 z_0_5 + 100000 z_0_7 + 100000 z_0_8 <= 599888.74766685511
 c2806: 120 p_0_10 + 120 p_0_3 + 120 p_0_5 + 120 p_0_7 + 120 p_0_8 + 100000 z_0_10 + 100000 z_0_3 + 100000 z_0_5 + 100000 z_0_7 + 100000 z_0_8 <= 498859.25051146932
 c2807: 120 p_0_1 + 120 p_0_10 + 120 p_0_3 + 120 p_0_5 + 120 p_0_7 + 120 p_0_8 + 100000 z_0_1 + 100000 z_0_10 + 100000 z_0_3 + 100000 z_0_5 + 100000 z_0_7 + 100000 z_0_8 <= 598846.79888876539
 c2808: 120 p_0_10 + 120 p_0_2 + 120 p_0_3 + 120 p_0_5 + 120 p_0_7 + 120 p_0_8 + 100000 z_0_10 + 100000 z_0_2 + 100000 z_0_3 + 100000 z_0_5 + 100000 z_0_7 + 100000 z_0_8 <= 598837.14692595322
 c2809: 120 p_0_1 + 120 p_0_10 + 120 p_0_2 + 120 p_0_3 + 120 p_0_5 + 120 p_0_7 + 120 p_0_8 + 100000 z_0_1 + 100000 z_0_10 + 100000 z_0_2 + 100000 z_0_3 + 100000 z_0_5 + 100000 z_0_7 + 100000 z_0_8 <= 698824.69530324929
 c2810: 120 p_0_10 + 120 p_0_4 + 120 p_0_5 + 120 p_0_7 + 120 p_0_8 + 100000 z_0_10 + 100000 z_0_4 + 100000 z_0_5 + 100000 z_0_7 + 100000 z_0_8 <= 499903.5595149037
 c2811: 120 p_0_1 + 120 p_0_10 + 120 p_0_4 + 120 p_0_5 + 120 p_0_7 + 120 p_0_8 + 100000 z_0_1 + 100000 z_0_10 + 100000 z_0_4 + 100000 z_0_5 + 100000 z_0_7 + 100000 z_0_8 <= 599903.21921454952
 c2812: 120 p_0_10 + 120 p_0_2 + 120 p_0_4 + 120 p_0_5 + 120 p_0_7 + 120 p_0_8 + 100000 z_0_10 + 100000 z_0_2 + 100000 z_0_4 + 100000 z_0_5 + 100000 z_0_7 + 100000 z_0_8 <= 599848.39816625288
 c2813: 120 p_0_1 + 120 p_0_10 + 120 p_0_2 + 120 p_0_4 + 120 p_0_5 + 120 p_0_7 + 120 p_0_8 + 100000 z_0_1 + 100000 z_0_10 + 100000 z_0_2 + 100000 z_0_4 + 100000 z_0_5 + 100000 z_0_7 + 100000 z_0_8 <= 699848.05786589871
 c2814: 120 p_0_10 + 120 p_0_3 + 120 p_0_4 + 120 p_0_5 + 120 p_0_7 + 120 p_0_8 + 100000 z_0_10 + 100000 z_0_3 + 100000 z_0_4 + 100000 z_0_5 + 100000 z_0_7 + 100000 z_0_8 <= 598806.44938816316
 c2815: 120 p_0_1 + 120 p_0_10 + 120 p_0_3 + 120 p_0_4 + 120 p_0_5 + 120 p_0_7 + 120 p_0_8 + 100000 z_0_1 + 100000 z_0_10 + 100000 z_0_3 + 100000 z_0_4 + 100000 z_0_5 + 100000 z_0_7 + 100000 z_0_8 <= 698806.10908780899
 c2816: 120 p_0_10 + 120 p_0_2 + 120 p_0_3 + 120 p_0_4 + 120 p_0_5 + 120 p_0_7 + 120 p_0_8 + 100000 z_0_10 + 100000 z_0_2 + 100000 z_0_3 + 100000 z_0_4 + 100000 z_0_5 + 100000 z_0_7 + 100000 z_0_8 <= 698784.34580264695
 c2817: 120 p_0_1 + 120 p_0_10 + 120 p_0_2 + 120 p_0_3 + 120 p_0_4 + 120 p_0_5 + 120 p_0_7 + 120 p_0_8 + 100000 z_0_1 + 100000 z_0_10 + 100000 z_0_2 + 100000 z_0_3 + 100000 z_0_4 + 100000 z_0_5 + 100000 z_0_7 + 100000 z_0_8 <= 798784.00550229277
 c2818: 120 p_0_10 + 120 p_0_6 + 120 p_0_7 + 120 p_0_8 + 100000 z_0_10 + 100000 z_0_6 + 100000 z_0_7 + 100000 z_0_8 <= 398525.16445338732
 c2819: 120 p_0_1 + 120 p_0_10 + 120 p_0_6 + 120 p_0_7 + 120 p_0_8 + 100000 z_0_1 + 100000 z_0_10 + 100000 z_0_6 + 100000 z_0_7 + 100000 z_0_8 <= 498512.71283068339
 c2820: 120 p_0_10 + 120 p_0_2 + 120 p_0_6 + 120 p_0_7 + 120 p_0_8 + 100000 z_0_10 + 100000 z_0_2 + 100000 z_0_6 + 100000 z_0_7 + 100000 z_0_8 <= 498525.13524375984
 c2821: 120 p_0_1 + 120 p_0_10 + 120 p_0_2 + 120 p_0_6 + 120 p_0_7 + 120 p_0_8 + 100000 z_0_1 + 100000 z_0_10 + 100000 z_0_2 + 100000 z_0_6 + 100000 z_0_7 + 100000 z_0_8 <= 598512.68362105591
 c2822: 120 p_0_10 + 120 p_0_3 + 120 p_0_6 + 120 p_0_7 + 120 p_0_8 + 100000 z_0_10 + 100000 z_0_3 + 100000 z_0_6 + 100000 z_0_7 + 100000 z_0_8 <= 498525.15439489216
 c2823: 120 p_0_1 + 120 p_0_10 + 120 p_0_3 + 120 p_0_6 + 120 p_0_7 + 120 p_0_8 + 100000 z_0_1 + 100000 z_0_10 + 100000 z_0_3 + 100000 z_0_6 + 100000 z_0_7 + 100000 z_0_8 <= 598512.70277218823
 c2824: 120 p_0_10 + 120 p_0_2 + 120 p_0_3 + 120 p_0_6 + 120 p_0_7 + 120 p_0_8 + 100000 z_0_10 + 100000 z_0_2 + 100000 z_0_3 + 100000 z_0_6 + 100000 z_0_7 + 100000 z_0_8 <= 598525.12518526462
 c2825: 120 p_0_1 + 120 p_0_10 + 120 p_0_2 + 120 p_0_3 + 120 p_0_6 + 120 p_0_7 + 120 p_0_8 + 100000 z_0_1 + 100000 z_0_10 + 100000 z_0_2 + 100000 z_0_3 + 100000 z_0_6 + 100000 z_0_7 + 100000 z_0_8 <= 698512.6735625607
 c2826: 120 p_0_10 + 120 p_0_4 + 120 p_0_6 + 120 p_0_7 + 120 p_0_8 + 100000 z_0_10 + 100000 z_0_4 + 100000 z_0_6 + 100000 z_0_7 + 100000 z_0_8 <= 498472.36333008116
 c2827: 120 p_0_1 + 120 p_0_10 + 120 p_0_4 + 120 p_0_6 + 120 p_0_7 + 120 p_0_8 + 100000 z_0_1 + 100000 z_0_10 + 100000 z_0_4 + 100000 z_0_6 + 100000 z_0_7 + 100000 z_0_8 <= 598472.02302972705
 c2828: 120 p_0_10 + 120 p_0_2 + 120 p_0_4 + 120 p_0_6 + 120 p_0_7 + 120 p_0_8 + 100000 z_0_10 + 100000 z_0_2 + 100000 z_0_4 + 100000 z_0_6 + 100000 z_0_7 + 100000 z_0_8 <= 598472.33412045357
 c2829: 120 p_0_1 + 120 p_0_10 + 120 p_0_2 + 120 p_0_4 + 120 p_0_6 + 120 p_0_7 + 120 p_0_8 + 100000 z_0_1 + 100000 z_0_10 + 100000 z_0_2 + 100000 z_0_4 + 100000 z_0_6 + 100000 z_0_7 + 100000 z_0_8 <= 698471.99382009951
 c2830: 120 p_0_10 + 120 p_0_3 + 120 p_0_4 + 120 p_0_6 + 120 p_0_7 + 120 p_0_8 + 100000 z_0_10 + 100000 z_0_3 + 100000 z_0_4 + 100000 z_0_6 + 100000 z_0_7 + 100000 z_0_8 <= 598472.35327158601
 c2831: 120 p_0_1 + 120 p_0_10 + 120 p_0_3 + 120 p_0_4 + 120 p_0_6 + 120 p_0_7 + 120 p_0_8 + 100000 z_0_1 + 100000 z_0_10 + 100000 z_0_3 + 100000 z_0_4 + 100000 z_0_6 + 100000 z_0_7 + 100000 z_0_8 <= 698472.01297123183
 c2832: 120 p_0_10 + 120 p_0_2 + 120 p_0_3 + 120 p_0_4 + 120 p_0_6 + 120 p_0_7 + 120 p_0_8 + 100000 z_0_10 + 100000 z_0_2 + 100000 z_0_3 + 100000 z_0_4 + 100000 z_0_6 + 100000 z_0_7 + 100000 z_0_8 <= 698472.32406195847
 c2833: 120 p_0_1 + 120 p_0_10 + 120 p_0_2 + 120 p_0_3 + 120 p_0_4 + 120 p_0_6 + 120 p_0_7 + 120 p_0_8 + 100000 z_0_1 + 100000 z_0_10 + 100000 z_0_2 + 100000 z_0_3 + 100000 z_0_4 + 100000 z_0_6 + 100000 z_0_7 + 100000 z_0_8 <= 798471.98376160429
 c2834: 120 p_0_10 + 120 p_0_5 + 120 p_0_6 + 120 p_0_7 + 120 p_0_8 + 100000 z_0_10 + 100000 z_0_5 + 100000 z_0_6 + 100000 z_0_7 + 100000 z_0_8 <= 498515.20449345751
 c2835: 120 p_0_1 + 120 p_0_10 + 120 p_0_5 + 120 p_0_6 + 120 p_0_7 + 120 p_0_8 + 100000 z_0_1 + 100000 z_0_10 + 100000 z_0_5 + 100000 z_0_6 + 100000 z_0_7 + 100000 z_0_8 <= 598502.75287075352
 c2836: 120 p_0_10 + 120 p_0_2 + 120 p_0_5 + 120 p_0_6 + 120 p_0_7 + 120 p_0_8 + 100000 z_0_10 + 100000 z_0_2 + 100000 z_0_5 + 100000 z_0_6 + 100000 z_0_7 + 100000 z_0_8 <= 598496.41579436604
 c2837: 120 p_0_1 + 120 p_0_10 + 120 p_0_2 + 120 p_0_5 + 120 p_0_6 + 120 p_0_7 + 120 p_0_8 + 100000 z_0_1 + 100000 z_0_10 + 100000 z_0_2 + 100000 z_0_5 + 100000 z_0_6 + 100000 z_0_7 + 100000 z_0_8 <= 698483.96417166211
 c2838: 120 p_0_10 + 120 p_0_3 + 120 p_0_5 + 120 p_0_6 + 120 p_0_7 + 120 p_0_8 + 100000 z_0_10 + 100000 z_0_3 + 100000 z_0_5 + 100000 z_0_6 + 100000 z_0_7 + 100000 z_0_8 <= 598515.19443496235
 c2839: 120 p_0_1 + 120 p_0_10 + 120 p_0_3 + 120 p_0_5 + 120 p_0_6 + 120 p_0_7 + 120 p_0_8 + 100000 z_0_1 + 100000 z_0_10 + 100000 z_0_3 + 100000 z_0_5 + 100000 z_0_6 + 100000 z_0_7 + 100000 z_0_8 <= 698502.74281225842
 c2840: 120 p_0_10 + 120 p_0_2 + 120 p_0_3 + 120 p_0_5 + 120 p_0_6 + 120 p_0_7 + 120 p_0_8 + 100000 z_0_10 + 100000 z_0_2 + 100000 z_0_3 + 100000 z_0_5 + 100000 z_0_6 + 100000 z_0_7 + 100000 z_0_8 <= 698496.40573587082
 c2841: 120 p_0_1 + 120 p_0_10 + 120 p_0_2 + 120 p_0_3 + 120 p_0_5 + 120 p_0_6 + 120 p_0_7 + 120 p_0_8 + 100000 z_0_1 + 100000 z_0_10 + 100000 z_0_2 + 100000 z_0_3 + 100000 z_0_5 + 100000 z_0_6 + 100000 z_0_7 + 100000 z_0_8 <= 798483.9541131669
 c2842: 120 p_0_10 + 120 p_0_4 + 120 p_0_5 + 120 p_0_6 + 120 p_0_7 + 120 p_0_8 + 100000 z_0_10 + 100000 z_0_4 + 100000 z_0_5 + 100000 z_0_6 + 100000 z_0_7 + 100000 z_0_8 <= 598462.4033701513
 c2843: 120 p_0_1 + 120 p_0_10 + 120 p_0_4 + 120 p_0_5 + 120 p_0_6 + 120 p_0_7 + 120 p_0_8 + 100000 z_0_1 + 100000 z_0_10 + 100000 z_0_4 + 100000 z_0_5 + 100000 z_0_6 + 100000 z_0_7 + 100000 z_0_8 <= 698462.06306979712
 c2844: 120 p_0_10 + 120 p_0_2 + 120 p_0_4 + 120 p_0_5 + 120 p_0_6 + 120 p_0_7 + 120 p_0_8 + 100000 z_0_10 + 100000 z_0_2 + 100000 z_0_4 + 100000 z_0_5 + 100000 z_0_6 + 100000 z_0_7 + 100000 z_0_8 <= 698443.61467105988
 c2845: 120 p_0_1 + 120 p_0_10 + 120 p_0_2 + 120 p_0_4 + 120 p_0_5 + 120 p_0_6 + 120 p_0_7 + 120 p_0_8 + 100000 z_0_1 + 100000 z_0_10 + 100000 z_0_2 + 100000 z_0_4 + 100000 z_0_5 + 100000 z_0_6 + 100000 z_0_7 + 100000 z_0_8 <= 798443.27437070571
 c2846: 120 p_0_10 + 120 p_0_3 + 120 p_0_4 + 120 p_0_5 + 120 p_0_6 + 120 p_0_7 + 120 p_0_8 + 100000 z_0_10 + 100000 z_0_3 + 100000 z_0_4 + 100000 z_0_5 + 100000 z_0_6 + 100000 z_0_7 + 100000 z_0_8 <= 698462.3933116562
 c2847: 120 p_0_1 + 120 p_0_10 + 120 p_0_3 + 120 p_0_4 + 120 p_0_5 + 120 p_0_6 + 120 p_0_7 + 120 p_0_8 + 100000 z_0_1 + 100000 z_0_10 + 100000 z_0_3 + 100000 z_0_4 + 100000 z_0_5 + 100000 z_0_6 + 100000 z_0_7 + 100000 z_0_8 <= 798462.05301130202
 c2848: 120 p_0_10 + 120 p_0_2 + 120 p_0_3 + 120 p_0_4 + 120 p_0_5 + 120 p_0_6 + 120 p_0_7 + 120 p_0_8 + 100000 z_0_10 + 100000 z_0_2 + 100000 z_0_3 + 100000 z_0_4 + 100000 z_0_5 + 100000 z_0_6 + 100000 z_0_7 + 100000 z_0_8 <= 798443.60461256467
 c2849: 120 p_0_1 + 120 p_0_10 + 120 p_0_2 + 120 p_0_3 + 120 p_0_4 + 120 p_0_5 + 120 p_0_6 + 120 p_0_7 + 120 p_0_8 + 100000 z_0_1 + 100000 z_0_10 + 100000 z_0_2 + 100000 z_0_3 + 100000 z_0_4 + 100000 z_0_5 + 100000 z_0_6 + 100000 z_0_7 + 100000 z_0_8 <= 898443.26431221049
 c2850: 120 p_0_10 + 120 p_0_9 + 100000 z_0_10 + 100000 z_0_9 <= 199718.32184849452
 c2851: 120 p_0_1 + 120 p_0_10 + 120 p_0_9 + 100000 z_0_1 + 100000 z_0_10 + 100000 z_0_9 <= 299717.01273179793
 c2852: 120 p_0_10 + 120 p_0_2 + 120 p_0_9 + 100000 z_0_10 + 100000 z_0_2 + 100000 z_0_9 <= 298941.23727612704
 c2853: 120 p_0_1 + 120 p_0_10 + 120 p_0_2 + 120 p_0_9 + 100000 z_0_1 + 100000 z_0_10 + 100000 z_0_2 + 100000 z_0_9 <= 398939.92815943051
 c2854: 120 p_0_10 + 120 p_0_3 + 120 p_0_9 + 100000 z_0_10 + 100000 z_0_3 + 100000 z_0_9 <= 299662.17131951259
 c2855: 120 p_0_1 + 120 p_0_10 + 120 p_0_3 + 120 p_0_9 + 100000 z_0_1 + 100000 z_0_10 + 100000 z_0_3 + 100000 z_0_9 <= 399660.862202816
 c2856: 120 p_0_10 + 120 p_0_2 + 120 p_0_3 + 120 p_0_9 + 100000 z_0_10 + 100000 z_0_2 + 100000 z_0_3 + 100000 z_0_9 <= 398910.13624306559
 c2857: 120 p_0_1 + 120 p_0_10 + 120 p_0_2 + 120 p_0_3 + 120 p_0_9 + 100000 z_0_1 + 100000 z_0_10 + 100000 z_0_2 + 100000 z_0_3 + 100000 z_0_9 <= 498897.68462036166
 c2858: 120 p_0_10 + 120 p_0_4 + 120 p_0_9 + 100000 z_0_10 + 100000 z_0_4 + 100000 z_0_9 <= 299699.09519340843
 c2859: 120 p_0_1 + 120 p_0_10 + 120 p_0_4 + 120 p_0_9 + 100000 z_0_1 + 100000 z_0_10 + 100000 z_0_4 + 100000 z_0_9 <= 399686.6435707045
 c2860: 120 p_0_10 + 120 p_0_2 + 120 p_0_4 + 120 p_0_9 + 100000 z_0_10 + 100000 z_0_2 + 100000 z_0_4 + 100000 z_0_9 <= 398922.010621041
 c2861: 120 p_0_1 + 120 p_0_10 + 120 p_0_2 + 120 p_0_4 + 120 p_0_9 + 100000 z_0_1 + 100000 z_0_10 + 100000 z_0_2 + 100000 z_0_4 + 100000 z_0_9 <= 498899.2383584741
 c2862: 120 p_0_10 + 120 p_0_3 + 120 p_0_4 + 120 p_0_9 + 100000 z_0_10 + 100000 z_0_3 + 100000 z_0_4 + 100000 z_0_9 <= 399642.9446644265
 c2863: 120 p_0_1 + 120 p_0_10 + 120 p_0_3 + 120 p_0_4 + 120 p_0_9 + 100000 z_0_1 + 100000 z_0_10 + 100000 z_0_3 + 100000 z_0_4 + 100000 z_0_9 <= 499630.49304172257
 c2864: 120 p_0_10 + 120 p_0_2 + 120 p_0_3 + 120 p_0_4 + 120 p_0_9 + 100000 z_0_10 + 100000 z_0_2 + 100000 z_0_3 + 100000 z_0_4 + 100000 z_0_9 <= 498867.96700894751
 c2865: 120 p_0_1 + 120 p_0_10 + 120 p_0_2 + 120 p_0_3 + 120 p_0_4 + 120 p_0_9 + 100000 z_0_1 + 100000 z_0_10 + 100000 z_0_2 + 100000 z_0_3 + 100000 z_0_4 + 100000 z_0_9 <= 598856.99481940526
 c2866: 120 p_0_10 + 120 p_0_5 + 120 p_0_9 + 100000 z_0_10 + 100000 z_0_5 + 100000 z_0_9 <= 298979.12087091373
 c2867: 120 p_0_1 + 120 p_0_10 + 120 p_0_5 + 120 p_0_9 + 100000 z_0_1 + 100000 z_0_10 + 100000 z_0_5 + 100000 z_0_9 <= 398977.8117542172
 c2868: 120 p_0_10 + 120 p_0_2 + 120 p_0_5 + 120 p_0_9 + 100000 z_0_10 + 100000 z_0_2 + 100000 z_0_5 + 100000 z_0_9 <= 398923.95952226286
 c2869: 120 p_0_1 + 120 p_0_10 + 120 p_0_2 + 120 p_0_5 + 120 p_0_9 + 100000 z_0_1 + 100000 z_0_10 + 100000 z_0_2 + 100000 z_0_5 + 100000 z_0_9 <= 498922.65040556632
 c2870: 120 p_0_10 + 120 p_0_3 + 120 p_0_5 + 120 p_0_9 + 100000 z_0_10 + 100000 z_0_3 + 100000 z_0_5 + 100000 z_0_9 <= 398922.9703419318
 c2871: 120 p_0_1 + 120 p_0_10 + 120 p_0_3 + 120 p_0_5 + 120 p_0_9 + 100000 z_0_1 + 100000 z_0_10 + 100000 z_0_3 + 100000 z_0_5 + 100000 z_0_9 <= 498921.66122523526
 c2872: 120 p_0_10 + 120 p_0_2 + 120 p_0_3 + 120 p_0_5 + 120 p_0_9 + 100000 z_0_10 + 100000 z_0_2 + 100000 z_0_3 + 100000 z_0_5 + 100000 z_0_9 <= 498892.8584892014
 c2873: 120 p_0_1 + 120 p_0_10 + 120 p_0_2 + 120 p_0_3 + 120 p_0_5 + 120 p_0_9 + 100000 z_0_1 + 100000 z_0_10 + 100000 z_0_2 + 100000 z_0_3 + 100000 z_0_5 + 100000 z_0_9 <= 598880.40686649748
 c2874: 120 p_0_10 + 120 p_0_4 + 120 p_0_5 + 120 p_0_9 + 100000 z_0_10 + 100000 z_0_4 + 100000 z_0_5 + 100000 z_0_9 <= 398959.89421582769
 c2875: 120 p_0_1 + 120 p_0_10 + 120 p_0_4 + 120 p_0_5 + 120 p_0_9 + 100000 z_0_1 + 100000 z_0_10 + 100000 z_0_4 + 100000 z_0_5 + 100000 z_0_9 <= 498937.12195326079
 c2876: 120 p_0_10 + 120 p_0_2 + 120 p_0_4 + 120 p_0_5 + 120 p_0_9 + 100000 z_0_10 + 100000 z_0_2 + 100000 z_0_4 + 100000 z_0_5 + 100000 z_0_9 <= 498904.73286717682
 c2877: 120 p_0_1 + 120 p_0_10 + 120 p_0_2 + 120 p_0_4 + 120 p_0_5 + 120 p_0_9 + 100000 z_0_1 + 100000 z_0_10 + 100000 z_0_2 + 100000 z_0_4 + 100000 z_0_5 + 100000 z_0_9 <= 598881.96060460992
 c2878: 120 p_0_10 + 120 p_0_3 + 120 p_0_4 + 120 p_0_5 + 120 p_0_9 + 100000 z_0_10 + 100000 z_0_3 + 100000 z_0_4 + 100000 z_0_5 + 100000 z_0_9 <= 498903.74368684576
 c2879: 120 p_0_1 + 120 p_0_10 + 120 p_0_3 + 120 p_0_4 + 120 p_0_5 + 120 p_0_9 + 100000 z_0_1 + 100000 z_0_10 + 100000 z_0_3 + 100000 z_0_4 + 100000 z_0_5 + 100000 z_0_9 <= 598880.9714242788
 c2880: 120 p_0_10 + 120 p_0_2 + 120 p_0_3 + 120 p_0_4 + 120 p_0_5 + 120 p_0_9 + 100000 z_0_10 + 100000 z_0_2 + 100000 z_0_3 + 100000 z_0_4 + 100000 z_0_5 + 100000 z_0_9 <= 598848.58233819483
 c2881: 120 p_0_1 + 120 p_0_10 + 120 p_0_2 + 120 p_0_3 + 120 p_0_4 + 120 p_0_5 + 120 p_0_9 + 100000 z_0_1 + 100000 z_0_10 + 100000 z_0_2 + 100000 z_0_3 + 100000 z_0_4 + 100000 z_0_5 + 100000 z_0_9 <= 698839.71706554107
 c2882: 120 p_0_10 + 120 p_0_6 + 120 p_0_9 + 100000 z_0_10 + 100000 z_0_6 + 100000 z_0_9 <= 299398.80751426797
 c2883: 120 p_0_1 + 120 p_0_10 + 120 p_0_6 + 120 p_0_9 + 100000 z_0_1 + 100000 z_0_10 + 100000 z_0_6 + 100000 z_0_9 <= 399397.49839757144
 c2884: 120 p_0_10 + 120 p_0_2 + 120 p_0_6 + 120 p_0_9 + 100000 z_0_10 + 100000 z_0_2 + 100000 z_0_6 + 100000 z_0_9 <= 398666.5786745912
 c2885: 120 p_0_1 + 120 p_0_10 + 120 p_0_2 + 120 p_0_6 + 120 p_0_9 + 100000 z_0_1 + 100000 z_0_10 + 100000 z_0_2 + 100000 z_0_6 + 100000 z_0_9 <= 498654.12705188728
 c2886: 120 p_0_10 + 120 p_0_3 + 120 p_0_6 + 120 p_0_9 + 100000 z_0_10 + 100000 z_0_3 + 100000 z_0_6 + 100000 z_0_9 <= 399398.79745577282
 c2887: 120 p_0_1 + 120 p_0_10 + 120 p_0_3 + 120 p_0_6 + 120 p_0_9 + 100000 z_0_1 + 100000 z_0_10 + 100000 z_0_3 + 100000 z_0_6 + 100000 z_0_9 <= 499397.48833907623
 c2888: 120 p_0_10 + 120 p_0_2 + 120 p_0_3 + 120 p_0_6 + 120 p_0_9 + 100000 z_0_10 + 100000 z_0_2 + 100000 z_0_3 + 100000 z_0_6 + 100000 z_0_9 <= 498646.76237932581
 c2889: 120 p_0_1 + 120 p_0_10 + 120 p_0_2 + 120 p_0_3 + 120 p_0_6 + 120 p_0_9 + 100000 z_0_1 + 100000 z_0_10 + 100000 z_0_2 + 100000 z_0_3 + 100000 z_0_6 + 100000 z_0_9 <= 598634.31075662188
 c2890: 120 p_0_10 + 120 p_0_4 + 120 p_0_6 + 120 p_0_9 + 100000 z_0_10 + 100000 z_0_4 + 100000 z_0_6 + 100000 z_0_9 <= 399379.58085918194
 c2891: 120 p_0_1 + 120 p_0_10 + 120 p_0_4 + 120 p_0_6 + 120 p_0_9 + 100000 z_0_1 + 100000 z_0_10 + 100000 z_0_4 + 100000 z_0_6 + 100000 z_0_9 <= 499367.12923647795
 c2892: 120 p_0_10 + 120 p_0_2 + 120 p_0_4 + 120 p_0_6 + 120 p_0_9 + 100000 z_0_10 + 100000 z_0_2 + 100000 z_0_4 + 100000 z_0_6 + 100000 z_0_9 <= 498624.40944047313
 c2893: 120 p_0_1 + 120 p_0_10 + 120 p_0_2 + 120 p_0_4 + 120 p_0_6 + 120 p_0_9 + 100000 z_0_1 + 100000 z_0_10 + 100000 z_0_2 + 100000 z_0_4 + 100000 z_0_6 + 100000 z_0_9 <= 598613.43725093082
 c2894: 120 p_0_10 + 120 p_0_3 + 120 p_0_4 + 120 p_0_6 + 120 p_0_9 + 100000 z_0_10 + 100000 z_0_3 + 100000 z_0_4 + 100000 z_0_6 + 100000 z_0_9 <= 499379.57080068672
 c2895: 120 p_0_1 + 120 p_0_10 + 120 p_0_3 + 120 p_0_4 + 120 p_0_6 + 120 p_0_9 + 100000 z_0_1 + 100000 z_0_10 + 100000 z_0_3 + 100000 z_0_4 + 100000 z_0_6 + 100000 z_0_9 <= 599367.11917798279
 c2896: 120 p_0_10 + 120 p_0_2 + 120 p_0_3 + 120 p_0_4 + 120 p_0_6 + 120 p_0_9 + 100000 z_0_10 + 100000 z_0_2 + 100000 z_0_3 + 100000 z_0_4 + 100000 z_0_6 + 100000 z_0_9 <= 598604.59314520773
 c2897: 120 p_0_1 + 120 p_0_10 + 120 p_0_2 + 120 p_0_3 + 120 p_0_4 + 120 p_0_6 + 120 p_0_9 + 100000 z_0_1 + 100000 z_0_10 + 100000 z_0_2 + 100000 z_0_3 + 100000 z_0_4 + 100000 z_0_6 + 100000 z_0_9 <= 698593.62095566548
 c2898: 120 p_0_10 + 120 p_0_5 + 120 p_0_6 + 120 p_0_9 + 100000 z_0_10 + 100000 z_0_5 + 100000 z_0_6 + 100000 z_0_9 <= 398668.08961981849
 c2899: 120 p_0_1 + 120 p_0_10 + 120 p_0_5 + 120 p_0_6 + 120 p_0_9 + 100000 z_0_1 + 100000 z_0_10 + 100000 z_0_5 + 100000 z_0_6 + 100000 z_0_9 <= 498658.29741999065
 c2900: 120 p_0_10 + 120 p_0_2 + 120 p_0_5 + 120 p_0_6 + 120 p_0_9 + 100000 z_0_10 + 100000 z_0_2 + 100000 z_0_5 + 100000 z_0_6 + 100000 z_0_9 <= 498649.30092072702
 c2901: 120 p_0_1 + 120 p_0_10 + 120 p_0_2 + 120 p_0_5 + 120 p_0_6 + 120 p_0_9 + 100000 z_0_1 + 100000 z_0_10 + 100000 z_0_2 + 100000 z_0_5 + 100000 z_0_6 + 100000 z_0_9 <= 598636.84929802304
 c2902: 120 p_0_10 + 120 p_0_3 + 120 p_0_5 + 120 p_0_6 + 120 p_0_9 + 100000 z_0_10 + 100000 z_0_3 + 100000 z_0_5 + 100000 z_0_6 + 100000 z_0_9 <= 498659.59647819202
 c2903: 120 p_0_1 + 120 p_0_10 + 120 p_0_3 + 120 p_0_5 + 120 p_0_6 + 120 p_0_9 + 100000 z_0_1 + 100000 z_0_10 + 100000 z_0_3 + 100000 z_0_5 + 100000 z_0_6 + 100000 z_0_9 <= 598658.28736149543
 c2904: 120 p_0_10 + 120 p_0_2 + 120 p_0_3 + 120 p_0_5 + 120 p_0_6 + 120 p_0_9 + 100000 z_0_10 + 100000 z_0_2 + 100000 z_0_3 + 100000 z_0_5 + 100000 z_0_6 + 100000 z_0_9 <= 598629.48462546163
 c2905: 120 p_0_1 + 120 p_0_10 + 120 p_0_2 + 120 p_0_3 + 120 p_0_5 + 120 p_0_6 + 120 p_0_9 + 100000 z_0_1 + 100000 z_0_10 + 100000 z_0_2 + 100000 z_0_3 + 100000 z_0_5 + 100000 z_0_6 + 100000 z_0_9 <= 698617.0330027577
 c2906: 120 p_0_10 + 120 p_0_4 + 120 p_0_5 + 120 p_0_6 + 120 p_0_9 + 100000 z_0_10 + 100000 z_0_4 + 100000 z_0_5 + 100000 z_0_6 + 100000 z_0_9 <= 498640.37988160114
 c2907: 120 p_0_1 + 120 p_0_10 + 120 p_0_4 + 120 p_0_5 + 120 p_0_6 + 120 p_0_9 + 100000 z_0_1 + 100000 z_0_10 + 100000 z_0_4 + 100000 z_0_5 + 100000 z_0_6 + 100000 z_0_9 <= 598617.60761903424
 c2908: 120 p_0_10 + 120 p_0_2 + 120 p_0_4 + 120 p_0_5 + 120 p_0_6 + 120 p_0_9 + 100000 z_0_10 + 100000 z_0_2 + 100000 z_0_4 + 100000 z_0_5 + 100000 z_0_6 + 100000 z_0_9 <= 598596.49979742081
 c2909: 120 p_0_1 + 120 p_0_10 + 120 p_0_2 + 120 p_0_4 + 120 p_0_5 + 120 p_0_6 + 120 p_0_9 + 100000 z_0_1 + 100000 z_0_10 + 100000 z_0_2 + 100000 z_0_4 + 100000 z_0_5 + 100000 z_0_6 + 100000 z_0_9 <= 698596.15949706663
 c2910: 120 p_0_10 + 120 p_0_3 + 120 p_0_4 + 120 p_0_5 + 120 p_0_6 + 120 p_0_9 + 100000 z_0_10 + 100000 z_0_3 + 100000 z_0_4 + 100000 z_0_5 + 100000 z_0_6 + 100000 z_0_9 <= 598640.36982310598
 c2911: 120 p_0_1 + 120 p_0_10 + 120 p_0_3 + 120 p_0_4 + 120 p_0_5 + 120 p_0_6 + 120 p_0_9 + 100000 z_0_1 + 100000 z_0_10 + 100000 z_0_3 + 100000 z_0_4 + 100000 z_0_5 + 100000 z_0_6 + 100000 z_0_9 <= 698617.59756053903
 c2912: 120 p_0_10 + 120 p_0_2 + 120 p_0_3 + 120 p_0_4 + 120 p_0_5 + 120 p_0_6 + 120 p_0_9 + 100000 z_0_10 + 100000 z_0_2 + 100000 z_0_3 + 100000 z_0_4 + 100000 z_0_5 + 100000 z_0_6 + 100000 z_0_9 <= 698585.20847445505
 c2913: 120 p_0_1 + 120 p_0_10 + 120 p_0_2 + 120 p_0_3 + 120 p_0_4 + 120 p_0_5 + 120 p_0_6 + 120 p_0_9 + 100000 z_0_1 + 100000 z_0_10 + 100000 z_0_2 + 100000 z_0_3 + 100000 z_0_4 + 100000 z_0_5 + 100000 z_0_6 + 100000 z_0_9 <= 798576.3432018013
 c2914: 120 p_0_10 + 120 p_0_7 + 120 p_0_9 + 100000 z_0_10 + 100000 z_0_7 + 100000 z_0_9 <= 299682.0021410007
 c2915: 120 p_0_1 + 120 p_0_10 + 120 p_0_7 + 120 p_0_9 + 100000 z_0_1 + 100000 z_0_10 + 100000 z_0_7 + 100000 z_0_9 <= 399680.69302430411
 c2916: 120 p_0_10 + 120 p_0_2 + 120 p_0_7 + 120 p_0_9 + 100000 z_0_10 + 100000 z_0_2 + 100000 z_0_7 + 100000 z_0_9 <= 398941.18046575104
 c2917: 120 p_0_1 + 120 p_0_10 + 120 p_0_2 + 120 p_0_7 + 120 p_0_9 + 100000 z_0_1 + 100000 z_0_10 + 100000 z_0_2 + 100000 z_0_7 + 100000 z_0_9 <= 498939.87134905451
 c2918: 120 p_0_10 + 120 p_0_3 + 120 p_0_7 + 120 p_0_9 + 100000 z_0_10 + 100000 z_0_3 + 100000 z_0_7 + 100000 z_0_9 <= 399625.85161201871
 c2919: 120 p_0_1 + 120 p_0_10 + 120 p_0_3 + 120 p_0_7 + 120 p_0_9 + 100000 z_0_1 + 100000 z_0_10 + 100000 z_0_3 + 100000 z_0_7 + 100000 z_0_9 <= 499624.54249532218
 c2920: 120 p_0_10 + 120 p_0_2 + 120 p_0_3 + 120 p_0_7 + 120 p_0_9 + 100000 z_0_10 + 100000 z_0_2 + 100000 z_0_3 + 100000 z_0_7 + 100000 z_0_9 <= 498910.07943268958
 c2921: 120 p_0_1 + 120 p_0_10 + 120 p_0_2 + 120 p_0_3 + 120 p_0_7 + 120 p_0_9 + 100000 z_0_1 + 100000 z_0_10 + 100000 z_0_2 + 100000 z_0_3 + 100000 z_0_7 + 100000 z_0_9 <= 598897.62780998566
 c2922: 120 p_0_10 + 120 p_0_4 + 120 p_0_7 + 120 p_0_9 + 100000 z_0_10 + 100000 z_0_4 + 100000 z_0_7 + 100000 z_0_9 <= 399662.77548591461
 c2923: 120 p_0_1 + 120 p_0_10 + 120 p_0_4 + 120 p_0_7 + 120 p_0_9 + 100000 z_0_1 + 100000 z_0_10 + 100000 z_0_4 + 100000 z_0_7 + 100000 z_0_9 <= 499640.00322334771
 c2924: 120 p_0_10 + 120 p_0_2 + 120 p_0_4 + 120 p_0_7 + 120 p_0_9 + 100000 z_0_10 + 100000 z_0_2 + 100000 z_0_4 + 100000 z_0_7 + 100000 z_0_9 <= 498921.953810665
 c2925: 120 p_0_1 + 120 p_0_10 + 120 p_0_2 + 120 p_0_4 + 120 p_0_7 + 120 p_0_9 + 100000 z_0_1 + 100000 z_0_10 + 100000 z_0_2 + 100000 z_0_4 + 100000 z_0_7 + 100000 z_0_9 <= 598899.1815480981
 c2926: 120 p_0_10 + 120 p_0_3 + 120 p_0_4 + 120 p_0_7 + 120 p_0_9 + 100000 z_0_10 + 100000 z_0_3 + 100000 z_0_4 + 100000 z_0_7 + 100000 z_0_9 <= 499606.62495693268
 c2927: 120 p_0_1 + 120 p_0_10 + 120 p_0_3 + 120 p_0_4 + 120 p_0_7 + 120 p_0_9 + 100000 z_0_1 + 100000 z_0_10 + 100000 z_0_3 + 100000 z_0_4 + 100000 z_0_7 + 100000 z_0_9 <= 599583.85269436578
 c2928: 120 p_0_10 + 120 p_0_2 + 120 p_0_3 + 120 p_0_4 + 120 p_0_7 + 120 p_0_9 + 100000 z_0_10 + 100000 z_0_2 + 100000 z_0_3 + 100000 z_0_4 + 100000 z_0_7 + 100000 z_0_9 <= 598865.80328168301
 c2929: 120 p_0_1 + 120 p_0_10 + 120 p_0_2 + 120 p_0_3 + 120 p_0_4 + 120 p_0_7 + 120 p_0_9 + 100000 z_0_1 + 100000 z_0_10 + 100000 z_0_2 + 100000 z_0_3 + 100000 z_0_4 + 100000 z_0_7 + 100000 z_0_9 <= 698856.93800902925
 c2930: 120 p_0_10 + 120 p_0_5 + 120 p_0_7 + 120 p_0_9 + 100000 z_0_10 + 100000 z_0_5 + 100000 z_0_7 + 100000 z_0_9 <= 398978.50546733895
 c2931: 120 p_0_1 + 120 p_0_10 + 120 p_0_5 + 120 p_0_7 + 120 p_0_9 + 100000 z_0_1 + 100000 z_0_10 + 100000 z_0_5 + 100000 z_0_7 + 100000 z_0_9 <= 498977.19635064242
 c2932: 120 p_0_10 + 120 p_0_2 + 120 p_0_5 + 120 p_0_7 + 120 p_0_9 + 100000 z_0_10 + 100000 z_0_2 + 100000 z_0_5 + 100000 z_0_7 + 100000 z_0_9 <= 498923.34411868808
 c2933: 120 p_0_1 + 120 p_0_10 + 120 p_0_2 + 120 p_0_5 + 120 p_0_7 + 120 p_0_9 + 100000 z_0_1 + 100000 z_0_10 + 100000 z_0_2 + 100000 z_0_5 + 100000 z_0_7 + 100000 z_0_9 <= 598922.03500199155
 c2934: 120 p_0_10 + 120 p_0_3 + 120 p_0_5 + 120 p_0_7 + 120 p_0_9 + 100000 z_0_10 + 100000 z_0_3 + 100000 z_0_5 + 100000 z_0_7 + 100000 z_0_9 <= 498922.35493835702
 c2935: 120 p_0_1 + 120 p_0_10 + 120 p_0_3 + 120 p_0_5 + 120 p_0_7 + 120 p_0_9 + 100000 z_0_1 + 100000 z_0_10 + 100000 z_0_3 + 100000 z_0_5 + 100000 z_0_7 + 100000 z_0_9 <= 598921.04582166043
 c2936: 120 p_0_10 + 120 p_0_2 + 120 p_0_3 + 120 p_0_5 + 120 p_0_7 + 120 p_0_9 + 100000 z_0_10 + 100000 z_0_2 + 100000 z_0_3 + 100000 z_0_5 + 100000 z_0_7 + 100000 z_0_9 <= 598892.24308562663
 c2937: 120 p_0_1 + 120 p_0_10 + 120 p_0_2 + 120 p_0_3 + 120 p_0_5 + 120 p_0_7 + 120 p_0_9 + 100000 z_0_1 + 100000 z_0_10 + 100000 z_0_2 + 100000 z_0_3 + 100000 z_0_5 + 100000 z_0_7 + 100000 z_0_9 <= 698879.7914629227
 c2938: 120 p_0_10 + 120 p_0_4 + 120 p_0_5 + 120 p_0_7 + 120 p_0_9 + 100000 z_0_10 + 100000 z_0_4 + 100000 z_0_5 + 100000 z_0_7 + 100000 z_0_9 <= 498959.27881225292
 c2939: 120 p_0_1 + 120 p_0_10 + 120 p_0_4 + 120 p_0_5 + 120 p_0_7 + 120 p_0_9 + 100000 z_0_1 + 100000 z_0_10 + 100000 z_0_4 + 100000 z_0_5 + 100000 z_0_7 + 100000 z_0_9 <= 598936.50654968596
 c2940: 120 p_0_10 + 120 p_0_2 + 120 p_0_4 + 120 p_0_5 + 120 p_0_7 + 120 p_0_9 + 100000 z_0_10 + 100000 z_0_2 + 100000 z_0_4 + 100000 z_0_5 + 100000 z_0_7 + 100000 z_0_9 <= 598904.11746360199
 c2941: 120 p_0_1 + 120 p_0_10 + 120 p_0_2 + 120 p_0_4 + 120 p_0_5 + 120 p_0_7 + 120 p_0_9 + 100000 z_0_1 + 100000 z_0_10 + 100000 z_0_2 + 100000 z_0_4 + 100000 z_0_5 + 100000 z_0_7 + 100000 z_0_9 <= 698881.34520103515
 c2942: 120 p_0_10 + 120 p_0_3 + 120 p_0_4 + 120 p_0_5 + 120 p_0_7 + 120 p_0_9 + 100000 z_0_10 + 100000 z_0_3 + 100000 z_0_4 + 100000 z_0_5 + 100000 z_0_7 + 100000 z_0_9 <= 598903.12828327098
 c2943: 120 p_0_1 + 120 p_0_10 + 120 p_0_3 + 120 p_0_4 + 120 p_0_5 + 120 p_0_7 + 120 p_0_9 + 100000 z_0_1 + 100000 z_0_10 + 100000 z_0_3 + 100000 z_0_4 + 100000 z_0_5 + 100000 z_0_7 + 100000 z_0_9 <= 698880.35602070403
 c2944: 120 p_0_10 + 120 p_0_2 + 120 p_0_3 + 120 p_0_4 + 120 p_0_5 + 120 p_0_7 + 120 p_0_9 + 100000 z_0_10 + 100000 z_0_2 + 100000 z_0_3 + 100000 z_0_4 + 100000 z_0_5 + 100000 z_0_7 + 100000 z_0_9 <= 698847.96693462005
 c2945: 120 p_0_1 + 120 p_0_10 + 120 p_0_2 + 120 p_0_3 + 120 p_0_4 + 120 p_0_5 + 120 p_0_7 + 120 p_0_9 + 100000 z_0_1 + 100000 z_0_10 + 100000 z_0_2 + 100000 z_0_3 + 100000 z_0_4 + 100000 z_0_5 + 100000 z_0_7 + 100000 z_0_9 <= 798839.1016619663
 c2946: 120 p_0_10 + 120 p_0_6 + 120 p_0_7 + 120 p_0_9 + 100000 z_0_10 + 100000 z_0_6 + 100000 z_0_7 + 100000 z_0_9 <= 399362.48780677415
 c2947: 120 p_0_1 + 120 p_0_10 + 120 p_0_6 + 120 p_0_7 + 120 p_0_9 + 100000 z_0_1 + 100000 z_0_10 + 100000 z_0_6 + 100000 z_0_7 + 100000 z_0_9 <= 499361.17869007756
 c2948: 120 p_0_10 + 120 p_0_2 + 120 p_0_6 + 120 p_0_7 + 120 p_0_9 + 100000 z_0_10 + 100000 z_0_2 + 100000 z_0_6 + 100000 z_0_7 + 100000 z_0_9 <= 498666.5218642152
 c2949: 120 p_0_1 + 120 p_0_10 + 120 p_0_2 + 120 p_0_6 + 120 p_0_7 + 120 p_0_9 + 100000 z_0_1 + 100000 z_0_10 + 100000 z_0_2 + 100000 z_0_6 + 100000 z_0_7 + 100000 z_0_9 <= 598654.07024151122
 c2950: 120 p_0_10 + 120 p_0_3 + 120 p_0_6 + 120 p_0_7 + 120 p_0_9 + 100000 z_0_10 + 100000 z_0_3 + 100000 z_0_6 + 100000 z_0_7 + 100000 z_0_9 <= 499362.47774827894
 c2951: 120 p_0_1 + 120 p_0_10 + 120 p_0_3 + 120 p_0_6 + 120 p_0_7 + 120 p_0_9 + 100000 z_0_1 + 100000 z_0_10 + 100000 z_0_3 + 100000 z_0_6 + 100000 z_0_7 + 100000 z_0_9 <= 599361.1686315824
 c2952: 120 p_0_10 + 120 p_0_2 + 120 p_0_3 + 120 p_0_6 + 120 p_0_7 + 120 p_0_9 + 100000 z_0_10 + 100000 z_0_2 + 100000 z_0_3 + 100000 z_0_6 + 100000 z_0_7 + 100000 z_0_9 <= 598646.70556894981
 c2953: 120 p_0_1 + 120 p_0_10 + 120 p_0_2 + 120 p_0_3 + 120 p_0_6 + 120 p_0_7 + 120 p_0_9 + 100000 z_0_1 + 100000 z_0_10 + 100000 z_0_2 + 100000 z_0_3 + 100000 z_0_6 + 100000 z_0_7 + 100000 z_0_9 <= 698634.25394624588
 c2954: 120 p_0_10 + 120 p_0_4 + 120 p_0_6 + 120 p_0_7 + 120 p_0_9 + 100000 z_0_10 + 100000 z_0_4 + 100000 z_0_6 + 100000 z_0_7 + 100000 z_0_9 <= 499343.26115168806
 c2955: 120 p_0_1 + 120 p_0_10 + 120 p_0_4 + 120 p_0_6 + 120 p_0_7 + 120 p_0_9 + 100000 z_0_1 + 100000 z_0_10 + 100000 z_0_4 + 100000 z_0_6 + 100000 z_0_7 + 100000 z_0_9 <= 599320.48888912122
 c2956: 120 p_0_10 + 120 p_0_2 + 120 p_0_4 + 120 p_0_6 + 120 p_0_7 + 120 p_0_9 + 100000 z_0_10 + 100000 z_0_2 + 100000 z_0_4 + 100000 z_0_6 + 100000 z_0_7 + 100000 z_0_9 <= 598613.72074090899
 c2957: 120 p_0_1 + 120 p_0_10 + 120 p_0_2 + 120 p_0_4 + 120 p_0_6 + 120 p_0_7 + 120 p_0_9 + 100000 z_0_1 + 100000 z_0_10 + 100000 z_0_2 + 100000 z_0_4 + 100000 z_0_6 + 100000 z_0_7 + 100000 z_0_9 <= 698613.38044055481
 c2958: 120 p_0_10 + 120 p_0_3 + 120 p_0_4 + 120 p_0_6 + 120 p_0_7 + 120 p_0_9 + 100000 z_0_10 + 100000 z_0_3 + 100000 z_0_4 + 100000 z_0_6 + 100000 z_0_7 + 100000 z_0_9 <= 599343.25109319284
 c2959: 120 p_0_1 + 120 p_0_10 + 120 p_0_3 + 120 p_0_4 + 120 p_0_6 + 120 p_0_7 + 120 p_0_9 + 100000 z_0_1 + 100000 z_0_10 + 100000 z_0_3 + 100000 z_0_4 + 100000 z_0_6 + 100000 z_0_7 + 100000 z_0_9 <= 699320.478830626
 c2960: 120 p_0_10 + 120 p_0_2 + 120 p_0_3 + 120 p_0_4 + 120 p_0_6 + 120 p_0_7 + 120 p_0_9 + 100000 z_0_10 + 100000 z_0_2 + 100000 z_0_3 + 100000 z_0_4 + 100000 z_0_6 + 100000 z_0_7 + 100000 z_0_9 <= 698602.42941794323
 c2961: 120 p_0_1 + 120 p_0_10 + 120 p_0_2 + 120 p_0_3 + 120 p_0_4 + 120 p_0_6 + 120 p_0_7 + 120 p_0_9 + 100000 z_0_1 + 100000 z_0_10 + 100000 z_0_2 + 100000 z_0_3 + 100000 z_0_4 + 100000 z_0_6 + 100000 z_0_7 + 100000 z_0_9 <= 798593.56414528948
 c2962: 120 p_0_10 + 120 p_0_5 + 120 p_0_6 + 120 p_0_7 + 120 p_0_9 + 100000 z_0_10 + 100000 z_0_5 + 100000 z_0_6 + 100000 z_0_7 + 100000 z_0_9 <= 498667.47421624372
 c2963: 120 p_0_1 + 120 p_0_10 + 120 p_0_5 + 120 p_0_6 + 120 p_0_7 + 120 p_0_9 + 100000 z_0_1 + 100000 z_0_10 + 100000 z_0_5 + 100000 z_0_6 + 100000 z_0_7 + 100000 z_0_9 <= 598657.68201641587
 c2964: 120 p_0_10 + 120 p_0_2 + 120 p_0_5 + 120 p_0_6 + 120 p_0_7 + 120 p_0_9 + 100000 z_0_10 + 100000 z_0_2 + 100000 z_0_5 + 100000 z_0_6 + 100000 z_0_7 + 100000 z_0_9 <= 598648.68551715219
 c2965: 120 p_0_1 + 120 p_0_10 + 120 p_0_2 + 120 p_0_5 + 120 p_0_6 + 120 p_0_7 + 120 p_0_9 + 100000 z_0_1 + 100000 z_0_10 + 100000 z_0_2 + 100000 z_0_5 + 100000 z_0_6 + 100000 z_0_7 + 100000 z_0_9 <= 698636.23389444826
 c2966: 120 p_0_10 + 120 p_0_3 + 120 p_0_5 + 120 p_0_6 + 120 p_0_7 + 120 p_0_9 + 100000 z_0_10 + 100000 z_0_3 + 100000 z_0_5 + 100000 z_0_6 + 100000 z_0_7 + 100000 z_0_9 <= 598658.98107461724
 c2967: 120 p_0_1 + 120 p_0_10 + 120 p_0_3 + 120 p_0_5 + 120 p_0_6 + 120 p_0_7 + 120 p_0_9 + 100000 z_0_1 + 100000 z_0_10 + 100000 z_0_3 + 100000 z_0_5 + 100000 z_0_6 + 100000 z_0_7 + 100000 z_0_9 <= 698657.67195792065
 c2968: 120 p_0_10 + 120 p_0_2 + 120 p_0_3 + 120 p_0_5 + 120 p_0_6 + 120 p_0_7 + 120 p_0_9 + 100000 z_0_10 + 100000 z_0_2 + 100000 z_0_3 + 100000 z_0_5 + 100000 z_0_6 + 100000 z_0_7 + 100000 z_0_9 <= 698628.86922188685
 c2969: 120 p_0_1 + 120 p_0_10 + 120 p_0_2 + 120 p_0_3 + 120 p_0_5 + 120 p_0_6 + 120 p_0_7 + 120 p_0_9 + 100000 z_0_1 + 100000 z_0_10 + 100000 z_0_2 + 100000 z_0_3 + 100000 z_0_5 + 100000 z_0_6 + 100000 z_0_7 + 100000 z_0_9 <= 798616.41759918293
 c2970: 120 p_0_10 + 120 p_0_4 + 120 p_0_5 + 120 p_0_6 + 120 p_0_7 + 120 p_0_9 + 100000 z_0_10 + 100000 z_0_4 + 100000 z_0_5 + 100000 z_0_6 + 100000 z_0_7 + 100000 z_0_9 <= 598639.76447802642
 c2971: 120 p_0_1 + 120 p_0_10 + 120 p_0_4 + 120 p_0_5 + 120 p_0_6 + 120 p_0_7 + 120 p_0_9 + 100000 z_0_1 + 100000 z_0_10 + 100000 z_0_4 + 100000 z_0_5 + 100000 z_0_6 + 100000 z_0_7 + 100000 z_0_9 <= 698616.99221545947
 c2972: 120 p_0_10 + 120 p_0_2 + 120 p_0_4 + 120 p_0_5 + 120 p_0_6 + 120 p_0_7 + 120 p_0_9 + 100000 z_0_10 + 100000 z_0_2 + 100000 z_0_4 + 100000 z_0_5 + 100000 z_0_6 + 100000 z_0_7 + 100000 z_0_9 <= 698595.88439384603
 c2973: 120 p_0_1 + 120 p_0_10 + 120 p_0_2 + 120 p_0_4 + 120 p_0_5 + 120 p_0_6 + 120 p_0_7 + 120 p_0_9 + 100000 z_0_1 + 100000 z_0_10 + 100000 z_0_2 + 100000 z_0_4 + 100000 z_0_5 + 100000 z_0_6 + 100000 z_0_7 + 100000 z_0_9 <= 798595.54409349186
 c2974: 120 p_0_10 + 120 p_0_3 + 120 p_0_4 + 120 p_0_5 + 120 p_0_6 + 120 p_0_7 + 120 p_0_9 + 100000 z_0_10 + 100000 z_0_3 + 100000 z_0_4 + 100000 z_0_5 + 100000 z_0_6 + 100000 z_0_7 + 100000 z_0_9 <= 698639.75441953121
 c2975: 120 p_0_1 + 120 p_0_10 + 120 p_0_3 + 120 p_0_4 + 120 p_0_5 + 120 p_0_6 + 120 p_0_7 + 120 p_0_9 + 100000 z_0_1 + 100000 z_0_10 + 100000 z_0_3 + 100000 z_0_4 + 100000 z_0_5 + 100000 z_0_6 + 100000 z_0_7 + 100000 z_0_9 <= 798616.98215696425
 c2976: 120 p_0_10 + 120 p_0_2 + 120 p_0_3 + 120 p_0_4 + 120 p_0_5 + 120 p_0_6 + 120 p_0_7 + 120 p_0_9 + 100000 z_0_10 + 100000 z_0_2 + 100000 z_0_3 + 100000 z_0_4 + 100000 z_0_5 + 100000 z_0_6 + 100000 z_0_7 + 100000 z_0_9 <= 798584.59307088028
 c2977: 120 p_0_1 + 120 p_0_10 + 120 p_0_2 + 120 p_0_3 + 120 p_0_4 + 120 p_0_5 + 120 p_0_6 + 120 p_0_7 + 120 p_0_9 + 100000 z_0_1 + 100000 z_0_10 + 100000 z_0_2 + 100000 z_0_3 + 100000 z_0_4 + 100000 z_0_5 + 100000 z_0_6 + 100000 z_0_7 + 100000 z_0_9 <= 898575.72779822652
 c2978: 120 p_0_10 + 120 p_0_8 + 120 p_0_9 + 100000 z_0_10 + 100000 z_0_8 + 100000 z_0_9 <= 298803.23780855373
 c2979: 120 p_0_1 + 120 p_0_10 + 120 p_0_8 + 120 p_0_9 + 100000 z_0_1 + 100000 z_0_10 + 100000 z_0_8 + 100000 z_0_9 <= 398801.9286918572
 c2980: 120 p_0_10 + 120 p_0_2 + 120 p_0_8 + 120 p_0_9 + 100000 z_0_10 + 100000 z_0_2 + 100000 z_0_8 + 100000 z_0_9 <= 398774.00026548438
 c2981: 120 p_0_1 + 120 p_0_10 + 120 p_0_2 + 120 p_0_8 + 120 p_0_9 + 100000 z_0_1 + 100000 z_0_10 + 100000 z_0_2 + 100000 z_0_8 + 100000 z_0_9 <= 498772.69114878785
 c2982: 120 p_0_10 + 120 p_0_3 + 120 p_0_8 + 120 p_0_9 + 100000 z_0_10 + 100000 z_0_3 + 100000 z_0_8 + 100000 z_0_9 <= 398747.0872795718
 c2983: 120 p_0_1 + 120 p_0_10 + 120 p_0_3 + 120 p_0_8 + 120 p_0_9 + 100000 z_0_1 + 100000 z_0_10 + 100000 z_0_3 + 100000 z_0_8 + 100000 z_0_9 <= 498745.77816287527
 c2984: 120 p_0_10 + 120 p_0_2 + 120 p_0_3 + 120 p_0_8 + 120 p_0_9 + 100000 z_0_10 + 100000 z_0_2 + 100000 z_0_3 + 100000 z_0_8 + 100000 z_0_9 <= 498742.89923242293
 c2985: 120 p_0_1 + 120 p_0_10 + 120 p_0_2 + 120 p_0_3 + 120 p_0_8 + 120 p_0_9 + 100000 z_0_1 + 100000 z_0_10 + 100000 z_0_2 + 100000 z_0_3 + 100000 z_0_8 + 100000 z_0_9 <= 598730.44760971901
 c2986: 120 p_0_10 + 120 p_0_4 + 120 p_0_8 + 120 p_0_9 + 100000 z_0_10 + 100000 z_0_4 + 100000 z_0_8 + 100000 z_0_9 <= 398784.0111534677
 c2987: 120 p_0_1 + 120 p_0_10 + 120 p_0_4 + 120 p_0_8 + 120 p_0_9 + 100000 z_0_1 + 100000 z_0_10 + 100000 z_0_4 + 100000 z_0_8 + 100000 z_0_9 <= 498761.2388909008
 c2988: 120 p_0_10 + 120 p_0_2 + 120 p_0_4 + 120 p_0_8 + 120 p_0_9 + 100000 z_0_10 + 100000 z_0_2 + 100000 z_0_4 + 100000 z_0_8 + 100000 z_0_9 <= 498754.77361039835
 c2989: 120 p_0_1 + 120 p_0_10 + 120 p_0_2 + 120 p_0_4 + 120 p_0_8 + 120 p_0_9 + 100000 z_0_1 + 100000 z_0_10 + 100000 z_0_2 + 100000 z_0_4 + 100000 z_0_8 + 100000 z_0_9 <= 598732.00134783145
 c2990: 120 p_0_10 + 120 p_0_3 + 120 p_0_4 + 120 p_0_8 + 120 p_0_9 + 100000 z_0_10 + 100000 z_0_3 + 100000 z_0_4 + 100000 z_0_8 + 100000 z_0_9 <= 498727.86062448577
 c2991: 120 p_0_1 + 120 p_0_10 + 120 p_0_3 + 120 p_0_4 + 120 p_0_8 + 120 p_0_9 + 100000 z_0_1 + 100000 z_0_10 + 100000 z_0_3 + 100000 z_0_4 + 100000 z_0_8 + 100000 z_0_9 <= 598705.08836191881
 c2992: 120 p_0_10 + 120 p_0_2 + 120 p_0_3 + 120 p_0_4 + 120 p_0_8 + 120 p_0_9 + 100000 z_0_10 + 100000 z_0_2 + 100000 z_0_3 + 100000 z_0_4 + 100000 z_0_8 + 100000 z_0_9 <= 598698.62308141636
 c2993: 120 p_0_1 + 120 p_0_10 + 120 p_0_2 + 120 p_0_3 + 120 p_0_4 + 120 p_0_8 + 120 p_0_9 + 100000 z_0_1 + 100000 z_0_10 + 100000 z_0_2 + 100000 z_0_3 + 100000 z_0_4 + 100000 z_0_8 + 100000 z_0_9 <= 698689.7578087626
 c2994: 120 p_0_10 + 120 p_0_5 + 120 p_0_8 + 120 p_0_9 + 100000 z_0_10 + 100000 z_0_5 + 100000 z_0_8 + 100000 z_0_9 <= 398800.44216474151
 c2995: 120 p_0_1 + 120 p_0_10 + 120 p_0_5 + 120 p_0_8 + 120 p_0_9 + 100000 z_0_1 + 100000 z_0_10 + 100000 z_0_5 + 100000 z_0_8 + 100000 z_0_9 <= 498799.13304804498
 c2996: 120 p_0_10 + 120 p_0_2 + 120 p_0_5 + 120 p_0_8 + 120 p_0_9 + 100000 z_0_10 + 100000 z_0_2 + 100000 z_0_5 + 100000 z_0_8 + 100000 z_0_9 <= 498745.28081609064
 c2997: 120 p_0_1 + 120 p_0_10 + 120 p_0_2 + 120 p_0_5 + 120 p_0_8 + 120 p_0_9 + 100000 z_0_1 + 100000 z_0_10 + 100000 z_0_2 + 100000 z_0_5 + 100000 z_0_8 + 100000 z_0_9 <= 598743.97169939405
 c2998: 120 p_0_10 + 120 p_0_3 + 120 p_0_5 + 120 p_0_8 + 120 p_0_9 + 100000 z_0_10 + 100000 z_0_3 + 100000 z_0_5 + 100000 z_0_8 + 100000 z_0_9 <= 498744.29163575958
 c2999: 120 p_0_1 + 120 p_0_10 + 120 p_0_3 + 120 p_0_5 + 120 p_0_8 + 120 p_0_9 + 100000 z_0_1 + 100000 z_0_10 + 100000 z_0_3 + 100000 z_0_5 + 100000 z_0_8 + 100000 z_0_9 <= 598742.98251906305
 c3000: 120 p_0_10 + 120 p_0_2 + 120 p_0_3 + 120 p_0_5 + 120 p_0_8 + 120 p_0_9 + 100000 z_0_10 + 100000 z_0_2 + 100000 z_0_3 + 100000 z_0_5 + 100000 z_0_8 + 100000 z_0_9 <= 598714.17978302913
 c3001: 120 p_0_1 + 120 p_0_10 + 120 p_0_2 + 120 p_0_3 + 120 p_0_5 + 120 p_0_8 + 120 p_0_9 + 100000 z_0_1 + 100000 z_0_10 + 100000 z_0_2 + 100000 z_0_3 + 100000 z_0_5 + 100000 z_0_8 + 100000 z_0_9 <= 698701.7281603252
 c3002: 120 p_0_10 + 120 p_0_4 + 120 p_0_5 + 120 p_0_8 + 120 p_0_9 + 100000 z_0_10 + 100000 z_0_4 + 100000 z_0_5 + 100000 z_0_8 + 100000 z_0_9 <= 498781.21550965548
 c3003: 120 p_0_1 + 120 p_0_10 + 120 p_0_4 + 120 p_0_5 + 120 p_0_8 + 120 p_0_9 + 100000 z_0_1 + 100000 z_0_10 + 100000 z_0_4 + 100000 z_0_5 + 100000 z_0_8 + 100000 z_0_9 <= 598758.44324708858
 c3004: 120 p_0_10 + 120 p_0_2 + 120 p_0_4 + 120 p_0_5 + 120 p_0_8 + 120 p_0_9 + 100000 z_0_10 + 100000 z_0_2 + 100000 z_0_4 + 100000 z_0_5 + 100000 z_0_8 + 100000 z_0_9 <= 598726.05416100461
 c3005: 120 p_0_1 + 120 p_0_10 + 120 p_0_2 + 120 p_0_4 + 120 p_0_5 + 120 p_0_8 + 120 p_0_9 + 100000 z_0_1 + 100000 z_0_10 + 100000 z_0_2 + 100000 z_0_4 + 100000 z_0_5 + 100000 z_0_8 + 100000 z_0_9 <= 698703.28189843765
 c3006: 120 p_0_10 + 120 p_0_3 + 120 p_0_4 + 120 p_0_5 + 120 p_0_8 + 120 p_0_9 + 100000 z_0_10 + 100000 z_0_3 + 100000 z_0_4 + 100000 z_0_5 + 100000 z_0_8 + 100000 z_0_9 <= 598725.06498067349
 c3007: 120 p_0_1 + 120 p_0_10 + 120 p_0_3 + 120 p_0_4 + 120 p_0_5 + 120 p_0_8 + 120 p_0_9 + 100000 z_0_1 + 100000 z_0_10 + 100000 z_0_3 + 100000 z_0_4 + 100000 z_0_5 + 100000 z_0_8 + 100000 z_0_9 <= 698702.29271810665
 c3008: 120 p_0_10 + 120 p_0_2 + 120 p_0_3 + 120 p_0_4 + 120 p_0_5 + 120 p_0_8 + 120 p_0_9 + 100000 z_0_10 + 100000 z_0_2 + 100000 z_0_3 + 100000 z_0_4 + 100000 z_0_5 + 100000 z_0_8 + 100000 z_0_9 <= 698669.90363202267
 c3009: 120 p_0_1 + 120 p_0_10 + 120 p_0_2 + 120 p_0_3 + 120 p_0_4 + 120 p_0_5 + 120 p_0_8 + 120 p_0_9 + 100000 z_0_1 + 100000 z_0_10 + 100000 z_0_2 + 100000 z_0_3 + 100000 z_0_4 + 100000 z_0_5 + 100000 z_0_8 + 100000 z_0_9 <= 798661.0383593688
 c3010: 120 p_0_10 + 120 p_0_6 + 120 p_0_8 + 120 p_0_9 + 100000 z_0_10 + 100000 z_0_6 + 100000 z_0_8 + 100000 z_0_9 <= 398499.37087357609
 c3011: 120 p_0_1 + 120 p_0_10 + 120 p_0_6 + 120 p_0_8 + 120 p_0_9 + 100000 z_0_1 + 100000 z_0_10 + 100000 z_0_6 + 100000 z_0_8 + 100000 z_0_9 <= 498486.91925087216
 c3012: 120 p_0_10 + 120 p_0_2 + 120 p_0_6 + 120 p_0_8 + 120 p_0_9 + 100000 z_0_10 + 100000 z_0_2 + 100000 z_0_6 + 100000 z_0_8 + 100000 z_0_9 <= 498499.34166394855
 c3013: 120 p_0_1 + 120 p_0_10 + 120 p_0_2 + 120 p_0_6 + 120 p_0_8 + 120 p_0_9 + 100000 z_0_1 + 100000 z_0_10 + 100000 z_0_2 + 100000 z_0_6 + 100000 z_0_8 + 100000 z_0_9 <= 598486.89004124457
 c3014: 120 p_0_10 + 120 p_0_3 + 120 p_0_6 + 120 p_0_8 + 120 p_0_9 + 100000 z_0_10 + 100000 z_0_3 + 100000 z_0_6 + 100000 z_0_8 + 100000 z_0_9 <= 498483.71341583203
 c3015: 120 p_0_1 + 120 p_0_10 + 120 p_0_3 + 120 p_0_6 + 120 p_0_8 + 120 p_0_9 + 100000 z_0_1 + 100000 z_0_10 + 100000 z_0_3 + 100000 z_0_6 + 100000 z_0_8 + 100000 z_0_9 <= 598482.40429913544
 c3016: 120 p_0_10 + 120 p_0_2 + 120 p_0_3 + 120 p_0_6 + 120 p_0_8 + 120 p_0_9 + 100000 z_0_10 + 100000 z_0_2 + 100000 z_0_3 + 100000 z_0_6 + 100000 z_0_8 + 100000 z_0_9 <= 598479.52536868316
 c3017: 120 p_0_1 + 120 p_0_10 + 120 p_0_2 + 120 p_0_3 + 120 p_0_6 + 120 p_0_8 + 120 p_0_9 + 100000 z_0_1 + 100000 z_0_10 + 100000 z_0_2 + 100000 z_0_3 + 100000 z_0_6 + 100000 z_0_8 + 100000 z_0_9 <= 698467.07374597923
 c3018: 120 p_0_10 + 120 p_0_4 + 120 p_0_6 + 120 p_0_8 + 120 p_0_9 + 100000 z_0_10 + 100000 z_0_4 + 100000 z_0_6 + 100000 z_0_8 + 100000 z_0_9 <= 498464.49681924115
 c3019: 120 p_0_1 + 120 p_0_10 + 120 p_0_4 + 120 p_0_6 + 120 p_0_8 + 120 p_0_9 + 100000 z_0_1 + 100000 z_0_10 + 100000 z_0_4 + 100000 z_0_6 + 100000 z_0_8 + 100000 z_0_9 <= 598446.2294499157
 c3020: 120 p_0_10 + 120 p_0_2 + 120 p_0_4 + 120 p_0_6 + 120 p_0_8 + 120 p_0_9 + 100000 z_0_10 + 100000 z_0_2 + 100000 z_0_4 + 100000 z_0_6 + 100000 z_0_8 + 100000 z_0_9 <= 598446.54054064234
 c3021: 120 p_0_1 + 120 p_0_10 + 120 p_0_2 + 120 p_0_4 + 120 p_0_6 + 120 p_0_8 + 120 p_0_9 + 100000 z_0_1 + 100000 z_0_10 + 100000 z_0_2 + 100000 z_0_4 + 100000 z_0_6 + 100000 z_0_8 + 100000 z_0_9 <= 698446.20024028816
 c3022: 120 p_0_10 + 120 p_0_3 + 120 p_0_4 + 120 p_0_6 + 120 p_0_8 + 120 p_0_9 + 100000 z_0_10 + 100000 z_0_3 + 100000 z_0_4 + 100000 z_0_6 + 100000 z_0_8 + 100000 z_0_9 <= 598464.48676074599
 c3023: 120 p_0_1 + 120 p_0_10 + 120 p_0_3 + 120 p_0_4 + 120 p_0_6 + 120 p_0_8 + 120 p_0_9 + 100000 z_0_1 + 100000 z_0_10 + 100000 z_0_3 + 100000 z_0_4 + 100000 z_0_6 + 100000 z_0_8 + 100000 z_0_9 <= 698441.71449817903
 c3024: 120 p_0_10 + 120 p_0_2 + 120 p_0_3 + 120 p_0_4 + 120 p_0_6 + 120 p_0_8 + 120 p_0_9 + 100000 z_0_10 + 100000 z_0_2 + 100000 z_0_3 + 100000 z_0_4 + 100000 z_0_6 + 100000 z_0_8 + 100000 z_0_9 <= 698435.24921767658
 c3025: 120 p_0_1 + 120 p_0_10 + 120 p_0_2 + 120 p_0_3 + 120 p_0_4 + 120 p_0_6 + 120 p_0_8 + 120 p_0_9 + 100000 z_0_1 + 100000 z_0_10 + 100000 z_0_2 + 100000 z_0_3 + 100000 z_0_4 + 100000 z_0_6 + 100000 z_0_8 + 100000 z_0_9 <= 798426.38394502283
 c3026: 120 p_0_10 + 120 p_0_5 + 120 p_0_6 + 120 p_0_8 + 120 p_0_9 + 100000 z_0_10 + 100000 z_0_5 + 100000 z_0_6 + 100000 z_0_8 + 100000 z_0_9 <= 498489.41091364622
 c3027: 120 p_0_1 + 120 p_0_10 + 120 p_0_5 + 120 p_0_6 + 120 p_0_8 + 120 p_0_9 + 100000 z_0_1 + 100000 z_0_10 + 100000 z_0_5 + 100000 z_0_6 + 100000 z_0_8 + 100000 z_0_9 <= 598479.61871381837
 c3028: 120 p_0_10 + 120 p_0_2 + 120 p_0_5 + 120 p_0_6 + 120 p_0_8 + 120 p_0_9 + 100000 z_0_10 + 100000 z_0_2 + 100000 z_0_5 + 100000 z_0_6 + 100000 z_0_8 + 100000 z_0_9 <= 598470.62221455481
 c3029: 120 p_0_1 + 120 p_0_10 + 120 p_0_2 + 120 p_0_5 + 120 p_0_6 + 120 p_0_8 + 120 p_0_9 + 100000 z_0_1 + 100000 z_0_10 + 100000 z_0_2 + 100000 z_0_5 + 100000 z_0_6 + 100000 z_0_8 + 100000 z_0_9 <= 698458.17059185088
 c3030: 120 p_0_10 + 120 p_0_3 + 120 p_0_5 + 120 p_0_6 + 120 p_0_8 + 120 p_0_9 + 100000 z_0_10 + 100000 z_0_3 + 100000 z_0_5 + 100000 z_0_6 + 100000 z_0_8 + 100000 z_0_9 <= 598480.91777201975
 c3031: 120 p_0_1 + 120 p_0_10 + 120 p_0_3 + 120 p_0_5 + 120 p_0_6 + 120 p_0_8 + 120 p_0_9 + 100000 z_0_1 + 100000 z_0_10 + 100000 z_0_3 + 100000 z_0_5 + 100000 z_0_6 + 100000 z_0_8 + 100000 z_0_9 <= 698479.60865532327
 c3032: 120 p_0_10 + 120 p_0_2 + 120 p_0_3 + 120 p_0_5 + 120 p_0_6 + 120 p_0_8 + 120 p_0_9 + 100000 z_0_10 + 100000 z_0_2 + 100000 z_0_3 + 100000 z_0_5 + 100000 z_0_6 + 100000 z_0_8 + 100000 z_0_9 <= 698450.80591928936
 c3033: 120 p_0_1 + 120 p_0_10 + 120 p_0_2 + 120 p_0_3 + 120 p_0_5 + 120 p_0_6 + 120 p_0_8 + 120 p_0_9 + 100000 z_0_1 + 100000 z_0_10 + 100000 z_0_2 + 100000 z_0_3 + 100000 z_0_5 + 100000 z_0_6 + 100000 z_0_8 + 100000 z_0_9 <= 798438.35429658543
 c3034: 120 p_0_10 + 120 p_0_4 + 120 p_0_5 + 120 p_0_6 + 120 p_0_8 + 120 p_0_9 + 100000 z_0_10 + 100000 z_0_4 + 100000 z_0_5 + 100000 z_0_6 + 100000 z_0_8 + 100000 z_0_9 <= 598461.70117542893
 c3035: 120 p_0_1 + 120 p_0_10 + 120 p_0_4 + 120 p_0_5 + 120 p_0_6 + 120 p_0_8 + 120 p_0_9 + 100000 z_0_1 + 100000 z_0_10 + 100000 z_0_4 + 100000 z_0_5 + 100000 z_0_6 + 100000 z_0_8 + 100000 z_0_9 <= 698438.92891286197
 c3036: 120 p_0_10 + 120 p_0_2 + 120 p_0_4 + 120 p_0_5 + 120 p_0_6 + 120 p_0_8 + 120 p_0_9 + 100000 z_0_10 + 100000 z_0_2 + 100000 z_0_4 + 100000 z_0_5 + 100000 z_0_6 + 100000 z_0_8 + 100000 z_0_9 <= 698417.82109124854
 c3037: 120 p_0_1 + 120 p_0_10 + 120 p_0_2 + 120 p_0_4 + 120 p_0_5 + 120 p_0_6 + 120 p_0_8 + 120 p_0_9 + 100000 z_0_1 + 100000 z_0_10 + 100000 z_0_2 + 100000 z_0_4 + 100000 z_0_5 + 100000 z_0_6 + 100000 z_0_8 + 100000 z_0_9 <= 798417.48079089448
 c3038: 120 p_0_10 + 120 p_0_3 + 120 p_0_4 + 120 p_0_5 + 120 p_0_6 + 120 p_0_8 + 120 p_0_9 + 100000 z_0_10 + 100000 z_0_3 + 100000 z_0_4 + 100000 z_0_5 + 100000 z_0_6 + 100000 z_0_8 + 100000 z_0_9 <= 698461.69111693371
 c3039: 120 p_0_1 + 120 p_0_10 + 120 p_0_3 + 120 p_0_4 + 120 p_0_5 + 120 p_0_6 + 120 p_0_8 + 120 p_0_9 + 100000 z_0_1 + 100000 z_0_10 + 100000 z_0_3 + 100000 z_0_4 + 100000 z_0_5 + 100000 z_0_6 + 100000 z_0_8 + 100000 z_0_9 <= 798438.91885436687
 c3040: 120 p_0_10 + 120 p_0_2 + 120 p_0_3 + 120 p_0_4 + 120 p_0_5 + 120 p_0_6 + 120 p_0_8 + 120 p_0_9 + 100000 z_0_10 + 100000 z_0_2 + 100000 z_0_3 + 100000 z_0_4 + 100000 z_0_5 + 100000 z_0_6 + 100000 z_0_8 + 100000 z_0_9 <= 798406.5297682829
 c3041: 120 p_0_1 + 120 p_0_10 + 120 p_0_2 + 120 p_0_3 + 120 p_0_4 + 120 p_0_5 + 120 p_0_6 + 120 p_0_8 + 120 p_0_9 + 100000 z_0_1 + 100000 z_0_10 + 100000 z_0_2 + 100000 z_0_3 + 100000 z_0_4 + 100000 z_0_5 + 100000 z_0_6 + 100000 z_0_8 + 100000 z_0_9 <= 898397.66449562903
 c3042: 120 p_0_10 + 120 p_0_7 + 120 p_0_8 + 120 p_0_9 + 100000 z_0_10 + 100000 z_0_7 + 100000 z_0_8 + 100000 z_0_9 <= 398799.04605252005
 c3043: 120 p_0_1 + 120 p_0_10 + 120 p_0_7 + 120 p_0_8 + 120 p_0_9 + 100000 z_0_1 + 100000 z_0_10 + 100000 z_0_7 + 100000 z_0_8 + 100000 z_0_9 <= 498797.73693582352
 c3044: 120 p_0_10 + 120 p_0_2 + 120 p_0_7 + 120 p_0_8 + 120 p_0_9 + 100000 z_0_10 + 100000 z_0_2 + 100000 z_0_7 + 100000 z_0_8 + 100000 z_0_9 <= 498769.80850945076
 c3045: 120 p_0_1 + 120 p_0_10 + 120 p_0_2 + 120 p_0_7 + 120 p_0_8 + 120 p_0_9 + 100000 z_0_1 + 100000 z_0_10 + 100000 z_0_2 + 100000 z_0_7 + 100000 z_0_8 + 100000 z_0_9 <= 598768.49939275417
 c3046: 120 p_0_10 + 120 p_0_3 + 120 p_0_7 + 120 p_0_8 + 120 p_0_9 + 100000 z_0_10 + 100000 z_0_3 + 100000 z_0_7 + 100000 z_0_8 + 100000 z_0_9 <= 498742.89552353811
 c3047: 120 p_0_1 + 120 p_0_10 + 120 p_0_3 + 120 p_0_7 + 120 p_0_8 + 120 p_0_9 + 100000 z_0_1 + 100000 z_0_10 + 100000 z_0_3 + 100000 z_0_7 + 100000 z_0_8 + 100000 z_0_9 <= 598741.58640684152
 c3048: 120 p_0_10 + 120 p_0_2 + 120 p_0_3 + 120 p_0_7 + 120 p_0_8 + 120 p_0_9 + 100000 z_0_10 + 100000 z_0_2 + 100000 z_0_3 + 100000 z_0_7 + 100000 z_0_8 + 100000 z_0_9 <= 598738.70747638925
 c3049: 120 p_0_1 + 120 p_0_10 + 120 p_0_2 + 120 p_0_3 + 120 p_0_7 + 120 p_0_8 + 120 p_0_9 + 100000 z_0_1 + 100000 z_0_10 + 100000 z_0_2 + 100000 z_0_3 + 100000 z_0_7 + 100000 z_0_8 + 100000 z_0_9 <= 698726.25585368532
 c3050: 120 p_0_10 + 120 p_0_4 + 120 p_0_7 + 120 p_0_8 + 120 p_0_9 + 100000 z_0_10 + 100000 z_0_4 + 100000 z_0_7 + 100000 z_0_8 + 100000 z_0_9 <= 498779.81939743401
 c3051: 120 p_0_1 + 120 p_0_10 + 120 p_0_4 + 120 p_0_7 + 120 p_0_8 + 120 p_0_9 + 100000 z_0_1 + 100000 z_0_10 + 100000 z_0_4 + 100000 z_0_7 + 100000 z_0_8 + 100000 z_0_9 <= 598757.04713486705
 c3052: 120 p_0_10 + 120 p_0_2 + 120 p_0_4 + 120 p_0_7 + 120 p_0_8 + 120 p_0_9 + 100000 z_0_10 + 100000 z_0_2 + 100000 z_0_4 + 100000 z_0_7 + 100000 z_0_8 + 100000 z_0_9 <= 598750.58185436472
 c3053: 120 p_0_1 + 120 p_0_10 + 120 p_0_2 + 120 p_0_4 + 120 p_0_7 + 120 p_0_8 + 120 p_0_9 + 100000 z_0_1 + 100000 z_0_10 + 100000 z_0_2 + 100000 z_0_4 + 100000 z_0_7 + 100000 z_0_8 + 100000 z_0_9 <= 698727.80959179776
 c3054: 120 p_0_10 + 120 p_0_3 + 120 p_0_4 + 120 p_0_7 + 120 p_0_8 + 120 p_0_9 + 100000 z_0_10 + 100000 z_0_3 + 100000 z_0_4 + 100000 z_0_7 + 100000 z_0_8 + 100000 z_0_9 <= 598723.66886845208
 c3055: 120 p_0_1 + 120 p_0_10 + 120 p_0_3 + 120 p_0_4 + 120 p_0_7 + 120 p_0_8 + 120 p_0_9 + 100000 z_0_1 + 100000 z_0_10 + 100000 z_0_3 + 100000 z_0_4 + 100000 z_0_7 + 100000 z_0_8 + 100000 z_0_9 <= 698700.89660588512
 c3056: 120 p_0_10 + 120 p_0_2 + 120 p_0_3 + 120 p_0_4 + 120 p_0_7 + 120 p_0_8 + 120 p_0_9 + 100000 z_0_10 + 100000 z_0_2 + 100000 z_0_3 + 100000 z_0_4 + 100000 z_0_7 + 100000 z_0_8 + 100000 z_0_9 <= 698694.43132538267
 c3057: 120 p_0_1 + 120 p_0_10 + 120 p_0_2 + 120 p_0_3 + 120 p_0_4 + 120 p_0_7 + 120 p_0_8 + 120 p_0_9 + 100000 z_0_1 + 100000 z_0_10 + 100000 z_0_2 + 100000 z_0_3 + 100000 z_0_4 + 100000 z_0_7 + 100000 z_0_8 + 100000 z_0_9 <= 798685.56605272891
 c3058: 120 p_0_10 + 120 p_0_5 + 120 p_0_7 + 120 p_0_8 + 120 p_0_9 + 100000 z_0_10 + 100000 z_0_5 + 100000 z_0_7 + 100000 z_0_8 + 100000 z_0_9 <= 498796.25040870783
 c3059: 120 p_0_1 + 120 p_0_10 + 120 p_0_5 + 120 p_0_7 + 120 p_0_8 + 120 p_0_9 + 100000 z_0_1 + 100000 z_0_10 + 100000 z_0_5 + 100000 z_0_7 + 100000 z_0_8 + 100000 z_0_9 <= 598794.9412920113
 c3060: 120 p_0_10 + 120 p_0_2 + 120 p_0_5 + 120 p_0_7 + 120 p_0_8 + 120 p_0_9 + 100000 z_0_10 + 100000 z_0_2 + 100000 z_0_5 + 100000 z_0_7 + 100000 z_0_8 + 100000 z_0_9 <= 598741.08906005695
 c3061: 120 p_0_1 + 120 p_0_10 + 120 p_0_2 + 120 p_0_5 + 120 p_0_7 + 120 p_0_8 + 120 p_0_9 + 100000 z_0_1 + 100000 z_0_10 + 100000 z_0_2 + 100000 z_0_5 + 100000 z_0_7 + 100000 z_0_8 + 100000 z_0_9 <= 698739.77994336036
 c3062: 120 p_0_10 + 120 p_0_3 + 120 p_0_5 + 120 p_0_7 + 120 p_0_8 + 120 p_0_9 + 100000 z_0_10 + 100000 z_0_3 + 100000 z_0_5 + 100000 z_0_7 + 100000 z_0_8 + 100000 z_0_9 <= 598740.09987972595
 c3063: 120 p_0_1 + 120 p_0_10 + 120 p_0_3 + 120 p_0_5 + 120 p_0_7 + 120 p_0_8 + 120 p_0_9 + 100000 z_0_1 + 100000 z_0_10 + 100000 z_0_3 + 100000 z_0_5 + 100000 z_0_7 + 100000 z_0_8 + 100000 z_0_9 <= 698738.79076302936
 c3064: 120 p_0_10 + 120 p_0_2 + 120 p_0_3 + 120 p_0_5 + 120 p_0_7 + 120 p_0_8 + 120 p_0_9 + 100000 z_0_10 + 100000 z_0_2 + 100000 z_0_3 + 100000 z_0_5 + 100000 z_0_7 + 100000 z_0_8 + 100000 z_0_9 <= 698709.98802699544
 c3065: 120 p_0_1 + 120 p_0_10 + 120 p_0_2 + 120 p_0_3 + 120 p_0_5 + 120 p_0_7 + 120 p_0_8 + 120 p_0_9 + 100000 z_0_1 + 100000 z_0_10 + 100000 z_0_2 + 100000 z_0_3 + 100000 z_0_5 + 100000 z_0_7 + 100000 z_0_8 + 100000 z_0_9 <= 798697.53640429152
 c3066: 120 p_0_10 + 120 p_0_4 + 120 p_0_5 + 120 p_0_7 + 120 p_0_8 + 120 p_0_9 + 100000 z_0_10 + 100000 z_0_4 + 100000 z_0_5 + 100000 z_0_7 + 100000 z_0_8 + 100000 z_0_9 <= 598777.02375362173
 c3067: 120 p_0_1 + 120 p_0_10 + 120 p_0_4 + 120 p_0_5 + 120 p_0_7 + 120 p_0_8 + 120 p_0_9 + 100000 z_0_1 + 100000 z_0_10 + 100000 z_0_4 + 100000 z_0_5 + 100000 z_0_7 + 100000 z_0_8 + 100000 z_0_9 <= 698754.25149105489
 c3068: 120 p_0_10 + 120 p_0_2 + 120 p_0_4 + 120 p_0_5 + 120 p_0_7 + 120 p_0_8 + 120 p_0_9 + 100000 z_0_10 + 100000 z_0_2 + 100000 z_0_4 + 100000 z_0_5 + 100000 z_0_7 + 100000 z_0_8 + 100000 z_0_9 <= 698721.86240497092
 c3069: 120 p_0_1 + 120 p_0_10 + 120 p_0_2 + 120 p_0_4 + 120 p_0_5 + 120 p_0_7 + 120 p_0_8 + 120 p_0_9 + 100000 z_0_1 + 100000 z_0_10 + 100000 z_0_2 + 100000 z_0_4 + 100000 z_0_5 + 100000 z_0_7 + 100000 z_0_8 + 100000 z_0_9 <= 798699.09014240396
 c3070: 120 p_0_10 + 120 p_0_3 + 120 p_0_4 + 120 p_0_5 + 120 p_0_7 + 120 p_0_8 + 120 p_0_9 + 100000 z_0_10 + 100000 z_0_3 + 100000 z_0_4 + 100000 z_0_5 + 100000 z_0_7 + 100000 z_0_8 + 100000 z_0_9 <= 698720.8732246398
 c3071: 120 p_0_1 + 120 p_0_10 + 120 p_0_3 + 120 p_0_4 + 120 p_0_5 + 120 p_0_7 + 120 p_0_8 + 120 p_0_9 + 100000 z_0_1 + 100000 z_0_10 + 100000 z_0_3 + 100000 z_0_4 + 100000 z_0_5 + 100000 z_0_7 + 100000 z_0_8 + 100000 z_0_9 <= 798698.10096207296
 c3072: 120 p_0_10 + 120 p_0_2 + 120 p_0_3 + 120 p_0_4 + 120 p_0_5 + 120 p_0_7 + 120 p_0_8 + 120 p_0_9 + 100000 z_0_10 + 100000 z_0_2 + 100000 z_0_3 + 100000 z_0_4 + 100000 z_0_5 + 100000 z_0_7 + 100000 z_0_8 + 100000 z_0_9 <= 798665.71187598899
 c3073: 120 p_0_1 + 120 p_0_10 + 120 p_0_2 + 120 p_0_3 + 120 p_0_4 + 120 p_0_5 + 120 p_0_7 + 120 p_0_8 + 120 p_0_9 + 100000 z_0_1 + 100000 z_0_10 + 100000 z_0_2 + 100000 z_0_3 + 100000 z_0_4 + 100000 z_0_5 + 100000 z_0_7 + 100000 z_0_8 + 100000 z_0_9 <= 898656.84660333511
 c3074: 120 p_0_10 + 120 p_0_6 + 120 p_0_7 + 120 p_0_8 + 120 p_0_9 + 100000 z_0_10 + 100000 z_0_6 + 100000 z_0_7 + 100000 z_0_8 + 100000 z_0_9 <= 498495.1791175424
 c3075: 120 p_0_1 + 120 p_0_10 + 120 p_0_6 + 120 p_0_7 + 120 p_0_8 + 120 p_0_9 + 100000 z_0_1 + 100000 z_0_10 + 100000 z_0_6 + 100000 z_0_7 + 100000 z_0_8 + 100000 z_0_9 <= 598482.72749483841
 c3076: 120 p_0_10 + 120 p_0_2 + 120 p_0_6 + 120 p_0_7 + 120 p_0_8 + 120 p_0_9 + 100000 z_0_10 + 100000 z_0_2 + 100000 z_0_6 + 100000 z_0_7 + 100000 z_0_8 + 100000 z_0_9 <= 598495.14990791492
 c3077: 120 p_0_1 + 120 p_0_10 + 120 p_0_2 + 120 p_0_6 + 120 p_0_7 + 120 p_0_8 + 120 p_0_9 + 100000 z_0_1 + 100000 z_0_10 + 100000 z_0_2 + 100000 z_0_6 + 100000 z_0_7 + 100000 z_0_8 + 100000 z_0_9 <= 698482.69828521099
 c3078: 120 p_0_10 + 120 p_0_3 + 120 p_0_6 + 120 p_0_7 + 120 p_0_8 + 120 p_0_9 + 100000 z_0_10 + 100000 z_0_3 + 100000 z_0_6 + 100000 z_0_7 + 100000 z_0_8 + 100000 z_0_9 <= 598479.52165979834
 c3079: 120 p_0_1 + 120 p_0_10 + 120 p_0_3 + 120 p_0_6 + 120 p_0_7 + 120 p_0_8 + 120 p_0_9 + 100000 z_0_1 + 100000 z_0_10 + 100000 z_0_3 + 100000 z_0_6 + 100000 z_0_7 + 100000 z_0_8 + 100000 z_0_9 <= 698478.21254310175
 c3080: 120 p_0_10 + 120 p_0_2 + 120 p_0_3 + 120 p_0_6 + 120 p_0_7 + 120 p_0_8 + 120 p_0_9 + 100000 z_0_10 + 100000 z_0_2 + 100000 z_0_3 + 100000 z_0_6 + 100000 z_0_7 + 100000 z_0_8 + 100000 z_0_9 <= 698475.33361264947
 c3081: 120 p_0_1 + 120 p_0_10 + 120 p_0_2 + 120 p_0_3 + 120 p_0_6 + 120 p_0_7 + 120 p_0_8 + 120 p_0_9 + 100000 z_0_1 + 100000 z_0_10 + 100000 z_0_2 + 100000 z_0_3 + 100000 z_0_6 + 100000 z_0_7 + 100000 z_0_8 + 100000 z_0_9 <= 798462.88198994554
 c3082: 120 p_0_10 + 120 p_0_4 + 120 p_0_6 + 120 p_0_7 + 120 p_0_8 + 120 p_0_9 + 100000 z_0_10 + 100000 z_0_4 + 100000 z_0_6 + 100000 z_0_7 + 100000 z_0_8 + 100000 z_0_9 <= 598460.3050632074
 c3083: 120 p_0_1 + 120 p_0_10 + 120 p_0_4 + 120 p_0_6 + 120 p_0_7 + 120 p_0_8 + 120 p_0_9 + 100000 z_0_1 + 100000 z_0_10 + 100000 z_0_4 + 100000 z_0_6 + 100000 z_0_7 + 100000 z_0_8 + 100000 z_0_9 <= 698442.03769388201
 c3084: 120 p_0_10 + 120 p_0_2 + 120 p_0_4 + 120 p_0_6 + 120 p_0_7 + 120 p_0_8 + 120 p_0_9 + 100000 z_0_10 + 100000 z_0_2 + 100000 z_0_4 + 100000 z_0_6 + 100000 z_0_7 + 100000 z_0_8 + 100000 z_0_9 <= 698442.34878460865
 c3085: 120 p_0_1 + 120 p_0_10 + 120 p_0_2 + 120 p_0_4 + 120 p_0_6 + 120 p_0_7 + 120 p_0_8 + 120 p_0_9 + 100000 z_0_1 + 100000 z_0_10 + 100000 z_0_2 + 100000 z_0_4 + 100000 z_0_6 + 100000 z_0_7 + 100000 z_0_8 + 100000 z_0_9 <= 798442.00848425459
 c3086: 120 p_0_10 + 120 p_0_3 + 120 p_0_4 + 120 p_0_6 + 120 p_0_7 + 120 p_0_8 + 120 p_0_9 + 100000 z_0_10 + 100000 z_0_3 + 100000 z_0_4 + 100000 z_0_6 + 100000 z_0_7 + 100000 z_0_8 + 100000 z_0_9 <= 698460.2950047123
 c3087: 120 p_0_1 + 120 p_0_10 + 120 p_0_3 + 120 p_0_4 + 120 p_0_6 + 120 p_0_7 + 120 p_0_8 + 120 p_0_9 + 100000 z_0_1 + 100000 z_0_10 + 100000 z_0_3 + 100000 z_0_4 + 100000 z_0_6 + 100000 z_0_7 + 100000 z_0_8 + 100000 z_0_9 <= 798437.52274214535
 c3088: 120 p_0_10 + 120 p_0_2 + 120 p_0_3 + 120 p_0_4 + 120 p_0_6 + 120 p_0_7 + 120 p_0_8 + 120 p_0_9 + 100000 z_0_10 + 100000 z_0_2 + 100000 z_0_3 + 100000 z_0_4 + 100000 z_0_6 + 100000 z_0_7 + 100000 z_0_8 + 100000 z_0_9 <= 798431.05746164289
 c3089: 120 p_0_1 + 120 p_0_10 + 120 p_0_2 + 120 p_0_3 + 120 p_0_4 + 120 p_0_6 + 120 p_0_7 + 120 p_0_8 + 120 p_0_9 + 100000 z_0_1 + 100000 z_0_10 + 100000 z_0_2 + 100000 z_0_3 + 100000 z_0_4 + 100000 z_0_6 + 100000 z_0_7 + 100000 z_0_8 + 100000 z_0_9 <= 898422.19218898914
 c3090: 120 p_0_10 + 120 p_0_5 + 120 p_0_6 + 120 p_0_7 + 120 p_0_8 + 120 p_0_9 + 100000 z_0_10 + 100000 z_0_5 + 100000 z_0_6 + 100000 z_0_7 + 100000 z_0_8 + 100000 z_0_9 <= 598485.21915761253
 c3091: 120 p_0_1 + 120 p_0_10 + 120 p_0_5 + 120 p_0_6 + 120 p_0_7 + 120 p_0_8 + 120 p_0_9 + 100000 z_0_1 + 100000 z_0_10 + 100000 z_0_5 + 100000 z_0_6 + 100000 z_0_7 + 100000 z_0_8 + 100000 z_0_9 <= 698475.42695778469
 c3092: 120 p_0_10 + 120 p_0_2 + 120 p_0_5 + 120 p_0_6 + 120 p_0_7 + 120 p_0_8 + 120 p_0_9 + 100000 z_0_10 + 100000 z_0_2 + 100000 z_0_5 + 100000 z_0_6 + 100000 z_0_7 + 100000 z_0_8 + 100000 z_0_9 <= 698466.43045852112
 c3093: 120 p_0_1 + 120 p_0_10 + 120 p_0_2 + 120 p_0_5 + 120 p_0_6 + 120 p_0_7 + 120 p_0_8 + 120 p_0_9 + 100000 z_0_1 + 100000 z_0_10 + 100000 z_0_2 + 100000 z_0_5 + 100000 z_0_6 + 100000 z_0_7 + 100000 z_0_8 + 100000 z_0_9 <= 798453.97883581719
 c3094: 120 p_0_10 + 120 p_0_3 + 120 p_0_5 + 120 p_0_6 + 120 p_0_7 + 120 p_0_8 + 120 p_0_9 + 100000 z_0_10 + 100000 z_0_3 + 100000 z_0_5 + 100000 z_0_6 + 100000 z_0_7 + 100000 z_0_8 + 100000 z_0_9 <= 698476.72601598618
 c3095: 120 p_0_1 + 120 p_0_10 + 120 p_0_3 + 120 p_0_5 + 120 p_0_6 + 120 p_0_7 + 120 p_0_8 + 120 p_0_9 + 100000 z_0_1 + 100000 z_0_10 + 100000 z_0_3 + 100000 z_0_5 + 100000 z_0_6 + 100000 z_0_7 + 100000 z_0_8 + 100000 z_0_9 <= 798475.41689928959
 c3096: 120 p_0_10 + 120 p_0_2 + 120 p_0_3 + 120 p_0_5 + 120 p_0_6 + 120 p_0_7 + 120 p_0_8 + 120 p_0_9 + 100000 z_0_10 + 100000 z_0_2 + 100000 z_0_3 + 100000 z_0_5 + 100000 z_0_6 + 100000 z_0_7 + 100000 z_0_8 + 100000 z_0_9 <= 798446.61416325567
 c3097: 120 p_0_1 + 120 p_0_10 + 120 p_0_2 + 120 p_0_3 + 120 p_0_5 + 120 p_0_6 + 120 p_0_7 + 120 p_0_8 + 120 p_0_9 + 100000 z_0_1 + 100000 z_0_10 + 100000 z_0_2 + 100000 z_0_3 + 100000 z_0_5 + 100000 z_0_6 + 100000 z_0_7 + 100000 z_0_8 + 100000 z_0_9 <= 898434.16254055174
 c3098: 120 p_0_10 + 120 p_0_4 + 120 p_0_5 + 120 p_0_6 + 120 p_0_7 + 120 p_0_8 + 120 p_0_9 + 100000 z_0_10 + 100000 z_0_4 + 100000 z_0_5 + 100000 z_0_6 + 100000 z_0_7 + 100000 z_0_8 + 100000 z_0_9 <= 698457.50941939524
 c3099: 120 p_0_1 + 120 p_0_10 + 120 p_0_4 + 120 p_0_5 + 120 p_0_6 + 120 p_0_7 + 120 p_0_8 + 120 p_0_9 + 100000 z_0_1 + 100000 z_0_10 + 100000 z_0_4 + 100000 z_0_5 + 100000 z_0_6 + 100000 z_0_7 + 100000 z_0_8 + 100000 z_0_9 <= 798434.73715682828
 c3100: 120 p_0_10 + 120 p_0_2 + 120 p_0_4 + 120 p_0_5 + 120 p_0_6 + 120 p_0_7 + 120 p_0_8 + 120 p_0_9 + 100000 z_0_10 + 100000 z_0_2 + 100000 z_0_4 + 100000 z_0_5 + 100000 z_0_6 + 100000 z_0_7 + 100000 z_0_8 + 100000 z_0_9 <= 798413.62933521485
 c3101: 120 p_0_1 + 120 p_0_10 + 120 p_0_2 + 120 p_0_4 + 120 p_0_5 + 120 p_0_6 + 120 p_0_7 + 120 p_0_8 + 120 p_0_9 + 100000 z_0_1 + 100000 z_0_10 + 100000 z_0_2 + 100000 z_0_4 + 100000 z_0_5 + 100000 z_0_6 + 100000 z_0_7 + 100000 z_0_8 + 100000 z_0_9 <= 898413.28903486079
 c3102: 120 p_0_10 + 120 p_0_3 + 120 p_0_4 + 120 p_0_5 + 120 p_0_6 + 120 p_0_7 + 120 p_0_8 + 120 p_0_9 + 100000 z_0_10 + 100000 z_0_3 + 100000 z_0_4 + 100000 z_0_5 + 100000 z_0_6 + 100000 z_0_7 + 100000 z_0_8 + 100000 z_0_9 <= 798457.49936090002
 c3103: 120 p_0_1 + 120 p_0_10 + 120 p_0_3 + 120 p_0_4 + 120 p_0_5 + 120 p_0_6 + 120 p_0_7 + 120 p_0_8 + 120 p_0_9 + 100000 z_0_1 + 100000 z_0_10 + 100000 z_0_3 + 100000 z_0_4 + 100000 z_0_5 + 100000 z_0_6 + 100000 z_0_7 + 100000 z_0_8 + 100000 z_0_9 <= 898434.72709833318
 c3104: 120 p_0_10 + 120 p_0_2 + 120 p_0_3 + 120 p_0_4 + 120 p_0_5 + 120 p_0_6 + 120 p_0_7 + 120 p_0_8 + 120 p_0_9 + 100000 z_0_10 + 100000 z_0_2 + 100000 z_0_3 + 100000 z_0_4 + 100000 z_0_5 + 100000 z_0_6 + 100000 z_0_7 + 100000 z_0_8 + 100000 z_0_9 <= 898402.33801224921
 c3105: 120 p_0_1 + 120 p_0_10 + 120 p_0_2 + 120 p_0_3 + 120 p_0_4 + 120 p_0_5 + 120 p_0_6 + 120 p_0_7 + 120 p_0_8 + 120 p_0_9 + 100000 z_0_1 + 100000 z_0_10 + 100000 z_0_2 + 100000 z_0_3 + 100000 z_0_4 + 100000 z_0_5 + 100000 z_0_6 + 100000 z_0_7 + 100000 z_0_8 + 100000 z_0_9 <= 998393.47273959534
 c3106: 120 p_1_1 + 100000 z_1_1 <= 101210.42039470175
 c3107: 120 p_1_2 + 100000 z_1_2 <= 101440.71834550035
 c3108: 120 p_1_1 + 120 p_1_2 + 100000 z_1_1 + 100000 z_1_2 <= 200389.61407434015
 c3109: 120 p_1_3 + 100000 z_1_3 <= 101151.64363737353
 c3110: 120 p_1_1 + 120 p_1_3 + 100000 z_1_1 + 100000 z_1_3 <= 200089.88330774006
 c3111: 120 p_1_2 + 120 p_1_3 + 100000 z_1_2 + 100000 z_1_3 <= 200376.6659818945
 c3112: 120 p_1_1 + 120 p_1_2 + 120 p_1_3 + 100000 z_1_1 + 100000 z_1_2 + 100000 z_1_3 <= 299325.56171073427
 c3113: 120 p_1_4 + 100000 z_1_4 <= 100955.18155320581
 c3114: 120 p_1_1 + 120 p_1_4 + 100000 z_1_1 + 100000 z_1_4 <= 200954.84125285168
 c3115: 120 p_1_2 + 120 p_1_4 + 100000 z_1_2 + 100000 z_1_4 <= 200141.90252778539
 c3116: 120 p_1_1 + 120 p_1_2 + 120 p_1_4 + 100000 z_1_1 + 100000 z_1_2 + 100000 z_1_4 <= 300141.56222743122
 c3117: 120 p_1_3 + 120 p_1_4 + 100000 z_1_3 + 100000 z_1_4 <= 199851.59390365845
 c3118: 120 p_1_1 + 120 p_1_3 + 120 p_1_4 + 100000 z_1_1 + 100000 z_1_3 + 100000 z_1_4 <= 299851.25360330433
 c3119: 120 p_1_2 + 120 p_1_3 + 120 p_1_4 + 100000 z_1_2 + 100000 z_1_3 + 100000 z_1_4 <= 299077.85016417952
 c3120: 120 p_1_1 + 120 p_1_2 + 120 p_1_3 + 120 p_1_4 + 100000 z_1_1 + 100000 z_1_2 + 100000 z_1_3 + 100000 z_1_4 <= 399077.5098638254
 c3121: 120 p_1_5 + 100000 z_1_5 <= 101441.55149663451
 c3122: 120 p_1_1 + 120 p_1_5 + 100000 z_1_1 + 100000 z_1_5 <= 200421.75333610782
 c3123: 120 p_1_2 + 120 p_1_5 + 100000 z_1_2 + 100000 z_1_5 <= 201386.39014798362
 c3124: 120 p_1_1 + 120 p_1_2 + 120 p_1_5 + 100000 z_1_1 + 100000 z_1_2 + 100000 z_1_5 <= 300366.59198745695
 c3125: 120 p_1_3 + 120 p_1_5 + 100000 z_1_3 + 100000 z_1_5 <= 200344.44136989393
 c3126: 120 p_1_1 + 120 p_1_3 + 120 p_1_5 + 100000 z_1_1 + 100000 z_1_3 + 100000 z_1_5 <= 299324.64320936723
 c3127: 120 p_1_2 + 120 p_1_3 + 120 p_1_5 + 100000 z_1_2 + 100000 z_1_3 + 100000 z_1_5 <= 300322.33778437774
 c3128: 120 p_1_1 + 120 p_1_2 + 120 p_1_3 + 120 p_1_5 + 100000 z_1_1 + 100000 z_1_2 + 100000 z_1_3 + 100000 z_1_5 <= 399302.53962385107
 c3129: 120 p_1_4 + 120 p_1_5 + 100000 z_1_4 + 100000 z_1_5 <= 200176.14316674654
 c3130: 120 p_1_1 + 120 p_1_4 + 120 p_1_5 + 100000 z_1_1 + 100000 z_1_4 + 100000 z_1_5 <= 300175.80286639236
 c3131: 120 p_1_2 + 120 p_1_4 + 120 p_1_5 + 100000 z_1_2 + 100000 z_1_4 + 100000 z_1_5 <= 300120.98181809566
 c3132: 120 p_1_1 + 120 p_1_2 + 120 p_1_4 + 120 p_1_5 + 100000 z_1_1 + 100000 z_1_2 + 100000 z_1_4 + 100000 z_1_5 <= 400120.64151774149
 c3133: 120 p_1_3 + 120 p_1_4 + 120 p_1_5 + 100000 z_1_3 + 100000 z_1_4 + 100000 z_1_5 <= 299079.03304000595
 c3134: 120 p_1_1 + 120 p_1_3 + 120 p_1_4 + 120 p_1_5 + 100000 z_1_1 + 100000 z_1_3 + 100000 z_1_4 + 100000 z_1_5 <= 399078.69273965183
 c3135: 120 p_1_2 + 120 p_1_3 + 120 p_1_4 + 120 p_1_5 + 100000 z_1_2 + 100000 z_1_3 + 100000 z_1_4 + 100000 z_1_5 <= 399056.92945448979
 c3136: 120 p_1_1 + 120 p_1_2 + 120 p_1_3 + 120 p_1_4 + 120 p_1_5 + 100000 z_1_1 + 100000 z_1_2 + 100000 z_1_3 + 100000 z_1_4 + 100000 z_1_5 <= 499056.58915413567
 c3137: 120 p_1_6 + 100000 z_1_6 <= 100791.10626901616
 c3138: 120 p_1_1 + 120 p_1_6 + 100000 z_1_1 + 100000 z_1_6 <= 199744.03834756371
 c3139: 120 p_1_2 + 120 p_1_6 + 100000 z_1_2 + 100000 z_1_6 <= 200035.93485030736
 c3140: 120 p_1_1 + 120 p_1_2 + 120 p_1_6 + 100000 z_1_1 + 100000 z_1_2 + 100000 z_1_6 <= 298988.8669288549
 c3141: 120 p_1_3 + 120 p_1_6 + 100000 z_1_3 + 100000 z_1_6 <= 200791.09621052101
 c3142: 120 p_1_1 + 120 p_1_3 + 120 p_1_6 + 100000 z_1_1 + 100000 z_1_3 + 100000 z_1_6 <= 299744.02828906855
 c3143: 120 p_1_2 + 120 p_1_3 + 120 p_1_6 + 100000 z_1_2 + 100000 z_1_3 + 100000 z_1_6 <= 300035.9247918122
 c3144: 120 p_1_1 + 120 p_1_2 + 120 p_1_3 + 120 p_1_6 + 100000 z_1_1 + 100000 z_1_2 + 100000 z_1_3 + 100000 z_1_6 <= 398984.82052065199
 c3145: 120 p_1_4 + 120 p_1_6 + 100000 z_1_4 + 100000 z_1_6 <= 199509.93919400984
 c3146: 120 p_1_1 + 120 p_1_4 + 120 p_1_6 + 100000 z_1_1 + 100000 z_1_4 + 100000 z_1_6 <= 299509.5988936557
 c3147: 120 p_1_2 + 120 p_1_4 + 120 p_1_6 + 100000 z_1_2 + 100000 z_1_4 + 100000 z_1_6 <= 298754.76777530106
 c3148: 120 p_1_1 + 120 p_1_2 + 120 p_1_4 + 120 p_1_6 + 100000 z_1_1 + 100000 z_1_2 + 100000 z_1_4 + 100000 z_1_6 <= 398754.42747494689
 c3149: 120 p_1_3 + 120 p_1_4 + 120 p_1_6 + 100000 z_1_3 + 100000 z_1_4 + 100000 z_1_6 <= 299509.92913551466
 c3150: 120 p_1_1 + 120 p_1_3 + 120 p_1_4 + 120 p_1_6 + 100000 z_1_1 + 100000 z_1_3 + 100000 z_1_4 + 100000 z_1_6 <= 399509.58883516054
 c3151: 120 p_1_2 + 120 p_1_3 + 120 p_1_4 + 120 p_1_6 + 100000 z_1_2 + 100000 z_1_3 + 100000 z_1_4 + 100000 z_1_6 <= 398737.10897409724
 c3152: 120 p_1_1 + 120 p_1_2 + 120 p_1_3 + 120 p_1_4 + 120 p_1_6 + 100000 z_1_1 + 100000 z_1_2 + 100000 z_1_3 + 100000 z_1_4 + 100000 z_1_6 <= 498736.76867374306
 c3153: 120 p_1_5 + 120 p_1_6 + 100000 z_1_5 + 100000 z_1_6 <= 200000.39535188209
 c3154: 120 p_1_1 + 120 p_1_5 + 120 p_1_6 + 100000 z_1_1 + 100000 z_1_5 + 100000 z_1_6 <= 298980.59719135542
 c3155: 120 p_1_2 + 120 p_1_5 + 120 p_1_6 + 100000 z_1_2 + 100000 z_1_5 + 100000 z_1_6 <= 299981.60665279062
 c3156: 120 p_1_1 + 120 p_1_2 + 120 p_1_5 + 120 p_1_6 + 100000 z_1_1 + 100000 z_1_2 + 100000 z_1_5 + 100000 z_1_6 <= 398961.80849226395
 c3157: 120 p_1_3 + 120 p_1_5 + 120 p_1_6 + 100000 z_1_3 + 100000 z_1_5 + 100000 z_1_6 <= 300000.38529338693
 c3158: 120 p_1_1 + 120 p_1_3 + 120 p_1_5 + 120 p_1_6 + 100000 z_1_1 + 100000 z_1_3 + 100000 z_1_5 + 100000 z_1_6 <= 398980.58713286027
 c3159: 120 p_1_2 + 120 p_1_3 + 120 p_1_5 + 120 p_1_6 + 100000 z_1_2 + 100000 z_1_3 + 100000 z_1_5 + 100000 z_1_6 <= 399981.59659429546
 c3160: 120 p_1_1 + 120 p_1_2 + 120 p_1_3 + 120 p_1_5 + 120 p_1_6 + 100000 z_1_1 + 100000 z_1_2 + 100000 z_1_3 + 100000 z_1_5 + 100000 z_1_6 <= 498961.7984337688
 c3161: 120 p_1_4 + 120 p_1_5 + 120 p_1_6 + 100000 z_1_4 + 100000 z_1_5 + 100000 z_1_6 <= 298734.98702199414
 c3162: 120 p_1_1 + 120 p_1_4 + 120 p_1_5 + 120 p_1_6 + 100000 z_1_1 + 100000 z_1_4 + 100000 z_1_5 + 100000 z_1_6 <= 398734.64672163996
 c3163: 120 p_1_2 + 120 p_1_4 + 120 p_1_5 + 120 p_1_6 + 100000 z_1_2 + 100000 z_1_4 + 100000 z_1_5 + 100000 z_1_6 <= 398716.19832290267
 c3164: 120 p_1_1 + 120 p_1_2 + 120 p_1_4 + 120 p_1_5 + 120 p_1_6 + 100000 z_1_1 + 100000 z_1_2 + 100000 z_1_4 + 100000 z_1_5 + 100000 z_1_6 <= 498715.85802254849
 c3165: 120 p_1_3 + 120 p_1_4 + 120 p_1_5 + 120 p_1_6 + 100000 z_1_3 + 100000 z_1_4 + 100000 z_1_5 + 100000 z_1_6 <= 398734.97696349898
 c3166: 120 p_1_1 + 120 p_1_3 + 120 p_1_4 + 120 p_1_5 + 120 p_1_6 + 100000 z_1_1 + 100000 z_1_3 + 100000 z_1_4 + 100000 z_1_5 + 100000 z_1_6 <= 498734.6366631448
 c3167: 120 p_1_2 + 120 p_1_3 + 120 p_1_4 + 120 p_1_5 + 120 p_1_6 + 100000 z_1_2 + 100000 z_1_3 + 100000 z_1_4 + 100000 z_1_5 + 100000 z_1_6 <= 498716.18826440751
 c3168: 120 p_1_1 + 120 p_1_2 + 120 p_1_3 + 120 p_1_4 + 120 p_1_5 + 120 p_1_6 + 100000 z_1_1 + 100000 z_1_2 + 100000 z_1_3 + 100000 z_1_4 + 100000 z_1_5 + 100000 z_1_6 <= 598715.84796405339
 c3169: 120 p_1_7 + 100000 z_1_7 <= 101382.94598648536
 c3170: 120 p_1_1 + 120 p_1_7 + 100000 z_1_1 + 100000 z_1_7 <= 201099.80128918844
 c3171: 120 p_1_2 + 120 p_1_7 + 100000 z_1_2 + 100000 z_1_7 <= 200642.12431123573
 c3172: 120 p_1_1 + 120 p_1_2 + 120 p_1_7 + 100000 z_1_1 + 100000 z_1_2 + 100000 z_1_7 <= 300358.97961393883
 c3173: 120 p_1_3 + 120 p_1_7 + 100000 z_1_3 + 100000 z_1_7 <= 200184.83695838426
 c3174: 120 p_1_1 + 120 p_1_3 + 120 p_1_7 + 100000 z_1_1 + 100000 z_1_3 + 100000 z_1_7 <= 299979.26420222677
 c3175: 120 p_1_2 + 120 p_1_3 + 120 p_1_7 + 100000 z_1_2 + 100000 z_1_3 + 100000 z_1_7 <= 299578.07194762985
 c3176: 120 p_1_1 + 120 p_1_2 + 120 p_1_3 + 120 p_1_7 + 100000 z_1_1 + 100000 z_1_2 + 100000 z_1_3 + 100000 z_1_7 <= 399294.92725033296
 c3177: 120 p_1_4 + 120 p_1_7 + 100000 z_1_4 + 100000 z_1_7 <= 200873.80532431524
 c3178: 120 p_1_1 + 120 p_1_4 + 120 p_1_7 + 100000 z_1_1 + 100000 z_1_4 + 100000 z_1_7 <= 300873.46502396109
 c3179: 120 p_1_2 + 120 p_1_4 + 120 p_1_7 + 100000 z_1_2 + 100000 z_1_4 + 100000 z_1_7 <= 300132.9836490656
 c3180: 120 p_1_1 + 120 p_1_2 + 120 p_1_4 + 120 p_1_7 + 100000 z_1_1 + 100000 z_1_2 + 100000 z_1_4 + 100000 z_1_7 <= 400132.64334871148
 c3181: 120 p_1_3 + 120 p_1_4 + 120 p_1_7 + 100000 z_1_3 + 100000 z_1_4 + 100000 z_1_7 <= 299770.21767476789
 c3182: 120 p_1_1 + 120 p_1_3 + 120 p_1_4 + 120 p_1_7 + 100000 z_1_1 + 100000 z_1_3 + 100000 z_1_4 + 100000 z_1_7 <= 399752.92793699942
 c3183: 120 p_1_2 + 120 p_1_3 + 120 p_1_4 + 120 p_1_7 + 100000 z_1_2 + 100000 z_1_3 + 100000 z_1_4 + 100000 z_1_7 <= 399068.93128545972
 c3184: 120 p_1_1 + 120 p_1_2 + 120 p_1_3 + 120 p_1_4 + 120 p_1_7 + 100000 z_1_1 + 100000 z_1_2 + 100000 z_1_3 + 100000 z_1_4 + 100000 z_1_7 <= 499068.59098510561
 c3185: 120 p_1_5 + 120 p_1_7 + 100000 z_1_5 + 100000 z_1_7 <= 200679.44931282365
 c3186: 120 p_1_1 + 120 p_1_5 + 120 p_1_7 + 100000 z_1_1 + 100000 z_1_5 + 100000 z_1_7 <= 300396.30461552675
 c3187: 120 p_1_2 + 120 p_1_5 + 120 p_1_7 + 100000 z_1_2 + 100000 z_1_5 + 100000 z_1_7 <= 300624.28796417278
 c3188: 120 p_1_1 + 120 p_1_2 + 120 p_1_5 + 120 p_1_7 + 100000 z_1_1 + 100000 z_1_2 + 100000 z_1_5 + 100000 z_1_7 <= 400341.14326687588
 c3189: 120 p_1_3 + 120 p_1_5 + 120 p_1_7 + 100000 z_1_3 + 100000 z_1_5 + 100000 z_1_7 <= 299582.33918608306
 c3190: 120 p_1_1 + 120 p_1_3 + 120 p_1_5 + 120 p_1_7 + 100000 z_1_1 + 100000 z_1_3 + 100000 z_1_5 + 100000 z_1_7 <= 399299.19448878616
 c3191: 120 p_1_2 + 120 p_1_3 + 120 p_1_5 + 120 p_1_7 + 100000 z_1_2 + 100000 z_1_3 + 100000 z_1_5 + 100000 z_1_7 <= 399560.2356005669
 c3192: 120 p_1_1 + 120 p_1_2 + 120 p_1_3 + 120 p_1_5 + 120 p_1_7 + 100000 z_1_1 + 100000 z_1_2 + 100000 z_1_3 + 100000 z_1_5 + 100000 z_1_7 <= 499277.09090327
 c3193: 120 p_1_4 + 120 p_1_5 + 120 p_1_7 + 100000 z_1_4 + 100000 z_1_5 + 100000 z_1_7 <= 300170.30865065352
 c3194: 120 p_1_1 + 120 p_1_4 + 120 p_1_5 + 120 p_1_7 + 100000 z_1_1 + 100000 z_1_4 + 100000 z_1_5 + 100000 z_1_7 <= 400169.9683502994
 c3195: 120 p_1_2 + 120 p_1_4 + 120 p_1_5 + 120 p_1_7 + 100000 z_1_2 + 100000 z_1_4 + 100000 z_1_5 + 100000 z_1_7 <= 400115.14730200265
 c3196: 120 p_1_1 + 120 p_1_2 + 120 p_1_4 + 120 p_1_5 + 120 p_1_7 + 100000 z_1_1 + 100000 z_1_2 + 100000 z_1_4 + 100000 z_1_5 + 100000 z_1_7 <= 500114.80700164853
 c3197: 120 p_1_3 + 120 p_1_4 + 120 p_1_5 + 120 p_1_7 + 100000 z_1_3 + 100000 z_1_4 + 100000 z_1_5 + 100000 z_1_7 <= 399073.19852391299
 c3198: 120 p_1_1 + 120 p_1_3 + 120 p_1_4 + 120 p_1_5 + 120 p_1_7 + 100000 z_1_1 + 100000 z_1_3 + 100000 z_1_4 + 100000 z_1_5 + 100000 z_1_7 <= 499072.85822355881
 c3199: 120 p_1_2 + 120 p_1_3 + 120 p_1_4 + 120 p_1_5 + 120 p_1_7 + 100000 z_1_2 + 100000 z_1_3 + 100000 z_1_4 + 100000 z_1_5 + 100000 z_1_7 <= 499051.09493839677
 c3200: 120 p_1_1 + 120 p_1_2 + 120 p_1_3 + 120 p_1_4 + 120 p_1_5 + 120 p_1_7 + 100000 z_1_1 + 100000 z_1_2 + 100000 z_1_3 + 100000 z_1_4 + 100000 z_1_5 + 100000 z_1_7 <= 599050.75463804265
 c3201: 120 p_1_6 + 120 p_1_7 + 100000 z_1_6 + 100000 z_1_7 <= 199829.3738144614
 c3202: 120 p_1_1 + 120 p_1_6 + 120 p_1_7 + 100000 z_1_1 + 100000 z_1_6 + 100000 z_1_7 <= 299633.41924205038
 c3203: 120 p_1_2 + 120 p_1_6 + 120 p_1_7 + 100000 z_1_2 + 100000 z_1_6 + 100000 z_1_7 <= 299237.34081604274
 c3204: 120 p_1_1 + 120 p_1_2 + 120 p_1_6 + 120 p_1_7 + 100000 z_1_1 + 100000 z_1_2 + 100000 z_1_6 + 100000 z_1_7 <= 398954.19611874584
 c3205: 120 p_1_3 + 120 p_1_6 + 120 p_1_7 + 100000 z_1_3 + 100000 z_1_6 + 100000 z_1_7 <= 299829.36375596625
 c3206: 120 p_1_1 + 120 p_1_3 + 120 p_1_6 + 120 p_1_7 + 100000 z_1_1 + 100000 z_1_3 + 100000 z_1_6 + 100000 z_1_7 <= 399633.40918355522
 c3207: 120 p_1_2 + 120 p_1_3 + 120 p_1_6 + 120 p_1_7 + 100000 z_1_2 + 100000 z_1_3 + 100000 z_1_6 + 100000 z_1_7 <= 399237.33075754758
 c3208: 120 p_1_1 + 120 p_1_2 + 120 p_1_3 + 120 p_1_6 + 120 p_1_7 + 100000 z_1_1 + 100000 z_1_2 + 100000 z_1_3 + 100000 z_1_6 + 100000 z_1_7 <= 498954.18606025062
 c3209: 120 p_1_4 + 120 p_1_6 + 120 p_1_7 + 100000 z_1_4 + 100000 z_1_6 + 100000 z_1_7 <= 299428.56296511926
 c3210: 120 p_1_1 + 120 p_1_4 + 120 p_1_6 + 120 p_1_7 + 100000 z_1_1 + 100000 z_1_4 + 100000 z_1_6 + 100000 z_1_7 <= 399407.08297682303
 c3211: 120 p_1_2 + 120 p_1_4 + 120 p_1_6 + 120 p_1_7 + 100000 z_1_2 + 100000 z_1_4 + 100000 z_1_6 + 100000 z_1_7 <= 398728.2001538726
 c3212: 120 p_1_1 + 120 p_1_2 + 120 p_1_4 + 120 p_1_6 + 120 p_1_7 + 100000 z_1_1 + 100000 z_1_2 + 100000 z_1_4 + 100000 z_1_6 + 100000 z_1_7 <= 498727.85985351849
 c3213: 120 p_1_3 + 120 p_1_4 + 120 p_1_6 + 120 p_1_7 + 100000 z_1_3 + 100000 z_1_4 + 100000 z_1_6 + 100000 z_1_7 <= 399428.5529066241
 c3214: 120 p_1_1 + 120 p_1_3 + 120 p_1_4 + 120 p_1_6 + 120 p_1_7 + 100000 z_1_1 + 100000 z_1_3 + 100000 z_1_4 + 100000 z_1_6 + 100000 z_1_7 <= 499407.07291832787
 c3215: 120 p_1_2 + 120 p_1_3 + 120 p_1_4 + 120 p_1_6 + 120 p_1_7 + 100000 z_1_2 + 100000 z_1_3 + 100000 z_1_4 + 100000 z_1_6 + 100000 z_1_7 <= 498728.19009537745
 c3216: 120 p_1_1 + 120 p_1_2 + 120 p_1_3 + 120 p_1_4 + 120 p_1_6 + 120 p_1_7 + 100000 z_1_1 + 100000 z_1_2 + 100000 z_1_3 + 100000 z_1_4 + 100000 z_1_6 + 100000 z_1_7 <= 598727.84979502333
 c3217: 120 p_1_5 + 120 p_1_6 + 120 p_1_7 + 100000 z_1_5 + 100000 z_1_6 + 100000 z_1_7 <= 299238.29316807125
 c3218: 120 p_1_1 + 120 p_1_5 + 120 p_1_6 + 120 p_1_7 + 100000 z_1_1 + 100000 z_1_5 + 100000 z_1_6 + 100000 z_1_7 <= 398955.14847077435
 c3219: 120 p_1_2 + 120 p_1_5 + 120 p_1_6 + 120 p_1_7 + 100000 z_1_2 + 100000 z_1_5 + 100000 z_1_6 + 100000 z_1_7 <= 399219.50446897978
 c3220: 120 p_1_1 + 120 p_1_2 + 120 p_1_5 + 120 p_1_6 + 120 p_1_7 + 100000 z_1_1 + 100000 z_1_2 + 100000 z_1_5 + 100000 z_1_6 + 100000 z_1_7 <= 498936.35977168288
 c3221: 120 p_1_3 + 120 p_1_5 + 120 p_1_6 + 120 p_1_7 + 100000 z_1_3 + 100000 z_1_5 + 100000 z_1_6 + 100000 z_1_7 <= 399238.28310957609
 c3222: 120 p_1_1 + 120 p_1_3 + 120 p_1_5 + 120 p_1_6 + 120 p_1_7 + 100000 z_1_1 + 100000 z_1_3 + 100000 z_1_5 + 100000 z_1_6 + 100000 z_1_7 <= 498955.13841227919
 c3223: 120 p_1_2 + 120 p_1_3 + 120 p_1_5 + 120 p_1_6 + 120 p_1_7 + 100000 z_1_2 + 100000 z_1_3 + 100000 z_1_5 + 100000 z_1_6 + 100000 z_1_7 <= 499219.49441048462
 c3224: 120 p_1_1 + 120 p_1_2 + 120 p_1_3 + 120 p_1_5 + 120 p_1_6 + 120 p_1_7 + 100000 z_1_1 + 100000 z_1_2 + 100000 z_1_3 + 100000 z_1_5 + 100000 z_1_6 + 100000 z_1_7 <= 598936.34971318766
 c3225: 120 p_1_4 + 120 p_1_5 + 120 p_1_6 + 120 p_1_7 + 100000 z_1_4 + 100000 z_1_5 + 100000 z_1_6 + 100000 z_1_7 <= 398729.15250590112
 c3226: 120 p_1_1 + 120 p_1_4 + 120 p_1_5 + 120 p_1_6 + 120 p_1_7 + 100000 z_1_1 + 100000 z_1_4 + 100000 z_1_5 + 100000 z_1_6 + 100000 z_1_7 <= 498728.812205547
 c3227: 120 p_1_2 + 120 p_1_4 + 120 p_1_5 + 120 p_1_6 + 120 p_1_7 + 100000 z_1_2 + 100000 z_1_4 + 100000 z_1_5 + 100000 z_1_6 + 100000 z_1_7 <= 498710.36380680965
 c3228: 120 p_1_1 + 120 p_1_2 + 120 p_1_4 + 120 p_1_5 + 120 p_1_6 + 120 p_1_7 + 100000 z_1_1 + 100000 z_1_2 + 100000 z_1_4 + 100000 z_1_5 + 100000 z_1_6 + 100000 z_1_7 <= 598710.02350645547
 c3229: 120 p_1_3 + 120 p_1_4 + 120 p_1_5 + 120 p_1_6 + 120 p_1_7 + 100000 z_1_3 + 100000 z_1_4 + 100000 z_1_5 + 100000 z_1_6 + 100000 z_1_7 <= 498729.14244740596
 c3230: 120 p_1_1 + 120 p_1_3 + 120 p_1_4 + 120 p_1_5 + 120 p_1_6 + 120 p_1_7 + 100000 z_1_1 + 100000 z_1_3 + 100000 z_1_4 + 100000 z_1_5 + 100000 z_1_6 + 100000 z_1_7 <= 598728.80214705179
 c3231: 120 p_1_2 + 120 p_1_3 + 120 p_1_4 + 120 p_1_5 + 120 p_1_6 + 120 p_1_7 + 100000 z_1_2 + 100000 z_1_3 + 100000 z_1_4 + 100000 z_1_5 + 100000 z_1_6 + 100000 z_1_7 <= 598710.35374831443
 c3232: 120 p_1_1 + 120 p_1_2 + 120 p_1_3 + 120 p_1_4 + 120 p_1_5 + 120 p_1_6 + 120 p_1_7 + 100000 z_1_1 + 100000 z_1_2 + 100000 z_1_3 + 100000 z_1_4 + 100000 z_1_5 + 100000 z_1_6 + 100000 z_1_7 <= 698710.01344796037
 c3233: 120 p_1_8 + 100000 z_1_8 <= 101217.1859100724
 c3234: 120 p_1_1 + 120 p_1_8 + 100000 z_1_1 + 100000 z_1_8 <= 200233.04253655256
 c3235: 120 p_1_2 + 120 p_1_8 + 100000 z_1_2 + 100000 z_1_8 <= 201187.94836700306
 c3236: 120 p_1_1 + 120 p_1_2 + 120 p_1_8 + 100000 z_1_1 + 100000 z_1_2 + 100000 z_1_8 <= 300203.80499348324
 c3237: 120 p_1_3 + 120 p_1_8 + 100000 z_1_3 + 100000 z_1_8 <= 200124.12221813298
 c3238: 120 p_1_1 + 120 p_1_3 + 120 p_1_8 + 100000 z_1_1 + 100000 z_1_3 + 100000 z_1_8 <= 299139.97884461313
 c3239: 120 p_1_2 + 120 p_1_3 + 120 p_1_8 + 100000 z_1_2 + 100000 z_1_3 + 100000 z_1_8 <= 300123.89600339718
 c3240: 120 p_1_1 + 120 p_1_2 + 120 p_1_3 + 120 p_1_8 + 100000 z_1_1 + 100000 z_1_2 + 100000 z_1_3 + 100000 z_1_8 <= 399139.75262987736
 c3241: 120 p_1_4 + 120 p_1_8 + 100000 z_1_4 + 100000 z_1_8 <= 199992.24588636652
 c3242: 120 p_1_1 + 120 p_1_4 + 120 p_1_8 + 100000 z_1_1 + 100000 z_1_4 + 100000 z_1_8 <= 299991.90558601235
 c3243: 120 p_1_2 + 120 p_1_4 + 120 p_1_8 + 100000 z_1_2 + 100000 z_1_4 + 100000 z_1_8 <= 299963.00834329717
 c3244: 120 p_1_1 + 120 p_1_2 + 120 p_1_4 + 120 p_1_8 + 100000 z_1_1 + 100000 z_1_2 + 100000 z_1_4 + 100000 z_1_8 <= 399962.66804294306
 c3245: 120 p_1_3 + 120 p_1_4 + 120 p_1_8 + 100000 z_1_3 + 100000 z_1_4 + 100000 z_1_8 <= 298899.18219442706
 c3246: 120 p_1_1 + 120 p_1_3 + 120 p_1_4 + 120 p_1_8 + 100000 z_1_1 + 100000 z_1_3 + 100000 z_1_4 + 100000 z_1_8 <= 398898.84189407295
 c3247: 120 p_1_2 + 120 p_1_3 + 120 p_1_4 + 120 p_1_8 + 100000 z_1_2 + 100000 z_1_3 + 100000 z_1_4 + 100000 z_1_8 <= 398898.95597969129
 c3248: 120 p_1_1 + 120 p_1_2 + 120 p_1_3 + 120 p_1_4 + 120 p_1_8 + 100000 z_1_1 + 100000 z_1_2 + 100000 z_1_3 + 100000 z_1_4 + 100000 z_1_8 <= 498898.61567933718
 c3249: 120 p_1_5 + 120 p_1_8 + 100000 z_1_5 + 100000 z_1_8 <= 201214.39026626016
 c3250: 120 p_1_1 + 120 p_1_5 + 120 p_1_8 + 100000 z_1_1 + 100000 z_1_5 + 100000 z_1_8 <= 300230.24689274031
 c3251: 120 p_1_2 + 120 p_1_5 + 120 p_1_8 + 100000 z_1_2 + 100000 z_1_5 + 100000 z_1_8 <= 301185.15272319084
 c3252: 120 p_1_1 + 120 p_1_2 + 120 p_1_5 + 120 p_1_8 + 100000 z_1_1 + 100000 z_1_2 + 100000 z_1_5 + 100000 z_1_8 <= 400175.08554408944
 c3253: 120 p_1_3 + 120 p_1_5 + 120 p_1_8 + 100000 z_1_3 + 100000 z_1_5 + 100000 z_1_8 <= 300121.32657432073
 c3254: 120 p_1_1 + 120 p_1_3 + 120 p_1_5 + 120 p_1_8 + 100000 z_1_1 + 100000 z_1_3 + 100000 z_1_5 + 100000 z_1_8 <= 399133.13676599978
 c3255: 120 p_1_2 + 120 p_1_3 + 120 p_1_5 + 120 p_1_8 + 100000 z_1_2 + 100000 z_1_3 + 100000 z_1_5 + 100000 z_1_8 <= 400121.10035958496
 c3256: 120 p_1_1 + 120 p_1_2 + 120 p_1_3 + 120 p_1_5 + 120 p_1_8 + 100000 z_1_1 + 100000 z_1_2 + 100000 z_1_3 + 100000 z_1_5 + 100000 z_1_8 <= 499111.03318048362
 c3257: 120 p_1_4 + 120 p_1_5 + 120 p_1_8 + 100000 z_1_4 + 100000 z_1_5 + 100000 z_1_8 <= 299989.4502425543
 c3258: 120 p_1_1 + 120 p_1_4 + 120 p_1_5 + 120 p_1_8 + 100000 z_1_1 + 100000 z_1_4 + 100000 z_1_5 + 100000 z_1_8 <= 399989.10994220013
 c3259: 120 p_1_2 + 120 p_1_4 + 120 p_1_5 + 120 p_1_8 + 100000 z_1_2 + 100000 z_1_4 + 100000 z_1_5 + 100000 z_1_8 <= 399934.28889390343
 c3260: 120 p_1_1 + 120 p_1_2 + 120 p_1_4 + 120 p_1_5 + 120 p_1_8 + 100000 z_1_1 + 100000 z_1_2 + 100000 z_1_4 + 100000 z_1_5 + 100000 z_1_8 <= 499933.94859354926
 c3261: 120 p_1_3 + 120 p_1_4 + 120 p_1_5 + 120 p_1_8 + 100000 z_1_3 + 100000 z_1_4 + 100000 z_1_5 + 100000 z_1_8 <= 398892.34011581371
 c3262: 120 p_1_1 + 120 p_1_3 + 120 p_1_4 + 120 p_1_5 + 120 p_1_8 + 100000 z_1_1 + 100000 z_1_3 + 100000 z_1_4 + 100000 z_1_5 + 100000 z_1_8 <= 498891.99981545954
 c3263: 120 p_1_2 + 120 p_1_3 + 120 p_1_4 + 120 p_1_5 + 120 p_1_8 + 100000 z_1_2 + 100000 z_1_3 + 100000 z_1_4 + 100000 z_1_5 + 100000 z_1_8 <= 498870.23653029755
 c3264: 120 p_1_1 + 120 p_1_2 + 120 p_1_3 + 120 p_1_4 + 120 p_1_5 + 120 p_1_8 + 100000 z_1_1 + 100000 z_1_2 + 100000 z_1_3 + 100000 z_1_4 + 100000 z_1_5 + 100000 z_1_8 <= 598869.89622994338
 c3265: 120 p_1_6 + 120 p_1_8 + 100000 z_1_6 + 100000 z_1_8 <= 199783.1940814376
 c3266: 120 p_1_1 + 120 p_1_6 + 120 p_1_8 + 100000 z_1_1 + 100000 z_1_6 + 100000 z_1_8 <= 298799.05070791778
 c3267: 120 p_1_2 + 120 p_1_6 + 120 p_1_8 + 100000 z_1_2 + 100000 z_1_6 + 100000 z_1_8 <= 299783.16487181006
 c3268: 120 p_1_1 + 120 p_1_2 + 120 p_1_6 + 120 p_1_8 + 100000 z_1_1 + 100000 z_1_2 + 100000 z_1_6 + 100000 z_1_8 <= 398799.02149829024
 c3269: 120 p_1_3 + 120 p_1_6 + 120 p_1_8 + 100000 z_1_3 + 100000 z_1_6 + 100000 z_1_8 <= 299783.18402294244
 c3270: 120 p_1_1 + 120 p_1_3 + 120 p_1_6 + 120 p_1_8 + 100000 z_1_1 + 100000 z_1_3 + 100000 z_1_6 + 100000 z_1_8 <= 398799.04064942262
 c3271: 120 p_1_2 + 120 p_1_3 + 120 p_1_6 + 120 p_1_8 + 100000 z_1_2 + 100000 z_1_3 + 100000 z_1_6 + 100000 z_1_8 <= 399783.1548133149
 c3272: 120 p_1_1 + 120 p_1_2 + 120 p_1_3 + 120 p_1_6 + 120 p_1_8 + 100000 z_1_1 + 100000 z_1_2 + 100000 z_1_3 + 100000 z_1_6 + 100000 z_1_8 <= 498799.01143979508
 c3273: 120 p_1_4 + 120 p_1_6 + 120 p_1_8 + 100000 z_1_4 + 100000 z_1_6 + 100000 z_1_8 <= 298558.25405773171
 c3274: 120 p_1_1 + 120 p_1_4 + 120 p_1_6 + 120 p_1_8 + 100000 z_1_1 + 100000 z_1_4 + 100000 z_1_6 + 100000 z_1_8 <= 398557.9137573776
 c3275: 120 p_1_2 + 120 p_1_4 + 120 p_1_6 + 120 p_1_8 + 100000 z_1_2 + 100000 z_1_4 + 100000 z_1_6 + 100000 z_1_8 <= 398558.22484810418
 c3276: 120 p_1_1 + 120 p_1_2 + 120 p_1_4 + 120 p_1_6 + 120 p_1_8 + 100000 z_1_1 + 100000 z_1_2 + 100000 z_1_4 + 100000 z_1_6 + 100000 z_1_8 <= 498557.88454775006
 c3277: 120 p_1_3 + 120 p_1_4 + 120 p_1_6 + 120 p_1_8 + 100000 z_1_3 + 100000 z_1_4 + 100000 z_1_6 + 100000 z_1_8 <= 398558.24399923655
 c3278: 120 p_1_1 + 120 p_1_3 + 120 p_1_4 + 120 p_1_6 + 120 p_1_8 + 100000 z_1_1 + 100000 z_1_3 + 100000 z_1_4 + 100000 z_1_6 + 100000 z_1_8 <= 498557.90369888238
 c3279: 120 p_1_2 + 120 p_1_3 + 120 p_1_4 + 120 p_1_6 + 120 p_1_8 + 100000 z_1_2 + 100000 z_1_3 + 100000 z_1_4 + 100000 z_1_6 + 100000 z_1_8 <= 498558.21478960902
 c3280: 120 p_1_1 + 120 p_1_2 + 120 p_1_3 + 120 p_1_4 + 120 p_1_6 + 120 p_1_8 + 100000 z_1_1 + 100000 z_1_2 + 100000 z_1_3 + 100000 z_1_4 + 100000 z_1_6 + 100000 z_1_8 <= 598557.8744892549
 c3281: 120 p_1_5 + 120 p_1_6 + 120 p_1_8 + 100000 z_1_5 + 100000 z_1_6 + 100000 z_1_8 <= 299780.39843762538
 c3282: 120 p_1_1 + 120 p_1_5 + 120 p_1_6 + 120 p_1_8 + 100000 z_1_1 + 100000 z_1_5 + 100000 z_1_6 + 100000 z_1_8 <= 398789.09074798791
 c3283: 120 p_1_2 + 120 p_1_5 + 120 p_1_6 + 120 p_1_8 + 100000 z_1_2 + 100000 z_1_5 + 100000 z_1_6 + 100000 z_1_8 <= 399780.36922799784
 c3284: 120 p_1_1 + 120 p_1_2 + 120 p_1_5 + 120 p_1_6 + 120 p_1_8 + 100000 z_1_1 + 100000 z_1_2 + 100000 z_1_5 + 100000 z_1_6 + 100000 z_1_8 <= 498770.30204889644
 c3285: 120 p_1_3 + 120 p_1_5 + 120 p_1_6 + 120 p_1_8 + 100000 z_1_3 + 100000 z_1_5 + 100000 z_1_6 + 100000 z_1_8 <= 399780.38837913016
 c3286: 120 p_1_1 + 120 p_1_3 + 120 p_1_5 + 120 p_1_6 + 120 p_1_8 + 100000 z_1_1 + 100000 z_1_3 + 100000 z_1_5 + 100000 z_1_6 + 100000 z_1_8 <= 498789.08068949275
 c3287: 120 p_1_2 + 120 p_1_3 + 120 p_1_5 + 120 p_1_6 + 120 p_1_8 + 100000 z_1_2 + 100000 z_1_3 + 100000 z_1_5 + 100000 z_1_6 + 100000 z_1_8 <= 499780.35916950268
 c3288: 120 p_1_1 + 120 p_1_2 + 120 p_1_3 + 120 p_1_5 + 120 p_1_6 + 120 p_1_8 + 100000 z_1_1 + 100000 z_1_2 + 100000 z_1_3 + 100000 z_1_5 + 100000 z_1_6 + 100000 z_1_8 <= 598770.29199040134
 c3289: 120 p_1_4 + 120 p_1_5 + 120 p_1_6 + 120 p_1_8 + 100000 z_1_4 + 100000 z_1_5 + 100000 z_1_6 + 100000 z_1_8 <= 398548.2940978019
 c3290: 120 p_1_1 + 120 p_1_4 + 120 p_1_5 + 120 p_1_6 + 120 p_1_8 + 100000 z_1_1 + 100000 z_1_4 + 100000 z_1_5 + 100000 z_1_6 + 100000 z_1_8 <= 498547.95379744773
 c3291: 120 p_1_2 + 120 p_1_4 + 120 p_1_5 + 120 p_1_6 + 120 p_1_8 + 100000 z_1_2 + 100000 z_1_4 + 100000 z_1_5 + 100000 z_1_6 + 100000 z_1_8 <= 498529.50539871043
 c3292: 120 p_1_1 + 120 p_1_2 + 120 p_1_4 + 120 p_1_5 + 120 p_1_6 + 120 p_1_8 + 100000 z_1_1 + 100000 z_1_2 + 100000 z_1_4 + 100000 z_1_5 + 100000 z_1_6 + 100000 z_1_8 <= 598529.16509835632
 c3293: 120 p_1_3 + 120 p_1_4 + 120 p_1_5 + 120 p_1_6 + 120 p_1_8 + 100000 z_1_3 + 100000 z_1_4 + 100000 z_1_5 + 100000 z_1_6 + 100000 z_1_8 <= 498548.28403930669
 c3294: 120 p_1_1 + 120 p_1_3 + 120 p_1_4 + 120 p_1_5 + 120 p_1_6 + 120 p_1_8 + 100000 z_1_1 + 100000 z_1_3 + 100000 z_1_4 + 100000 z_1_5 + 100000 z_1_6 + 100000 z_1_8 <= 598547.94373895251
 c3295: 120 p_1_2 + 120 p_1_3 + 120 p_1_4 + 120 p_1_5 + 120 p_1_6 + 120 p_1_8 + 100000 z_1_2 + 100000 z_1_3 + 100000 z_1_4 + 100000 z_1_5 + 100000 z_1_6 + 100000 z_1_8 <= 598529.49534021528
 c3296: 120 p_1_1 + 120 p_1_2 + 120 p_1_3 + 120 p_1_4 + 120 p_1_5 + 120 p_1_6 + 120 p_1_8 + 100000 z_1_1 + 100000 z_1_2 + 100000 z_1_3 + 100000 z_1_4 + 100000 z_1_5 + 100000 z_1_6 + 100000 z_1_8 <= 698529.1550398611
 c3297: 120 p_1_7 + 120 p_1_8 + 100000 z_1_7 + 100000 z_1_8 <= 200499.98989800474
 c3298: 120 p_1_1 + 120 p_1_7 + 120 p_1_8 + 100000 z_1_1 + 100000 z_1_7 + 100000 z_1_8 <= 300216.84520070784
 c3299: 120 p_1_2 + 120 p_1_7 + 120 p_1_8 + 100000 z_1_2 + 100000 z_1_7 + 100000 z_1_8 <= 300470.75235493539
 c3300: 120 p_1_1 + 120 p_1_2 + 120 p_1_7 + 120 p_1_8 + 100000 z_1_1 + 100000 z_1_2 + 100000 z_1_7 + 100000 z_1_8 <= 400187.60765763849
 c3301: 120 p_1_3 + 120 p_1_7 + 120 p_1_8 + 100000 z_1_3 + 100000 z_1_7 + 100000 z_1_8 <= 299406.92620606528
 c3302: 120 p_1_1 + 120 p_1_3 + 120 p_1_7 + 120 p_1_8 + 100000 z_1_1 + 100000 z_1_3 + 100000 z_1_7 + 100000 z_1_8 <= 399123.78150876838
 c3303: 120 p_1_2 + 120 p_1_3 + 120 p_1_7 + 120 p_1_8 + 100000 z_1_2 + 100000 z_1_3 + 100000 z_1_7 + 100000 z_1_8 <= 399406.69999132951
 c3304: 120 p_1_1 + 120 p_1_2 + 120 p_1_3 + 120 p_1_7 + 120 p_1_8 + 100000 z_1_1 + 100000 z_1_2 + 100000 z_1_3 + 100000 z_1_7 + 100000 z_1_8 <= 499123.55529403262
 c3305: 120 p_1_4 + 120 p_1_7 + 120 p_1_8 + 100000 z_1_4 + 100000 z_1_7 + 100000 z_1_8 <= 299990.84923583461
 c3306: 120 p_1_1 + 120 p_1_4 + 120 p_1_7 + 120 p_1_8 + 100000 z_1_1 + 100000 z_1_4 + 100000 z_1_7 + 100000 z_1_8 <= 399990.50893548049
 c3307: 120 p_1_2 + 120 p_1_4 + 120 p_1_7 + 120 p_1_8 + 100000 z_1_2 + 100000 z_1_4 + 100000 z_1_7 + 100000 z_1_8 <= 399961.61169276526
 c3308: 120 p_1_1 + 120 p_1_2 + 120 p_1_4 + 120 p_1_7 + 120 p_1_8 + 100000 z_1_1 + 100000 z_1_2 + 100000 z_1_4 + 100000 z_1_7 + 100000 z_1_8 <= 499961.27139241114
 c3309: 120 p_1_3 + 120 p_1_4 + 120 p_1_7 + 120 p_1_8 + 100000 z_1_3 + 100000 z_1_4 + 100000 z_1_7 + 100000 z_1_8 <= 398897.78554389521
 c3310: 120 p_1_1 + 120 p_1_3 + 120 p_1_4 + 120 p_1_7 + 120 p_1_8 + 100000 z_1_1 + 100000 z_1_3 + 100000 z_1_4 + 100000 z_1_7 + 100000 z_1_8 <= 498897.44524354103
 c3311: 120 p_1_2 + 120 p_1_3 + 120 p_1_4 + 120 p_1_7 + 120 p_1_8 + 100000 z_1_2 + 100000 z_1_3 + 100000 z_1_4 + 100000 z_1_7 + 100000 z_1_8 <= 498897.55932915944
 c3312: 120 p_1_1 + 120 p_1_2 + 120 p_1_3 + 120 p_1_4 + 120 p_1_7 + 120 p_1_8 + 100000 z_1_1 + 100000 z_1_2 + 100000 z_1_3 + 100000 z_1_4 + 100000 z_1_7 + 100000 z_1_8 <= 598897.21902880527
 c3313: 120 p_1_5 + 120 p_1_7 + 120 p_1_8 + 100000 z_1_5 + 100000 z_1_7 + 100000 z_1_8 <= 300497.19425419252
 c3314: 120 p_1_1 + 120 p_1_5 + 120 p_1_7 + 120 p_1_8 + 100000 z_1_1 + 100000 z_1_5 + 100000 z_1_7 + 100000 z_1_8 <= 400214.04955689562
 c3315: 120 p_1_2 + 120 p_1_5 + 120 p_1_7 + 120 p_1_8 + 100000 z_1_2 + 100000 z_1_5 + 100000 z_1_7 + 100000 z_1_8 <= 400442.03290554165
 c3316: 120 p_1_1 + 120 p_1_2 + 120 p_1_5 + 120 p_1_7 + 120 p_1_8 + 100000 z_1_1 + 100000 z_1_2 + 100000 z_1_5 + 100000 z_1_7 + 100000 z_1_8 <= 500158.88820824469
 c3317: 120 p_1_3 + 120 p_1_5 + 120 p_1_7 + 120 p_1_8 + 100000 z_1_3 + 100000 z_1_5 + 100000 z_1_7 + 100000 z_1_8 <= 399400.08412745193
 c3318: 120 p_1_1 + 120 p_1_3 + 120 p_1_5 + 120 p_1_7 + 120 p_1_8 + 100000 z_1_1 + 100000 z_1_3 + 100000 z_1_5 + 100000 z_1_7 + 100000 z_1_8 <= 499116.93943015503
 c3319: 120 p_1_2 + 120 p_1_3 + 120 p_1_5 + 120 p_1_7 + 120 p_1_8 + 100000 z_1_2 + 100000 z_1_3 + 100000 z_1_5 + 100000 z_1_7 + 100000 z_1_8 <= 499377.98054193577
 c3320: 120 p_1_1 + 120 p_1_2 + 120 p_1_3 + 120 p_1_5 + 120 p_1_7 + 120 p_1_8 + 100000 z_1_1 + 100000 z_1_2 + 100000 z_1_3 + 100000 z_1_5 + 100000 z_1_7 + 100000 z_1_8 <= 599094.83584463887
 c3321: 120 p_1_4 + 120 p_1_5 + 120 p_1_7 + 120 p_1_8 + 100000 z_1_4 + 100000 z_1_5 + 100000 z_1_7 + 100000 z_1_8 <= 399988.05359202239
 c3322: 120 p_1_1 + 120 p_1_4 + 120 p_1_5 + 120 p_1_7 + 120 p_1_8 + 100000 z_1_1 + 100000 z_1_4 + 100000 z_1_5 + 100000 z_1_7 + 100000 z_1_8 <= 499987.71329166827
 c3323: 120 p_1_2 + 120 p_1_4 + 120 p_1_5 + 120 p_1_7 + 120 p_1_8 + 100000 z_1_2 + 100000 z_1_4 + 100000 z_1_5 + 100000 z_1_7 + 100000 z_1_8 <= 499932.89224337152
 c3324: 120 p_1_1 + 120 p_1_2 + 120 p_1_4 + 120 p_1_5 + 120 p_1_7 + 120 p_1_8 + 100000 z_1_1 + 100000 z_1_2 + 100000 z_1_4 + 100000 z_1_5 + 100000 z_1_7 + 100000 z_1_8 <= 599932.5519430174
 c3325: 120 p_1_3 + 120 p_1_4 + 120 p_1_5 + 120 p_1_7 + 120 p_1_8 + 100000 z_1_3 + 100000 z_1_4 + 100000 z_1_5 + 100000 z_1_7 + 100000 z_1_8 <= 498890.9434652818
 c3326: 120 p_1_1 + 120 p_1_3 + 120 p_1_4 + 120 p_1_5 + 120 p_1_7 + 120 p_1_8 + 100000 z_1_1 + 100000 z_1_3 + 100000 z_1_4 + 100000 z_1_5 + 100000 z_1_7 + 100000 z_1_8 <= 598890.60316492768
 c3327: 120 p_1_2 + 120 p_1_3 + 120 p_1_4 + 120 p_1_5 + 120 p_1_7 + 120 p_1_8 + 100000 z_1_2 + 100000 z_1_3 + 100000 z_1_4 + 100000 z_1_5 + 100000 z_1_7 + 100000 z_1_8 <= 598868.83987976564
 c3328: 120 p_1_1 + 120 p_1_2 + 120 p_1_3 + 120 p_1_4 + 120 p_1_5 + 120 p_1_7 + 120 p_1_8 + 100000 z_1_1 + 100000 z_1_2 + 100000 z_1_3 + 100000 z_1_4 + 100000 z_1_5 + 100000 z_1_7 + 100000 z_1_8 <= 698868.49957941147
 c3329: 120 p_1_6 + 120 p_1_7 + 120 p_1_8 + 100000 z_1_6 + 100000 z_1_7 + 100000 z_1_8 <= 299065.99806936993
 c3330: 120 p_1_1 + 120 p_1_6 + 120 p_1_7 + 120 p_1_8 + 100000 z_1_1 + 100000 z_1_6 + 100000 z_1_7 + 100000 z_1_8 <= 398782.85337207303
 c3331: 120 p_1_2 + 120 p_1_6 + 120 p_1_7 + 120 p_1_8 + 100000 z_1_2 + 100000 z_1_6 + 100000 z_1_7 + 100000 z_1_8 <= 399065.9688597424
 c3332: 120 p_1_1 + 120 p_1_2 + 120 p_1_6 + 120 p_1_7 + 120 p_1_8 + 100000 z_1_1 + 100000 z_1_2 + 100000 z_1_6 + 100000 z_1_7 + 100000 z_1_8 <= 498782.8241624455
 c3333: 120 p_1_3 + 120 p_1_6 + 120 p_1_7 + 120 p_1_8 + 100000 z_1_3 + 100000 z_1_6 + 100000 z_1_7 + 100000 z_1_8 <= 399065.98801087477
 c3334: 120 p_1_1 + 120 p_1_3 + 120 p_1_6 + 120 p_1_7 + 120 p_1_8 + 100000 z_1_1 + 100000 z_1_3 + 100000 z_1_6 + 100000 z_1_7 + 100000 z_1_8 <= 498782.84331357788
 c3335: 120 p_1_2 + 120 p_1_3 + 120 p_1_6 + 120 p_1_7 + 120 p_1_8 + 100000 z_1_2 + 100000 z_1_3 + 100000 z_1_6 + 100000 z_1_7 + 100000 z_1_8 <= 499065.95880124724
 c3336: 120 p_1_1 + 120 p_1_2 + 120 p_1_3 + 120 p_1_6 + 120 p_1_7 + 120 p_1_8 + 100000 z_1_1 + 100000 z_1_2 + 100000 z_1_3 + 100000 z_1_6 + 100000 z_1_7 + 100000 z_1_8 <= 598782.81410395028
 c3337: 120 p_1_4 + 120 p_1_6 + 120 p_1_7 + 120 p_1_8 + 100000 z_1_4 + 100000 z_1_6 + 100000 z_1_7 + 100000 z_1_8 <= 398556.8574071998
 c3338: 120 p_1_1 + 120 p_1_4 + 120 p_1_6 + 120 p_1_7 + 120 p_1_8 + 100000 z_1_1 + 100000 z_1_4 + 100000 z_1_6 + 100000 z_1_7 + 100000 z_1_8 <= 498556.51710684568
 c3339: 120 p_1_2 + 120 p_1_4 + 120 p_1_6 + 120 p_1_7 + 120 p_1_8 + 100000 z_1_2 + 100000 z_1_4 + 100000 z_1_6 + 100000 z_1_7 + 100000 z_1_8 <= 498556.82819757226
 c3340: 120 p_1_1 + 120 p_1_2 + 120 p_1_4 + 120 p_1_6 + 120 p_1_7 + 120 p_1_8 + 100000 z_1_1 + 100000 z_1_2 + 100000 z_1_4 + 100000 z_1_6 + 100000 z_1_7 + 100000 z_1_8 <= 598556.48789721821
 c3341: 120 p_1_3 + 120 p_1_4 + 120 p_1_6 + 120 p_1_7 + 120 p_1_8 + 100000 z_1_3 + 100000 z_1_4 + 100000 z_1_6 + 100000 z_1_7 + 100000 z_1_8 <= 498556.84734870464
 c3342: 120 p_1_1 + 120 p_1_3 + 120 p_1_4 + 120 p_1_6 + 120 p_1_7 + 120 p_1_8 + 100000 z_1_1 + 100000 z_1_3 + 100000 z_1_4 + 100000 z_1_6 + 100000 z_1_7 + 100000 z_1_8 <= 598556.50704835053
 c3343: 120 p_1_2 + 120 p_1_3 + 120 p_1_4 + 120 p_1_6 + 120 p_1_7 + 120 p_1_8 + 100000 z_1_2 + 100000 z_1_3 + 100000 z_1_4 + 100000 z_1_6 + 100000 z_1_7 + 100000 z_1_8 <= 598556.81813907716
 c3344: 120 p_1_1 + 120 p_1_2 + 120 p_1_3 + 120 p_1_4 + 120 p_1_6 + 120 p_1_7 + 120 p_1_8 + 100000 z_1_1 + 100000 z_1_2 + 100000 z_1_3 + 100000 z_1_4 + 100000 z_1_6 + 100000 z_1_7 + 100000 z_1_8 <= 698556.47783872299
 c3345: 120 p_1_5 + 120 p_1_6 + 120 p_1_7 + 120 p_1_8 + 100000 z_1_5 + 100000 z_1_6 + 100000 z_1_7 + 100000 z_1_8 <= 399056.03810944012
 c3346: 120 p_1_1 + 120 p_1_5 + 120 p_1_6 + 120 p_1_7 + 120 p_1_8 + 100000 z_1_1 + 100000 z_1_5 + 100000 z_1_6 + 100000 z_1_7 + 100000 z_1_8 <= 498772.89341214317
 c3347: 120 p_1_2 + 120 p_1_5 + 120 p_1_6 + 120 p_1_7 + 120 p_1_8 + 100000 z_1_2 + 100000 z_1_5 + 100000 z_1_6 + 100000 z_1_7 + 100000 z_1_8 <= 499037.24941034865
 c3348: 120 p_1_1 + 120 p_1_2 + 120 p_1_5 + 120 p_1_6 + 120 p_1_7 + 120 p_1_8 + 100000 z_1_1 + 100000 z_1_2 + 100000 z_1_5 + 100000 z_1_6 + 100000 z_1_7 + 100000 z_1_8 <= 598754.1047130517
 c3349: 120 p_1_3 + 120 p_1_5 + 120 p_1_6 + 120 p_1_7 + 120 p_1_8 + 100000 z_1_3 + 100000 z_1_5 + 100000 z_1_6 + 100000 z_1_7 + 100000 z_1_8 <= 499056.02805094491
 c3350: 120 p_1_1 + 120 p_1_3 + 120 p_1_5 + 120 p_1_6 + 120 p_1_7 + 120 p_1_8 + 100000 z_1_1 + 100000 z_1_3 + 100000 z_1_5 + 100000 z_1_6 + 100000 z_1_7 + 100000 z_1_8 <= 598772.88335364801
 c3351: 120 p_1_2 + 120 p_1_3 + 120 p_1_5 + 120 p_1_6 + 120 p_1_7 + 120 p_1_8 + 100000 z_1_2 + 100000 z_1_3 + 100000 z_1_5 + 100000 z_1_6 + 100000 z_1_7 + 100000 z_1_8 <= 599037.2393518535
 c3352: 120 p_1_1 + 120 p_1_2 + 120 p_1_3 + 120 p_1_5 + 120 p_1_6 + 120 p_1_7 + 120 p_1_8 + 100000 z_1_1 + 100000 z_1_2 + 100000 z_1_3 + 100000 z_1_5 + 100000 z_1_6 + 100000 z_1_7 + 100000 z_1_8 <= 698754.0946545566
 c3353: 120 p_1_4 + 120 p_1_5 + 120 p_1_6 + 120 p_1_7 + 120 p_1_8 + 100000 z_1_4 + 100000 z_1_5 + 100000 z_1_6 + 100000 z_1_7 + 100000 z_1_8 <= 498546.89744726999
 c3354: 120 p_1_1 + 120 p_1_4 + 120 p_1_5 + 120 p_1_6 + 120 p_1_7 + 120 p_1_8 + 100000 z_1_1 + 100000 z_1_4 + 100000 z_1_5 + 100000 z_1_6 + 100000 z_1_7 + 100000 z_1_8 <= 598546.55714691582
 c3355: 120 p_1_2 + 120 p_1_4 + 120 p_1_5 + 120 p_1_6 + 120 p_1_7 + 120 p_1_8 + 100000 z_1_2 + 100000 z_1_4 + 100000 z_1_5 + 100000 z_1_6 + 100000 z_1_7 + 100000 z_1_8 <= 598528.10874817846
 c3356: 120 p_1_1 + 120 p_1_2 + 120 p_1_4 + 120 p_1_5 + 120 p_1_6 + 120 p_1_7 + 120 p_1_8 + 100000 z_1_1 + 100000 z_1_2 + 100000 z_1_4 + 100000 z_1_5 + 100000 z_1_6 + 100000 z_1_7 + 100000 z_1_8 <= 698527.7684478244
 c3357: 120 p_1_3 + 120 p_1_4 + 120 p_1_5 + 120 p_1_6 + 120 p_1_7 + 120 p_1_8 + 100000 z_1_3 + 100000 z_1_4 + 100000 z_1_5 + 100000 z_1_6 + 100000 z_1_7 + 100000 z_1_8 <= 598546.88738877478
 c3358: 120 p_1_1 + 120 p_1_3 + 120 p_1_4 + 120 p_1_5 + 120 p_1_6 + 120 p_1_7 + 120 p_1_8 + 100000 z_1_1 + 100000 z_1_3 + 100000 z_1_4 + 100000 z_1_5 + 100000 z_1_6 + 100000 z_1_7 + 100000 z_1_8 <= 698546.54708842072
 c3359: 120 p_1_2 + 120 p_1_3 + 120 p_1_4 + 120 p_1_5 + 120 p_1_6 + 120 p_1_7 + 120 p_1_8 + 100000 z_1_2 + 100000 z_1_3 + 100000 z_1_4 + 100000 z_1_5 + 100000 z_1_6 + 100000 z_1_7 + 100000 z_1_8 <= 698528.09868968336
 c3360: 120 p_1_1 + 120 p_1_2 + 120 p_1_3 + 120 p_1_4 + 120 p_1_5 + 120 p_1_6 + 120 p_1_7 + 120 p_1_8 + 100000 z_1_1 + 100000 z_1_2 + 100000 z_1_3 + 100000 z_1_4 + 100000 z_1_5 + 100000 z_1_6 + 100000 z_1_7 + 100000 z_1_8 <= 798527.75838932919
 c3361: 120 p_1_9 + 100000 z_1_9 <= 101080.63526739777
 c3362: 120 p_1_1 + 120 p_1_9 + 100000 z_1_1 + 100000 z_1_9 <= 200061.45267120705
 c3363: 120 p_1_2 + 120 p_1_9 + 100000 z_1_2 + 100000 z_1_9 <= 200271.29511563524
 c3364: 120 p_1_1 + 120 p_1_2 + 120 p_1_9 + 100000 z_1_1 + 100000 z_1_2 + 100000 z_1_9 <= 299252.11251944449
 c3365: 120 p_1_3 + 120 p_1_9 + 100000 z_1_3 + 100000 z_1_9 <= 201024.48473841583
 c3366: 120 p_1_1 + 120 p_1_3 + 120 p_1_9 + 100000 z_1_1 + 100000 z_1_3 + 100000 z_1_9 <= 300005.30214222509
 c3367: 120 p_1_2 + 120 p_1_3 + 120 p_1_9 + 100000 z_1_2 + 100000 z_1_3 + 100000 z_1_9 <= 300249.50708293682
 c3368: 120 p_1_1 + 120 p_1_2 + 120 p_1_3 + 120 p_1_9 + 100000 z_1_1 + 100000 z_1_2 + 100000 z_1_3 + 100000 z_1_9 <= 399230.3244867461
 c3369: 120 p_1_4 + 120 p_1_9 + 100000 z_1_4 + 100000 z_1_9 <= 199828.64579192386
 c3370: 120 p_1_1 + 120 p_1_4 + 120 p_1_9 + 100000 z_1_1 + 100000 z_1_4 + 100000 z_1_9 <= 299828.30549156974
 c3371: 120 p_1_2 + 120 p_1_4 + 120 p_1_9 + 100000 z_1_2 + 100000 z_1_4 + 100000 z_1_9 <= 299019.30564016133
 c3372: 120 p_1_1 + 120 p_1_2 + 120 p_1_4 + 120 p_1_9 + 100000 z_1_1 + 100000 z_1_2 + 100000 z_1_4 + 100000 z_1_9 <= 399018.96533980715
 c3373: 120 p_1_3 + 120 p_1_4 + 120 p_1_9 + 100000 z_1_3 + 100000 z_1_4 + 100000 z_1_9 <= 299772.49526294193
 c3374: 120 p_1_1 + 120 p_1_3 + 120 p_1_4 + 120 p_1_9 + 100000 z_1_1 + 100000 z_1_3 + 100000 z_1_4 + 100000 z_1_9 <= 399772.15496258781
 c3375: 120 p_1_2 + 120 p_1_3 + 120 p_1_4 + 120 p_1_9 + 100000 z_1_2 + 100000 z_1_3 + 100000 z_1_4 + 100000 z_1_9 <= 398997.51760746288
 c3376: 120 p_1_1 + 120 p_1_2 + 120 p_1_3 + 120 p_1_4 + 120 p_1_9 + 100000 z_1_1 + 100000 z_1_2 + 100000 z_1_3 + 100000 z_1_4 + 100000 z_1_9 <= 498997.17730710877
 c3377: 120 p_1_5 + 120 p_1_9 + 100000 z_1_5 + 100000 z_1_9 <= 200241.89604576558
 c3378: 120 p_1_1 + 120 p_1_5 + 120 p_1_9 + 100000 z_1_1 + 100000 z_1_5 + 100000 z_1_9 <= 299272.78561261314
 c3379: 120 p_1_2 + 120 p_1_5 + 120 p_1_9 + 100000 z_1_2 + 100000 z_1_5 + 100000 z_1_9 <= 300216.96691811847
 c3380: 120 p_1_1 + 120 p_1_2 + 120 p_1_5 + 120 p_1_9 + 100000 z_1_1 + 100000 z_1_2 + 100000 z_1_5 + 100000 z_1_9 <= 399217.62426396221
 c3381: 120 p_1_3 + 120 p_1_5 + 120 p_1_9 + 100000 z_1_3 + 100000 z_1_5 + 100000 z_1_9 <= 300217.28247093625
 c3382: 120 p_1_1 + 120 p_1_3 + 120 p_1_5 + 120 p_1_9 + 100000 z_1_1 + 100000 z_1_3 + 100000 z_1_5 + 100000 z_1_9 <= 399216.6350836312
 c3383: 120 p_1_2 + 120 p_1_3 + 120 p_1_5 + 120 p_1_9 + 100000 z_1_2 + 100000 z_1_3 + 100000 z_1_5 + 100000 z_1_9 <= 400195.17888542009
 c3384: 120 p_1_1 + 120 p_1_2 + 120 p_1_3 + 120 p_1_5 + 120 p_1_9 + 100000 z_1_1 + 100000 z_1_2 + 100000 z_1_3 + 100000 z_1_5 + 100000 z_1_9 <= 499175.99628922931
 c3385: 120 p_1_4 + 120 p_1_5 + 120 p_1_9 + 100000 z_1_4 + 100000 z_1_5 + 100000 z_1_9 <= 299049.60740546457
 c3386: 120 p_1_1 + 120 p_1_4 + 120 p_1_5 + 120 p_1_9 + 100000 z_1_1 + 100000 z_1_4 + 100000 z_1_5 + 100000 z_1_9 <= 399039.6384329758
 c3387: 120 p_1_2 + 120 p_1_4 + 120 p_1_5 + 120 p_1_9 + 100000 z_1_2 + 100000 z_1_4 + 100000 z_1_5 + 100000 z_1_9 <= 398994.4460568137
 c3388: 120 p_1_1 + 120 p_1_2 + 120 p_1_4 + 120 p_1_5 + 120 p_1_9 + 100000 z_1_1 + 100000 z_1_2 + 100000 z_1_4 + 100000 z_1_5 + 100000 z_1_9 <= 498984.47708432493
 c3389: 120 p_1_3 + 120 p_1_4 + 120 p_1_5 + 120 p_1_9 + 100000 z_1_3 + 100000 z_1_4 + 100000 z_1_5 + 100000 z_1_9 <= 398993.45687648264
 c3390: 120 p_1_1 + 120 p_1_3 + 120 p_1_4 + 120 p_1_5 + 120 p_1_9 + 100000 z_1_1 + 100000 z_1_3 + 100000 z_1_4 + 100000 z_1_5 + 100000 z_1_9 <= 498983.48790399387
 c3391: 120 p_1_2 + 120 p_1_3 + 120 p_1_4 + 120 p_1_5 + 120 p_1_9 + 100000 z_1_2 + 100000 z_1_3 + 100000 z_1_4 + 100000 z_1_5 + 100000 z_1_9 <= 498943.18940994615
 c3392: 120 p_1_1 + 120 p_1_2 + 120 p_1_3 + 120 p_1_4 + 120 p_1_5 + 120 p_1_9 + 100000 z_1_1 + 100000 z_1_2 + 100000 z_1_3 + 100000 z_1_4 + 100000 z_1_5 + 100000 z_1_9 <= 598942.84910959203
 c3393: 120 p_1_6 + 120 p_1_9 + 100000 z_1_6 + 100000 z_1_9 <= 200761.12093317122
 c3394: 120 p_1_1 + 120 p_1_6 + 120 p_1_9 + 100000 z_1_1 + 100000 z_1_6 + 100000 z_1_9 <= 299741.93833698053
 c3395: 120 p_1_2 + 120 p_1_6 + 120 p_1_9 + 100000 z_1_2 + 100000 z_1_6 + 100000 z_1_9 <= 300005.94951446244
 c3396: 120 p_1_1 + 120 p_1_2 + 120 p_1_6 + 120 p_1_9 + 100000 z_1_1 + 100000 z_1_2 + 100000 z_1_6 + 100000 z_1_9 <= 398986.76691827172
 c3397: 120 p_1_3 + 120 p_1_6 + 120 p_1_9 + 100000 z_1_3 + 100000 z_1_6 + 100000 z_1_9 <= 300761.11087467603
 c3398: 120 p_1_1 + 120 p_1_3 + 120 p_1_6 + 120 p_1_9 + 100000 z_1_1 + 100000 z_1_3 + 100000 z_1_6 + 100000 z_1_9 <= 399741.92827848531
 c3399: 120 p_1_2 + 120 p_1_3 + 120 p_1_6 + 120 p_1_9 + 100000 z_1_2 + 100000 z_1_3 + 100000 z_1_6 + 100000 z_1_9 <= 399986.13321919704
 c3400: 120 p_1_1 + 120 p_1_2 + 120 p_1_3 + 120 p_1_6 + 120 p_1_9 + 100000 z_1_1 + 100000 z_1_2 + 100000 z_1_3 + 100000 z_1_6 + 100000 z_1_9 <= 498966.95062300633
 c3401: 120 p_1_4 + 120 p_1_6 + 120 p_1_9 + 100000 z_1_4 + 100000 z_1_6 + 100000 z_1_9 <= 299509.13145769731
 c3402: 120 p_1_1 + 120 p_1_4 + 120 p_1_6 + 120 p_1_9 + 100000 z_1_1 + 100000 z_1_4 + 100000 z_1_6 + 100000 z_1_9 <= 399508.79115734319
 c3403: 120 p_1_2 + 120 p_1_4 + 120 p_1_6 + 120 p_1_9 + 100000 z_1_2 + 100000 z_1_4 + 100000 z_1_6 + 100000 z_1_9 <= 398753.9600389885
 c3404: 120 p_1_1 + 120 p_1_2 + 120 p_1_4 + 120 p_1_6 + 120 p_1_9 + 100000 z_1_1 + 100000 z_1_2 + 100000 z_1_4 + 100000 z_1_6 + 100000 z_1_9 <= 498753.61973863438
 c3405: 120 p_1_3 + 120 p_1_4 + 120 p_1_6 + 120 p_1_9 + 100000 z_1_3 + 100000 z_1_4 + 100000 z_1_6 + 100000 z_1_9 <= 399509.12139920215
 c3406: 120 p_1_1 + 120 p_1_3 + 120 p_1_4 + 120 p_1_6 + 120 p_1_9 + 100000 z_1_1 + 100000 z_1_3 + 100000 z_1_4 + 100000 z_1_6 + 100000 z_1_9 <= 499508.78109884803
 c3407: 120 p_1_2 + 120 p_1_3 + 120 p_1_4 + 120 p_1_6 + 120 p_1_9 + 100000 z_1_2 + 100000 z_1_3 + 100000 z_1_4 + 100000 z_1_6 + 100000 z_1_9 <= 498734.14374372311
 c3408: 120 p_1_1 + 120 p_1_2 + 120 p_1_3 + 120 p_1_4 + 120 p_1_6 + 120 p_1_9 + 100000 z_1_1 + 100000 z_1_2 + 100000 z_1_3 + 100000 z_1_4 + 100000 z_1_6 + 100000 z_1_9 <= 598733.80344336899
 c3409: 120 p_1_5 + 120 p_1_6 + 120 p_1_9 + 100000 z_1_5 + 100000 z_1_6 + 100000 z_1_9 <= 299970.41001603717
 c3410: 120 p_1_1 + 120 p_1_5 + 120 p_1_6 + 120 p_1_9 + 100000 z_1_1 + 100000 z_1_5 + 100000 z_1_6 + 100000 z_1_9 <= 398953.27127838659
 c3411: 120 p_1_2 + 120 p_1_5 + 120 p_1_6 + 120 p_1_9 + 100000 z_1_2 + 100000 z_1_5 + 100000 z_1_6 + 100000 z_1_9 <= 399951.6213169457
 c3412: 120 p_1_1 + 120 p_1_2 + 120 p_1_5 + 120 p_1_6 + 120 p_1_9 + 100000 z_1_1 + 100000 z_1_2 + 100000 z_1_5 + 100000 z_1_6 + 100000 z_1_9 <= 498932.43872075499
 c3413: 120 p_1_3 + 120 p_1_5 + 120 p_1_6 + 120 p_1_9 + 100000 z_1_3 + 100000 z_1_5 + 100000 z_1_6 + 100000 z_1_9 <= 399953.90860719647
 c3414: 120 p_1_1 + 120 p_1_3 + 120 p_1_5 + 120 p_1_6 + 120 p_1_9 + 100000 z_1_1 + 100000 z_1_3 + 100000 z_1_5 + 100000 z_1_6 + 100000 z_1_9 <= 498953.26121989143
 c3415: 120 p_1_2 + 120 p_1_3 + 120 p_1_5 + 120 p_1_6 + 120 p_1_9 + 100000 z_1_2 + 100000 z_1_3 + 100000 z_1_5 + 100000 z_1_6 + 100000 z_1_9 <= 499931.80502168031
 c3416: 120 p_1_1 + 120 p_1_2 + 120 p_1_3 + 120 p_1_5 + 120 p_1_6 + 120 p_1_9 + 100000 z_1_1 + 100000 z_1_2 + 100000 z_1_3 + 100000 z_1_5 + 100000 z_1_6 + 100000 z_1_9 <= 598912.62242548959
 c3417: 120 p_1_4 + 120 p_1_5 + 120 p_1_6 + 120 p_1_9 + 100000 z_1_4 + 100000 z_1_5 + 100000 z_1_6 + 100000 z_1_9 <= 398730.09307123802
 c3418: 120 p_1_1 + 120 p_1_4 + 120 p_1_5 + 120 p_1_6 + 120 p_1_9 + 100000 z_1_1 + 100000 z_1_4 + 100000 z_1_5 + 100000 z_1_6 + 100000 z_1_9 <= 498720.12409874925
 c3419: 120 p_1_2 + 120 p_1_4 + 120 p_1_5 + 120 p_1_6 + 120 p_1_9 + 100000 z_1_2 + 100000 z_1_4 + 100000 z_1_5 + 100000 z_1_6 + 100000 z_1_9 <= 498699.63184147177
 c3420: 120 p_1_1 + 120 p_1_2 + 120 p_1_4 + 120 p_1_5 + 120 p_1_6 + 120 p_1_9 + 100000 z_1_1 + 100000 z_1_2 + 100000 z_1_4 + 100000 z_1_5 + 100000 z_1_6 + 100000 z_1_9 <= 598699.29154111759
 c3421: 120 p_1_3 + 120 p_1_4 + 120 p_1_5 + 120 p_1_6 + 120 p_1_9 + 100000 z_1_3 + 100000 z_1_4 + 100000 z_1_5 + 100000 z_1_6 + 100000 z_1_9 <= 498730.08301274286
 c3422: 120 p_1_1 + 120 p_1_3 + 120 p_1_4 + 120 p_1_5 + 120 p_1_6 + 120 p_1_9 + 100000 z_1_1 + 100000 z_1_3 + 100000 z_1_4 + 100000 z_1_5 + 100000 z_1_6 + 100000 z_1_9 <= 598720.11404025403
 c3423: 120 p_1_2 + 120 p_1_3 + 120 p_1_4 + 120 p_1_5 + 120 p_1_6 + 120 p_1_9 + 100000 z_1_2 + 100000 z_1_3 + 100000 z_1_4 + 100000 z_1_5 + 100000 z_1_6 + 100000 z_1_9 <= 598679.81554620643
 c3424: 120 p_1_1 + 120 p_1_2 + 120 p_1_3 + 120 p_1_4 + 120 p_1_5 + 120 p_1_6 + 120 p_1_9 + 100000 z_1_1 + 100000 z_1_2 + 100000 z_1_3 + 100000 z_1_4 + 100000 z_1_5 + 100000 z_1_6 + 100000 z_1_9 <= 698679.47524585226
 c3425: 120 p_1_7 + 120 p_1_9 + 100000 z_1_7 + 100000 z_1_9 <= 200139.81329575158
 c3426: 120 p_1_1 + 120 p_1_7 + 120 p_1_9 + 100000 z_1_1 + 100000 z_1_7 + 100000 z_1_9 <= 299950.83356569376
 c3427: 120 p_1_2 + 120 p_1_7 + 120 p_1_9 + 100000 z_1_2 + 100000 z_1_7 + 100000 z_1_9 <= 299472.70108137059
 c3428: 120 p_1_1 + 120 p_1_2 + 120 p_1_7 + 120 p_1_9 + 100000 z_1_1 + 100000 z_1_2 + 100000 z_1_7 + 100000 z_1_9 <= 399210.01189044409
 c3429: 120 p_1_3 + 120 p_1_7 + 120 p_1_9 + 100000 z_1_3 + 100000 z_1_7 + 100000 z_1_9 <= 300083.66276676964
 c3430: 120 p_1_1 + 120 p_1_3 + 120 p_1_7 + 120 p_1_9 + 100000 z_1_1 + 100000 z_1_3 + 100000 z_1_7 + 100000 z_1_9 <= 399894.68303671182
 c3431: 120 p_1_2 + 120 p_1_3 + 120 p_1_7 + 120 p_1_9 + 100000 z_1_2 + 100000 z_1_3 + 100000 z_1_7 + 100000 z_1_9 <= 399450.91304867214
 c3432: 120 p_1_1 + 120 p_1_2 + 120 p_1_3 + 120 p_1_7 + 120 p_1_9 + 100000 z_1_1 + 100000 z_1_2 + 100000 z_1_3 + 100000 z_1_7 + 100000 z_1_9 <= 499167.76835137524
 c3433: 120 p_1_4 + 120 p_1_7 + 120 p_1_9 + 100000 z_1_4 + 100000 z_1_7 + 100000 z_1_9 <= 299747.2695630333
 c3434: 120 p_1_1 + 120 p_1_4 + 120 p_1_7 + 120 p_1_9 + 100000 z_1_1 + 100000 z_1_4 + 100000 z_1_7 + 100000 z_1_9 <= 399724.49730046641
 c3435: 120 p_1_2 + 120 p_1_4 + 120 p_1_7 + 120 p_1_9 + 100000 z_1_2 + 100000 z_1_4 + 100000 z_1_7 + 100000 z_1_9 <= 399006.44788778364
 c3436: 120 p_1_1 + 120 p_1_2 + 120 p_1_4 + 120 p_1_7 + 120 p_1_9 + 100000 z_1_1 + 100000 z_1_2 + 100000 z_1_4 + 100000 z_1_7 + 100000 z_1_9 <= 498983.67562521674
 c3437: 120 p_1_3 + 120 p_1_4 + 120 p_1_7 + 120 p_1_9 + 100000 z_1_3 + 100000 z_1_4 + 100000 z_1_7 + 100000 z_1_9 <= 399691.11903405137
 c3438: 120 p_1_1 + 120 p_1_3 + 120 p_1_4 + 120 p_1_7 + 120 p_1_9 + 100000 z_1_1 + 100000 z_1_3 + 100000 z_1_4 + 100000 z_1_7 + 100000 z_1_9 <= 499668.34677148447
 c3439: 120 p_1_2 + 120 p_1_3 + 120 p_1_4 + 120 p_1_7 + 120 p_1_9 + 100000 z_1_2 + 100000 z_1_3 + 100000 z_1_4 + 100000 z_1_7 + 100000 z_1_9 <= 498950.2973588017
 c3440: 120 p_1_1 + 120 p_1_2 + 120 p_1_3 + 120 p_1_4 + 120 p_1_7 + 120 p_1_9 + 100000 z_1_1 + 100000 z_1_2 + 100000 z_1_3 + 100000 z_1_4 + 100000 z_1_7 + 100000 z_1_9 <= 598941.43208614795
 c3441: 120 p_1_5 + 120 p_1_7 + 120 p_1_9 + 100000 z_1_5 + 100000 z_1_7 + 100000 z_1_9 <= 299479.79386195471
 c3442: 120 p_1_1 + 120 p_1_5 + 120 p_1_7 + 120 p_1_9 + 100000 z_1_1 + 100000 z_1_5 + 100000 z_1_7 + 100000 z_1_9 <= 399247.33689203206
 c3443: 120 p_1_2 + 120 p_1_5 + 120 p_1_7 + 120 p_1_9 + 100000 z_1_2 + 100000 z_1_5 + 100000 z_1_7 + 100000 z_1_9 <= 399454.86473430763
 c3444: 120 p_1_1 + 120 p_1_2 + 120 p_1_5 + 120 p_1_7 + 120 p_1_9 + 100000 z_1_1 + 100000 z_1_2 + 100000 z_1_5 + 100000 z_1_7 + 100000 z_1_9 <= 499192.17554338113
 c3445: 120 p_1_3 + 120 p_1_5 + 120 p_1_7 + 120 p_1_9 + 100000 z_1_3 + 100000 z_1_5 + 100000 z_1_7 + 100000 z_1_9 <= 399455.1802871254
 c3446: 120 p_1_1 + 120 p_1_3 + 120 p_1_5 + 120 p_1_7 + 120 p_1_9 + 100000 z_1_1 + 100000 z_1_3 + 100000 z_1_5 + 100000 z_1_7 + 100000 z_1_9 <= 499191.18636305007
 c3447: 120 p_1_2 + 120 p_1_3 + 120 p_1_5 + 120 p_1_7 + 120 p_1_9 + 100000 z_1_2 + 100000 z_1_3 + 100000 z_1_5 + 100000 z_1_7 + 100000 z_1_9 <= 499433.07670160924
 c3448: 120 p_1_1 + 120 p_1_2 + 120 p_1_3 + 120 p_1_5 + 120 p_1_7 + 120 p_1_9 + 100000 z_1_1 + 100000 z_1_2 + 100000 z_1_3 + 100000 z_1_5 + 100000 z_1_7 + 100000 z_1_9 <= 599149.93200431229
 c3449: 120 p_1_4 + 120 p_1_5 + 120 p_1_7 + 120 p_1_9 + 100000 z_1_4 + 100000 z_1_5 + 100000 z_1_7 + 100000 z_1_9 <= 399043.77288937161
 c3450: 120 p_1_1 + 120 p_1_4 + 120 p_1_5 + 120 p_1_7 + 120 p_1_9 + 100000 z_1_1 + 100000 z_1_4 + 100000 z_1_5 + 100000 z_1_7 + 100000 z_1_9 <= 499021.00062680471
 c3451: 120 p_1_2 + 120 p_1_4 + 120 p_1_5 + 120 p_1_7 + 120 p_1_9 + 100000 z_1_2 + 100000 z_1_4 + 100000 z_1_5 + 100000 z_1_7 + 100000 z_1_9 <= 498988.61154072068
 c3452: 120 p_1_1 + 120 p_1_2 + 120 p_1_4 + 120 p_1_5 + 120 p_1_7 + 120 p_1_9 + 100000 z_1_1 + 100000 z_1_2 + 100000 z_1_4 + 100000 z_1_5 + 100000 z_1_7 + 100000 z_1_9 <= 598965.83927815384
 c3453: 120 p_1_3 + 120 p_1_4 + 120 p_1_5 + 120 p_1_7 + 120 p_1_9 + 100000 z_1_3 + 100000 z_1_4 + 100000 z_1_5 + 100000 z_1_7 + 100000 z_1_9 <= 498987.62236038968
 c3454: 120 p_1_1 + 120 p_1_3 + 120 p_1_4 + 120 p_1_5 + 120 p_1_7 + 120 p_1_9 + 100000 z_1_1 + 100000 z_1_3 + 100000 z_1_4 + 100000 z_1_5 + 100000 z_1_7 + 100000 z_1_9 <= 598964.85009782272
 c3455: 120 p_1_2 + 120 p_1_3 + 120 p_1_4 + 120 p_1_5 + 120 p_1_7 + 120 p_1_9 + 100000 z_1_2 + 100000 z_1_3 + 100000 z_1_4 + 100000 z_1_5 + 100000 z_1_7 + 100000 z_1_9 <= 598932.46101173875
 c3456: 120 p_1_1 + 120 p_1_2 + 120 p_1_3 + 120 p_1_4 + 120 p_1_5 + 120 p_1_7 + 120 p_1_9 + 100000 z_1_1 + 100000 z_1_2 + 100000 z_1_3 + 100000 z_1_4 + 100000 z_1_5 + 100000 z_1_7 + 100000 z_1_9 <= 698923.59573908499
 c3457: 120 p_1_6 + 120 p_1_7 + 120 p_1_9 + 100000 z_1_6 + 100000 z_1_7 + 100000 z_1_9 <= 299820.29896152503
 c3458: 120 p_1_1 + 120 p_1_6 + 120 p_1_7 + 120 p_1_9 + 100000 z_1_1 + 100000 z_1_6 + 100000 z_1_7 + 100000 z_1_9 <= 399631.31923146721
 c3459: 120 p_1_2 + 120 p_1_6 + 120 p_1_7 + 120 p_1_9 + 100000 z_1_2 + 100000 z_1_6 + 100000 z_1_7 + 100000 z_1_9 <= 399207.35548019782
 c3460: 120 p_1_1 + 120 p_1_2 + 120 p_1_6 + 120 p_1_7 + 120 p_1_9 + 100000 z_1_1 + 100000 z_1_2 + 100000 z_1_6 + 100000 z_1_7 + 100000 z_1_9 <= 498924.21078290086
 c3461: 120 p_1_3 + 120 p_1_6 + 120 p_1_7 + 120 p_1_9 + 100000 z_1_3 + 100000 z_1_6 + 100000 z_1_7 + 100000 z_1_9 <= 399820.28890302987
 c3462: 120 p_1_1 + 120 p_1_3 + 120 p_1_6 + 120 p_1_7 + 120 p_1_9 + 100000 z_1_1 + 100000 z_1_3 + 100000 z_1_6 + 100000 z_1_7 + 100000 z_1_9 <= 499631.30917297205
 c3463: 120 p_1_2 + 120 p_1_3 + 120 p_1_6 + 120 p_1_7 + 120 p_1_9 + 100000 z_1_2 + 100000 z_1_3 + 100000 z_1_6 + 100000 z_1_7 + 100000 z_1_9 <= 499187.53918493236
 c3464: 120 p_1_1 + 120 p_1_2 + 120 p_1_3 + 120 p_1_6 + 120 p_1_7 + 120 p_1_9 + 100000 z_1_1 + 100000 z_1_2 + 100000 z_1_3 + 100000 z_1_6 + 100000 z_1_7 + 100000 z_1_9 <= 598904.39448763547
 c3465: 120 p_1_4 + 120 p_1_6 + 120 p_1_7 + 120 p_1_9 + 100000 z_1_4 + 100000 z_1_6 + 100000 z_1_7 + 100000 z_1_9 <= 399427.75522880675
 c3466: 120 p_1_1 + 120 p_1_4 + 120 p_1_6 + 120 p_1_7 + 120 p_1_9 + 100000 z_1_1 + 100000 z_1_4 + 100000 z_1_6 + 100000 z_1_7 + 100000 z_1_9 <= 499404.98296623986
 c3467: 120 p_1_2 + 120 p_1_4 + 120 p_1_6 + 120 p_1_7 + 120 p_1_9 + 100000 z_1_2 + 100000 z_1_4 + 100000 z_1_6 + 100000 z_1_7 + 100000 z_1_9 <= 498698.21481802769
 c3468: 120 p_1_1 + 120 p_1_2 + 120 p_1_4 + 120 p_1_6 + 120 p_1_7 + 120 p_1_9 + 100000 z_1_1 + 100000 z_1_2 + 100000 z_1_4 + 100000 z_1_6 + 100000 z_1_7 + 100000 z_1_9 <= 598697.87451767351
 c3469: 120 p_1_3 + 120 p_1_4 + 120 p_1_6 + 120 p_1_7 + 120 p_1_9 + 100000 z_1_3 + 100000 z_1_4 + 100000 z_1_6 + 100000 z_1_7 + 100000 z_1_9 <= 499427.74517031159
 c3470: 120 p_1_1 + 120 p_1_3 + 120 p_1_4 + 120 p_1_6 + 120 p_1_7 + 120 p_1_9 + 100000 z_1_1 + 100000 z_1_3 + 100000 z_1_4 + 100000 z_1_6 + 100000 z_1_7 + 100000 z_1_9 <= 599404.9729077447
 c3471: 120 p_1_2 + 120 p_1_3 + 120 p_1_4 + 120 p_1_6 + 120 p_1_7 + 120 p_1_9 + 100000 z_1_2 + 100000 z_1_3 + 100000 z_1_4 + 100000 z_1_6 + 100000 z_1_7 + 100000 z_1_9 <= 598686.92349506193
 c3472: 120 p_1_1 + 120 p_1_2 + 120 p_1_3 + 120 p_1_4 + 120 p_1_6 + 120 p_1_7 + 120 p_1_9 + 100000 z_1_1 + 100000 z_1_2 + 100000 z_1_3 + 100000 z_1_4 + 100000 z_1_6 + 100000 z_1_7 + 100000 z_1_9 <= 698678.05822240817
 c3473: 120 p_1_5 + 120 p_1_6 + 120 p_1_7 + 120 p_1_9 + 100000 z_1_5 + 100000 z_1_6 + 100000 z_1_7 + 100000 z_1_9 <= 399208.30783222633
 c3474: 120 p_1_1 + 120 p_1_5 + 120 p_1_6 + 120 p_1_7 + 120 p_1_9 + 100000 z_1_1 + 100000 z_1_5 + 100000 z_1_6 + 100000 z_1_7 + 100000 z_1_9 <= 498927.82255780551
 c3475: 120 p_1_2 + 120 p_1_5 + 120 p_1_6 + 120 p_1_7 + 120 p_1_9 + 100000 z_1_2 + 100000 z_1_5 + 100000 z_1_6 + 100000 z_1_7 + 100000 z_1_9 <= 499189.51913313486
 c3476: 120 p_1_1 + 120 p_1_2 + 120 p_1_5 + 120 p_1_6 + 120 p_1_7 + 120 p_1_9 + 100000 z_1_1 + 100000 z_1_2 + 100000 z_1_5 + 100000 z_1_6 + 100000 z_1_7 + 100000 z_1_9 <= 598906.37443583796
 c3477: 120 p_1_3 + 120 p_1_5 + 120 p_1_6 + 120 p_1_7 + 120 p_1_9 + 100000 z_1_3 + 100000 z_1_5 + 100000 z_1_6 + 100000 z_1_7 + 100000 z_1_9 <= 499191.80642338563
 c3478: 120 p_1_1 + 120 p_1_3 + 120 p_1_5 + 120 p_1_6 + 120 p_1_7 + 120 p_1_9 + 100000 z_1_1 + 100000 z_1_3 + 100000 z_1_5 + 100000 z_1_6 + 100000 z_1_7 + 100000 z_1_9 <= 598927.81249931036
 c3479: 120 p_1_2 + 120 p_1_3 + 120 p_1_5 + 120 p_1_6 + 120 p_1_7 + 120 p_1_9 + 100000 z_1_2 + 100000 z_1_3 + 100000 z_1_5 + 100000 z_1_6 + 100000 z_1_7 + 100000 z_1_9 <= 599169.70283786941
 c3480: 120 p_1_1 + 120 p_1_2 + 120 p_1_3 + 120 p_1_5 + 120 p_1_6 + 120 p_1_7 + 120 p_1_9 + 100000 z_1_1 + 100000 z_1_2 + 100000 z_1_3 + 100000 z_1_5 + 100000 z_1_6 + 100000 z_1_7 + 100000 z_1_9 <= 698886.55814057251
 c3481: 120 p_1_4 + 120 p_1_5 + 120 p_1_6 + 120 p_1_7 + 120 p_1_9 + 100000 z_1_4 + 100000 z_1_5 + 100000 z_1_6 + 100000 z_1_7 + 100000 z_1_9 <= 498724.25855514506
 c3482: 120 p_1_1 + 120 p_1_4 + 120 p_1_5 + 120 p_1_6 + 120 p_1_7 + 120 p_1_9 + 100000 z_1_1 + 100000 z_1_4 + 100000 z_1_5 + 100000 z_1_6 + 100000 z_1_7 + 100000 z_1_9 <= 598701.48629257816
 c3483: 120 p_1_2 + 120 p_1_4 + 120 p_1_5 + 120 p_1_6 + 120 p_1_7 + 120 p_1_9 + 100000 z_1_2 + 100000 z_1_4 + 100000 z_1_5 + 100000 z_1_6 + 100000 z_1_7 + 100000 z_1_9 <= 598680.37847096473
 c3484: 120 p_1_1 + 120 p_1_2 + 120 p_1_4 + 120 p_1_5 + 120 p_1_6 + 120 p_1_7 + 120 p_1_9 + 100000 z_1_1 + 100000 z_1_2 + 100000 z_1_4 + 100000 z_1_5 + 100000 z_1_6 + 100000 z_1_7 + 100000 z_1_9 <= 698680.03817061055
 c3485: 120 p_1_3 + 120 p_1_4 + 120 p_1_5 + 120 p_1_6 + 120 p_1_7 + 120 p_1_9 + 100000 z_1_3 + 100000 z_1_4 + 100000 z_1_5 + 100000 z_1_6 + 100000 z_1_7 + 100000 z_1_9 <= 598724.2484966499
 c3486: 120 p_1_1 + 120 p_1_3 + 120 p_1_4 + 120 p_1_5 + 120 p_1_6 + 120 p_1_7 + 120 p_1_9 + 100000 z_1_1 + 100000 z_1_3 + 100000 z_1_4 + 100000 z_1_5 + 100000 z_1_6 + 100000 z_1_7 + 100000 z_1_9 <= 698701.47623408295
 c3487: 120 p_1_2 + 120 p_1_3 + 120 p_1_4 + 120 p_1_5 + 120 p_1_6 + 120 p_1_7 + 120 p_1_9 + 100000 z_1_2 + 100000 z_1_3 + 100000 z_1_4 + 100000 z_1_5 + 100000 z_1_6 + 100000 z_1_7 + 100000 z_1_9 <= 698669.08714799897
 c3488: 120 p_1_1 + 120 p_1_2 + 120 p_1_3 + 120 p_1_4 + 120 p_1_5 + 120 p_1_6 + 120 p_1_7 + 120 p_1_9 + 100000 z_1_1 + 100000 z_1_2 + 100000 z_1_3 + 100000 z_1_4 + 100000 z_1_5 + 100000 z_1_6 + 100000 z_1_7 + 100000 z_1_9 <= 798660.22187534522
 c3489: 120 p_1_8 + 120 p_1_9 + 100000 z_1_8 + 100000 z_1_9 <= 200019.45860494344
 c3490: 120 p_1_1 + 120 p_1_8 + 120 p_1_9 + 100000 z_1_1 + 100000 z_1_8 + 100000 z_1_9 <= 299084.07481305784
 c3491: 120 p_1_2 + 120 p_1_8 + 120 p_1_9 + 100000 z_1_2 + 100000 z_1_8 + 100000 z_1_9 <= 300018.52513713791
 c3492: 120 p_1_1 + 120 p_1_2 + 120 p_1_8 + 120 p_1_9 + 100000 z_1_1 + 100000 z_1_2 + 100000 z_1_8 + 100000 z_1_9 <= 399054.83726998855
 c3493: 120 p_1_3 + 120 p_1_8 + 120 p_1_9 + 100000 z_1_3 + 100000 z_1_8 + 100000 z_1_9 <= 299996.96331917529
 c3494: 120 p_1_1 + 120 p_1_3 + 120 p_1_8 + 120 p_1_9 + 100000 z_1_1 + 100000 z_1_3 + 100000 z_1_8 + 100000 z_1_9 <= 399027.92428407591
 c3495: 120 p_1_2 + 120 p_1_3 + 120 p_1_8 + 120 p_1_9 + 100000 z_1_2 + 100000 z_1_3 + 100000 z_1_8 + 100000 z_1_9 <= 399996.73710443953
 c3496: 120 p_1_1 + 120 p_1_2 + 120 p_1_3 + 120 p_1_8 + 120 p_1_9 + 100000 z_1_1 + 100000 z_1_2 + 100000 z_1_3 + 100000 z_1_8 + 100000 z_1_9 <= 499012.5937309197
 c3497: 120 p_1_4 + 120 p_1_8 + 120 p_1_9 + 100000 z_1_4 + 100000 z_1_8 + 100000 z_1_9 <= 298865.71012508456
 c3498: 120 p_1_1 + 120 p_1_4 + 120 p_1_8 + 120 p_1_9 + 100000 z_1_1 + 100000 z_1_4 + 100000 z_1_8 + 100000 z_1_9 <= 398850.92763342056
 c3499: 120 p_1_2 + 120 p_1_4 + 120 p_1_8 + 120 p_1_9 + 100000 z_1_2 + 100000 z_1_4 + 100000 z_1_8 + 100000 z_1_9 <= 398836.47258201521
 c3500: 120 p_1_1 + 120 p_1_2 + 120 p_1_4 + 120 p_1_8 + 120 p_1_9 + 100000 z_1_1 + 100000 z_1_2 + 100000 z_1_4 + 100000 z_1_8 + 100000 z_1_9 <= 498821.69009035121
 c3501: 120 p_1_3 + 120 p_1_4 + 120 p_1_8 + 120 p_1_9 + 100000 z_1_3 + 100000 z_1_4 + 100000 z_1_8 + 100000 z_1_9 <= 398809.55959610263
 c3502: 120 p_1_1 + 120 p_1_3 + 120 p_1_4 + 120 p_1_8 + 120 p_1_9 + 100000 z_1_1 + 100000 z_1_3 + 100000 z_1_4 + 100000 z_1_8 + 100000 z_1_9 <= 498794.77710443863
 c3503: 120 p_1_2 + 120 p_1_3 + 120 p_1_4 + 120 p_1_8 + 120 p_1_9 + 100000 z_1_2 + 100000 z_1_3 + 100000 z_1_4 + 100000 z_1_8 + 100000 z_1_9 <= 498780.32205303328
 c3504: 120 p_1_1 + 120 p_1_2 + 120 p_1_3 + 120 p_1_4 + 120 p_1_8 + 120 p_1_9 + 100000 z_1_1 + 100000 z_1_2 + 100000 z_1_3 + 100000 z_1_4 + 100000 z_1_8 + 100000 z_1_9 <= 598771.45678037952
 c3505: 120 p_1_5 + 120 p_1_8 + 120 p_1_9 + 100000 z_1_5 + 100000 z_1_8 + 100000 z_1_9 <= 300016.66296113119
 c3506: 120 p_1_1 + 120 p_1_5 + 120 p_1_8 + 120 p_1_9 + 100000 z_1_1 + 100000 z_1_5 + 100000 z_1_8 + 100000 z_1_9 <= 399081.27916924562
 c3507: 120 p_1_2 + 120 p_1_5 + 120 p_1_8 + 120 p_1_9 + 100000 z_1_2 + 100000 z_1_5 + 100000 z_1_8 + 100000 z_1_9 <= 400015.72949332569
 c3508: 120 p_1_1 + 120 p_1_2 + 120 p_1_5 + 120 p_1_8 + 120 p_1_9 + 100000 z_1_1 + 100000 z_1_2 + 100000 z_1_5 + 100000 z_1_8 + 100000 z_1_9 <= 499026.11782059475
 c3509: 120 p_1_3 + 120 p_1_5 + 120 p_1_8 + 120 p_1_9 + 100000 z_1_3 + 100000 z_1_5 + 100000 z_1_8 + 100000 z_1_9 <= 399994.16767536302
 c3510: 120 p_1_1 + 120 p_1_3 + 120 p_1_5 + 120 p_1_8 + 120 p_1_9 + 100000 z_1_1 + 100000 z_1_3 + 100000 z_1_5 + 100000 z_1_8 + 100000 z_1_9 <= 499025.12864026369
 c3511: 120 p_1_2 + 120 p_1_3 + 120 p_1_5 + 120 p_1_8 + 120 p_1_9 + 100000 z_1_2 + 100000 z_1_3 + 100000 z_1_5 + 100000 z_1_8 + 100000 z_1_9 <= 499993.94146062725
 c3512: 120 p_1_1 + 120 p_1_2 + 120 p_1_3 + 120 p_1_5 + 120 p_1_8 + 120 p_1_9 + 100000 z_1_1 + 100000 z_1_2 + 100000 z_1_3 + 100000 z_1_5 + 100000 z_1_8 + 100000 z_1_9 <= 598983.87428152584
 c3513: 120 p_1_4 + 120 p_1_5 + 120 p_1_8 + 120 p_1_9 + 100000 z_1_4 + 100000 z_1_5 + 100000 z_1_8 + 100000 z_1_9 <= 398862.91448127234
 c3514: 120 p_1_1 + 120 p_1_4 + 120 p_1_5 + 120 p_1_8 + 120 p_1_9 + 100000 z_1_1 + 100000 z_1_4 + 100000 z_1_5 + 100000 z_1_8 + 100000 z_1_9 <= 498848.13198960829
 c3515: 120 p_1_2 + 120 p_1_4 + 120 p_1_5 + 120 p_1_8 + 120 p_1_9 + 100000 z_1_2 + 100000 z_1_4 + 100000 z_1_5 + 100000 z_1_8 + 100000 z_1_9 <= 498807.75313262147
 c3516: 120 p_1_1 + 120 p_1_2 + 120 p_1_4 + 120 p_1_5 + 120 p_1_8 + 120 p_1_9 + 100000 z_1_1 + 100000 z_1_2 + 100000 z_1_4 + 100000 z_1_5 + 100000 z_1_8 + 100000 z_1_9 <= 598792.97064095747
 c3517: 120 p_1_3 + 120 p_1_4 + 120 p_1_5 + 120 p_1_8 + 120 p_1_9 + 100000 z_1_3 + 100000 z_1_4 + 100000 z_1_5 + 100000 z_1_8 + 100000 z_1_9 <= 498806.76395229041
 c3518: 120 p_1_1 + 120 p_1_3 + 120 p_1_4 + 120 p_1_5 + 120 p_1_8 + 120 p_1_9 + 100000 z_1_1 + 100000 z_1_3 + 100000 z_1_4 + 100000 z_1_5 + 100000 z_1_8 + 100000 z_1_9 <= 598791.98146062635
 c3519: 120 p_1_2 + 120 p_1_3 + 120 p_1_4 + 120 p_1_5 + 120 p_1_8 + 120 p_1_9 + 100000 z_1_2 + 100000 z_1_3 + 100000 z_1_4 + 100000 z_1_5 + 100000 z_1_8 + 100000 z_1_9 <= 598751.60260363948
 c3520: 120 p_1_1 + 120 p_1_2 + 120 p_1_3 + 120 p_1_4 + 120 p_1_5 + 120 p_1_8 + 120 p_1_9 + 100000 z_1_1 + 100000 z_1_2 + 100000 z_1_3 + 100000 z_1_4 + 100000 z_1_5 + 100000 z_1_8 + 100000 z_1_9 <= 698742.73733098572
 c3521: 120 p_1_6 + 120 p_1_8 + 120 p_1_9 + 100000 z_1_6 + 100000 z_1_8 + 100000 z_1_9 <= 299753.20874559268
 c3522: 120 p_1_1 + 120 p_1_6 + 120 p_1_8 + 120 p_1_9 + 100000 z_1_1 + 100000 z_1_6 + 100000 z_1_8 + 100000 z_1_9 <= 398769.0653720728
 c3523: 120 p_1_2 + 120 p_1_6 + 120 p_1_8 + 120 p_1_9 + 100000 z_1_2 + 100000 z_1_6 + 100000 z_1_8 + 100000 z_1_9 <= 399753.17953596514
 c3524: 120 p_1_1 + 120 p_1_2 + 120 p_1_6 + 120 p_1_8 + 120 p_1_9 + 100000 z_1_1 + 100000 z_1_2 + 100000 z_1_6 + 100000 z_1_8 + 100000 z_1_9 <= 498769.03616244532
 c3525: 120 p_1_3 + 120 p_1_6 + 120 p_1_8 + 120 p_1_9 + 100000 z_1_3 + 100000 z_1_6 + 100000 z_1_8 + 100000 z_1_9 <= 399733.58945543552
 c3526: 120 p_1_1 + 120 p_1_3 + 120 p_1_6 + 120 p_1_8 + 120 p_1_9 + 100000 z_1_1 + 100000 z_1_3 + 100000 z_1_6 + 100000 z_1_8 + 100000 z_1_9 <= 498764.55042033613
 c3527: 120 p_1_2 + 120 p_1_3 + 120 p_1_6 + 120 p_1_8 + 120 p_1_9 + 100000 z_1_2 + 100000 z_1_3 + 100000 z_1_6 + 100000 z_1_8 + 100000 z_1_9 <= 499733.36324069975
 c3528: 120 p_1_1 + 120 p_1_2 + 120 p_1_3 + 120 p_1_6 + 120 p_1_8 + 120 p_1_9 + 100000 z_1_1 + 100000 z_1_2 + 100000 z_1_3 + 100000 z_1_6 + 100000 z_1_8 + 100000 z_1_9 <= 598749.21986717987
 c3529: 120 p_1_4 + 120 p_1_6 + 120 p_1_8 + 120 p_1_9 + 100000 z_1_4 + 100000 z_1_6 + 100000 z_1_8 + 100000 z_1_9 <= 398546.19579085801
 c3530: 120 p_1_1 + 120 p_1_4 + 120 p_1_6 + 120 p_1_8 + 120 p_1_9 + 100000 z_1_1 + 100000 z_1_4 + 100000 z_1_6 + 100000 z_1_8 + 100000 z_1_9 <= 498531.41329919401
 c3531: 120 p_1_2 + 120 p_1_4 + 120 p_1_6 + 120 p_1_8 + 120 p_1_9 + 100000 z_1_2 + 100000 z_1_4 + 100000 z_1_6 + 100000 z_1_8 + 100000 z_1_9 <= 498528.23951225926
 c3532: 120 p_1_1 + 120 p_1_2 + 120 p_1_4 + 120 p_1_6 + 120 p_1_8 + 120 p_1_9 + 100000 z_1_1 + 100000 z_1_2 + 100000 z_1_4 + 100000 z_1_6 + 100000 z_1_8 + 100000 z_1_9 <= 598527.89921190508
 c3533: 120 p_1_3 + 120 p_1_4 + 120 p_1_6 + 120 p_1_8 + 120 p_1_9 + 100000 z_1_3 + 100000 z_1_4 + 100000 z_1_6 + 100000 z_1_8 + 100000 z_1_9 <= 498546.18573236285
 c3534: 120 p_1_1 + 120 p_1_3 + 120 p_1_4 + 120 p_1_6 + 120 p_1_8 + 120 p_1_9 + 100000 z_1_1 + 100000 z_1_3 + 100000 z_1_4 + 100000 z_1_6 + 100000 z_1_8 + 100000 z_1_9 <= 598531.40324069886
 c3535: 120 p_1_2 + 120 p_1_3 + 120 p_1_4 + 120 p_1_6 + 120 p_1_8 + 120 p_1_9 + 100000 z_1_2 + 100000 z_1_3 + 100000 z_1_4 + 100000 z_1_6 + 100000 z_1_8 + 100000 z_1_9 <= 598516.9481892935
 c3536: 120 p_1_1 + 120 p_1_2 + 120 p_1_3 + 120 p_1_4 + 120 p_1_6 + 120 p_1_8 + 120 p_1_9 + 100000 z_1_1 + 100000 z_1_2 + 100000 z_1_3 + 100000 z_1_4 + 100000 z_1_6 + 100000 z_1_8 + 100000 z_1_9 <= 698508.08291663975
 c3537: 120 p_1_5 + 120 p_1_6 + 120 p_1_8 + 120 p_1_9 + 100000 z_1_5 + 100000 z_1_6 + 100000 z_1_8 + 100000 z_1_9 <= 399750.4131017804
 c3538: 120 p_1_1 + 120 p_1_5 + 120 p_1_6 + 120 p_1_8 + 120 p_1_9 + 100000 z_1_1 + 100000 z_1_5 + 100000 z_1_6 + 100000 z_1_8 + 100000 z_1_9 <= 498761.76483501907
 c3539: 120 p_1_2 + 120 p_1_5 + 120 p_1_6 + 120 p_1_8 + 120 p_1_9 + 100000 z_1_2 + 100000 z_1_5 + 100000 z_1_6 + 100000 z_1_8 + 100000 z_1_9 <= 499750.38389215292
 c3540: 120 p_1_1 + 120 p_1_2 + 120 p_1_5 + 120 p_1_6 + 120 p_1_8 + 120 p_1_9 + 100000 z_1_1 + 100000 z_1_2 + 100000 z_1_5 + 100000 z_1_6 + 100000 z_1_8 + 100000 z_1_9 <= 598740.31671305152
 c3541: 120 p_1_3 + 120 p_1_5 + 120 p_1_6 + 120 p_1_8 + 120 p_1_9 + 100000 z_1_3 + 100000 z_1_5 + 100000 z_1_6 + 100000 z_1_8 + 100000 z_1_9 <= 499730.79381162324
 c3542: 120 p_1_1 + 120 p_1_3 + 120 p_1_5 + 120 p_1_6 + 120 p_1_8 + 120 p_1_9 + 100000 z_1_1 + 100000 z_1_3 + 100000 z_1_5 + 100000 z_1_6 + 100000 z_1_8 + 100000 z_1_9 <= 598761.75477652391
 c3543: 120 p_1_2 + 120 p_1_3 + 120 p_1_5 + 120 p_1_6 + 120 p_1_8 + 120 p_1_9 + 100000 z_1_2 + 100000 z_1_3 + 100000 z_1_5 + 100000 z_1_6 + 100000 z_1_8 + 100000 z_1_9 <= 599730.56759688747
 c3544: 120 p_1_1 + 120 p_1_2 + 120 p_1_3 + 120 p_1_5 + 120 p_1_6 + 120 p_1_8 + 120 p_1_9 + 100000 z_1_1 + 100000 z_1_2 + 100000 z_1_3 + 100000 z_1_5 + 100000 z_1_6 + 100000 z_1_8 + 100000 z_1_9 <= 698720.50041778607
 c3545: 120 p_1_4 + 120 p_1_5 + 120 p_1_6 + 120 p_1_8 + 120 p_1_9 + 100000 z_1_4 + 100000 z_1_5 + 100000 z_1_6 + 100000 z_1_8 + 100000 z_1_9 <= 498543.40014704579
 c3546: 120 p_1_1 + 120 p_1_4 + 120 p_1_5 + 120 p_1_6 + 120 p_1_8 + 120 p_1_9 + 100000 z_1_1 + 100000 z_1_4 + 100000 z_1_5 + 100000 z_1_6 + 100000 z_1_8 + 100000 z_1_9 <= 598528.61765538179
 c3547: 120 p_1_2 + 120 p_1_4 + 120 p_1_5 + 120 p_1_6 + 120 p_1_8 + 120 p_1_9 + 100000 z_1_2 + 100000 z_1_4 + 100000 z_1_5 + 100000 z_1_6 + 100000 z_1_8 + 100000 z_1_9 <= 598499.52006286546
 c3548: 120 p_1_1 + 120 p_1_2 + 120 p_1_4 + 120 p_1_5 + 120 p_1_6 + 120 p_1_8 + 120 p_1_9 + 100000 z_1_1 + 100000 z_1_2 + 100000 z_1_4 + 100000 z_1_5 + 100000 z_1_6 + 100000 z_1_8 + 100000 z_1_9 <= 698499.17976251128
 c3549: 120 p_1_3 + 120 p_1_4 + 120 p_1_5 + 120 p_1_6 + 120 p_1_8 + 120 p_1_9 + 100000 z_1_3 + 100000 z_1_4 + 100000 z_1_5 + 100000 z_1_6 + 100000 z_1_8 + 100000 z_1_9 <= 598543.39008855063
 c3550: 120 p_1_1 + 120 p_1_3 + 120 p_1_4 + 120 p_1_5 + 120 p_1_6 + 120 p_1_8 + 120 p_1_9 + 100000 z_1_1 + 100000 z_1_3 + 100000 z_1_4 + 100000 z_1_5 + 100000 z_1_6 + 100000 z_1_8 + 100000 z_1_9 <= 698528.60759688658
 c3551: 120 p_1_2 + 120 p_1_3 + 120 p_1_4 + 120 p_1_5 + 120 p_1_6 + 120 p_1_8 + 120 p_1_9 + 100000 z_1_2 + 100000 z_1_3 + 100000 z_1_4 + 100000 z_1_5 + 100000 z_1_6 + 100000 z_1_8 + 100000 z_1_9 <= 698488.2287398997
 c3552: 120 p_1_1 + 120 p_1_2 + 120 p_1_3 + 120 p_1_4 + 120 p_1_5 + 120 p_1_6 + 120 p_1_8 + 120 p_1_9 + 100000 z_1_1 + 100000 z_1_2 + 100000 z_1_3 + 100000 z_1_4 + 100000 z_1_5 + 100000 z_1_6 + 100000 z_1_8 + 100000 z_1_9 <= 798479.36346724594
 c3553: 120 p_1_7 + 120 p_1_8 + 120 p_1_9 + 100000 z_1_7 + 100000 z_1_8 + 100000 z_1_9 <= 299302.26259287581
 c3554: 120 p_1_1 + 120 p_1_7 + 120 p_1_8 + 120 p_1_9 + 100000 z_1_1 + 100000 z_1_7 + 100000 z_1_8 + 100000 z_1_9 <= 399067.8774772131
 c3555: 120 p_1_2 + 120 p_1_7 + 120 p_1_8 + 120 p_1_9 + 100000 z_1_2 + 100000 z_1_7 + 100000 z_1_8 + 100000 z_1_9 <= 399301.3291250703
 c3556: 120 p_1_1 + 120 p_1_2 + 120 p_1_7 + 120 p_1_8 + 120 p_1_9 + 100000 z_1_1 + 100000 z_1_2 + 100000 z_1_7 + 100000 z_1_8 + 100000 z_1_9 <= 499038.63993414381
 c3557: 120 p_1_3 + 120 p_1_7 + 120 p_1_8 + 120 p_1_9 + 100000 z_1_3 + 100000 z_1_7 + 100000 z_1_8 + 100000 z_1_9 <= 399279.76730710763
 c3558: 120 p_1_1 + 120 p_1_3 + 120 p_1_7 + 120 p_1_8 + 120 p_1_9 + 100000 z_1_1 + 100000 z_1_3 + 100000 z_1_7 + 100000 z_1_8 + 100000 z_1_9 <= 499011.72694823117
 c3559: 120 p_1_2 + 120 p_1_3 + 120 p_1_7 + 120 p_1_8 + 120 p_1_9 + 100000 z_1_2 + 100000 z_1_3 + 100000 z_1_7 + 100000 z_1_8 + 100000 z_1_9 <= 499279.54109237186
 c3560: 120 p_1_1 + 120 p_1_2 + 120 p_1_3 + 120 p_1_7 + 120 p_1_8 + 120 p_1_9 + 100000 z_1_1 + 100000 z_1_2 + 100000 z_1_3 + 100000 z_1_7 + 100000 z_1_8 + 100000 z_1_9 <= 598996.3963950749
 c3561: 120 p_1_4 + 120 p_1_7 + 120 p_1_8 + 120 p_1_9 + 100000 z_1_4 + 100000 z_1_7 + 100000 z_1_8 + 100000 z_1_9 <= 398864.31347455265
 c3562: 120 p_1_1 + 120 p_1_4 + 120 p_1_7 + 120 p_1_8 + 120 p_1_9 + 100000 z_1_1 + 100000 z_1_4 + 100000 z_1_7 + 100000 z_1_8 + 100000 z_1_9 <= 498841.54121198575
 c3563: 120 p_1_2 + 120 p_1_4 + 120 p_1_7 + 120 p_1_8 + 120 p_1_9 + 100000 z_1_2 + 100000 z_1_4 + 100000 z_1_7 + 100000 z_1_8 + 100000 z_1_9 <= 498835.07593148336
 c3564: 120 p_1_1 + 120 p_1_2 + 120 p_1_4 + 120 p_1_7 + 120 p_1_8 + 120 p_1_9 + 100000 z_1_1 + 100000 z_1_2 + 100000 z_1_4 + 100000 z_1_7 + 100000 z_1_8 + 100000 z_1_9 <= 598812.30366891646
 c3565: 120 p_1_3 + 120 p_1_4 + 120 p_1_7 + 120 p_1_8 + 120 p_1_9 + 100000 z_1_3 + 100000 z_1_4 + 100000 z_1_7 + 100000 z_1_8 + 100000 z_1_9 <= 498808.16294557072
 c3566: 120 p_1_1 + 120 p_1_3 + 120 p_1_4 + 120 p_1_7 + 120 p_1_8 + 120 p_1_9 + 100000 z_1_1 + 100000 z_1_3 + 100000 z_1_4 + 100000 z_1_7 + 100000 z_1_8 + 100000 z_1_9 <= 598785.39068300382
 c3567: 120 p_1_2 + 120 p_1_3 + 120 p_1_4 + 120 p_1_7 + 120 p_1_8 + 120 p_1_9 + 100000 z_1_2 + 100000 z_1_3 + 100000 z_1_4 + 100000 z_1_7 + 100000 z_1_8 + 100000 z_1_9 <= 598778.92540250137
 c3568: 120 p_1_1 + 120 p_1_2 + 120 p_1_3 + 120 p_1_4 + 120 p_1_7 + 120 p_1_8 + 120 p_1_9 + 100000 z_1_1 + 100000 z_1_2 + 100000 z_1_3 + 100000 z_1_4 + 100000 z_1_7 + 100000 z_1_8 + 100000 z_1_9 <= 698770.06012984761
 c3569: 120 p_1_5 + 120 p_1_7 + 120 p_1_8 + 120 p_1_9 + 100000 z_1_5 + 100000 z_1_7 + 100000 z_1_8 + 100000 z_1_9 <= 399297.53880332358
 c3570: 120 p_1_1 + 120 p_1_5 + 120 p_1_7 + 120 p_1_8 + 120 p_1_9 + 100000 z_1_1 + 100000 z_1_5 + 100000 z_1_7 + 100000 z_1_8 + 100000 z_1_9 <= 499065.08183340088
 c3571: 120 p_1_2 + 120 p_1_5 + 120 p_1_7 + 120 p_1_8 + 120 p_1_9 + 100000 z_1_2 + 100000 z_1_5 + 100000 z_1_7 + 100000 z_1_8 + 100000 z_1_9 <= 499272.6096756765
 c3572: 120 p_1_1 + 120 p_1_2 + 120 p_1_5 + 120 p_1_7 + 120 p_1_8 + 120 p_1_9 + 100000 z_1_1 + 100000 z_1_2 + 100000 z_1_5 + 100000 z_1_7 + 100000 z_1_8 + 100000 z_1_9 <= 599009.92048475007
 c3573: 120 p_1_3 + 120 p_1_5 + 120 p_1_7 + 120 p_1_8 + 120 p_1_9 + 100000 z_1_3 + 100000 z_1_5 + 100000 z_1_7 + 100000 z_1_8 + 100000 z_1_9 <= 499272.92522849422
 c3574: 120 p_1_1 + 120 p_1_3 + 120 p_1_5 + 120 p_1_7 + 120 p_1_8 + 120 p_1_9 + 100000 z_1_1 + 100000 z_1_3 + 100000 z_1_5 + 100000 z_1_7 + 100000 z_1_8 + 100000 z_1_9 <= 599008.93130441895
 c3575: 120 p_1_2 + 120 p_1_3 + 120 p_1_5 + 120 p_1_7 + 120 p_1_8 + 120 p_1_9 + 100000 z_1_2 + 100000 z_1_3 + 100000 z_1_5 + 100000 z_1_7 + 100000 z_1_8 + 100000 z_1_9 <= 599250.82164297812
 c3576: 120 p_1_1 + 120 p_1_2 + 120 p_1_3 + 120 p_1_5 + 120 p_1_7 + 120 p_1_8 + 120 p_1_9 + 100000 z_1_1 + 100000 z_1_2 + 100000 z_1_3 + 100000 z_1_5 + 100000 z_1_7 + 100000 z_1_8 + 100000 z_1_9 <= 698967.6769456811
 c3577: 120 p_1_4 + 120 p_1_5 + 120 p_1_7 + 120 p_1_8 + 120 p_1_9 + 100000 z_1_4 + 100000 z_1_5 + 100000 z_1_7 + 100000 z_1_8 + 100000 z_1_9 <= 498861.51783074043
 c3578: 120 p_1_1 + 120 p_1_4 + 120 p_1_5 + 120 p_1_7 + 120 p_1_8 + 120 p_1_9 + 100000 z_1_1 + 100000 z_1_4 + 100000 z_1_5 + 100000 z_1_7 + 100000 z_1_8 + 100000 z_1_9 <= 598838.74556817359
 c3579: 120 p_1_2 + 120 p_1_4 + 120 p_1_5 + 120 p_1_7 + 120 p_1_8 + 120 p_1_9 + 100000 z_1_2 + 100000 z_1_4 + 100000 z_1_5 + 100000 z_1_7 + 100000 z_1_8 + 100000 z_1_9 <= 598806.35648208961
 c3580: 120 p_1_1 + 120 p_1_2 + 120 p_1_4 + 120 p_1_5 + 120 p_1_7 + 120 p_1_8 + 120 p_1_9 + 100000 z_1_1 + 100000 z_1_2 + 100000 z_1_4 + 100000 z_1_5 + 100000 z_1_7 + 100000 z_1_8 + 100000 z_1_9 <= 698783.58421952266
 c3581: 120 p_1_3 + 120 p_1_4 + 120 p_1_5 + 120 p_1_7 + 120 p_1_8 + 120 p_1_9 + 100000 z_1_3 + 100000 z_1_4 + 100000 z_1_5 + 100000 z_1_7 + 100000 z_1_8 + 100000 z_1_9 <= 598805.3673017585
 c3582: 120 p_1_1 + 120 p_1_3 + 120 p_1_4 + 120 p_1_5 + 120 p_1_7 + 120 p_1_8 + 120 p_1_9 + 100000 z_1_1 + 100000 z_1_3 + 100000 z_1_4 + 100000 z_1_5 + 100000 z_1_7 + 100000 z_1_8 + 100000 z_1_9 <= 698782.59503919166
 c3583: 120 p_1_2 + 120 p_1_3 + 120 p_1_4 + 120 p_1_5 + 120 p_1_7 + 120 p_1_8 + 120 p_1_9 + 100000 z_1_2 + 100000 z_1_3 + 100000 z_1_4 + 100000 z_1_5 + 100000 z_1_7 + 100000 z_1_8 + 100000 z_1_9 <= 698750.20595310768
 c3584: 120 p_1_1 + 120 p_1_2 + 120 p_1_3 + 120 p_1_4 + 120 p_1_5 + 120 p_1_7 + 120 p_1_8 + 120 p_1_9 + 100000 z_1_1 + 100000 z_1_2 + 100000 z_1_3 + 100000 z_1_4 + 100000 z_1_5 + 100000 z_1_7 + 100000 z_1_8 + 100000 z_1_9 <= 798741.34068045381
 c3585: 120 p_1_6 + 120 p_1_7 + 120 p_1_8 + 120 p_1_9 + 100000 z_1_6 + 100000 z_1_7 + 100000 z_1_8 + 100000 z_1_9 <= 399036.01273352501
 c3586: 120 p_1_1 + 120 p_1_6 + 120 p_1_7 + 120 p_1_8 + 120 p_1_9 + 100000 z_1_1 + 100000 z_1_6 + 100000 z_1_7 + 100000 z_1_8 + 100000 z_1_9 <= 498752.86803622812
 c3587: 120 p_1_2 + 120 p_1_6 + 120 p_1_7 + 120 p_1_8 + 120 p_1_9 + 100000 z_1_2 + 100000 z_1_6 + 100000 z_1_7 + 100000 z_1_8 + 100000 z_1_9 <= 499035.98352389748
 c3588: 120 p_1_1 + 120 p_1_2 + 120 p_1_6 + 120 p_1_7 + 120 p_1_8 + 120 p_1_9 + 100000 z_1_1 + 100000 z_1_2 + 100000 z_1_6 + 100000 z_1_7 + 100000 z_1_8 + 100000 z_1_9 <= 598752.83882660058
 c3589: 120 p_1_3 + 120 p_1_6 + 120 p_1_7 + 120 p_1_8 + 120 p_1_9 + 100000 z_1_3 + 100000 z_1_6 + 100000 z_1_7 + 100000 z_1_8 + 100000 z_1_9 <= 499016.39344336785
 c3590: 120 p_1_1 + 120 p_1_3 + 120 p_1_6 + 120 p_1_7 + 120 p_1_8 + 120 p_1_9 + 100000 z_1_1 + 100000 z_1_3 + 100000 z_1_6 + 100000 z_1_7 + 100000 z_1_8 + 100000 z_1_9 <= 598748.35308449145
 c3591: 120 p_1_2 + 120 p_1_3 + 120 p_1_6 + 120 p_1_7 + 120 p_1_8 + 120 p_1_9 + 100000 z_1_2 + 100000 z_1_3 + 100000 z_1_6 + 100000 z_1_7 + 100000 z_1_8 + 100000 z_1_9 <= 599016.16722863202
 c3592: 120 p_1_1 + 120 p_1_2 + 120 p_1_3 + 120 p_1_6 + 120 p_1_7 + 120 p_1_8 + 120 p_1_9 + 100000 z_1_1 + 100000 z_1_2 + 100000 z_1_3 + 100000 z_1_6 + 100000 z_1_7 + 100000 z_1_8 + 100000 z_1_9 <= 698733.02253133513
 c3593: 120 p_1_4 + 120 p_1_6 + 120 p_1_7 + 120 p_1_8 + 120 p_1_9 + 100000 z_1_4 + 100000 z_1_6 + 100000 z_1_7 + 100000 z_1_8 + 100000 z_1_9 <= 498544.79914032615
 c3594: 120 p_1_1 + 120 p_1_4 + 120 p_1_6 + 120 p_1_7 + 120 p_1_8 + 120 p_1_9 + 100000 z_1_1 + 100000 z_1_4 + 100000 z_1_6 + 100000 z_1_7 + 100000 z_1_8 + 100000 z_1_9 <= 598526.53177100071
 c3595: 120 p_1_2 + 120 p_1_4 + 120 p_1_6 + 120 p_1_7 + 120 p_1_8 + 120 p_1_9 + 100000 z_1_2 + 100000 z_1_4 + 100000 z_1_6 + 100000 z_1_7 + 100000 z_1_8 + 100000 z_1_9 <= 598526.84286172735
 c3596: 120 p_1_1 + 120 p_1_2 + 120 p_1_4 + 120 p_1_6 + 120 p_1_7 + 120 p_1_8 + 120 p_1_9 + 100000 z_1_1 + 100000 z_1_2 + 100000 z_1_4 + 100000 z_1_6 + 100000 z_1_7 + 100000 z_1_8 + 100000 z_1_9 <= 698526.50256137317
 c3597: 120 p_1_3 + 120 p_1_4 + 120 p_1_6 + 120 p_1_7 + 120 p_1_8 + 120 p_1_9 + 100000 z_1_3 + 100000 z_1_4 + 100000 z_1_6 + 100000 z_1_7 + 100000 z_1_8 + 100000 z_1_9 <= 598544.789081831
 c3598: 120 p_1_1 + 120 p_1_3 + 120 p_1_4 + 120 p_1_6 + 120 p_1_7 + 120 p_1_8 + 120 p_1_9 + 100000 z_1_1 + 100000 z_1_3 + 100000 z_1_4 + 100000 z_1_6 + 100000 z_1_7 + 100000 z_1_8 + 100000 z_1_9 <= 698522.01681926404
 c3599: 120 p_1_2 + 120 p_1_3 + 120 p_1_4 + 120 p_1_6 + 120 p_1_7 + 120 p_1_8 + 120 p_1_9 + 100000 z_1_2 + 100000 z_1_3 + 100000 z_1_4 + 100000 z_1_6 + 100000 z_1_7 + 100000 z_1_8 + 100000 z_1_9 <= 698515.55153876159
 c3600: 120 p_1_1 + 120 p_1_2 + 120 p_1_3 + 120 p_1_4 + 120 p_1_6 + 120 p_1_7 + 120 p_1_8 + 120 p_1_9 + 100000 z_1_1 + 100000 z_1_2 + 100000 z_1_3 + 100000 z_1_4 + 100000 z_1_6 + 100000 z_1_7 + 100000 z_1_8 + 100000 z_1_9 <= 798506.68626610783
 c3601: 120 p_1_5 + 120 p_1_6 + 120 p_1_7 + 120 p_1_8 + 120 p_1_9 + 100000 z_1_5 + 100000 z_1_6 + 100000 z_1_7 + 100000 z_1_8 + 100000 z_1_9 <= 499026.05277359515
 c3602: 120 p_1_1 + 120 p_1_5 + 120 p_1_6 + 120 p_1_7 + 120 p_1_8 + 120 p_1_9 + 100000 z_1_1 + 100000 z_1_5 + 100000 z_1_6 + 100000 z_1_7 + 100000 z_1_8 + 100000 z_1_9 <= 598745.56749917439
 c3603: 120 p_1_2 + 120 p_1_5 + 120 p_1_6 + 120 p_1_7 + 120 p_1_8 + 120 p_1_9 + 100000 z_1_2 + 100000 z_1_5 + 100000 z_1_6 + 100000 z_1_7 + 100000 z_1_8 + 100000 z_1_9 <= 599007.26407450368
 c3604: 120 p_1_1 + 120 p_1_2 + 120 p_1_5 + 120 p_1_6 + 120 p_1_7 + 120 p_1_8 + 120 p_1_9 + 100000 z_1_1 + 100000 z_1_2 + 100000 z_1_5 + 100000 z_1_6 + 100000 z_1_7 + 100000 z_1_8 + 100000 z_1_9 <= 698724.11937720678
 c3605: 120 p_1_3 + 120 p_1_5 + 120 p_1_6 + 120 p_1_7 + 120 p_1_8 + 120 p_1_9 + 100000 z_1_3 + 100000 z_1_5 + 100000 z_1_6 + 100000 z_1_7 + 100000 z_1_8 + 100000 z_1_9 <= 599009.55136475444
 c3606: 120 p_1_1 + 120 p_1_3 + 120 p_1_5 + 120 p_1_6 + 120 p_1_7 + 120 p_1_8 + 120 p_1_9 + 100000 z_1_1 + 100000 z_1_3 + 100000 z_1_5 + 100000 z_1_6 + 100000 z_1_7 + 100000 z_1_8 + 100000 z_1_9 <= 698745.55744067917
 c3607: 120 p_1_2 + 120 p_1_3 + 120 p_1_5 + 120 p_1_6 + 120 p_1_7 + 120 p_1_8 + 120 p_1_9 + 100000 z_1_2 + 100000 z_1_3 + 100000 z_1_5 + 100000 z_1_6 + 100000 z_1_7 + 100000 z_1_8 + 100000 z_1_9 <= 698987.44777923834
 c3608: 120 p_1_1 + 120 p_1_2 + 120 p_1_3 + 120 p_1_5 + 120 p_1_6 + 120 p_1_7 + 120 p_1_8 + 120 p_1_9 + 100000 z_1_1 + 100000 z_1_2 + 100000 z_1_3 + 100000 z_1_5 + 100000 z_1_6 + 100000 z_1_7 + 100000 z_1_8 + 100000 z_1_9 <= 798704.30308194133
 c3609: 120 p_1_4 + 120 p_1_5 + 120 p_1_6 + 120 p_1_7 + 120 p_1_8 + 120 p_1_9 + 100000 z_1_4 + 100000 z_1_5 + 100000 z_1_6 + 100000 z_1_7 + 100000 z_1_8 + 100000 z_1_9 <= 598542.00349651393
 c3610: 120 p_1_1 + 120 p_1_4 + 120 p_1_5 + 120 p_1_6 + 120 p_1_7 + 120 p_1_8 + 120 p_1_9 + 100000 z_1_1 + 100000 z_1_4 + 100000 z_1_5 + 100000 z_1_6 + 100000 z_1_7 + 100000 z_1_8 + 100000 z_1_9 <= 698519.23123394698
 c3611: 120 p_1_2 + 120 p_1_4 + 120 p_1_5 + 120 p_1_6 + 120 p_1_7 + 120 p_1_8 + 120 p_1_9 + 100000 z_1_2 + 100000 z_1_4 + 100000 z_1_5 + 100000 z_1_6 + 100000 z_1_7 + 100000 z_1_8 + 100000 z_1_9 <= 698498.12341233355
 c3612: 120 p_1_1 + 120 p_1_2 + 120 p_1_4 + 120 p_1_5 + 120 p_1_6 + 120 p_1_7 + 120 p_1_8 + 120 p_1_9 + 100000 z_1_1 + 100000 z_1_2 + 100000 z_1_4 + 100000 z_1_5 + 100000 z_1_6 + 100000 z_1_7 + 100000 z_1_8 + 100000 z_1_9 <= 798497.78311197949
 c3613: 120 p_1_3 + 120 p_1_4 + 120 p_1_5 + 120 p_1_6 + 120 p_1_7 + 120 p_1_8 + 120 p_1_9 + 100000 z_1_3 + 100000 z_1_4 + 100000 z_1_5 + 100000 z_1_6 + 100000 z_1_7 + 100000 z_1_8 + 100000 z_1_9 <= 698541.99343801872
 c3614: 120 p_1_1 + 120 p_1_3 + 120 p_1_4 + 120 p_1_5 + 120 p_1_6 + 120 p_1_7 + 120 p_1_8 + 120 p_1_9 + 100000 z_1_1 + 100000 z_1_3 + 100000 z_1_4 + 100000 z_1_5 + 100000 z_1_6 + 100000 z_1_7 + 100000 z_1_8 + 100000 z_1_9 <= 798519.22117545188
 c3615: 120 p_1_2 + 120 p_1_3 + 120 p_1_4 + 120 p_1_5 + 120 p_1_6 + 120 p_1_7 + 120 p_1_8 + 120 p_1_9 + 100000 z_1_2 + 100000 z_1_3 + 100000 z_1_4 + 100000 z_1_5 + 100000 z_1_6 + 100000 z_1_7 + 100000 z_1_8 + 100000 z_1_9 <= 798486.83208936779
 c3616: 120 p_1_1 + 120 p_1_2 + 120 p_1_3 + 120 p_1_4 + 120 p_1_5 + 120 p_1_6 + 120 p_1_7 + 120 p_1_8 + 120 p_1_9 + 100000 z_1_1 + 100000 z_1_2 + 100000 z_1_3 + 100000 z_1_4 + 100000 z_1_5 + 100000 z_1_6 + 100000 z_1_7 + 100000 z_1_8 + 100000 z_1_9 <= 898477.96681671403
 c3617: 120 p_1_10 + 100000 z_1_10 <= 100878.43207799659
 c3618: 120 p_1_1 + 120 p_1_10 + 100000 z_1_1 + 100000 z_1_10 <= 200865.98045529265
 c3619: 120 p_1_10 + 120 p_1_2 + 100000 z_1_10 + 100000 z_1_2 <= 200101.34750562912
 c3620: 120 p_1_1 + 120 p_1_10 + 120 p_1_2 + 100000 z_1_1 + 100000 z_1_10 + 100000 z_1_2 <= 300088.89588292519
 c3621: 120 p_1_10 + 120 p_1_3 + 100000 z_1_10 + 100000 z_1_3 <= 199745.61082463374
 c3622: 120 p_1_1 + 120 p_1_10 + 120 p_1_3 + 100000 z_1_1 + 100000 z_1_10 + 100000 z_1_3 <= 299745.44336833095
 c3623: 120 p_1_10 + 120 p_1_2 + 120 p_1_3 + 100000 z_1_10 + 100000 z_1_2 + 100000 z_1_3 <= 299037.29514202324
 c3624: 120 p_1_1 + 120 p_1_10 + 120 p_1_2 + 120 p_1_3 + 100000 z_1_1 + 100000 z_1_10 + 100000 z_1_2 + 100000 z_1_3 <= 399024.84351931931
 c3625: 120 p_1_10 + 120 p_1_4 + 100000 z_1_10 + 100000 z_1_4 <= 200825.63095469039
 c3626: 120 p_1_1 + 120 p_1_10 + 120 p_1_4 + 100000 z_1_1 + 100000 z_1_10 + 100000 z_1_4 <= 300825.29065433628
 c3627: 120 p_1_10 + 120 p_1_2 + 120 p_1_4 + 100000 z_1_10 + 100000 z_1_2 + 100000 z_1_4 <= 300048.54638232291
 c3628: 120 p_1_1 + 120 p_1_10 + 120 p_1_2 + 120 p_1_4 + 100000 z_1_1 + 100000 z_1_10 + 100000 z_1_2 + 100000 z_1_4 <= 400048.20608196879
 c3629: 120 p_1_10 + 120 p_1_3 + 120 p_1_4 + 100000 z_1_10 + 100000 z_1_3 + 100000 z_1_4 <= 299722.04330514302
 c3630: 120 p_1_1 + 120 p_1_10 + 120 p_1_3 + 120 p_1_4 + 100000 z_1_1 + 100000 z_1_10 + 100000 z_1_3 + 100000 z_1_4 <= 399709.59168243909
 c3631: 120 p_1_10 + 120 p_1_2 + 120 p_1_3 + 120 p_1_4 + 100000 z_1_10 + 100000 z_1_2 + 100000 z_1_3 + 100000 z_1_4 <= 398984.49401871709
 c3632: 120 p_1_1 + 120 p_1_10 + 120 p_1_2 + 120 p_1_3 + 120 p_1_4 + 100000 z_1_1 + 100000 z_1_10 + 100000 z_1_2 + 100000 z_1_3 + 100000 z_1_4 <= 498984.15371836291
 c3633: 120 p_1_10 + 120 p_1_5 + 100000 z_1_10 + 100000 z_1_5 <= 200139.23110041581
 c3634: 120 p_1_1 + 120 p_1_10 + 120 p_1_5 + 100000 z_1_1 + 100000 z_1_10 + 100000 z_1_5 <= 300126.77947771188
 c3635: 120 p_1_10 + 120 p_1_2 + 120 p_1_5 + 100000 z_1_10 + 100000 z_1_2 + 100000 z_1_5 <= 300084.06975176494
 c3636: 120 p_1_1 + 120 p_1_10 + 120 p_1_2 + 120 p_1_5 + 100000 z_1_1 + 100000 z_1_10 + 100000 z_1_2 + 100000 z_1_5 <= 400071.61812906101
 c3637: 120 p_1_10 + 120 p_1_3 + 120 p_1_5 + 100000 z_1_10 + 100000 z_1_3 + 100000 z_1_5 <= 299042.12097367522
 c3638: 120 p_1_1 + 120 p_1_10 + 120 p_1_3 + 120 p_1_5 + 100000 z_1_1 + 100000 z_1_10 + 100000 z_1_3 + 100000 z_1_5 <= 399029.66935097129
 c3639: 120 p_1_10 + 120 p_1_2 + 120 p_1_3 + 120 p_1_5 + 100000 z_1_10 + 100000 z_1_2 + 100000 z_1_3 + 100000 z_1_5 <= 399020.01738815906
 c3640: 120 p_1_1 + 120 p_1_10 + 120 p_1_2 + 120 p_1_3 + 120 p_1_5 + 100000 z_1_1 + 100000 z_1_10 + 100000 z_1_2 + 100000 z_1_3 + 100000 z_1_5 <= 499007.56576545513
 c3641: 120 p_1_10 + 120 p_1_4 + 120 p_1_5 + 100000 z_1_10 + 100000 z_1_4 + 100000 z_1_5 <= 300086.4299771096
 c3642: 120 p_1_1 + 120 p_1_10 + 120 p_1_4 + 120 p_1_5 + 100000 z_1_1 + 100000 z_1_10 + 100000 z_1_4 + 100000 z_1_5 <= 400086.08967675548
 c3643: 120 p_1_10 + 120 p_1_2 + 120 p_1_4 + 120 p_1_5 + 100000 z_1_10 + 100000 z_1_2 + 100000 z_1_4 + 100000 z_1_5 <= 400031.26862845873
 c3644: 120 p_1_1 + 120 p_1_10 + 120 p_1_2 + 120 p_1_4 + 120 p_1_5 + 100000 z_1_1 + 100000 z_1_10 + 100000 z_1_2 + 100000 z_1_4 + 100000 z_1_5 <= 500030.92832810461
 c3645: 120 p_1_10 + 120 p_1_3 + 120 p_1_4 + 120 p_1_5 + 100000 z_1_10 + 100000 z_1_3 + 100000 z_1_4 + 100000 z_1_5 <= 398989.31985036907
 c3646: 120 p_1_1 + 120 p_1_10 + 120 p_1_3 + 120 p_1_4 + 120 p_1_5 + 100000 z_1_1 + 100000 z_1_10 + 100000 z_1_3 + 100000 z_1_4 + 100000 z_1_5 <= 498988.97955001489
 c3647: 120 p_1_10 + 120 p_1_2 + 120 p_1_3 + 120 p_1_4 + 120 p_1_5 + 100000 z_1_10 + 100000 z_1_2 + 100000 z_1_3 + 100000 z_1_4 + 100000 z_1_5 <= 498967.2162648529
 c3648: 120 p_1_1 + 120 p_1_10 + 120 p_1_2 + 120 p_1_3 + 120 p_1_4 + 120 p_1_5 + 100000 z_1_1 + 100000 z_1_10 + 100000 z_1_2 + 100000 z_1_3 + 100000 z_1_4 + 100000 z_1_5 <= 598966.87596449873
 c3649: 120 p_1_10 + 120 p_1_6 + 100000 z_1_10 + 100000 z_1_6 <= 199400.50301376407
 c3650: 120 p_1_1 + 120 p_1_10 + 120 p_1_6 + 100000 z_1_1 + 100000 z_1_10 + 100000 z_1_6 <= 299399.59840815462
 c3651: 120 p_1_10 + 120 p_1_2 + 120 p_1_6 + 100000 z_1_10 + 100000 z_1_2 + 100000 z_1_6 <= 298696.56401043612
 c3652: 120 p_1_1 + 120 p_1_10 + 120 p_1_2 + 120 p_1_6 + 100000 z_1_1 + 100000 z_1_10 + 100000 z_1_2 + 100000 z_1_6 <= 398684.1123877322
 c3653: 120 p_1_10 + 120 p_1_3 + 120 p_1_6 + 100000 z_1_10 + 100000 z_1_3 + 100000 z_1_6 <= 299400.49295526888
 c3654: 120 p_1_1 + 120 p_1_10 + 120 p_1_3 + 120 p_1_6 + 100000 z_1_1 + 100000 z_1_10 + 100000 z_1_3 + 100000 z_1_6 <= 399399.58834965946
 c3655: 120 p_1_10 + 120 p_1_2 + 120 p_1_3 + 120 p_1_6 + 100000 z_1_10 + 100000 z_1_2 + 100000 z_1_3 + 100000 z_1_6 <= 398696.55395194096
 c3656: 120 p_1_1 + 120 p_1_10 + 120 p_1_2 + 120 p_1_3 + 120 p_1_6 + 100000 z_1_1 + 100000 z_1_10 + 100000 z_1_2 + 100000 z_1_3 + 100000 z_1_6 <= 498684.10232923704
 c3657: 120 p_1_10 + 120 p_1_4 + 120 p_1_6 + 100000 z_1_10 + 100000 z_1_4 + 100000 z_1_6 <= 299380.38859549444
 c3658: 120 p_1_1 + 120 p_1_10 + 120 p_1_4 + 120 p_1_6 + 100000 z_1_1 + 100000 z_1_10 + 100000 z_1_4 + 100000 z_1_6 <= 399367.93697279051
 c3659: 120 p_1_10 + 120 p_1_2 + 120 p_1_4 + 120 p_1_6 + 100000 z_1_10 + 100000 z_1_2 + 100000 z_1_4 + 100000 z_1_6 <= 398643.76288712991
 c3660: 120 p_1_1 + 120 p_1_10 + 120 p_1_2 + 120 p_1_4 + 120 p_1_6 + 100000 z_1_1 + 100000 z_1_10 + 100000 z_1_2 + 100000 z_1_4 + 100000 z_1_6 <= 498643.42258677579
 c3661: 120 p_1_10 + 120 p_1_3 + 120 p_1_4 + 120 p_1_6 + 100000 z_1_10 + 100000 z_1_3 + 100000 z_1_4 + 100000 z_1_6 <= 399380.37853699928
 c3662: 120 p_1_1 + 120 p_1_10 + 120 p_1_3 + 120 p_1_4 + 120 p_1_6 + 100000 z_1_1 + 100000 z_1_10 + 100000 z_1_3 + 100000 z_1_4 + 100000 z_1_6 <= 499367.92691429536
 c3663: 120 p_1_10 + 120 p_1_2 + 120 p_1_3 + 120 p_1_4 + 120 p_1_6 + 100000 z_1_10 + 100000 z_1_2 + 100000 z_1_3 + 100000 z_1_4 + 100000 z_1_6 <= 498643.75282863475
 c3664: 120 p_1_1 + 120 p_1_10 + 120 p_1_2 + 120 p_1_3 + 120 p_1_4 + 120 p_1_6 + 100000 z_1_1 + 100000 z_1_10 + 100000 z_1_2 + 100000 z_1_3 + 100000 z_1_4 + 100000 z_1_6 <= 598643.41252828063
 c3665: 120 p_1_10 + 120 p_1_5 + 120 p_1_6 + 100000 z_1_10 + 100000 z_1_5 + 100000 z_1_6 <= 298698.07495566341
 c3666: 120 p_1_1 + 120 p_1_10 + 120 p_1_5 + 120 p_1_6 + 100000 z_1_1 + 100000 z_1_10 + 100000 z_1_5 + 100000 z_1_6 <= 398685.62333295948
 c3667: 120 p_1_10 + 120 p_1_2 + 120 p_1_5 + 120 p_1_6 + 100000 z_1_10 + 100000 z_1_2 + 100000 z_1_5 + 100000 z_1_6 <= 398679.28625657194
 c3668: 120 p_1_1 + 120 p_1_10 + 120 p_1_2 + 120 p_1_5 + 120 p_1_6 + 100000 z_1_1 + 100000 z_1_10 + 100000 z_1_2 + 100000 z_1_5 + 100000 z_1_6 <= 498666.83463386801
 c3669: 120 p_1_10 + 120 p_1_3 + 120 p_1_5 + 120 p_1_6 + 100000 z_1_10 + 100000 z_1_3 + 100000 z_1_5 + 100000 z_1_6 <= 398698.06489716825
 c3670: 120 p_1_1 + 120 p_1_10 + 120 p_1_3 + 120 p_1_5 + 120 p_1_6 + 100000 z_1_1 + 100000 z_1_10 + 100000 z_1_3 + 100000 z_1_5 + 100000 z_1_6 <= 498685.61327446433
 c3671: 120 p_1_10 + 120 p_1_2 + 120 p_1_3 + 120 p_1_5 + 120 p_1_6 + 100000 z_1_10 + 100000 z_1_2 + 100000 z_1_3 + 100000 z_1_5 + 100000 z_1_6 <= 498679.27619807678
 c3672: 120 p_1_1 + 120 p_1_10 + 120 p_1_2 + 120 p_1_3 + 120 p_1_5 + 120 p_1_6 + 100000 z_1_1 + 100000 z_1_10 + 100000 z_1_2 + 100000 z_1_3 + 100000 z_1_5 + 100000 z_1_6 <= 598666.82457537286
 c3673: 120 p_1_10 + 120 p_1_4 + 120 p_1_5 + 120 p_1_6 + 100000 z_1_10 + 100000 z_1_4 + 100000 z_1_5 + 100000 z_1_6 <= 398645.2738323572
 c3674: 120 p_1_1 + 120 p_1_10 + 120 p_1_4 + 120 p_1_5 + 120 p_1_6 + 100000 z_1_1 + 100000 z_1_10 + 100000 z_1_4 + 100000 z_1_5 + 100000 z_1_6 <= 498644.93353200308
 c3675: 120 p_1_10 + 120 p_1_2 + 120 p_1_4 + 120 p_1_5 + 120 p_1_6 + 100000 z_1_10 + 100000 z_1_2 + 100000 z_1_4 + 100000 z_1_5 + 100000 z_1_6 <= 498626.48513326573
 c3676: 120 p_1_1 + 120 p_1_10 + 120 p_1_2 + 120 p_1_4 + 120 p_1_5 + 120 p_1_6 + 100000 z_1_1 + 100000 z_1_10 + 100000 z_1_2 + 100000 z_1_4 + 100000 z_1_5 + 100000 z_1_6 <= 598626.14483291155
 c3677: 120 p_1_10 + 120 p_1_3 + 120 p_1_4 + 120 p_1_5 + 120 p_1_6 + 100000 z_1_10 + 100000 z_1_3 + 100000 z_1_4 + 100000 z_1_5 + 100000 z_1_6 <= 498645.26377386204
 c3678: 120 p_1_1 + 120 p_1_10 + 120 p_1_3 + 120 p_1_4 + 120 p_1_5 + 120 p_1_6 + 100000 z_1_1 + 100000 z_1_10 + 100000 z_1_3 + 100000 z_1_4 + 100000 z_1_5 + 100000 z_1_6 <= 598644.92347350786
 c3679: 120 p_1_10 + 120 p_1_2 + 120 p_1_3 + 120 p_1_4 + 120 p_1_5 + 120 p_1_6 + 100000 z_1_10 + 100000 z_1_2 + 100000 z_1_3 + 100000 z_1_4 + 100000 z_1_5 + 100000 z_1_6 <= 598626.47507477063
 c3680: 120 p_1_1 + 120 p_1_10 + 120 p_1_2 + 120 p_1_3 + 120 p_1_4 + 120 p_1_5 + 120 p_1_6 + 100000 z_1_1 + 100000 z_1_10 + 100000 z_1_2 + 100000 z_1_3 + 100000 z_1_4 + 100000 z_1_5 + 100000 z_1_6 <= 698626.13477441645
 c3681: 120 p_1_10 + 120 p_1_7 + 100000 z_1_10 + 100000 z_1_7 <= 200842.11237050276
 c3682: 120 p_1_1 + 120 p_1_10 + 120 p_1_7 + 100000 z_1_1 + 100000 z_1_10 + 100000 z_1_7 <= 300829.6607477988
 c3683: 120 p_1_10 + 120 p_1_2 + 120 p_1_7 + 100000 z_1_10 + 100000 z_1_2 + 100000 z_1_7 <= 300101.29069525312
 c3684: 120 p_1_1 + 120 p_1_10 + 120 p_1_2 + 120 p_1_7 + 100000 z_1_1 + 100000 z_1_10 + 100000 z_1_2 + 100000 z_1_7 <= 400088.83907254919
 c3685: 120 p_1_10 + 120 p_1_3 + 120 p_1_7 + 100000 z_1_10 + 100000 z_1_3 + 100000 z_1_7 <= 299709.29111713992
 c3686: 120 p_1_1 + 120 p_1_10 + 120 p_1_3 + 120 p_1_7 + 100000 z_1_1 + 100000 z_1_10 + 100000 z_1_3 + 100000 z_1_7 <= 399709.12366083713
 c3687: 120 p_1_10 + 120 p_1_2 + 120 p_1_3 + 120 p_1_7 + 100000 z_1_10 + 100000 z_1_2 + 100000 z_1_3 + 100000 z_1_7 <= 399037.23833164724
 c3688: 120 p_1_1 + 120 p_1_10 + 120 p_1_2 + 120 p_1_3 + 120 p_1_7 + 100000 z_1_1 + 100000 z_1_10 + 100000 z_1_2 + 100000 z_1_3 + 100000 z_1_7 <= 499024.78670894331
 c3689: 120 p_1_10 + 120 p_1_4 + 120 p_1_7 + 100000 z_1_10 + 100000 z_1_4 + 100000 z_1_7 <= 300789.31124719657
 c3690: 120 p_1_1 + 120 p_1_10 + 120 p_1_4 + 120 p_1_7 + 100000 z_1_1 + 100000 z_1_10 + 100000 z_1_4 + 100000 z_1_7 <= 400788.9709468424
 c3691: 120 p_1_10 + 120 p_1_2 + 120 p_1_4 + 120 p_1_7 + 100000 z_1_10 + 100000 z_1_2 + 100000 z_1_4 + 100000 z_1_7 <= 400048.48957194691
 c3692: 120 p_1_1 + 120 p_1_10 + 120 p_1_2 + 120 p_1_4 + 120 p_1_7 + 100000 z_1_1 + 100000 z_1_10 + 100000 z_1_2 + 100000 z_1_4 + 100000 z_1_7 <= 500048.14927159279
 c3693: 120 p_1_10 + 120 p_1_3 + 120 p_1_4 + 120 p_1_7 + 100000 z_1_10 + 100000 z_1_3 + 100000 z_1_4 + 100000 z_1_7 <= 399685.72359764919
 c3694: 120 p_1_1 + 120 p_1_10 + 120 p_1_3 + 120 p_1_4 + 120 p_1_7 + 100000 z_1_1 + 100000 z_1_10 + 100000 z_1_3 + 100000 z_1_4 + 100000 z_1_7 <= 499668.43385988072
 c3695: 120 p_1_10 + 120 p_1_2 + 120 p_1_3 + 120 p_1_4 + 120 p_1_7 + 100000 z_1_10 + 100000 z_1_2 + 100000 z_1_3 + 100000 z_1_4 + 100000 z_1_7 <= 498984.43720834109
 c3696: 120 p_1_1 + 120 p_1_10 + 120 p_1_2 + 120 p_1_3 + 120 p_1_4 + 120 p_1_7 + 100000 z_1_1 + 100000 z_1_10 + 100000 z_1_2 + 100000 z_1_3 + 100000 z_1_4 + 100000 z_1_7 <= 598984.09690798691
 c3697: 120 p_1_10 + 120 p_1_5 + 120 p_1_7 + 100000 z_1_10 + 100000 z_1_5 + 100000 z_1_7 <= 300138.61569684104
 c3698: 120 p_1_1 + 120 p_1_10 + 120 p_1_5 + 120 p_1_7 + 100000 z_1_1 + 100000 z_1_10 + 100000 z_1_5 + 100000 z_1_7 <= 400126.16407413711
 c3699: 120 p_1_10 + 120 p_1_2 + 120 p_1_5 + 120 p_1_7 + 100000 z_1_10 + 100000 z_1_2 + 100000 z_1_5 + 100000 z_1_7 <= 400083.45434819016
 c3700: 120 p_1_1 + 120 p_1_10 + 120 p_1_2 + 120 p_1_5 + 120 p_1_7 + 100000 z_1_1 + 100000 z_1_10 + 100000 z_1_2 + 100000 z_1_5 + 100000 z_1_7 <= 500071.00272548624
 c3701: 120 p_1_10 + 120 p_1_3 + 120 p_1_5 + 120 p_1_7 + 100000 z_1_10 + 100000 z_1_3 + 100000 z_1_5 + 100000 z_1_7 <= 399041.5055701005
 c3702: 120 p_1_1 + 120 p_1_10 + 120 p_1_3 + 120 p_1_5 + 120 p_1_7 + 100000 z_1_1 + 100000 z_1_10 + 100000 z_1_3 + 100000 z_1_5 + 100000 z_1_7 <= 499029.05394739658
 c3703: 120 p_1_10 + 120 p_1_2 + 120 p_1_3 + 120 p_1_5 + 120 p_1_7 + 100000 z_1_10 + 100000 z_1_2 + 100000 z_1_3 + 100000 z_1_5 + 100000 z_1_7 <= 499019.40198458428
 c3704: 120 p_1_1 + 120 p_1_10 + 120 p_1_2 + 120 p_1_3 + 120 p_1_5 + 120 p_1_7 + 100000 z_1_1 + 100000 z_1_10 + 100000 z_1_2 + 100000 z_1_3 + 100000 z_1_5 + 100000 z_1_7 <= 599006.95036188036
 c3705: 120 p_1_10 + 120 p_1_4 + 120 p_1_5 + 120 p_1_7 + 100000 z_1_10 + 100000 z_1_4 + 100000 z_1_5 + 100000 z_1_7 <= 400085.81457353488
 c3706: 120 p_1_1 + 120 p_1_10 + 120 p_1_4 + 120 p_1_5 + 120 p_1_7 + 100000 z_1_1 + 100000 z_1_10 + 100000 z_1_4 + 100000 z_1_5 + 100000 z_1_7 <= 500085.47427318071
 c3707: 120 p_1_10 + 120 p_1_2 + 120 p_1_4 + 120 p_1_5 + 120 p_1_7 + 100000 z_1_10 + 100000 z_1_2 + 100000 z_1_4 + 100000 z_1_5 + 100000 z_1_7 <= 500030.65322488401
 c3708: 120 p_1_1 + 120 p_1_10 + 120 p_1_2 + 120 p_1_4 + 120 p_1_5 + 120 p_1_7 + 100000 z_1_1 + 100000 z_1_10 + 100000 z_1_2 + 100000 z_1_4 + 100000 z_1_5 + 100000 z_1_7 <= 600030.31292452989
 c3709: 120 p_1_10 + 120 p_1_3 + 120 p_1_4 + 120 p_1_5 + 120 p_1_7 + 100000 z_1_10 + 100000 z_1_3 + 100000 z_1_4 + 100000 z_1_5 + 100000 z_1_7 <= 498988.70444679429
 c3710: 120 p_1_1 + 120 p_1_10 + 120 p_1_3 + 120 p_1_4 + 120 p_1_5 + 120 p_1_7 + 100000 z_1_1 + 100000 z_1_10 + 100000 z_1_3 + 100000 z_1_4 + 100000 z_1_5 + 100000 z_1_7 <= 598988.36414644017
 c3711: 120 p_1_10 + 120 p_1_2 + 120 p_1_3 + 120 p_1_4 + 120 p_1_5 + 120 p_1_7 + 100000 z_1_10 + 100000 z_1_2 + 100000 z_1_3 + 100000 z_1_4 + 100000 z_1_5 + 100000 z_1_7 <= 598966.60086127813
 c3712: 120 p_1_1 + 120 p_1_10 + 120 p_1_2 + 120 p_1_3 + 120 p_1_4 + 120 p_1_5 + 120 p_1_7 + 100000 z_1_1 + 100000 z_1_10 + 100000 z_1_2 + 100000 z_1_3 + 100000 z_1_4 + 100000 z_1_5 + 100000 z_1_7 <= 698966.26056092395
 c3713: 120 p_1_10 + 120 p_1_6 + 120 p_1_7 + 100000 z_1_10 + 100000 z_1_6 + 100000 z_1_7 <= 299364.18330627022
 c3714: 120 p_1_1 + 120 p_1_10 + 120 p_1_6 + 120 p_1_7 + 100000 z_1_1 + 100000 z_1_10 + 100000 z_1_6 + 100000 z_1_7 <= 399363.2787006608
 c3715: 120 p_1_10 + 120 p_1_2 + 120 p_1_6 + 120 p_1_7 + 100000 z_1_10 + 100000 z_1_2 + 100000 z_1_6 + 100000 z_1_7 <= 398696.50720006012
 c3716: 120 p_1_1 + 120 p_1_10 + 120 p_1_2 + 120 p_1_6 + 120 p_1_7 + 100000 z_1_1 + 100000 z_1_10 + 100000 z_1_2 + 100000 z_1_6 + 100000 z_1_7 <= 498684.05557735619
 c3717: 120 p_1_10 + 120 p_1_3 + 120 p_1_6 + 120 p_1_7 + 100000 z_1_10 + 100000 z_1_3 + 100000 z_1_6 + 100000 z_1_7 <= 399364.17324777506
 c3718: 120 p_1_1 + 120 p_1_10 + 120 p_1_3 + 120 p_1_6 + 120 p_1_7 + 100000 z_1_1 + 100000 z_1_10 + 100000 z_1_3 + 100000 z_1_6 + 100000 z_1_7 <= 499363.26864216558
 c3719: 120 p_1_10 + 120 p_1_2 + 120 p_1_3 + 120 p_1_6 + 120 p_1_7 + 100000 z_1_10 + 100000 z_1_2 + 100000 z_1_3 + 100000 z_1_6 + 100000 z_1_7 <= 498696.49714156496
 c3720: 120 p_1_1 + 120 p_1_10 + 120 p_1_2 + 120 p_1_3 + 120 p_1_6 + 120 p_1_7 + 100000 z_1_1 + 100000 z_1_10 + 100000 z_1_2 + 100000 z_1_3 + 100000 z_1_6 + 100000 z_1_7 <= 598684.04551886104
 c3721: 120 p_1_10 + 120 p_1_4 + 120 p_1_6 + 120 p_1_7 + 100000 z_1_10 + 100000 z_1_4 + 100000 z_1_6 + 100000 z_1_7 <= 399344.06888800056
 c3722: 120 p_1_1 + 120 p_1_10 + 120 p_1_4 + 120 p_1_6 + 120 p_1_7 + 100000 z_1_1 + 100000 z_1_10 + 100000 z_1_4 + 100000 z_1_6 + 100000 z_1_7 <= 499322.58889970439
 c3723: 120 p_1_10 + 120 p_1_2 + 120 p_1_4 + 120 p_1_6 + 120 p_1_7 + 100000 z_1_10 + 100000 z_1_2 + 100000 z_1_4 + 100000 z_1_6 + 100000 z_1_7 <= 498643.70607675391
 c3724: 120 p_1_1 + 120 p_1_10 + 120 p_1_2 + 120 p_1_4 + 120 p_1_6 + 120 p_1_7 + 100000 z_1_1 + 100000 z_1_10 + 100000 z_1_2 + 100000 z_1_4 + 100000 z_1_6 + 100000 z_1_7 <= 598643.36577639973
 c3725: 120 p_1_10 + 120 p_1_3 + 120 p_1_4 + 120 p_1_6 + 120 p_1_7 + 100000 z_1_10 + 100000 z_1_3 + 100000 z_1_4 + 100000 z_1_6 + 100000 z_1_7 <= 499344.0588295054
 c3726: 120 p_1_1 + 120 p_1_10 + 120 p_1_3 + 120 p_1_4 + 120 p_1_6 + 120 p_1_7 + 100000 z_1_1 + 100000 z_1_10 + 100000 z_1_3 + 100000 z_1_4 + 100000 z_1_6 + 100000 z_1_7 <= 599322.57884120918
 c3727: 120 p_1_10 + 120 p_1_2 + 120 p_1_3 + 120 p_1_4 + 120 p_1_6 + 120 p_1_7 + 100000 z_1_10 + 100000 z_1_2 + 100000 z_1_3 + 100000 z_1_4 + 100000 z_1_6 + 100000 z_1_7 <= 598643.69601825881
 c3728: 120 p_1_1 + 120 p_1_10 + 120 p_1_2 + 120 p_1_3 + 120 p_1_4 + 120 p_1_6 + 120 p_1_7 + 100000 z_1_1 + 100000 z_1_10 + 100000 z_1_2 + 100000 z_1_3 + 100000 z_1_4 + 100000 z_1_6 + 100000 z_1_7 <= 698643.35571790463
 c3729: 120 p_1_10 + 120 p_1_5 + 120 p_1_6 + 120 p_1_7 + 100000 z_1_10 + 100000 z_1_5 + 100000 z_1_6 + 100000 z_1_7 <= 398697.45955208864
 c3730: 120 p_1_1 + 120 p_1_10 + 120 p_1_5 + 120 p_1_6 + 120 p_1_7 + 100000 z_1_1 + 100000 z_1_10 + 100000 z_1_5 + 100000 z_1_6 + 100000 z_1_7 <= 498685.00792938471
 c3731: 120 p_1_10 + 120 p_1_2 + 120 p_1_5 + 120 p_1_6 + 120 p_1_7 + 100000 z_1_10 + 100000 z_1_2 + 100000 z_1_5 + 100000 z_1_6 + 100000 z_1_7 <= 498678.67085299717
 c3732: 120 p_1_1 + 120 p_1_10 + 120 p_1_2 + 120 p_1_5 + 120 p_1_6 + 120 p_1_7 + 100000 z_1_1 + 100000 z_1_10 + 100000 z_1_2 + 100000 z_1_5 + 100000 z_1_6 + 100000 z_1_7 <= 598666.2192302933
 c3733: 120 p_1_10 + 120 p_1_3 + 120 p_1_5 + 120 p_1_6 + 120 p_1_7 + 100000 z_1_10 + 100000 z_1_3 + 100000 z_1_5 + 100000 z_1_6 + 100000 z_1_7 <= 498697.44949359348
 c3734: 120 p_1_1 + 120 p_1_10 + 120 p_1_3 + 120 p_1_5 + 120 p_1_6 + 120 p_1_7 + 100000 z_1_1 + 100000 z_1_10 + 100000 z_1_3 + 100000 z_1_5 + 100000 z_1_6 + 100000 z_1_7 <= 598684.99787088949
 c3735: 120 p_1_10 + 120 p_1_2 + 120 p_1_3 + 120 p_1_5 + 120 p_1_6 + 120 p_1_7 + 100000 z_1_10 + 100000 z_1_2 + 100000 z_1_3 + 100000 z_1_5 + 100000 z_1_6 + 100000 z_1_7 <= 598678.66079450201
 c3736: 120 p_1_1 + 120 p_1_10 + 120 p_1_2 + 120 p_1_3 + 120 p_1_5 + 120 p_1_6 + 120 p_1_7 + 100000 z_1_1 + 100000 z_1_10 + 100000 z_1_2 + 100000 z_1_3 + 100000 z_1_5 + 100000 z_1_6 + 100000 z_1_7 <= 698666.20917179808
 c3737: 120 p_1_10 + 120 p_1_4 + 120 p_1_5 + 120 p_1_6 + 120 p_1_7 + 100000 z_1_10 + 100000 z_1_4 + 100000 z_1_5 + 100000 z_1_6 + 100000 z_1_7 <= 498644.65842878248
 c3738: 120 p_1_1 + 120 p_1_10 + 120 p_1_4 + 120 p_1_5 + 120 p_1_6 + 120 p_1_7 + 100000 z_1_1 + 100000 z_1_10 + 100000 z_1_4 + 100000 z_1_5 + 100000 z_1_6 + 100000 z_1_7 <= 598644.31812842831
 c3739: 120 p_1_10 + 120 p_1_2 + 120 p_1_4 + 120 p_1_5 + 120 p_1_6 + 120 p_1_7 + 100000 z_1_10 + 100000 z_1_2 + 100000 z_1_4 + 100000 z_1_5 + 100000 z_1_6 + 100000 z_1_7 <= 598625.86972969095
 c3740: 120 p_1_1 + 120 p_1_10 + 120 p_1_2 + 120 p_1_4 + 120 p_1_5 + 120 p_1_6 + 120 p_1_7 + 100000 z_1_1 + 100000 z_1_10 + 100000 z_1_2 + 100000 z_1_4 + 100000 z_1_5 + 100000 z_1_6 + 100000 z_1_7 <= 698625.52942933689
 c3741: 120 p_1_10 + 120 p_1_3 + 120 p_1_4 + 120 p_1_5 + 120 p_1_6 + 120 p_1_7 + 100000 z_1_10 + 100000 z_1_3 + 100000 z_1_4 + 100000 z_1_5 + 100000 z_1_6 + 100000 z_1_7 <= 598644.64837028726
 c3742: 120 p_1_1 + 120 p_1_10 + 120 p_1_3 + 120 p_1_4 + 120 p_1_5 + 120 p_1_6 + 120 p_1_7 + 100000 z_1_1 + 100000 z_1_10 + 100000 z_1_3 + 100000 z_1_4 + 100000 z_1_5 + 100000 z_1_6 + 100000 z_1_7 <= 698644.30806993309
 c3743: 120 p_1_10 + 120 p_1_2 + 120 p_1_3 + 120 p_1_4 + 120 p_1_5 + 120 p_1_6 + 120 p_1_7 + 100000 z_1_10 + 100000 z_1_2 + 100000 z_1_3 + 100000 z_1_4 + 100000 z_1_5 + 100000 z_1_6 + 100000 z_1_7 <= 698625.85967119585
 c3744: 120 p_1_1 + 120 p_1_10 + 120 p_1_2 + 120 p_1_3 + 120 p_1_4 + 120 p_1_5 + 120 p_1_6 + 120 p_1_7 + 100000 z_1_1 + 100000 z_1_10 + 100000 z_1_2 + 100000 z_1_3 + 100000 z_1_4 + 100000 z_1_5 + 100000 z_1_6 + 100000 z_1_7 <= 798625.51937084168
 c3745: 120 p_1_10 + 120 p_1_8 + 100000 z_1_10 + 100000 z_1_8 <= 199963.34803805582
 c3746: 120 p_1_1 + 120 p_1_10 + 120 p_1_8 + 100000 z_1_1 + 100000 z_1_10 + 100000 z_1_8 <= 299950.89641535189
 c3747: 120 p_1_10 + 120 p_1_2 + 120 p_1_8 + 100000 z_1_10 + 100000 z_1_2 + 100000 z_1_8 <= 299934.11049498647
 c3748: 120 p_1_1 + 120 p_1_10 + 120 p_1_2 + 120 p_1_8 + 100000 z_1_1 + 100000 z_1_10 + 100000 z_1_2 + 100000 z_1_8 <= 399921.65887228254
 c3749: 120 p_1_10 + 120 p_1_3 + 120 p_1_8 + 100000 z_1_10 + 100000 z_1_3 + 100000 z_1_8 <= 298870.28434611642
 c3750: 120 p_1_1 + 120 p_1_10 + 120 p_1_3 + 120 p_1_8 + 100000 z_1_1 + 100000 z_1_10 + 100000 z_1_3 + 100000 z_1_8 <= 398857.83272341243
 c3751: 120 p_1_10 + 120 p_1_2 + 120 p_1_3 + 120 p_1_8 + 100000 z_1_10 + 100000 z_1_2 + 100000 z_1_3 + 100000 z_1_8 <= 398870.05813138065
 c3752: 120 p_1_1 + 120 p_1_10 + 120 p_1_2 + 120 p_1_3 + 120 p_1_8 + 100000 z_1_1 + 100000 z_1_10 + 100000 z_1_2 + 100000 z_1_3 + 100000 z_1_8 <= 498857.60650867666
 c3753: 120 p_1_10 + 120 p_1_4 + 120 p_1_8 + 100000 z_1_10 + 100000 z_1_4 + 100000 z_1_8 <= 299910.5469147496
 c3754: 120 p_1_1 + 120 p_1_10 + 120 p_1_4 + 120 p_1_8 + 100000 z_1_1 + 100000 z_1_10 + 100000 z_1_4 + 100000 z_1_8 <= 399910.20661439549
 c3755: 120 p_1_10 + 120 p_1_2 + 120 p_1_4 + 120 p_1_8 + 100000 z_1_10 + 100000 z_1_2 + 100000 z_1_4 + 100000 z_1_8 <= 399881.30937168031
 c3756: 120 p_1_1 + 120 p_1_10 + 120 p_1_2 + 120 p_1_4 + 120 p_1_8 + 100000 z_1_1 + 100000 z_1_10 + 100000 z_1_2 + 100000 z_1_4 + 100000 z_1_8 <= 499880.96907132614
 c3757: 120 p_1_10 + 120 p_1_3 + 120 p_1_4 + 120 p_1_8 + 100000 z_1_10 + 100000 z_1_3 + 100000 z_1_4 + 100000 z_1_8 <= 398817.4832228102
 c3758: 120 p_1_1 + 120 p_1_10 + 120 p_1_3 + 120 p_1_4 + 120 p_1_8 + 100000 z_1_1 + 100000 z_1_10 + 100000 z_1_3 + 100000 z_1_4 + 100000 z_1_8 <= 498817.14292245603
 c3759: 120 p_1_10 + 120 p_1_2 + 120 p_1_3 + 120 p_1_4 + 120 p_1_8 + 100000 z_1_10 + 100000 z_1_2 + 100000 z_1_3 + 100000 z_1_4 + 100000 z_1_8 <= 498817.25700807443
 c3760: 120 p_1_1 + 120 p_1_10 + 120 p_1_2 + 120 p_1_3 + 120 p_1_4 + 120 p_1_8 + 100000 z_1_1 + 100000 z_1_10 + 100000 z_1_2 + 100000 z_1_3 + 100000 z_1_4 + 100000 z_1_8 <= 598816.91670772026
 c3761: 120 p_1_10 + 120 p_1_5 + 120 p_1_8 + 100000 z_1_10 + 100000 z_1_5 + 100000 z_1_8 <= 299960.5523942436
 c3762: 120 p_1_1 + 120 p_1_10 + 120 p_1_5 + 120 p_1_8 + 100000 z_1_1 + 100000 z_1_10 + 100000 z_1_5 + 100000 z_1_8 <= 399948.10077153967
 c3763: 120 p_1_10 + 120 p_1_2 + 120 p_1_5 + 120 p_1_8 + 100000 z_1_10 + 100000 z_1_2 + 100000 z_1_5 + 100000 z_1_8 <= 399905.39104559273
 c3764: 120 p_1_1 + 120 p_1_10 + 120 p_1_2 + 120 p_1_5 + 120 p_1_8 + 100000 z_1_1 + 100000 z_1_10 + 100000 z_1_2 + 100000 z_1_5 + 100000 z_1_8 <= 499892.9394228888
 c3765: 120 p_1_10 + 120 p_1_3 + 120 p_1_5 + 120 p_1_8 + 100000 z_1_10 + 100000 z_1_3 + 100000 z_1_5 + 100000 z_1_8 <= 398863.44226750301
 c3766: 120 p_1_1 + 120 p_1_10 + 120 p_1_3 + 120 p_1_5 + 120 p_1_8 + 100000 z_1_1 + 100000 z_1_10 + 100000 z_1_3 + 100000 z_1_5 + 100000 z_1_8 <= 498850.99064479908
 c3767: 120 p_1_10 + 120 p_1_2 + 120 p_1_3 + 120 p_1_5 + 120 p_1_8 + 100000 z_1_10 + 100000 z_1_2 + 100000 z_1_3 + 100000 z_1_5 + 100000 z_1_8 <= 498841.33868198685
 c3768: 120 p_1_1 + 120 p_1_10 + 120 p_1_2 + 120 p_1_3 + 120 p_1_5 + 120 p_1_8 + 100000 z_1_1 + 100000 z_1_10 + 100000 z_1_2 + 100000 z_1_3 + 100000 z_1_5 + 100000 z_1_8 <= 598828.88705928286
 c3769: 120 p_1_10 + 120 p_1_4 + 120 p_1_5 + 120 p_1_8 + 100000 z_1_10 + 100000 z_1_4 + 100000 z_1_5 + 100000 z_1_8 <= 399907.75127093738
 c3770: 120 p_1_1 + 120 p_1_10 + 120 p_1_4 + 120 p_1_5 + 120 p_1_8 + 100000 z_1_1 + 100000 z_1_10 + 100000 z_1_4 + 100000 z_1_5 + 100000 z_1_8 <= 499907.41097058327
 c3771: 120 p_1_10 + 120 p_1_2 + 120 p_1_4 + 120 p_1_5 + 120 p_1_8 + 100000 z_1_10 + 100000 z_1_2 + 100000 z_1_4 + 100000 z_1_5 + 100000 z_1_8 <= 499852.58992228651
 c3772: 120 p_1_1 + 120 p_1_10 + 120 p_1_2 + 120 p_1_4 + 120 p_1_5 + 120 p_1_8 + 100000 z_1_1 + 100000 z_1_10 + 100000 z_1_2 + 100000 z_1_4 + 100000 z_1_5 + 100000 z_1_8 <= 599852.24962193239
 c3773: 120 p_1_10 + 120 p_1_3 + 120 p_1_4 + 120 p_1_5 + 120 p_1_8 + 100000 z_1_10 + 100000 z_1_3 + 100000 z_1_4 + 100000 z_1_5 + 100000 z_1_8 <= 498810.64114419679
 c3774: 120 p_1_1 + 120 p_1_10 + 120 p_1_3 + 120 p_1_4 + 120 p_1_5 + 120 p_1_8 + 100000 z_1_1 + 100000 z_1_10 + 100000 z_1_3 + 100000 z_1_4 + 100000 z_1_5 + 100000 z_1_8 <= 598810.30084384268
 c3775: 120 p_1_10 + 120 p_1_2 + 120 p_1_3 + 120 p_1_4 + 120 p_1_5 + 120 p_1_8 + 100000 z_1_10 + 100000 z_1_2 + 100000 z_1_3 + 100000 z_1_4 + 100000 z_1_5 + 100000 z_1_8 <= 598788.53755868063
 c3776: 120 p_1_1 + 120 p_1_10 + 120 p_1_2 + 120 p_1_3 + 120 p_1_4 + 120 p_1_5 + 120 p_1_8 + 100000 z_1_1 + 100000 z_1_10 + 100000 z_1_2 + 100000 z_1_3 + 100000 z_1_4 + 100000 z_1_5 + 100000 z_1_8 <= 698788.19725832646
 c3777: 120 p_1_10 + 120 p_1_6 + 120 p_1_8 + 100000 z_1_10 + 100000 z_1_6 + 100000 z_1_8 <= 298529.35620942101
 c3778: 120 p_1_1 + 120 p_1_10 + 120 p_1_6 + 120 p_1_8 + 100000 z_1_1 + 100000 z_1_10 + 100000 z_1_6 + 100000 z_1_8 <= 398516.90458671708
 c3779: 120 p_1_10 + 120 p_1_2 + 120 p_1_6 + 120 p_1_8 + 100000 z_1_10 + 100000 z_1_2 + 100000 z_1_6 + 100000 z_1_8 <= 398529.32699979347
 c3780: 120 p_1_1 + 120 p_1_10 + 120 p_1_2 + 120 p_1_6 + 120 p_1_8 + 100000 z_1_1 + 100000 z_1_10 + 100000 z_1_2 + 100000 z_1_6 + 100000 z_1_8 <= 498516.87537708954
 c3781: 120 p_1_10 + 120 p_1_3 + 120 p_1_6 + 120 p_1_8 + 100000 z_1_10 + 100000 z_1_3 + 100000 z_1_6 + 100000 z_1_8 <= 398529.34615092585
 c3782: 120 p_1_1 + 120 p_1_10 + 120 p_1_3 + 120 p_1_6 + 120 p_1_8 + 100000 z_1_1 + 100000 z_1_10 + 100000 z_1_3 + 100000 z_1_6 + 100000 z_1_8 <= 498516.89452822192
 c3783: 120 p_1_10 + 120 p_1_2 + 120 p_1_3 + 120 p_1_6 + 120 p_1_8 + 100000 z_1_10 + 100000 z_1_2 + 100000 z_1_3 + 100000 z_1_6 + 100000 z_1_8 <= 498529.31694129831
 c3784: 120 p_1_1 + 120 p_1_10 + 120 p_1_2 + 120 p_1_3 + 120 p_1_6 + 120 p_1_8 + 100000 z_1_1 + 100000 z_1_10 + 100000 z_1_2 + 100000 z_1_3 + 100000 z_1_6 + 100000 z_1_8 <= 598516.86531859438
 c3785: 120 p_1_10 + 120 p_1_4 + 120 p_1_6 + 120 p_1_8 + 100000 z_1_10 + 100000 z_1_4 + 100000 z_1_6 + 100000 z_1_8 <= 398476.55508611485
 c3786: 120 p_1_1 + 120 p_1_10 + 120 p_1_4 + 120 p_1_6 + 120 p_1_8 + 100000 z_1_1 + 100000 z_1_10 + 100000 z_1_4 + 100000 z_1_6 + 100000 z_1_8 <= 498476.21478576068
 c3787: 120 p_1_10 + 120 p_1_2 + 120 p_1_4 + 120 p_1_6 + 120 p_1_8 + 100000 z_1_10 + 100000 z_1_2 + 100000 z_1_4 + 100000 z_1_6 + 100000 z_1_8 <= 498476.52587648731
 c3788: 120 p_1_1 + 120 p_1_10 + 120 p_1_2 + 120 p_1_4 + 120 p_1_6 + 120 p_1_8 + 100000 z_1_1 + 100000 z_1_10 + 100000 z_1_2 + 100000 z_1_4 + 100000 z_1_6 + 100000 z_1_8 <= 598476.1855761332
 c3789: 120 p_1_10 + 120 p_1_3 + 120 p_1_4 + 120 p_1_6 + 120 p_1_8 + 100000 z_1_10 + 100000 z_1_3 + 100000 z_1_4 + 100000 z_1_6 + 100000 z_1_8 <= 498476.54502761964
 c3790: 120 p_1_1 + 120 p_1_10 + 120 p_1_3 + 120 p_1_4 + 120 p_1_6 + 120 p_1_8 + 100000 z_1_1 + 100000 z_1_10 + 100000 z_1_3 + 100000 z_1_4 + 100000 z_1_6 + 100000 z_1_8 <= 598476.20472726552
 c3791: 120 p_1_10 + 120 p_1_2 + 120 p_1_3 + 120 p_1_4 + 120 p_1_6 + 120 p_1_8 + 100000 z_1_10 + 100000 z_1_2 + 100000 z_1_3 + 100000 z_1_4 + 100000 z_1_6 + 100000 z_1_8 <= 598476.51581799216
 c3792: 120 p_1_1 + 120 p_1_10 + 120 p_1_2 + 120 p_1_3 + 120 p_1_4 + 120 p_1_6 + 120 p_1_8 + 100000 z_1_1 + 100000 z_1_10 + 100000 z_1_2 + 100000 z_1_3 + 100000 z_1_4 + 100000 z_1_6 + 100000 z_1_8 <= 698476.17551763798
 c3793: 120 p_1_10 + 120 p_1_5 + 120 p_1_6 + 120 p_1_8 + 100000 z_1_10 + 100000 z_1_5 + 100000 z_1_6 + 100000 z_1_8 <= 398519.3962494912
 c3794: 120 p_1_1 + 120 p_1_10 + 120 p_1_5 + 120 p_1_6 + 120 p_1_8 + 100000 z_1_1 + 100000 z_1_10 + 100000 z_1_5 + 100000 z_1_6 + 100000 z_1_8 <= 498506.94462678727
 c3795: 120 p_1_10 + 120 p_1_2 + 120 p_1_5 + 120 p_1_6 + 120 p_1_8 + 100000 z_1_10 + 100000 z_1_2 + 100000 z_1_5 + 100000 z_1_6 + 100000 z_1_8 <= 498500.60755039973
 c3796: 120 p_1_1 + 120 p_1_10 + 120 p_1_2 + 120 p_1_5 + 120 p_1_6 + 120 p_1_8 + 100000 z_1_1 + 100000 z_1_10 + 100000 z_1_2 + 100000 z_1_5 + 100000 z_1_6 + 100000 z_1_8 <= 598488.1559276958
 c3797: 120 p_1_10 + 120 p_1_3 + 120 p_1_5 + 120 p_1_6 + 120 p_1_8 + 100000 z_1_10 + 100000 z_1_3 + 100000 z_1_5 + 100000 z_1_6 + 100000 z_1_8 <= 498519.38619099604
 c3798: 120 p_1_1 + 120 p_1_10 + 120 p_1_3 + 120 p_1_5 + 120 p_1_6 + 120 p_1_8 + 100000 z_1_1 + 100000 z_1_10 + 100000 z_1_3 + 100000 z_1_5 + 100000 z_1_6 + 100000 z_1_8 <= 598506.93456829211
 c3799: 120 p_1_10 + 120 p_1_2 + 120 p_1_3 + 120 p_1_5 + 120 p_1_6 + 120 p_1_8 + 100000 z_1_10 + 100000 z_1_2 + 100000 z_1_3 + 100000 z_1_5 + 100000 z_1_6 + 100000 z_1_8 <= 598500.59749190451
 c3800: 120 p_1_1 + 120 p_1_10 + 120 p_1_2 + 120 p_1_3 + 120 p_1_5 + 120 p_1_6 + 120 p_1_8 + 100000 z_1_1 + 100000 z_1_10 + 100000 z_1_2 + 100000 z_1_3 + 100000 z_1_5 + 100000 z_1_6 + 100000 z_1_8 <= 698488.14586920058
 c3801: 120 p_1_10 + 120 p_1_4 + 120 p_1_5 + 120 p_1_6 + 120 p_1_8 + 100000 z_1_10 + 100000 z_1_4 + 100000 z_1_5 + 100000 z_1_6 + 100000 z_1_8 <= 498466.59512618498
 c3802: 120 p_1_1 + 120 p_1_10 + 120 p_1_4 + 120 p_1_5 + 120 p_1_6 + 120 p_1_8 + 100000 z_1_1 + 100000 z_1_10 + 100000 z_1_4 + 100000 z_1_5 + 100000 z_1_6 + 100000 z_1_8 <= 598466.25482583081
 c3803: 120 p_1_10 + 120 p_1_2 + 120 p_1_4 + 120 p_1_5 + 120 p_1_6 + 120 p_1_8 + 100000 z_1_10 + 100000 z_1_2 + 100000 z_1_4 + 100000 z_1_5 + 100000 z_1_6 + 100000 z_1_8 <= 598447.80642709357
 c3804: 120 p_1_1 + 120 p_1_10 + 120 p_1_2 + 120 p_1_4 + 120 p_1_5 + 120 p_1_6 + 120 p_1_8 + 100000 z_1_1 + 100000 z_1_10 + 100000 z_1_2 + 100000 z_1_4 + 100000 z_1_5 + 100000 z_1_6 + 100000 z_1_8 <= 698447.4661267394
 c3805: 120 p_1_10 + 120 p_1_3 + 120 p_1_4 + 120 p_1_5 + 120 p_1_6 + 120 p_1_8 + 100000 z_1_10 + 100000 z_1_3 + 100000 z_1_4 + 100000 z_1_5 + 100000 z_1_6 + 100000 z_1_8 <= 598466.58506768977
 c3806: 120 p_1_1 + 120 p_1_10 + 120 p_1_3 + 120 p_1_4 + 120 p_1_5 + 120 p_1_6 + 120 p_1_8 + 100000 z_1_1 + 100000 z_1_10 + 100000 z_1_3 + 100000 z_1_4 + 100000 z_1_5 + 100000 z_1_6 + 100000 z_1_8 <= 698466.24476733571
 c3807: 120 p_1_10 + 120 p_1_2 + 120 p_1_3 + 120 p_1_4 + 120 p_1_5 + 120 p_1_6 + 120 p_1_8 + 100000 z_1_10 + 100000 z_1_2 + 100000 z_1_3 + 100000 z_1_4 + 100000 z_1_5 + 100000 z_1_6 + 100000 z_1_8 <= 698447.79636859836
 c3808: 120 p_1_1 + 120 p_1_10 + 120 p_1_2 + 120 p_1_3 + 120 p_1_4 + 120 p_1_5 + 120 p_1_6 + 120 p_1_8 + 100000 z_1_1 + 100000 z_1_10 + 100000 z_1_2 + 100000 z_1_3 + 100000 z_1_4 + 100000 z_1_5 + 100000 z_1_6 + 100000 z_1_8 <= 798447.45606824418
 c3809: 120 p_1_10 + 120 p_1_7 + 120 p_1_8 + 100000 z_1_10 + 100000 z_1_7 + 100000 z_1_8 <= 299959.15628202213
 c3810: 120 p_1_1 + 120 p_1_10 + 120 p_1_7 + 120 p_1_8 + 100000 z_1_1 + 100000 z_1_10 + 100000 z_1_7 + 100000 z_1_8 <= 399946.7046593182
 c3811: 120 p_1_10 + 120 p_1_2 + 120 p_1_7 + 120 p_1_8 + 100000 z_1_10 + 100000 z_1_2 + 100000 z_1_7 + 100000 z_1_8 <= 399929.91873895278
 c3812: 120 p_1_1 + 120 p_1_10 + 120 p_1_2 + 120 p_1_7 + 120 p_1_8 + 100000 z_1_1 + 100000 z_1_10 + 100000 z_1_2 + 100000 z_1_7 + 100000 z_1_8 <= 499917.46711624885
 c3813: 120 p_1_10 + 120 p_1_3 + 120 p_1_7 + 120 p_1_8 + 100000 z_1_10 + 100000 z_1_3 + 100000 z_1_7 + 100000 z_1_8 <= 398866.09259008273
 c3814: 120 p_1_1 + 120 p_1_10 + 120 p_1_3 + 120 p_1_7 + 120 p_1_8 + 100000 z_1_1 + 100000 z_1_10 + 100000 z_1_3 + 100000 z_1_7 + 100000 z_1_8 <= 498853.6409673788
 c3815: 120 p_1_10 + 120 p_1_2 + 120 p_1_3 + 120 p_1_7 + 120 p_1_8 + 100000 z_1_10 + 100000 z_1_2 + 100000 z_1_3 + 100000 z_1_7 + 100000 z_1_8 <= 498865.86637534696
 c3816: 120 p_1_1 + 120 p_1_10 + 120 p_1_2 + 120 p_1_3 + 120 p_1_7 + 120 p_1_8 + 100000 z_1_1 + 100000 z_1_10 + 100000 z_1_2 + 100000 z_1_3 + 100000 z_1_7 + 100000 z_1_8 <= 598853.41475264297
 c3817: 120 p_1_10 + 120 p_1_4 + 120 p_1_7 + 120 p_1_8 + 100000 z_1_10 + 100000 z_1_4 + 100000 z_1_7 + 100000 z_1_8 <= 399906.35515871597
 c3818: 120 p_1_1 + 120 p_1_10 + 120 p_1_4 + 120 p_1_7 + 120 p_1_8 + 100000 z_1_1 + 100000 z_1_10 + 100000 z_1_4 + 100000 z_1_7 + 100000 z_1_8 <= 499906.0148583618
 c3819: 120 p_1_10 + 120 p_1_2 + 120 p_1_4 + 120 p_1_7 + 120 p_1_8 + 100000 z_1_10 + 100000 z_1_2 + 100000 z_1_4 + 100000 z_1_7 + 100000 z_1_8 <= 499877.11761564662
 c3820: 120 p_1_1 + 120 p_1_10 + 120 p_1_2 + 120 p_1_4 + 120 p_1_7 + 120 p_1_8 + 100000 z_1_1 + 100000 z_1_10 + 100000 z_1_2 + 100000 z_1_4 + 100000 z_1_7 + 100000 z_1_8 <= 599876.77731529251
 c3821: 120 p_1_10 + 120 p_1_3 + 120 p_1_4 + 120 p_1_7 + 120 p_1_8 + 100000 z_1_10 + 100000 z_1_3 + 100000 z_1_4 + 100000 z_1_7 + 100000 z_1_8 <= 498813.29146677651
 c3822: 120 p_1_1 + 120 p_1_10 + 120 p_1_3 + 120 p_1_4 + 120 p_1_7 + 120 p_1_8 + 100000 z_1_1 + 100000 z_1_10 + 100000 z_1_3 + 100000 z_1_4 + 100000 z_1_7 + 100000 z_1_8 <= 598812.95116642234
 c3823: 120 p_1_10 + 120 p_1_2 + 120 p_1_3 + 120 p_1_4 + 120 p_1_7 + 120 p_1_8 + 100000 z_1_10 + 100000 z_1_2 + 100000 z_1_3 + 100000 z_1_4 + 100000 z_1_7 + 100000 z_1_8 <= 598813.06525204075
 c3824: 120 p_1_1 + 120 p_1_10 + 120 p_1_2 + 120 p_1_3 + 120 p_1_4 + 120 p_1_7 + 120 p_1_8 + 100000 z_1_1 + 100000 z_1_10 + 100000 z_1_2 + 100000 z_1_3 + 100000 z_1_4 + 100000 z_1_7 + 100000 z_1_8 <= 698812.72495168657
 c3825: 120 p_1_10 + 120 p_1_5 + 120 p_1_7 + 120 p_1_8 + 100000 z_1_10 + 100000 z_1_5 + 100000 z_1_7 + 100000 z_1_8 <= 399956.36063820991
 c3826: 120 p_1_1 + 120 p_1_10 + 120 p_1_5 + 120 p_1_7 + 120 p_1_8 + 100000 z_1_1 + 100000 z_1_10 + 100000 z_1_5 + 100000 z_1_7 + 100000 z_1_8 <= 499943.90901550598
 c3827: 120 p_1_10 + 120 p_1_2 + 120 p_1_5 + 120 p_1_7 + 120 p_1_8 + 100000 z_1_10 + 100000 z_1_2 + 100000 z_1_5 + 100000 z_1_7 + 100000 z_1_8 <= 499901.19928955904
 c3828: 120 p_1_1 + 120 p_1_10 + 120 p_1_2 + 120 p_1_5 + 120 p_1_7 + 120 p_1_8 + 100000 z_1_1 + 100000 z_1_10 + 100000 z_1_2 + 100000 z_1_5 + 100000 z_1_7 + 100000 z_1_8 <= 599888.74766685511
 c3829: 120 p_1_10 + 120 p_1_3 + 120 p_1_5 + 120 p_1_7 + 120 p_1_8 + 100000 z_1_10 + 100000 z_1_3 + 100000 z_1_5 + 100000 z_1_7 + 100000 z_1_8 <= 498859.25051146932
 c3830: 120 p_1_1 + 120 p_1_10 + 120 p_1_3 + 120 p_1_5 + 120 p_1_7 + 120 p_1_8 + 100000 z_1_1 + 100000 z_1_10 + 100000 z_1_3 + 100000 z_1_5 + 100000 z_1_7 + 100000 z_1_8 <= 598846.79888876539
 c3831: 120 p_1_10 + 120 p_1_2 + 120 p_1_3 + 120 p_1_5 + 120 p_1_7 + 120 p_1_8 + 100000 z_1_10 + 100000 z_1_2 + 100000 z_1_3 + 100000 z_1_5 + 100000 z_1_7 + 100000 z_1_8 <= 598837.14692595322
 c3832: 120 p_1_1 + 120 p_1_10 + 120 p_1_2 + 120 p_1_3 + 120 p_1_5 + 120 p_1_7 + 120 p_1_8 + 100000 z_1_1 + 100000 z_1_10 + 100000 z_1_2 + 100000 z_1_3 + 100000 z_1_5 + 100000 z_1_7 + 100000 z_1_8 <= 698824.69530324929
 c3833: 120 p_1_10 + 120 p_1_4 + 120 p_1_5 + 120 p_1_7 + 120 p_1_8 + 100000 z_1_10 + 100000 z_1_4 + 100000 z_1_5 + 100000 z_1_7 + 100000 z_1_8 <= 499903.5595149037
 c3834: 120 p_1_1 + 120 p_1_10 + 120 p_1_4 + 120 p_1_5 + 120 p_1_7 + 120 p_1_8 + 100000 z_1_1 + 100000 z_1_10 + 100000 z_1_4 + 100000 z_1_5 + 100000 z_1_7 + 100000 z_1_8 <= 599903.21921454952
 c3835: 120 p_1_10 + 120 p_1_2 + 120 p_1_4 + 120 p_1_5 + 120 p_1_7 + 120 p_1_8 + 100000 z_1_10 + 100000 z_1_2 + 100000 z_1_4 + 100000 z_1_5 + 100000 z_1_7 + 100000 z_1_8 <= 599848.39816625288
 c3836: 120 p_1_1 + 120 p_1_10 + 120 p_1_2 + 120 p_1_4 + 120 p_1_5 + 120 p_1_7 + 120 p_1_8 + 100000 z_1_1 + 100000 z_1_10 + 100000 z_1_2 + 100000 z_1_4 + 100000 z_1_5 + 100000 z_1_7 + 100000 z_1_8 <= 699848.05786589871
 c3837: 120 p_1_10 + 120 p_1_3 + 120 p_1_4 + 120 p_1_5 + 120 p_1_7 + 120 p_1_8 + 100000 z_1_10 + 100000 z_1_3 + 100000 z_1_4 + 100000 z_1_5 + 100000 z_1_7 + 100000 z_1_8 <= 598806.44938816316
 c3838: 120 p_1_1 + 120 p_1_10 + 120 p_1_3 + 120 p_1_4 + 120 p_1_5 + 120 p_1_7 + 120 p_1_8 + 100000 z_1_1 + 100000 z_1_10 + 100000 z_1_3 + 100000 z_1_4 + 100000 z_1_5 + 100000 z_1_7 + 100000 z_1_8 <= 698806.10908780899
 c3839: 120 p_1_10 + 120 p_1_2 + 120 p_1_3 + 120 p_1_4 + 120 p_1_5 + 120 p_1_7 + 120 p_1_8 + 100000 z_1_10 + 100000 z_1_2 + 100000 z_1_3 + 100000 z_1_4 + 100000 z_1_5 + 100000 z_1_7 + 100000 z_1_8 <= 698784.34580264695
 c3840: 120 p_1_1 + 120 p_1_10 + 120 p_1_2 + 120 p_1_3 + 120 p_1_4 + 120 p_1_5 + 120 p_1_7 + 120 p_1_8 + 100000 z_1_1 + 100000 z_1_10 + 100000 z_1_2 + 100000 z_1_3 + 100000 z_1_4 + 100000 z_1_5 + 100000 z_1_7 + 100000 z_1_8 <= 798784.00550229277
 c3841: 120 p_1_10 + 120 p_1_6 + 120 p_1_7 + 120 p_1_8 + 100000 z_1_10 + 100000 z_1_6 + 100000 z_1_7 + 100000 z_1_8 <= 398525.16445338732
 c3842: 120 p_1_1 + 120 p_1_10 + 120 p_1_6 + 120 p_1_7 + 120 p_1_8 + 100000 z_1_1 + 100000 z_1_10 + 100000 z_1_6 + 100000 z_1_7 + 100000 z_1_8 <= 498512.71283068339
 c3843: 120 p_1_10 + 120 p_1_2 + 120 p_1_6 + 120 p_1_7 + 120 p_1_8 + 100000 z_1_10 + 100000 z_1_2 + 100000 z_1_6 + 100000 z_1_7 + 100000 z_1_8 <= 498525.13524375984
 c3844: 120 p_1_1 + 120 p_1_10 + 120 p_1_2 + 120 p_1_6 + 120 p_1_7 + 120 p_1_8 + 100000 z_1_1 + 100000 z_1_10 + 100000 z_1_2 + 100000 z_1_6 + 100000 z_1_7 + 100000 z_1_8 <= 598512.68362105591
 c3845: 120 p_1_10 + 120 p_1_3 + 120 p_1_6 + 120 p_1_7 + 120 p_1_8 + 100000 z_1_10 + 100000 z_1_3 + 100000 z_1_6 + 100000 z_1_7 + 100000 z_1_8 <= 498525.15439489216
 c3846: 120 p_1_1 + 120 p_1_10 + 120 p_1_3 + 120 p_1_6 + 120 p_1_7 + 120 p_1_8 + 100000 z_1_1 + 100000 z_1_10 + 100000 z_1_3 + 100000 z_1_6 + 100000 z_1_7 + 100000 z_1_8 <= 598512.70277218823
 c3847: 120 p_1_10 + 120 p_1_2 + 120 p_1_3 + 120 p_1_6 + 120 p_1_7 + 120 p_1_8 + 100000 z_1_10 + 100000 z_1_2 + 100000 z_1_3 + 100000 z_1_6 + 100000 z_1_7 + 100000 z_1_8 <= 598525.12518526462
 c3848: 120 p_1_1 + 120 p_1_10 + 120 p_1_2 + 120 p_1_3 + 120 p_1_6 + 120 p_1_7 + 120 p_1_8 + 100000 z_1_1 + 100000 z_1_10 + 100000 z_1_2 + 100000 z_1_3 + 100000 z_1_6 + 100000 z_1_7 + 100000 z_1_8 <= 698512.6735625607
 c3849: 120 p_1_10 + 120 p_1_4 + 120 p_1_6 + 120 p_1_7 + 120 p_1_8 + 100000 z_1_10 + 100000 z_1_4 + 100000 z_1_6 + 100000 z_1_7 + 100000 z_1_8 <= 498472.36333008116
 c3850: 120 p_1_1 + 120 p_1_10 + 120 p_1_4 + 120 p_1_6 + 120 p_1_7 + 120 p_1_8 + 100000 z_1_1 + 100000 z_1_10 + 100000 z_1_4 + 100000 z_1_6 + 100000 z_1_7 + 100000 z_1_8 <= 598472.02302972705
 c3851: 120 p_1_10 + 120 p_1_2 + 120 p_1_4 + 120 p_1_6 + 120 p_1_7 + 120 p_1_8 + 100000 z_1_10 + 100000 z_1_2 + 100000 z_1_4 + 100000 z_1_6 + 100000 z_1_7 + 100000 z_1_8 <= 598472.33412045357
 c3852: 120 p_1_1 + 120 p_1_10 + 120 p_1_2 + 120 p_1_4 + 120 p_1_6 + 120 p_1_7 + 120 p_1_8 + 100000 z_1_1 + 100000 z_1_10 + 100000 z_1_2 + 100000 z_1_4 + 100000 z_1_6 + 100000 z_1_7 + 100000 z_1_8 <= 698471.99382009951
 c3853: 120 p_1_10 + 120 p_1_3 + 120 p_1_4 + 120 p_1_6 + 120 p_1_7 + 120 p_1_8 + 100000 z_1_10 + 100000 z_1_3 + 100000 z_1_4 + 100000 z_1_6 + 100000 z_1_7 + 100000 z_1_8 <= 598472.35327158601
 c3854: 120 p_1_1 + 120 p_1_10 + 120 p_1_3 + 120 p_1_4 + 120 p_1_6 + 120 p_1_7 + 120 p_1_8 + 100000 z_1_1 + 100000 z_1_10 + 100000 z_1_3 + 100000 z_1_4 + 100000 z_1_6 + 100000 z_1_7 + 100000 z_1_8 <= 698472.01297123183
 c3855: 120 p_1_10 + 120 p_1_2 + 120 p_1_3 + 120 p_1_4 + 120 p_1_6 + 120 p_1_7 + 120 p_1_8 + 100000 z_1_10 + 100000 z_1_2 + 100000 z_1_3 + 100000 z_1_4 + 100000 z_1_6 + 100000 z_1_7 + 100000 z_1_8 <= 698472.32406195847
 c3856: 120 p_1_1 + 120 p_1_10 + 120 p_1_2 + 120 p_1_3 + 120 p_1_4 + 120 p_1_6 + 120 p_1_7 + 120 p_1_8 + 100000 z_1_1 + 100000 z_1_10 + 100000 z_1_2 + 100000 z_1_3 + 100000 z_1_4 + 100000 z_1_6 + 100000 z_1_7 + 100000 z_1_8 <= 798471.98376160429
 c3857: 120 p_1_10 + 120 p_1_5 + 120 p_1_6 + 120 p_1_7 + 120 p_1_8 + 100000 z_1_10 + 100000 z_1_5 + 100000 z_1_6 + 100000 z_1_7 + 100000 z_1_8 <= 498515.20449345751
 c3858: 120 p_1_1 + 120 p_1_10 + 120 p_1_5 + 120 p_1_6 + 120 p_1_7 + 120 p_1_8 + 100000 z_1_1 + 100000 z_1_10 + 100000 z_1_5 + 100000 z_1_6 + 100000 z_1_7 + 100000 z_1_8 <= 598502.75287075352
 c3859: 120 p_1_10 + 120 p_1_2 + 120 p_1_5 + 120 p_1_6 + 120 p_1_7 + 120 p_1_8 + 100000 z_1_10 + 100000 z_1_2 + 100000 z_1_5 + 100000 z_1_6 + 100000 z_1_7 + 100000 z_1_8 <= 598496.41579436604
 c3860: 120 p_1_1 + 120 p_1_10 + 120 p_1_2 + 120 p_1_5 + 120 p_1_6 + 120 p_1_7 + 120 p_1_8 + 100000 z_1_1 + 100000 z_1_10 + 100000 z_1_2 + 100000 z_1_5 + 100000 z_1_6 + 100000 z_1_7 + 100000 z_1_8 <= 698483.96417166211
 c3861: 120 p_1_10 + 120 p_1_3 + 120 p_1_5 + 120 p_1_6 + 120 p_1_7 + 120 p_1_8 + 100000 z_1_10 + 100000 z_1_3 + 100000 z_1_5 + 100000 z_1_6 + 100000 z_1_7 + 100000 z_1_8 <= 598515.19443496235
 c3862: 120 p_1_1 + 120 p_1_10 + 120 p_1_3 + 120 p_1_5 + 120 p_1_6 + 120 p_1_7 + 120 p_1_8 + 100000 z_1_1 + 100000 z_1_10 + 100000 z_1_3 + 100000 z_1_5 + 100000 z_1_6 + 100000 z_1_7 + 100000 z_1_8 <= 698502.74281225842
 c3863: 120 p_1_10 + 120 p_1_2 + 120 p_1_3 + 120 p_1_5 + 120 p_1_6 + 120 p_1_7 + 120 p_1_8 + 100000 z_1_10 + 100000 z_1_2 + 100000 z_1_3 + 100000 z_1_5 + 100000 z_1_6 + 100000 z_1_7 + 100000 z_1_8 <= 698496.40573587082
 c3864: 120 p_1_1 + 120 p_1_10 + 120 p_1_2 + 120 p_1_3 + 120 p_1_5 + 120 p_1_6 + 120 p_1_7 + 120 p_1_8 + 100000 z_1_1 + 100000 z_1_10 + 100000 z_1_2 + 100000 z_1_3 + 100000 z_1_5 + 100000 z_1_6 + 100000 z_1_7 + 100000 z_1_8 <= 798483.9541131669
 c3865: 120 p_1_10 + 120 p_1_4 + 120 p_1_5 + 120 p_1_6 + 120 p_1_7 + 120 p_1_8 + 100000 z_1_10 + 100000 z_1_4 + 100000 z_1_5 + 100000 z_1_6 + 100000 z_1_7 + 100000 z_1_8 <= 598462.4033701513
 c3866: 120 p_1_1 + 120 p_1_10 + 120 p_1_4 + 120 p_1_5 + 120 p_1_6 + 120 p_1_7 + 120 p_1_8 + 100000 z_1_1 + 100000 z_1_10 + 100000 z_1_4 + 100000 z_1_5 + 100000 z_1_6 + 100000 z_1_7 + 100000 z_1_8 <= 698462.06306979712
 c3867: 120 p_1_10 + 120 p_1_2 + 120 p_1_4 + 120 p_1_5 + 120 p_1_6 + 120 p_1_7 + 120 p_1_8 + 100000 z_1_10 + 100000 z_1_2 + 100000 z_1_4 + 100000 z_1_5 + 100000 z_1_6 + 100000 z_1_7 + 100000 z_1_8 <= 698443.61467105988
 c3868: 120 p_1_1 + 120 p_1_10 + 120 p_1_2 + 120 p_1_4 + 120 p_1_5 + 120 p_1_6 + 120 p_1_7 + 120 p_1_8 + 100000 z_1_1 + 100000 z_1_10 + 100000 z_1_2 + 100000 z_1_4 + 100000 z_1_5 + 100000 z_1_6 + 100000 z_1_7 + 100000 z_1_8 <= 798443.27437070571
 c3869: 120 p_1_10 + 120 p_1_3 + 120 p_1_4 + 120 p_1_5 + 120 p_1_6 + 120 p_1_7 + 120 p_1_8 + 100000 z_1_10 + 100000 z_1_3 + 100000 z_1_4 + 100000 z_1_5 + 100000 z_1_6 + 100000 z_1_7 + 100000 z_1_8 <= 698462.3933116562
 c3870: 120 p_1_1 + 120 p_1_10 + 120 p_1_3 + 120 p_1_4 + 120 p_1_5 + 120 p_1_6 + 120 p_1_7 + 120 p_1_8 + 100000 z_1_1 + 100000 z_1_10 + 100000 z_1_3 + 100000 z_1_4 + 100000 z_1_5 + 100000 z_1_6 + 100000 z_1_7 + 100000 z_1_8 <= 798462.05301130202
 c3871: 120 p_1_10 + 120 p_1_2 + 120 p_1_3 + 120 p_1_4 + 120 p_1_5 + 120 p_1_6 + 120 p_1_7 + 120 p_1_8 + 100000 z_1_10 + 100000 z_1_2 + 100000 z_1_3 + 100000 z_1_4 + 100000 z_1_5 + 100000 z_1_6 + 100000 z_1_7 + 100000 z_1_8 <= 798443.60461256467
 c3872: 120 p_1_1 + 120 p_1_10 + 120 p_1_2 + 120 p_1_3 + 120 p_1_4 + 120 p_1_5 + 120 p_1_6 + 120 p_1_7 + 120 p_1_8 + 100000 z_1_1 + 100000 z_1_10 + 100000 z_1_2 + 100000 z_1_3 + 100000 z_1_4 + 100000 z_1_5 + 100000 z_1_6 + 100000 z_1_7 + 100000 z_1_8 <= 898443.26431221049
 c3873: 120 p_1_10 + 120 p_1_9 + 100000 z_1_10 + 100000 z_1_9 <= 199718.32184849452
 c3874: 120 p_1_1 + 120 p_1_10 + 120 p_1_9 + 100000 z_1_1 + 100000 z_1_10 + 100000 z_1_9 <= 299717.01273179793
 c3875: 120 p_1_10 + 120 p_1_2 + 120 p_1_9 + 100000 z_1_10 + 100000 z_1_2 + 100000 z_1_9 <= 298941.23727612704
 c3876: 120 p_1_1 + 120 p_1_10 + 120 p_1_2 + 120 p_1_9 + 100000 z_1_1 + 100000 z_1_10 + 100000 z_1_2 + 100000 z_1_9 <= 398939.92815943051
 c3877: 120 p_1_10 + 120 p_1_3 + 120 p_1_9 + 100000 z_1_10 + 100000 z_1_3 + 100000 z_1_9 <= 299662.17131951259
 c3878: 120 p_1_1 + 120 p_1_10 + 120 p_1_3 + 120 p_1_9 + 100000 z_1_1 + 100000 z_1_10 + 100000 z_1_3 + 100000 z_1_9 <= 399660.862202816
 c3879: 120 p_1_10 + 120 p_1_2 + 120 p_1_3 + 120 p_1_9 + 100000 z_1_10 + 100000 z_1_2 + 100000 z_1_3 + 100000 z_1_9 <= 398910.13624306559
 c3880: 120 p_1_1 + 120 p_1_10 + 120 p_1_2 + 120 p_1_3 + 120 p_1_9 + 100000 z_1_1 + 100000 z_1_10 + 100000 z_1_2 + 100000 z_1_3 + 100000 z_1_9 <= 498897.68462036166
 c3881: 120 p_1_10 + 120 p_1_4 + 120 p_1_9 + 100000 z_1_10 + 100000 z_1_4 + 100000 z_1_9 <= 299699.09519340843
 c3882: 120 p_1_1 + 120 p_1_10 + 120 p_1_4 + 120 p_1_9 + 100000 z_1_1 + 100000 z_1_10 + 100000 z_1_4 + 100000 z_1_9 <= 399686.6435707045
 c3883: 120 p_1_10 + 120 p_1_2 + 120 p_1_4 + 120 p_1_9 + 100000 z_1_10 + 100000 z_1_2 + 100000 z_1_4 + 100000 z_1_9 <= 398922.010621041
 c3884: 120 p_1_1 + 120 p_1_10 + 120 p_1_2 + 120 p_1_4 + 120 p_1_9 + 100000 z_1_1 + 100000 z_1_10 + 100000 z_1_2 + 100000 z_1_4 + 100000 z_1_9 <= 498899.2383584741
 c3885: 120 p_1_10 + 120 p_1_3 + 120 p_1_4 + 120 p_1_9 + 100000 z_1_10 + 100000 z_1_3 + 100000 z_1_4 + 100000 z_1_9 <= 399642.9446644265
 c3886: 120 p_1_1 + 120 p_1_10 + 120 p_1_3 + 120 p_1_4 + 120 p_1_9 + 100000 z_1_1 + 100000 z_1_10 + 100000 z_1_3 + 100000 z_1_4 + 100000 z_1_9 <= 499630.49304172257
 c3887: 120 p_1_10 + 120 p_1_2 + 120 p_1_3 + 120 p_1_4 + 120 p_1_9 + 100000 z_1_10 + 100000 z_1_2 + 100000 z_1_3 + 100000 z_1_4 + 100000 z_1_9 <= 498867.96700894751
 c3888: 120 p_1_1 + 120 p_1_10 + 120 p_1_2 + 120 p_1_3 + 120 p_1_4 + 120 p_1_9 + 100000 z_1_1 + 100000 z_1_10 + 100000 z_1_2 + 100000 z_1_3 + 100000 z_1_4 + 100000 z_1_9 <= 598856.99481940526
 c3889: 120 p_1_10 + 120 p_1_5 + 120 p_1_9 + 100000 z_1_10 + 100000 z_1_5 + 100000 z_1_9 <= 298979.12087091373
 c3890: 120 p_1_1 + 120 p_1_10 + 120 p_1_5 + 120 p_1_9 + 100000 z_1_1 + 100000 z_1_10 + 100000 z_1_5 + 100000 z_1_9 <= 398977.8117542172
 c3891: 120 p_1_10 + 120 p_1_2 + 120 p_1_5 + 120 p_1_9 + 100000 z_1_10 + 100000 z_1_2 + 100000 z_1_5 + 100000 z_1_9 <= 398923.95952226286
 c3892: 120 p_1_1 + 120 p_1_10 + 120 p_1_2 + 120 p_1_5 + 120 p_1_9 + 100000 z_1_1 + 100000 z_1_10 + 100000 z_1_2 + 100000 z_1_5 + 100000 z_1_9 <= 498922.65040556632
 c3893: 120 p_1_10 + 120 p_1_3 + 120 p_1_5 + 120 p_1_9 + 100000 z_1_10 + 100000 z_1_3 + 100000 z_1_5 + 100000 z_1_9 <= 398922.9703419318
 c3894: 120 p_1_1 + 120 p_1_10 + 120 p_1_3 + 120 p_1_5 + 120 p_1_9 + 100000 z_1_1 + 100000 z_1_10 + 100000 z_1_3 + 100000 z_1_5 + 100000 z_1_9 <= 498921.66122523526
 c3895: 120 p_1_10 + 120 p_1_2 + 120 p_1_3 + 120 p_1_5 + 120 p_1_9 + 100000 z_1_10 + 100000 z_1_2 + 100000 z_1_3 + 100000 z_1_5 + 100000 z_1_9 <= 498892.8584892014
 c3896: 120 p_1_1 + 120 p_1_10 + 120 p_1_2 + 120 p_1_3 + 120 p_1_5 + 120 p_1_9 + 100000 z_1_1 + 100000 z_1_10 + 100000 z_1_2 + 100000 z_1_3 + 100000 z_1_5 + 100000 z_1_9 <= 598880.40686649748
 c3897: 120 p_1_10 + 120 p_1_4 + 120 p_1_5 + 120 p_1_9 + 100000 z_1_10 + 100000 z_1_4 + 100000 z_1_5 + 100000 z_1_9 <= 398959.89421582769
 c3898: 120 p_1_1 + 120 p_1_10 + 120 p_1_4 + 120 p_1_5 + 120 p_1_9 + 100000 z_1_1 + 100000 z_1_10 + 100000 z_1_4 + 100000 z_1_5 + 100000 z_1_9 <= 498937.12195326079
 c3899: 120 p_1_10 + 120 p_1_2 + 120 p_1_4 + 120 p_1_5 + 120 p_1_9 + 100000 z_1_10 + 100000 z_1_2 + 100000 z_1_4 + 100000 z_1_5 + 100000 z_1_9 <= 498904.73286717682
 c3900: 120 p_1_1 + 120 p_1_10 + 120 p_1_2 + 120 p_1_4 + 120 p_1_5 + 120 p_1_9 + 100000 z_1_1 + 100000 z_1_10 + 100000 z_1_2 + 100000 z_1_4 + 100000 z_1_5 + 100000 z_1_9 <= 598881.96060460992
 c3901: 120 p_1_10 + 120 p_1_3 + 120 p_1_4 + 120 p_1_5 + 120 p_1_9 + 100000 z_1_10 + 100000 z_1_3 + 100000 z_1_4 + 100000 z_1_5 + 100000 z_1_9 <= 498903.74368684576
 c3902: 120 p_1_1 + 120 p_1_10 + 120 p_1_3 + 120 p_1_4 + 120 p_1_5 + 120 p_1_9 + 100000 z_1_1 + 100000 z_1_10 + 100000 z_1_3 + 100000 z_1_4 + 100000 z_1_5 + 100000 z_1_9 <= 598880.9714242788
 c3903: 120 p_1_10 + 120 p_1_2 + 120 p_1_3 + 120 p_1_4 + 120 p_1_5 + 120 p_1_9 + 100000 z_1_10 + 100000 z_1_2 + 100000 z_1_3 + 100000 z_1_4 + 100000 z_1_5 + 100000 z_1_9 <= 598848.58233819483
 c3904: 120 p_1_1 + 120 p_1_10 + 120 p_1_2 + 120 p_1_3 + 120 p_1_4 + 120 p_1_5 + 120 p_1_9 + 100000 z_1_1 + 100000 z_1_10 + 100000 z_1_2 + 100000 z_1_3 + 100000 z_1_4 + 100000 z_1_5 + 100000 z_1_9 <= 698839.71706554107
 c3905: 120 p_1_10 + 120 p_1_6 + 120 p_1_9 + 100000 z_1_10 + 100000 z_1_6 + 100000 z_1_9 <= 299398.80751426797
 c3906: 120 p_1_1 + 120 p_1_10 + 120 p_1_6 + 120 p_1_9 + 100000 z_1_1 + 100000 z_1_10 + 100000 z_1_6 + 100000 z_1_9 <= 399397.49839757144
 c3907: 120 p_1_10 + 120 p_1_2 + 120 p_1_6 + 120 p_1_9 + 100000 z_1_10 + 100000 z_1_2 + 100000 z_1_6 + 100000 z_1_9 <= 398666.5786745912
 c3908: 120 p_1_1 + 120 p_1_10 + 120 p_1_2 + 120 p_1_6 + 120 p_1_9 + 100000 z_1_1 + 100000 z_1_10 + 100000 z_1_2 + 100000 z_1_6 + 100000 z_1_9 <= 498654.12705188728
 c3909: 120 p_1_10 + 120 p_1_3 + 120 p_1_6 + 120 p_1_9 + 100000 z_1_10 + 100000 z_1_3 + 100000 z_1_6 + 100000 z_1_9 <= 399398.79745577282
 c3910: 120 p_1_1 + 120 p_1_10 + 120 p_1_3 + 120 p_1_6 + 120 p_1_9 + 100000 z_1_1 + 100000 z_1_10 + 100000 z_1_3 + 100000 z_1_6 + 100000 z_1_9 <= 499397.48833907623
 c3911: 120 p_1_10 + 120 p_1_2 + 120 p_1_3 + 120 p_1_6 + 120 p_1_9 + 100000 z_1_10 + 100000 z_1_2 + 100000 z_1_3 + 100000 z_1_6 + 100000 z_1_9 <= 498646.76237932581
 c3912: 120 p_1_1 + 120 p_1_10 + 120 p_1_2 + 120 p_1_3 + 120 p_1_6 + 120 p_1_9 + 100000 z_1_1 + 100000 z_1_10 + 100000 z_1_2 + 100000 z_1_3 + 100000 z_1_6 + 100000 z_1_9 <= 598634.31075662188
 c3913: 120 p_1_10 + 120 p_1_4 + 120 p_1_6 + 120 p_1_9 + 100000 z_1_10 + 100000 z_1_4 + 100000 z_1_6 + 100000 z_1_9 <= 399379.58085918194
 c3914: 120 p_1_1 + 120 p_1_10 + 120 p_1_4 + 120 p_1_6 + 120 p_1_9 + 100000 z_1_1 + 100000 z_1_10 + 100000 z_1_4 + 100000 z_1_6 + 100000 z_1_9 <= 499367.12923647795
 c3915: 120 p_1_10 + 120 p_1_2 + 120 p_1_4 + 120 p_1_6 + 120 p_1_9 + 100000 z_1_10 + 100000 z_1_2 + 100000 z_1_4 + 100000 z_1_6 + 100000 z_1_9 <= 498624.40944047313
 c3916: 120 p_1_1 + 120 p_1_10 + 120 p_1_2 + 120 p_1_4 + 120 p_1_6 + 120 p_1_9 + 100000 z_1_1 + 100000 z_1_10 + 100000 z_1_2 + 100000 z_1_4 + 100000 z_1_6 + 100000 z_1_9 <= 598613.43725093082
 c3917: 120 p_1_10 + 120 p_1_3 + 120 p_1_4 + 120 p_1_6 + 120 p_1_9 + 100000 z_1_10 + 100000 z_1_3 + 100000 z_1_4 + 100000 z_1_6 + 100000 z_1_9 <= 499379.57080068672
 c3918: 120 p_1_1 + 120 p_1_10 + 120 p_1_3 + 120 p_1_4 + 120 p_1_6 + 120 p_1_9 + 100000 z_1_1 + 100000 z_1_10 + 100000 z_1_3 + 100000 z_1_4 + 100000 z_1_6 + 100000 z_1_9 <= 599367.11917798279
 c3919: 120 p_1_10 + 120 p_1_2 + 120 p_1_3 + 120 p_1_4 + 120 p_1_6 + 120 p_1_9 + 100000 z_1_10 + 100000 z_1_2 + 100000 z_1_3 + 100000 z_1_4 + 100000 z_1_6 + 100000 z_1_9 <= 598604.59314520773
 c3920: 120 p_1_1 + 120 p_1_10 + 120 p_1_2 + 120 p_1_3 + 120 p_1_4 + 120 p_1_6 + 120 p_1_9 + 100000 z_1_1 + 100000 z_1_10 + 100000 z_1_2 + 100000 z_1_3 + 100000 z_1_4 + 100000 z_1_6 + 100000 z_1_9 <= 698593.62095566548
 c3921: 120 p_1_10 + 120 p_1_5 + 120 p_1_6 + 120 p_1_9 + 100000 z_1_10 + 100000 z_1_5 + 100000 z_1_6 + 100000 z_1_9 <= 398668.08961981849
 c3922: 120 p_1_1 + 120 p_1_10 + 120 p_1_5 + 120 p_1_6 + 120 p_1_9 + 100000 z_1_1 + 100000 z_1_10 + 100000 z_1_5 + 100000 z_1_6 + 100000 z_1_9 <= 498658.29741999065
 c3923: 120 p_1_10 + 120 p_1_2 + 120 p_1_5 + 120 p_1_6 + 120 p_1_9 + 100000 z_1_10 + 100000 z_1_2 + 100000 z_1_5 + 100000 z_1_6 + 100000 z_1_9 <= 498649.30092072702
 c3924: 120 p_1_1 + 120 p_1_10 + 120 p_1_2 + 120 p_1_5 + 120 p_1_6 + 120 p_1_9 + 100000 z_1_1 + 100000 z_1_10 + 100000 z_1_2 + 100000 z_1_5 + 100000 z_1_6 + 100000 z_1_9 <= 598636.84929802304
 c3925: 120 p_1_10 + 120 p_1_3 + 120 p_1_5 + 120 p_1_6 + 120 p_1_9 + 100000 z_1_10 + 100000 z_1_3 + 100000 z_1_5 + 100000 z_1_6 + 100000 z_1_9 <= 498659.59647819202
 c3926: 120 p_1_1 + 120 p_1_10 + 120 p_1_3 + 120 p_1_5 + 120 p_1_6 + 120 p_1_9 + 100000 z_1_1 + 100000 z_1_10 + 100000 z_1_3 + 100000 z_1_5 + 100000 z_1_6 + 100000 z_1_9 <= 598658.28736149543
 c3927: 120 p_1_10 + 120 p_1_2 + 120 p_1_3 + 120 p_1_5 + 120 p_1_6 + 120 p_1_9 + 100000 z_1_10 + 100000 z_1_2 + 100000 z_1_3 + 100000 z_1_5 + 100000 z_1_6 + 100000 z_1_9 <= 598629.48462546163
 c3928: 120 p_1_1 + 120 p_1_10 + 120 p_1_2 + 120 p_1_3 + 120 p_1_5 + 120 p_1_6 + 120 p_1_9 + 100000 z_1_1 + 100000 z_1_10 + 100000 z_1_2 + 100000 z_1_3 + 100000 z_1_5 + 100000 z_1_6 + 100000 z_1_9 <= 698617.0330027577
 c3929: 120 p_1_10 + 120 p_1_4 + 120 p_1_5 + 120 p_1_6 + 120 p_1_9 + 100000 z_1_10 + 100000 z_1_4 + 100000 z_1_5 + 100000 z_1_6 + 100000 z_1_9 <= 498640.37988160114
 c3930: 120 p_1_1 + 120 p_1_10 + 120 p_1_4 + 120 p_1_5 + 120 p_1_6 + 120 p_1_9 + 100000 z_1_1 + 100000 z_1_10 + 100000 z_1_4 + 100000 z_1_5 + 100000 z_1_6 + 100000 z_1_9 <= 598617.60761903424
 c3931: 120 p_1_10 + 120 p_1_2 + 120 p_1_4 + 120 p_1_5 + 120 p_1_6 + 120 p_1_9 + 100000 z_1_10 + 100000 z_1_2 + 100000 z_1_4 + 100000 z_1_5 + 100000 z_1_6 + 100000 z_1_9 <= 598596.49979742081
 c3932: 120 p_1_1 + 120 p_1_10 + 120 p_1_2 + 120 p_1_4 + 120 p_1_5 + 120 p_1_6 + 120 p_1_9 + 100000 z_1_1 + 100000 z_1_10 + 100000 z_1_2 + 100000 z_1_4 + 100000 z_1_5 + 100000 z_1_6 + 100000 z_1_9 <= 698596.15949706663
 c3933: 120 p_1_10 + 120 p_1_3 + 120 p_1_4 + 120 p_1_5 + 120 p_1_6 + 120 p_1_9 + 100000 z_1_10 + 100000 z_1_3 + 100000 z_1_4 + 100000 z_1_5 + 100000 z_1_6 + 100000 z_1_9 <= 598640.36982310598
 c3934: 120 p_1_1 + 120 p_1_10 + 120 p_1_3 + 120 p_1_4 + 120 p_1_5 + 120 p_1_6 + 120 p_1_9 + 100000 z_1_1 + 100000 z_1_10 + 100000 z_1_3 + 100000 z_1_4 + 100000 z_1_5 + 100000 z_1_6 + 100000 z_1_9 <= 698617.59756053903
 c3935: 120 p_1_10 + 120 p_1_2 + 120 p_1_3 + 120 p_1_4 + 120 p_1_5 + 120 p_1_6 + 120 p_1_9 + 100000 z_1_10 + 100000 z_1_2 + 100000 z_1_3 + 100000 z_1_4 + 100000 z_1_5 + 100000 z_1_6 + 100000 z_1_9 <= 698585.20847445505
 c3936: 120 p_1_1 + 120 p_1_10 + 120 p_1_2 + 120 p_1_3 + 120 p_1_4 + 120 p_1_5 + 120 p_1_6 + 120 p_1_9 + 100000 z_1_1 + 100000 z_1_10 + 100000 z_1_2 + 100000 z_1_3 + 100000 z_1_4 + 100000 z_1_5 + 100000 z_1_6 + 100000 z_1_9 <= 798576.3432018013
 c3937: 120 p_1_10 + 120 p_1_7 + 120 p_1_9 + 100000 z_1_10 + 100000 z_1_7 + 100000 z_1_9 <= 299682.0021410007
 c3938: 120 p_1_1 + 120 p_1_10 + 120 p_1_7 + 120 p_1_9 + 100000 z_1_1 + 100000 z_1_10 + 100000 z_1_7 + 100000 z_1_9 <= 399680.69302430411
 c3939: 120 p_1_10 + 120 p_1_2 + 120 p_1_7 + 120 p_1_9 + 100000 z_1_10 + 100000 z_1_2 + 100000 z_1_7 + 100000 z_1_9 <= 398941.18046575104
 c3940: 120 p_1_1 + 120 p_1_10 + 120 p_1_2 + 120 p_1_7 + 120 p_1_9 + 100000 z_1_1 + 100000 z_1_10 + 100000 z_1_2 + 100000 z_1_7 + 100000 z_1_9 <= 498939.87134905451
 c3941: 120 p_1_10 + 120 p_1_3 + 120 p_1_7 + 120 p_1_9 + 100000 z_1_10 + 100000 z_1_3 + 100000 z_1_7 + 100000 z_1_9 <= 399625.85161201871
 c3942: 120 p_1_1 + 120 p_1_10 + 120 p_1_3 + 120 p_1_7 + 120 p_1_9 + 100000 z_1_1 + 100000 z_1_10 + 100000 z_1_3 + 100000 z_1_7 + 100000 z_1_9 <= 499624.54249532218
 c3943: 120 p_1_10 + 120 p_1_2 + 120 p_1_3 + 120 p_1_7 + 120 p_1_9 + 100000 z_1_10 + 100000 z_1_2 + 100000 z_1_3 + 100000 z_1_7 + 100000 z_1_9 <= 498910.07943268958
 c3944: 120 p_1_1 + 120 p_1_10 + 120 p_1_2 + 120 p_1_3 + 120 p_1_7 + 120 p_1_9 + 100000 z_1_1 + 100000 z_1_10 + 100000 z_1_2 + 100000 z_1_3 + 100000 z_1_7 + 100000 z_1_9 <= 598897.62780998566
 c3945: 120 p_1_10 + 120 p_1_4 + 120 p_1_7 + 120 p_1_9 + 100000 z_1_10 + 100000 z_1_4 + 100000 z_1_7 + 100000 z_1_9 <= 399662.77548591461
 c3946: 120 p_1_1 + 120 p_1_10 + 120 p_1_4 + 120 p_1_7 + 120 p_1_9 + 100000 z_1_1 + 100000 z_1_10 + 100000 z_1_4 + 100000 z_1_7 + 100000 z_1_9 <= 499640.00322334771
 c3947: 120 p_1_10 + 120 p_1_2 + 120 p_1_4 + 120 p_1_7 + 120 p_1_9 + 100000 z_1_10 + 100000 z_1_2 + 100000 z_1_4 + 100000 z_1_7 + 100000 z_1_9 <= 498921.953810665
 c3948: 120 p_1_1 + 120 p_1_10 + 120 p_1_2 + 120 p_1_4 + 120 p_1_7 + 120 p_1_9 + 100000 z_1_1 + 100000 z_1_10 + 100000 z_1_2 + 100000 z_1_4 + 100000 z_1_7 + 100000 z_1_9 <= 598899.1815480981
 c3949: 120 p_1_10 + 120 p_1_3 + 120 p_1_4 + 120 p_1_7 + 120 p_1_9 + 100000 z_1_10 + 100000 z_1_3 + 100000 z_1_4 + 100000 z_1_7 + 100000 z_1_9 <= 499606.62495693268
 c3950: 120 p_1_1 + 120 p_1_10 + 120 p_1_3 + 120 p_1_4 + 120 p_1_7 + 120 p_1_9 + 100000 z_1_1 + 100000 z_1_10 + 100000 z_1_3 + 100000 z_1_4 + 100000 z_1_7 + 100000 z_1_9 <= 599583.85269436578
 c3951: 120 p_1_10 + 120 p_1_2 + 120 p_1_3 + 120 p_1_4 + 120 p_1_7 + 120 p_1_9 + 100000 z_1_10 + 100000 z_1_2 + 100000 z_1_3 + 100000 z_1_4 + 100000 z_1_7 + 100000 z_1_9 <= 598865.80328168301
 c3952: 120 p_1_1 + 120 p_1_10 + 120 p_1_2 + 120 p_1_3 + 120 p_1_4 + 120 p_1_7 + 120 p_1_9 + 100000 z_1_1 + 100000 z_1_10 + 100000 z_1_2 + 100000 z_1_3 + 100000 z_1_4 + 100000 z_1_7 + 100000 z_1_9 <= 698856.93800902925
 c3953: 120 p_1_10 + 120 p_1_5 + 120 p_1_7 + 120 p_1_9 + 100000 z_1_10 + 100000 z_1_5 + 100000 z_1_7 + 100000 z_1_9 <= 398978.50546733895
 c3954: 120 p_1_1 + 120 p_1_10 + 120 p_1_5 + 120 p_1_7 + 120 p_1_9 + 100000 z_1_1 + 100000 z_1_10 + 100000 z_1_5 + 100000 z_1_7 + 100000 z_1_9 <= 498977.19635064242
 c3955: 120 p_1_10 + 120 p_1_2 + 120 p_1_5 + 120 p_1_7 + 120 p_1_9 + 100000 z_1_10 + 100000 z_1_2 + 100000 z_1_5 + 100000 z_1_7 + 100000 z_1_9 <= 498923.34411868808
 c3956: 120 p_1_1 + 120 p_1_10 + 120 p_1_2 + 120 p_1_5 + 120 p_1_7 + 120 p_1_9 + 100000 z_1_1 + 100000 z_1_10 + 100000 z_1_2 + 100000 z_1_5 + 100000 z_1_7 + 100000 z_1_9 <= 598922.03500199155
 c3957: 120 p_1_10 + 120 p_1_3 + 120 p_1_5 + 120 p_1_7 + 120 p_1_9 + 100000 z_1_10 + 100000 z_1_3 + 100000 z_1_5 + 100000 z_1_7 + 100000 z_1_9 <= 498922.35493835702
 c3958: 120 p_1_1 + 120 p_1_10 + 120 p_1_3 + 120 p_1_5 + 120 p_1_7 + 120 p_1_9 + 100000 z_1_1 + 100000 z_1_10 + 100000 z_1_3 + 100000 z_1_5 + 100000 z_1_7 + 100000 z_1_9 <= 598921.04582166043
 c3959: 120 p_1_10 + 120 p_1_2 + 120 p_1_3 + 120 p_1_5 + 120 p_1_7 + 120 p_1_9 + 100000 z_1_10 + 100000 z_1_2 + 100000 z_1_3 + 100000 z_1_5 + 100000 z_1_7 + 100000 z_1_9 <= 598892.24308562663
 c3960: 120 p_1_1 + 120 p_1_10 + 120 p_1_2 + 120 p_1_3 + 120 p_1_5 + 120 p_1_7 + 120 p_1_9 + 100000 z_1_1 + 100000 z_1_10 + 100000 z_1_2 + 100000 z_1_3 + 100000 z_1_5 + 100000 z_1_7 + 100000 z_1_9 <= 698879.7914629227
 c3961: 120 p_1_10 + 120 p_1_4 + 120 p_1_5 + 120 p_1_7 + 120 p_1_9 + 100000 z_1_10 + 100000 z_1_4 + 100000 z_1_5 + 100000 z_1_7 + 100000 z_1_9 <= 498959.27881225292
 c3962: 120 p_1_1 + 120 p_1_10 + 120 p_1_4 + 120 p_1_5 + 120 p_1_7 + 120 p_1_9 + 100000 z_1_1 + 100000 z_1_10 + 100000 z_1_4 + 100000 z_1_5 + 100000 z_1_7 + 100000 z_1_9 <= 598936.50654968596
 c3963: 120 p_1_10 + 120 p_1_2 + 120 p_1_4 + 120 p_1_5 + 120 p_1_7 + 120 p_1_9 + 100000 z_1_10 + 100000 z_1_2 + 100000 z_1_4 + 100000 z_1_5 + 100000 z_1_7 + 100000 z_1_9 <= 598904.11746360199
 c3964: 120 p_1_1 + 120 p_1_10 + 120 p_1_2 + 120 p_1_4 + 120 p_1_5 + 120 p_1_7 + 120 p_1_9 + 100000 z_1_1 + 100000 z_1_10 + 100000 z_1_2 + 100000 z_1_4 + 100000 z_1_5 + 100000 z_1_7 + 100000 z_1_9 <= 698881.34520103515
 c3965: 120 p_1_10 + 120 p_1_3 + 120 p_1_4 + 120 p_1_5 + 120 p_1_7 + 120 p_1_9 + 100000 z_1_10 + 100000 z_1_3 + 100000 z_1_4 + 100000 z_1_5 + 100000 z_1_7 + 100000 z_1_9 <= 598903.12828327098
 c3966: 120 p_1_1 + 120 p_1_10 + 120 p_1_3 + 120 p_1_4 + 120 p_1_5 + 120 p_1_7 + 120 p_1_9 + 100000 z_1_1 + 100000 z_1_10 + 100000 z_1_3 + 100000 z_1_4 + 100000 z_1_5 + 100000 z_1_7 + 100000 z_1_9 <= 698880.35602070403
 c3967: 120 p_1_10 + 120 p_1_2 + 120 p_1_3 + 120 p_1_4 + 120 p_1_5 + 120 p_1_7 + 120 p_1_9 + 100000 z_1_10 + 100000 z_1_2 + 100000 z_1_3 + 100000 z_1_4 + 100000 z_1_5 + 100000 z_1_7 + 100000 z_1_9 <= 698847.96693462005
 c3968: 120 p_1_1 + 120 p_1_10 + 120 p_1_2 + 120 p_1_3 + 120 p_1_4 + 120 p_1_5 + 120 p_1_7 + 120 p_1_9 + 100000 z_1_1 + 100000 z_1_10 + 100000 z_1_2 + 100000 z_1_3 + 100000 z_1_4 + 100000 z_1_5 + 100000 z_1_7 + 100000 z_1_9 <= 798839.1016619663
 c3969: 120 p_1_10 + 120 p_1_6 + 120 p_1_7 + 120 p_1_9 + 100000 z_1_10 + 100000 z_1_6 + 100000 z_1_7 + 100000 z_1_9 <= 399362.48780677415
 c3970: 120 p_1_1 + 120 p_1_10 + 120 p_1_6 + 120 p_1_7 + 120 p_1_9 + 100000 z_1_1 + 100000 z_1_10 + 100000 z_1_6 + 100000 z_1_7 + 100000 z_1_9 <= 499361.17869007756
 c3971: 120 p_1_10 + 120 p_1_2 + 120 p_1_6 + 120 p_1_7 + 120 p_1_9 + 100000 z_1_10 + 100000 z_1_2 + 100000 z_1_6 + 100000 z_1_7 + 100000 z_1_9 <= 498666.5218642152
 c3972: 120 p_1_1 + 120 p_1_10 + 120 p_1_2 + 120 p_1_6 + 120 p_1_7 + 120 p_1_9 + 100000 z_1_1 + 100000 z_1_10 + 100000 z_1_2 + 100000 z_1_6 + 100000 z_1_7 + 100000 z_1_9 <= 598654.07024151122
 c3973: 120 p_1_10 + 120 p_1_3 + 120 p_1_6 + 120 p_1_7 + 120 p_1_9 + 100000 z_1_10 + 100000 z_1_3 + 100000 z_1_6 + 100000 z_1_7 + 100000 z_1_9 <= 499362.47774827894
 c3974: 120 p_1_1 + 120 p_1_10 + 120 p_1_3 + 120 p_1_6 + 120 p_1_7 + 120 p_1_9 + 100000 z_1_1 + 100000 z_1_10 + 100000 z_1_3 + 100000 z_1_6 + 100000 z_1_7 + 100000 z_1_9 <= 599361.1686315824
 c3975: 120 p_1_10 + 120 p_1_2 + 120 p_1_3 + 120 p_1_6 + 120 p_1_7 + 120 p_1_9 + 100000 z_1_10 + 100000 z_1_2 + 100000 z_1_3 + 100000 z_1_6 + 100000 z_1_7 + 100000 z_1_9 <= 598646.70556894981
 c3976: 120 p_1_1 + 120 p_1_10 + 120 p_1_2 + 120 p_1_3 + 120 p_1_6 + 120 p_1_7 + 120 p_1_9 + 100000 z_1_1 + 100000 z_1_10 + 100000 z_1_2 + 100000 z_1_3 + 100000 z_1_6 + 100000 z_1_7 + 100000 z_1_9 <= 698634.25394624588
 c3977: 120 p_1_10 + 120 p_1_4 + 120 p_1_6 + 120 p_1_7 + 120 p_1_9 + 100000 z_1_10 + 100000 z_1_4 + 100000 z_1_6 + 100000 z_1_7 + 100000 z_1_9 <= 499343.26115168806
 c3978: 120 p_1_1 + 120 p_1_10 + 120 p_1_4 + 120 p_1_6 + 120 p_1_7 + 120 p_1_9 + 100000 z_1_1 + 100000 z_1_10 + 100000 z_1_4 + 100000 z_1_6 + 100000 z_1_7 + 100000 z_1_9 <= 599320.48888912122
 c3979: 120 p_1_10 + 120 p_1_2 + 120 p_1_4 + 120 p_1_6 + 120 p_1_7 + 120 p_1_9 + 100000 z_1_10 + 100000 z_1_2 + 100000 z_1_4 + 100000 z_1_6 + 100000 z_1_7 + 100000 z_1_9 <= 598613.72074090899
 c3980: 120 p_1_1 + 120 p_1_10 + 120 p_1_2 + 120 p_1_4 + 120 p_1_6 + 120 p_1_7 + 120 p_1_9 + 100000 z_1_1 + 100000 z_1_10 + 100000 z_1_2 + 100000 z_1_4 + 100000 z_1_6 + 100000 z_1_7 + 100000 z_1_9 <= 698613.38044055481
 c3981: 120 p_1_10 + 120 p_1_3 + 120 p_1_4 + 120 p_1_6 + 120 p_1_7 + 120 p_1_9 + 100000 z_1_10 + 100000 z_1_3 + 100000 z_1_4 + 100000 z_1_6 + 100000 z_1_7 + 100000 z_1_9 <= 599343.25109319284
 c3982: 120 p_1_1 + 120 p_1_10 + 120 p_1_3 + 120 p_1_4 + 120 p_1_6 + 120 p_1_7 + 120 p_1_9 + 100000 z_1_1 + 100000 z_1_10 + 100000 z_1_3 + 100000 z_1_4 + 100000 z_1_6 + 100000 z_1_7 + 100000 z_1_9 <= 699320.478830626
 c3983: 120 p_1_10 + 120 p_1_2 + 120 p_1_3 + 120 p_1_4 + 120 p_1_6 + 120 p_1_7 + 120 p_1_9 + 100000 z_1_10 + 100000 z_1_2 + 100000 z_1_3 + 100000 z_1_4 + 100000 z_1_6 + 100000 z_1_7 + 100000 z_1_9 <= 698602.42941794323
 c3984: 120 p_1_1 + 120 p_1_10 + 120 p_1_2 + 120 p_1_3 + 120 p_1_4 + 120 p_1_6 + 120 p_1_7 + 120 p_1_9 + 100000 z_1_1 + 100000 z_1_10 + 100000 z_1_2 + 100000 z_1_3 + 100000 z_1_4 + 100000 z_1_6 + 100000 z_1_7 + 100000 z_1_9 <= 798593.56414528948
 c3985: 120 p_1_10 + 120 p_1_5 + 120 p_1_6 + 120 p_1_7 + 120 p_1_9 + 100000 z_1_10 + 100000 z_1_5 + 100000 z_1_6 + 100000 z_1_7 + 100000 z_1_9 <= 498667.47421624372
 c3986: 120 p_1_1 + 120 p_1_10 + 120 p_1_5 + 120 p_1_6 + 120 p_1_7 + 120 p_1_9 + 100000 z_1_1 + 100000 z_1_10 + 100000 z_1_5 + 100000 z_1_6 + 100000 z_1_7 + 100000 z_1_9 <= 598657.68201641587
 c3987: 120 p_1_10 + 120 p_1_2 + 120 p_1_5 + 120 p_1_6 + 120 p_1_7 + 120 p_1_9 + 100000 z_1_10 + 100000 z_1_2 + 100000 z_1_5 + 100000 z_1_6 + 100000 z_1_7 + 100000 z_1_9 <= 598648.68551715219
 c3988: 120 p_1_1 + 120 p_1_10 + 120 p_1_2 + 120 p_1_5 + 120 p_1_6 + 120 p_1_7 + 120 p_1_9 + 100000 z_1_1 + 100000 z_1_10 + 100000 z_1_2 + 100000 z_1_5 + 100000 z_1_6 + 100000 z_1_7 + 100000 z_1_9 <= 698636.23389444826
 c3989: 120 p_1_10 + 120 p_1_3 + 120 p_1_5 + 120 p_1_6 + 120 p_1_7 + 120 p_1_9 + 100000 z_1_10 + 100000 z_1_3 + 100000 z_1_5 + 100000 z_1_6 + 100000 z_1_7 + 100000 z_1_9 <= 598658.98107461724
 c3990: 120 p_1_1 + 120 p_1_10 + 120 p_1_3 + 120 p_1_5 + 120 p_1_6 + 120 p_1_7 + 120 p_1_9 + 100000 z_1_1 + 100000 z_1_10 + 100000 z_1_3 + 100000 z_1_5 + 100000 z_1_6 + 100000 z_1_7 + 100000 z_1_9 <= 698657.67195792065
 c3991: 120 p_1_10 + 120 p_1_2 + 120 p_1_3 + 120 p_1_5 + 120 p_1_6 + 120 p_1_7 + 120 p_1_9 + 100000 z_1_10 + 100000 z_1_2 + 100000 z_1_3 + 100000 z_1_5 + 100000 z_1_6 + 100000 z_1_7 + 100000 z_1_9 <= 698628.86922188685
 c3992: 120 p_1_1 + 120 p_1_10 + 120 p_1_2 + 120 p_1_3 + 120 p_1_5 + 120 p_1_6 + 120 p_1_7 + 120 p_1_9 + 100000 z_1_1 + 100000 z_1_10 + 100000 z_1_2 + 100000 z_1_3 + 100000 z_1_5 + 100000 z_1_6 + 100000 z_1_7 + 100000 z_1_9 <= 798616.41759918293
 c3993: 120 p_1_10 + 120 p_1_4 + 120 p_1_5 + 120 p_1_6 + 120 p_1_7 + 120 p_1_9 + 100000 z_1_10 + 100000 z_1_4 + 100000 z_1_5 + 100000 z_1_6 + 100000 z_1_7 + 100000 z_1_9 <= 598639.76447802642
 c3994: 120 p_1_1 + 120 p_1_10 + 120 p_1_4 + 120 p_1_5 + 120 p_1_6 + 120 p_1_7 + 120 p_1_9 + 100000 z_1_1 + 100000 z_1_10 + 100000 z_1_4 + 100000 z_1_5 + 100000 z_1_6 + 100000 z_1_7 + 100000 z_1_9 <= 698616.99221545947
 c3995: 120 p_1_10 + 120 p_1_2 + 120 p_1_4 + 120 p_1_5 + 120 p_1_6 + 120 p_1_7 + 120 p_1_9 + 100000 z_1_10 + 100000 z_1_2 + 100000 z_1_4 + 100000 z_1_5 + 100000 z_1_6 + 100000 z_1_7 + 100000 z_1_9 <= 698595.88439384603
 c3996: 120 p_1_1 + 120 p_1_10 + 120 p_1_2 + 120 p_1_4 + 120 p_1_5 + 120 p_1_6 + 120 p_1_7 + 120 p_1_9 + 100000 z_1_1 + 100000 z_1_10 + 100000 z_1_2 + 100000 z_1_4 + 100000 z_1_5 + 100000 z_1_6 + 100000 z_1_7 + 100000 z_1_9 <= 798595.54409349186
 c3997: 120 p_1_10 + 120 p_1_3 + 120 p_1_4 + 120 p_1_5 + 120 p_1_6 + 120 p_1_7 + 120 p_1_9 + 100000 z_1_10 + 100000 z_1_3 + 100000 z_1_4 + 100000 z_1_5 + 100000 z_1_6 + 100000 z_1_7 + 100000 z_1_9 <= 698639.75441953121
 c3998: 120 p_1_1 + 120 p_1_10 + 120 p_1_3 + 120 p_1_4 + 120 p_1_5 + 120 p_1_6 + 120 p_1_7 + 120 p_1_9 + 100000 z_1_1 + 100000 z_1_10 + 100000 z_1_3 + 100000 z_1_4 + 100000 z_1_5 + 100000 z_1_6 + 100000 z_1_7 + 100000 z_1_9 <= 798616.98215696425
 c3999: 120 p_1_10 + 120 p_1_2 + 120 p_1_3 + 120 p_1_4 + 120 p_1_5 + 120 p_1_6 + 120 p_1_7 + 120 p_1_9 + 100000 z_1_10 + 100000 z_1_2 + 100000 z_1_3 + 100000 z_1_4 + 100000 z_1_5 + 100000 z_1_6 + 100000 z_1_7 + 100000 z_1_9 <= 798584.59307088028
 c4000: 120 p_1_1 + 120 p_1_10 + 120 p_1_2 + 120 p_1_3 + 120 p_1_4 + 120 p_1_5 + 120 p_1_6 + 120 p_1_7 + 120 p_1_9 + 100000 z_1_1 + 100000 z_1_10 + 100000 z_1_2 + 100000 z_1_3 + 100000 z_1_4 + 100000 z_1_5 + 100000 z_1_6 + 100000 z_1_7 + 100000 z_1_9 <= 898575.72779822652
 c4001: 120 p_1_10 + 120 p_1_8 + 120 p_1_9 + 100000 z_1_10 + 100000 z_1_8 + 100000 z_1_9 <= 298803.23780855373
 c4002: 120 p_1_1 + 120 p_1_10 + 120 p_1_8 + 120 p_1_9 + 100000 z_1_1 + 100000 z_1_10 + 100000 z_1_8 + 100000 z_1_9 <= 398801.9286918572
 c4003: 120 p_1_10 + 120 p_1_2 + 120 p_1_8 + 120 p_1_9 + 100000 z_1_10 + 100000 z_1_2 + 100000 z_1_8 + 100000 z_1_9 <= 398774.00026548438
 c4004: 120 p_1_1 + 120 p_1_10 + 120 p_1_2 + 120 p_1_8 + 120 p_1_9 + 100000 z_1_1 + 100000 z_1_10 + 100000 z_1_2 + 100000 z_1_8 + 100000 z_1_9 <= 498772.69114878785
 c4005: 120 p_1_10 + 120 p_1_3 + 120 p_1_8 + 120 p_1_9 + 100000 z_1_10 + 100000 z_1_3 + 100000 z_1_8 + 100000 z_1_9 <= 398747.0872795718
 c4006: 120 p_1_1 + 120 p_1_10 + 120 p_1_3 + 120 p_1_8 + 120 p_1_9 + 100000 z_1_1 + 100000 z_1_10 + 100000 z_1_3 + 100000 z_1_8 + 100000 z_1_9 <= 498745.77816287527
 c4007: 120 p_1_10 + 120 p_1_2 + 120 p_1_3 + 120 p_1_8 + 120 p_1_9 + 100000 z_1_10 + 100000 z_1_2 + 100000 z_1_3 + 100000 z_1_8 + 100000 z_1_9 <= 498742.89923242293
 c4008: 120 p_1_1 + 120 p_1_10 + 120 p_1_2 + 120 p_1_3 + 120 p_1_8 + 120 p_1_9 + 100000 z_1_1 + 100000 z_1_10 + 100000 z_1_2 + 100000 z_1_3 + 100000 z_1_8 + 100000 z_1_9 <= 598730.44760971901
 c4009: 120 p_1_10 + 120 p_1_4 + 120 p_1_8 + 120 p_1_9 + 100000 z_1_10 + 100000 z_1_4 + 100000 z_1_8 + 100000 z_1_9 <= 398784.0111534677
 c4010: 120 p_1_1 + 120 p_1_10 + 120 p_1_4 + 120 p_1_8 + 120 p_1_9 + 100000 z_1_1 + 100000 z_1_10 + 100000 z_1_4 + 100000 z_1_8 + 100000 z_1_9 <= 498761.2388909008
 c4011: 120 p_1_10 + 120 p_1_2 + 120 p_1_4 + 120 p_1_8 + 120 p_1_9 + 100000 z_1_10 + 100000 z_1_2 + 100000 z_1_4 + 100000 z_1_8 + 100000 z_1_9 <= 498754.77361039835
 c4012: 120 p_1_1 + 120 p_1_10 + 120 p_1_2 + 120 p_1_4 + 120 p_1_8 + 120 p_1_9 + 100000 z_1_1 + 100000 z_1_10 + 100000 z_1_2 + 100000 z_1_4 + 100000 z_1_8 + 100000 z_1_9 <= 598732.00134783145
 c4013: 120 p_1_10 + 120 p_1_3 + 120 p_1_4 + 120 p_1_8 + 120 p_1_9 + 100000 z_1_10 + 100000 z_1_3 + 100000 z_1_4 + 100000 z_1_8 + 100000 z_1_9 <= 498727.86062448577
 c4014: 120 p_1_1 + 120 p_1_10 + 120 p_1_3 + 120 p_1_4 + 120 p_1_8 + 120 p_1_9 + 100000 z_1_1 + 100000 z_1_10 + 100000 z_1_3 + 100000 z_1_4 + 100000 z_1_8 + 100000 z_1_9 <= 598705.08836191881
 c4015: 120 p_1_10 + 120 p_1_2 + 120 p_1_3 + 120 p_1_4 + 120 p_1_8 + 120 p_1_9 + 100000 z_1_10 + 100000 z_1_2 + 100000 z_1_3 + 100000 z_1_4 + 100000 z_1_8 + 100000 z_1_9 <= 598698.62308141636
 c4016: 120 p_1_1 + 120 p_1_10 + 120 p_1_2 + 120 p_1_3 + 120 p_1_4 + 120 p_1_8 + 120 p_1_9 + 100000 z_1_1 + 100000 z_1_10 + 100000 z_1_2 + 100000 z_1_3 + 100000 z_1_4 + 100000 z_1_8 + 100000 z_1_9 <= 698689.7578087626
 c4017: 120 p_1_10 + 120 p_1_5 + 120 p_1_8 + 120 p_1_9 + 100000 z_1_10 + 100000 z_1_5 + 100000 z_1_8 + 100000 z_1_9 <= 398800.44216474151
 c4018: 120 p_1_1 + 120 p_1_10 + 120 p_1_5 + 120 p_1_8 + 120 p_1_9 + 100000 z_1_1 + 100000 z_1_10 + 100000 z_1_5 + 100000 z_1_8 + 100000 z_1_9 <= 498799.13304804498
 c4019: 120 p_1_10 + 120 p_1_2 + 120 p_1_5 + 120 p_1_8 + 120 p_1_9 + 100000 z_1_10 + 100000 z_1_2 + 100000 z_1_5 + 100000 z_1_8 + 100000 z_1_9 <= 498745.28081609064
 c4020: 120 p_1_1 + 120 p_1_10 + 120 p_1_2 + 120 p_1_5 + 120 p_1_8 + 120 p_1_9 + 100000 z_1_1 + 100000 z_1_10 + 100000 z_1_2 + 100000 z_1_5 + 100000 z_1_8 + 100000 z_1_9 <= 598743.97169939405
 c4021: 120 p_1_10 + 120 p_1_3 + 120 p_1_5 + 120 p_1_8 + 120 p_1_9 + 100000 z_1_10 + 100000 z_1_3 + 100000 z_1_5 + 100000 z_1_8 + 100000 z_1_9 <= 498744.29163575958
 c4022: 120 p_1_1 + 120 p_1_10 + 120 p_1_3 + 120 p_1_5 + 120 p_1_8 + 120 p_1_9 + 100000 z_1_1 + 100000 z_1_10 + 100000 z_1_3 + 100000 z_1_5 + 100000 z_1_8 + 100000 z_1_9 <= 598742.98251906305
 c4023: 120 p_1_10 + 120 p_1_2 + 120 p_1_3 + 120 p_1_5 + 120 p_1_8 + 120 p_1_9 + 100000 z_1_10 + 100000 z_1_2 + 100000 z_1_3 + 100000 z_1_5 + 100000 z_1_8 + 100000 z_1_9 <= 598714.17978302913
 c4024: 120 p_1_1 + 120 p_1_10 + 120 p_1_2 + 120 p_1_3 + 120 p_1_5 + 120 p_1_8 + 120 p_1_9 + 100000 z_1_1 + 100000 z_1_10 + 100000 z_1_2 + 100000 z_1_3 + 100000 z_1_5 + 100000 z_1_8 + 100000 z_1_9 <= 698701.7281603252
 c4025: 120 p_1_10 + 120 p_1_4 + 120 p_1_5 + 120 p_1_8 + 120 p_1_9 + 100000 z_1_10 + 100000 z_1_4 + 100000 z_1_5 + 100000 z_1_8 + 100000 z_1_9 <= 498781.21550965548
 c4026: 120 p_1_1 + 120 p_1_10 + 120 p_1_4 + 120 p_1_5 + 120 p_1_8 + 120 p_1_9 + 100000 z_1_1 + 100000 z_1_10 + 100000 z_1_4 + 100000 z_1_5 + 100000 z_1_8 + 100000 z_1_9 <= 598758.44324708858
 c4027: 120 p_1_10 + 120 p_1_2 + 120 p_1_4 + 120 p_1_5 + 120 p_1_8 + 120 p_1_9 + 100000 z_1_10 + 100000 z_1_2 + 100000 z_1_4 + 100000 z_1_5 + 100000 z_1_8 + 100000 z_1_9 <= 598726.05416100461
 c4028: 120 p_1_1 + 120 p_1_10 + 120 p_1_2 + 120 p_1_4 + 120 p_1_5 + 120 p_1_8 + 120 p_1_9 + 100000 z_1_1 + 100000 z_1_10 + 100000 z_1_2 + 100000 z_1_4 + 100000 z_1_5 + 100000 z_1_8 + 100000 z_1_9 <= 698703.28189843765
 c4029: 120 p_1_10 + 120 p_1_3 + 120 p_1_4 + 120 p_1_5 + 120 p_1_8 + 120 p_1_9 + 100000 z_1_10 + 100000 z_1_3 + 100000 z_1_4 + 100000 z_1_5 + 100000 z_1_8 + 100000 z_1_9 <= 598725.06498067349
 c4030: 120 p_1_1 + 120 p_1_10 + 120 p_1_3 + 120 p_1_4 + 120 p_1_5 + 120 p_1_8 + 120 p_1_9 + 100000 z_1_1 + 100000 z_1_10 + 100000 z_1_3 + 100000 z_1_4 + 100000 z_1_5 + 100000 z_1_8 + 100000 z_1_9 <= 698702.29271810665
 c4031: 120 p_1_10 + 120 p_1_2 + 120 p_1_3 + 120 p_1_4 + 120 p_1_5 + 120 p_1_8 + 120 p_1_9 + 100000 z_1_10 + 100000 z_1_2 + 100000 z_1_3 + 100000 z_1_4 + 100000 z_1_5 + 100000 z_1_8 + 100000 z_1_9 <= 698669.90363202267
 c4032: 120 p_1_1 + 120 p_1_10 + 120 p_1_2 + 120 p_1_3 + 120 p_1_4 + 120 p_1_5 + 120 p_1_8 + 120 p_1_9 + 100000 z_1_1 + 100000 z_1_10 + 100000 z_1_2 + 100000 z_1_3 + 100000 z_1_4 + 100000 z_1_5 + 100000 z_1_8 + 100000 z_1_9 <= 798661.0383593688
 c4033: 120 p_1_10 + 120 p_1_6 + 120 p_1_8 + 120 p_1_9 + 100000 z_1_10 + 100000 z_1_6 + 100000 z_1_8 + 100000 z_1_9 <= 398499.37087357609
 c4034: 120 p_1_1 + 120 p_1_10 + 120 p_1_6 + 120 p_1_8 + 120 p_1_9 + 100000 z_1_1 + 100000 z_1_10 + 100000 z_1_6 + 100000 z_1_8 + 100000 z_1_9 <= 498486.91925087216
 c4035: 120 p_1_10 + 120 p_1_2 + 120 p_1_6 + 120 p_1_8 + 120 p_1_9 + 100000 z_1_10 + 100000 z_1_2 + 100000 z_1_6 + 100000 z_1_8 + 100000 z_1_9 <= 498499.34166394855
 c4036: 120 p_1_1 + 120 p_1_10 + 120 p_1_2 + 120 p_1_6 + 120 p_1_8 + 120 p_1_9 + 100000 z_1_1 + 100000 z_1_10 + 100000 z_1_2 + 100000 z_1_6 + 100000 z_1_8 + 100000 z_1_9 <= 598486.89004124457
 c4037: 120 p_1_10 + 120 p_1_3 + 120 p_1_6 + 120 p_1_8 + 120 p_1_9 + 100000 z_1_10 + 100000 z_1_3 + 100000 z_1_6 + 100000 z_1_8 + 100000 z_1_9 <= 498483.71341583203
 c4038: 120 p_1_1 + 120 p_1_10 + 120 p_1_3 + 120 p_1_6 + 120 p_1_8 + 120 p_1_9 + 100000 z_1_1 + 100000 z_1_10 + 100000 z_1_3 + 100000 z_1_6 + 100000 z_1_8 + 100000 z_1_9 <= 598482.40429913544
 c4039: 120 p_1_10 + 120 p_1_2 + 120 p_1_3 + 120 p_1_6 + 120 p_1_8 + 120 p_1_9 + 100000 z_1_10 + 100000 z_1_2 + 100000 z_1_3 + 100000 z_1_6 + 100000 z_1_8 + 100000 z_1_9 <= 598479.52536868316
 c4040: 120 p_1_1 + 120 p_1_10 + 120 p_1_2 + 120 p_1_3 + 120 p_1_6 + 120 p_1_8 + 120 p_1_9 + 100000 z_1_1 + 100000 z_1_10 + 100000 z_1_2 + 100000 z_1_3 + 100000 z_1_6 + 100000 z_1_8 + 100000 z_1_9 <= 698467.07374597923
 c4041: 120 p_1_10 + 120 p_1_4 + 120 p_1_6 + 120 p_1_8 + 120 p_1_9 + 100000 z_1_10 + 100000 z_1_4 + 100000 z_1_6 + 100000 z_1_8 + 100000 z_1_9 <= 498464.49681924115
 c4042: 120 p_1_1 + 120 p_1_10 + 120 p_1_4 + 120 p_1_6 + 120 p_1_8 + 120 p_1_9 + 100000 z_1_1 + 100000 z_1_10 + 100000 z_1_4 + 100000 z_1_6 + 100000 z_1_8 + 100000 z_1_9 <= 598446.2294499157
 c4043: 120 p_1_10 + 120 p_1_2 + 120 p_1_4 + 120 p_1_6 + 120 p_1_8 + 120 p_1_9 + 100000 z_1_10 + 100000 z_1_2 + 100000 z_1_4 + 100000 z_1_6 + 100000 z_1_8 + 100000 z_1_9 <= 598446.54054064234
 c4044: 120 p_1_1 + 120 p_1_10 + 120 p_1_2 + 120 p_1_4 + 120 p_1_6 + 120 p_1_8 + 120 p_1_9 + 100000 z_1_1 + 100000 z_1_10 + 100000 z_1_2 + 100000 z_1_4 + 100000 z_1_6 + 100000 z_1_8 + 100000 z_1_9 <= 698446.20024028816
 c4045: 120 p_1_10 + 120 p_1_3 + 120 p_1_4 + 120 p_1_6 + 120 p_1_8 + 120 p_1_9 + 100000 z_1_10 + 100000 z_1_3 + 100000 z_1_4 + 100000 z_1_6 + 100000 z_1_8 + 100000 z_1_9 <= 598464.48676074599
 c4046: 120 p_1_1 + 120 p_1_10 + 120 p_1_3 + 120 p_1_4 + 120 p_1_6 + 120 p_1_8 + 120 p_1_9 + 100000 z_1_1 + 100000 z_1_10 + 100000 z_1_3 + 100000 z_1_4 + 100000 z_1_6 + 100000 z_1_8 + 100000 z_1_9 <= 698441.71449817903
 c4047: 120 p_1_10 + 120 p_1_2 + 120 p_1_3 + 120 p_1_4 + 120 p_1_6 + 120 p_1_8 + 120 p_1_9 + 100000 z_1_10 + 100000 z_1_2 + 100000 z_1_3 + 100000 z_1_4 + 100000 z_1_6 + 100000 z_1_8 + 100000 z_1_9 <= 698435.24921767658
 c4048: 120 p_1_1 + 120 p_1_10 + 120 p_1_2 + 120 p_1_3 + 120 p_1_4 + 120 p_1_6 + 120 p_1_8 + 120 p_1_9 + 100000 z_1_1 + 100000 z_1_10 + 100000 z_1_2 + 100000 z_1_3 + 100000 z_1_4 + 100000 z_1_6 + 100000 z_1_8 + 100000 z_1_9 <= 798426.38394502283
 c4049: 120 p_1_10 + 120 p_1_5 + 120 p_1_6 + 120 p_1_8 + 120 p_1_9 + 100000 z_1_10 + 100000 z_1_5 + 100000 z_1_6 + 100000 z_1_8 + 100000 z_1_9 <= 498489.41091364622
 c4050: 120 p_1_1 + 120 p_1_10 + 120 p_1_5 + 120 p_1_6 + 120 p_1_8 + 120 p_1_9 + 100000 z_1_1 + 100000 z_1_10 + 100000 z_1_5 + 100000 z_1_6 + 100000 z_1_8 + 100000 z_1_9 <= 598479.61871381837
 c4051: 120 p_1_10 + 120 p_1_2 + 120 p_1_5 + 120 p_1_6 + 120 p_1_8 + 120 p_1_9 + 100000 z_1_10 + 100000 z_1_2 + 100000 z_1_5 + 100000 z_1_6 + 100000 z_1_8 + 100000 z_1_9 <= 598470.62221455481
 c4052: 120 p_1_1 + 120 p_1_10 + 120 p_1_2 + 120 p_1_5 + 120 p_1_6 + 120 p_1_8 + 120 p_1_9 + 100000 z_1_1 + 100000 z_1_10 + 100000 z_1_2 + 100000 z_1_5 + 100000 z_1_6 + 100000 z_1_8 + 100000 z_1_9 <= 698458.17059185088
 c4053: 120 p_1_10 + 120 p_1_3 + 120 p_1_5 + 120 p_1_6 + 120 p_1_8 + 120 p_1_9 + 100000 z_1_10 + 100000 z_1_3 + 100000 z_1_5 + 100000 z_1_6 + 100000 z_1_8 + 100000 z_1_9 <= 598480.91777201975
 c4054: 120 p_1_1 + 120 p_1_10 + 120 p_1_3 + 120 p_1_5 + 120 p_1_6 + 120 p_1_8 + 120 p_1_9 + 100000 z_1_1 + 100000 z_1_10 + 100000 z_1_3 + 100000 z_1_5 + 100000 z_1_6 + 100000 z_1_8 + 100000 z_1_9 <= 698479.60865532327
 c4055: 120 p_1_10 + 120 p_1_2 + 120 p_1_3 + 120 p_1_5 + 120 p_1_6 + 120 p_1_8 + 120 p_1_9 + 100000 z_1_10 + 100000 z_1_2 + 100000 z_1_3 + 100000 z_1_5 + 100000 z_1_6 + 100000 z_1_8 + 100000 z_1_9 <= 698450.80591928936
 c4056: 120 p_1_1 + 120 p_1_10 + 120 p_1_2 + 120 p_1_3 + 120 p_1_5 + 120 p_1_6 + 120 p_1_8 + 120 p_1_9 + 100000 z_1_1 + 100000 z_1_10 + 100000 z_1_2 + 100000 z_1_3 + 100000 z_1_5 + 100000 z_1_6 + 100000 z_1_8 + 100000 z_1_9 <= 798438.35429658543
 c4057: 120 p_1_10 + 120 p_1_4 + 120 p_1_5 + 120 p_1_6 + 120 p_1_8 + 120 p_1_9 + 100000 z_1_10 + 100000 z_1_4 + 100000 z_1_5 + 100000 z_1_6 + 100000 z_1_8 + 100000 z_1_9 <= 598461.70117542893
 c4058: 120 p_1_1 + 120 p_1_10 + 120 p_1_4 + 120 p_1_5 + 120 p_1_6 + 120 p_1_8 + 120 p_1_9 + 100000 z_1_1 + 100000 z_1_10 + 100000 z_1_4 + 100000 z_1_5 + 100000 z_1_6 + 100000 z_1_8 + 100000 z_1_9 <= 698438.92891286197
 c4059: 120 p_1_10 + 120 p_1_2 + 120 p_1_4 + 120 p_1_5 + 120 p_1_6 + 120 p_1_8 + 120 p_1_9 + 100000 z_1_10 + 100000 z_1_2 + 100000 z_1_4 + 100000 z_1_5 + 100000 z_1_6 + 100000 z_1_8 + 100000 z_1_9 <= 698417.82109124854
 c4060: 120 p_1_1 + 120 p_1_10 + 120 p_1_2 + 120 p_1_4 + 120 p_1_5 + 120 p_1_6 + 120 p_1_8 + 120 p_1_9 + 100000 z_1_1 + 100000 z_1_10 + 100000 z_1_2 + 100000 z_1_4 + 100000 z_1_5 + 100000 z_1_6 + 100000 z_1_8 + 100000 z_1_9 <= 798417.48079089448
 c4061: 120 p_1_10 + 120 p_1_3 + 120 p_1_4 + 120 p_1_5 + 120 p_1_6 + 120 p_1_8 + 120 p_1_9 + 100000 z_1_10 + 100000 z_1_3 + 100000 z_1_4 + 100000 z_1_5 + 100000 z_1_6 + 100000 z_1_8 + 100000 z_1_9 <= 698461.69111693371
 c4062: 120 p_1_1 + 120 p_1_10 + 120 p_1_3 + 120 p_1_4 + 120 p_1_5 + 120 p_1_6 + 120 p_1_8 + 120 p_1_9 + 100000 z_1_1 + 100000 z_1_10 + 100000 z_1_3 + 100000 z_1_4 + 100000 z_1_5 + 100000 z_1_6 + 100000 z_1_8 + 100000 z_1_9 <= 798438.91885436687
 c4063: 120 p_1_10 + 120 p_1_2 + 120 p_1_3 + 120 p_1_4 + 120 p_1_5 + 120 p_1_6 + 120 p_1_8 + 120 p_1_9 + 100000 z_1_10 + 100000 z_1_2 + 100000 z_1_3 + 100000 z_1_4 + 100000 z_1_5 + 100000 z_1_6 + 100000 z_1_8 + 100000 z_1_9 <= 798406.5297682829
 c4064: 120 p_1_1 + 120 p_1_10 + 120 p_1_2 + 120 p_1_3 + 120 p_1_4 + 120 p_1_5 + 120 p_1_6 + 120 p_1_8 + 120 p_1_9 + 100000 z_1_1 + 100000 z_1_10 + 100000 z_1_2 + 100000 z_1_3 + 100000 z_1_4 + 100000 z_1_5 + 100000 z_1_6 + 100000 z_1_8 + 100000 z_1_9 <= 898397.66449562903
 c4065: 120 p_1_10 + 120 p_1_7 + 120 p_1_8 + 120 p_1_9 + 100000 z_1_10 + 100000 z_1_7 + 100000 z_1_8 + 100000 z_1_9 <= 398799.04605252005
 c4066: 120 p_1_1 + 120 p_1_10 + 120 p_1_7 + 120 p_1_8 + 120 p_1_9 + 100000 z_1_1 + 100000 z_1_10 + 100000 z_1_7 + 100000 z_1_8 + 100000 z_1_9 <= 498797.73693582352
 c4067: 120 p_1_10 + 120 p_1_2 + 120 p_1_7 + 120 p_1_8 + 120 p_1_9 + 100000 z_1_10 + 100000 z_1_2 + 100000 z_1_7 + 100000 z_1_8 + 100000 z_1_9 <= 498769.80850945076
 c4068: 120 p_1_1 + 120 p_1_10 + 120 p_1_2 + 120 p_1_7 + 120 p_1_8 + 120 p_1_9 + 100000 z_1_1 + 100000 z_1_10 + 100000 z_1_2 + 100000 z_1_7 + 100000 z_1_8 + 100000 z_1_9 <= 598768.49939275417
 c4069: 120 p_1_10 + 120 p_1_3 + 120 p_1_7 + 120 p_1_8 + 120 p_1_9 + 100000 z_1_10 + 100000 z_1_3 + 100000 z_1_7 + 100000 z_1_8 + 100000 z_1_9 <= 498742.89552353811
 c4070: 120 p_1_1 + 120 p_1_10 + 120 p_1_3 + 120 p_1_7 + 120 p_1_8 + 120 p_1_9 + 100000 z_1_1 + 100000 z_1_10 + 100000 z_1_3 + 100000 z_1_7 + 100000 z_1_8 + 100000 z_1_9 <= 598741.58640684152
 c4071: 120 p_1_10 + 120 p_1_2 + 120 p_1_3 + 120 p_1_7 + 120 p_1_8 + 120 p_1_9 + 100000 z_1_10 + 100000 z_1_2 + 100000 z_1_3 + 100000 z_1_7 + 100000 z_1_8 + 100000 z_1_9 <= 598738.70747638925
 c4072: 120 p_1_1 + 120 p_1_10 + 120 p_1_2 + 120 p_1_3 + 120 p_1_7 + 120 p_1_8 + 120 p_1_9 + 100000 z_1_1 + 100000 z_1_10 + 100000 z_1_2 + 100000 z_1_3 + 100000 z_1_7 + 100000 z_1_8 + 100000 z_1_9 <= 698726.25585368532
 c4073: 120 p_1_10 + 120 p_1_4 + 120 p_1_7 + 120 p_1_8 + 120 p_1_9 + 100000 z_1_10 + 100000 z_1_4 + 100000 z_1_7 + 100000 z_1_8 + 100000 z_1_9 <= 498779.81939743401
 c4074: 120 p_1_1 + 120 p_1_10 + 120 p_1_4 + 120 p_1_7 + 120 p_1_8 + 120 p_1_9 + 100000 z_1_1 + 100000 z_1_10 + 100000 z_1_4 + 100000 z_1_7 + 100000 z_1_8 + 100000 z_1_9 <= 598757.04713486705
 c4075: 120 p_1_10 + 120 p_1_2 + 120 p_1_4 + 120 p_1_7 + 120 p_1_8 + 120 p_1_9 + 100000 z_1_10 + 100000 z_1_2 + 100000 z_1_4 + 100000 z_1_7 + 100000 z_1_8 + 100000 z_1_9 <= 598750.58185436472
 c4076: 120 p_1_1 + 120 p_1_10 + 120 p_1_2 + 120 p_1_4 + 120 p_1_7 + 120 p_1_8 + 120 p_1_9 + 100000 z_1_1 + 100000 z_1_10 + 100000 z_1_2 + 100000 z_1_4 + 100000 z_1_7 + 100000 z_1_8 + 100000 z_1_9 <= 698727.80959179776
 c4077: 120 p_1_10 + 120 p_1_3 + 120 p_1_4 + 120 p_1_7 + 120 p_1_8 + 120 p_1_9 + 100000 z_1_10 + 100000 z_1_3 + 100000 z_1_4 + 100000 z_1_7 + 100000 z_1_8 + 100000 z_1_9 <= 598723.66886845208
 c4078: 120 p_1_1 + 120 p_1_10 + 120 p_1_3 + 120 p_1_4 + 120 p_1_7 + 120 p_1_8 + 120 p_1_9 + 100000 z_1_1 + 100000 z_1_10 + 100000 z_1_3 + 100000 z_1_4 + 100000 z_1_7 + 100000 z_1_8 + 100000 z_1_9 <= 698700.89660588512
 c4079: 120 p_1_10 + 120 p_1_2 + 120 p_1_3 + 120 p_1_4 + 120 p_1_7 + 120 p_1_8 + 120 p_1_9 + 100000 z_1_10 + 100000 z_1_2 + 100000 z_1_3 + 100000 z_1_4 + 100000 z_1_7 + 100000 z_1_8 + 100000 z_1_9 <= 698694.43132538267
 c4080: 120 p_1_1 + 120 p_1_10 + 120 p_1_2 + 120 p_1_3 + 120 p_1_4 + 120 p_1_7 + 120 p_1_8 + 120 p_1_9 + 100000 z_1_1 + 100000 z_1_10 + 100000 z_1_2 + 100000 z_1_3 + 100000 z_1_4 + 100000 z_1_7 + 100000 z_1_8 + 100000 z_1_9 <= 798685.56605272891
 c4081: 120 p_1_10 + 120 p_1_5 + 120 p_1_7 + 120 p_1_8 + 120 p_1_9 + 100000 z_1_10 + 100000 z_1_5 + 100000 z_1_7 + 100000 z_1_8 + 100000 z_1_9 <= 498796.25040870783
 c4082: 120 p_1_1 + 120 p_1_10 + 120 p_1_5 + 120 p_1_7 + 120 p_1_8 + 120 p_1_9 + 100000 z_1_1 + 100000 z_1_10 + 100000 z_1_5 + 100000 z_1_7 + 100000 z_1_8 + 100000 z_1_9 <= 598794.9412920113
 c4083: 120 p_1_10 + 120 p_1_2 + 120 p_1_5 + 120 p_1_7 + 120 p_1_8 + 120 p_1_9 + 100000 z_1_10 + 100000 z_1_2 + 100000 z_1_5 + 100000 z_1_7 + 100000 z_1_8 + 100000 z_1_9 <= 598741.08906005695
 c4084: 120 p_1_1 + 120 p_1_10 + 120 p_1_2 + 120 p_1_5 + 120 p_1_7 + 120 p_1_8 + 120 p_1_9 + 100000 z_1_1 + 100000 z_1_10 + 100000 z_1_2 + 100000 z_1_5 + 100000 z_1_7 + 100000 z_1_8 + 100000 z_1_9 <= 698739.77994336036
 c4085: 120 p_1_10 + 120 p_1_3 + 120 p_1_5 + 120 p_1_7 + 120 p_1_8 + 120 p_1_9 + 100000 z_1_10 + 100000 z_1_3 + 100000 z_1_5 + 100000 z_1_7 + 100000 z_1_8 + 100000 z_1_9 <= 598740.09987972595
 c4086: 120 p_1_1 + 120 p_1_10 + 120 p_1_3 + 120 p_1_5 + 120 p_1_7 + 120 p_1_8 + 120 p_1_9 + 100000 z_1_1 + 100000 z_1_10 + 100000 z_1_3 + 100000 z_1_5 + 100000 z_1_7 + 100000 z_1_8 + 100000 z_1_9 <= 698738.79076302936
 c4087: 120 p_1_10 + 120 p_1_2 + 120 p_1_3 + 120 p_1_5 + 120 p_1_7 + 120 p_1_8 + 120 p_1_9 + 100000 z_1_10 + 100000 z_1_2 + 100000 z_1_3 + 100000 z_1_5 + 100000 z_1_7 + 100000 z_1_8 + 100000 z_1_9 <= 698709.98802699544
 c4088: 120 p_1_1 + 120 p_1_10 + 120 p_1_2 + 120 p_1_3 + 120 p_1_5 + 120 p_1_7 + 120 p_1_8 + 120 p_1_9 + 100000 z_1_1 + 100000 z_1_10 + 100000 z_1_2 + 100000 z_1_3 + 100000 z_1_5 + 100000 z_1_7 + 100000 z_1_8 + 100000 z_1_9 <= 798697.53640429152
 c4089: 120 p_1_10 + 120 p_1_4 + 120 p_1_5 + 120 p_1_7 + 120 p_1_8 + 120 p_1_9 + 100000 z_1_10 + 100000 z_1_4 + 100000 z_1_5 + 100000 z_1_7 + 100000 z_1_8 + 100000 z_1_9 <= 598777.02375362173
 c4090: 120 p_1_1 + 120 p_1_10 + 120 p_1_4 + 120 p_1_5 + 120 p_1_7 + 120 p_1_8 + 120 p_1_9 + 100000 z_1_1 + 100000 z_1_10 + 100000 z_1_4 + 100000 z_1_5 + 100000 z_1_7 + 100000 z_1_8 + 100000 z_1_9 <= 698754.25149105489
 c4091: 120 p_1_10 + 120 p_1_2 + 120 p_1_4 + 120 p_1_5 + 120 p_1_7 + 120 p_1_8 + 120 p_1_9 + 100000 z_1_10 + 100000 z_1_2 + 100000 z_1_4 + 100000 z_1_5 + 100000 z_1_7 + 100000 z_1_8 + 100000 z_1_9 <= 698721.86240497092
 c4092: 120 p_1_1 + 120 p_1_10 + 120 p_1_2 + 120 p_1_4 + 120 p_1_5 + 120 p_1_7 + 120 p_1_8 + 120 p_1_9 + 100000 z_1_1 + 100000 z_1_10 + 100000 z_1_2 + 100000 z_1_4 + 100000 z_1_5 + 100000 z_1_7 + 100000 z_1_8 + 100000 z_1_9 <= 798699.09014240396
 c4093: 120 p_1_10 + 120 p_1_3 + 120 p_1_4 + 120 p_1_5 + 120 p_1_7 + 120 p_1_8 + 120 p_1_9 + 100000 z_1_10 + 100000 z_1_3 + 100000 z_1_4 + 100000 z_1_5 + 100000 z_1_7 + 100000 z_1_8 + 100000 z_1_9 <= 698720.8732246398
 c4094: 120 p_1_1 + 120 p_1_10 + 120 p_1_3 + 120 p_1_4 + 120 p_1_5 + 120 p_1_7 + 120 p_1_8 + 120 p_1_9 + 100000 z_1_1 + 100000 z_1_10 + 100000 z_1_3 + 100000 z_1_4 + 100000 z_1_5 + 100000 z_1_7 + 100000 z_1_8 + 100000 z_1_9 <= 798698.10096207296
 c4095: 120 p_1_10 + 120 p_1_2 + 120 p_1_3 + 120 p_1_4 + 120 p_1_5 + 120 p_1_7 + 120 p_1_8 + 120 p_1_9 + 100000 z_1_10 + 100000 z_1_2 + 100000 z_1_3 + 100000 z_1_4 + 100000 z_1_5 + 100000 z_1_7 + 100000 z_1_8 + 100000 z_1_9 <= 798665.71187598899
 c4096: 120 p_1_1 + 120 p_1_10 + 120 p_1_2 + 120 p_1_3 + 120 p_1_4 + 120 p_1_5 + 120 p_1_7 + 120 p_1_8 + 120 p_1_9 + 100000 z_1_1 + 100000 z_1_10 + 100000 z_1_2 + 100000 z_1_3 + 100000 z_1_4 + 100000 z_1_5 + 100000 z_1_7 + 100000 z_1_8 + 100000 z_1_9 <= 898656.84660333511
 c4097: 120 p_1_10 + 120 p_1_6 + 120 p_1_7 + 120 p_1_8 + 120 p_1_9 + 100000 z_1_10 + 100000 z_1_6 + 100000 z_1_7 + 100000 z_1_8 + 100000 z_1_9 <= 498495.1791175424
 c4098: 120 p_1_1 + 120 p_1_10 + 120 p_1_6 + 120 p_1_7 + 120 p_1_8 + 120 p_1_9 + 100000 z_1_1 + 100000 z_1_10 + 100000 z_1_6 + 100000 z_1_7 + 100000 z_1_8 + 100000 z_1_9 <= 598482.72749483841
 c4099: 120 p_1_10 + 120 p_1_2 + 120 p_1_6 + 120 p_1_7 + 120 p_1_8 + 120 p_1_9 + 100000 z_1_10 + 100000 z_1_2 + 100000 z_1_6 + 100000 z_1_7 + 100000 z_1_8 + 100000 z_1_9 <= 598495.14990791492
 c4100: 120 p_1_1 + 120 p_1_10 + 120 p_1_2 + 120 p_1_6 + 120 p_1_7 + 120 p_1_8 + 120 p_1_9 + 100000 z_1_1 + 100000 z_1_10 + 100000 z_1_2 + 100000 z_1_6 + 100000 z_1_7 + 100000 z_1_8 + 100000 z_1_9 <= 698482.69828521099
 c4101: 120 p_1_10 + 120 p_1_3 + 120 p_1_6 + 120 p_1_7 + 120 p_1_8 + 120 p_1_9 + 100000 z_1_10 + 100000 z_1_3 + 100000 z_1_6 + 100000 z_1_7 + 100000 z_1_8 + 100000 z_1_9 <= 598479.52165979834
 c4102: 120 p_1_1 + 120 p_1_10 + 120 p_1_3 + 120 p_1_6 + 120 p_1_7 + 120 p_1_8 + 120 p_1_9 + 100000 z_1_1 + 100000 z_1_10 + 100000 z_1_3 + 100000 z_1_6 + 100000 z_1_7 + 100000 z_1_8 + 100000 z_1_9 <= 698478.21254310175
 c4103: 120 p_1_10 + 120 p_1_2 + 120 p_1_3 + 120 p_1_6 + 120 p_1_7 + 120 p_1_8 + 120 p_1_9 + 100000 z_1_10 + 100000 z_1_2 + 100000 z_1_3 + 100000 z_1_6 + 100000 z_1_7 + 100000 z_1_8 + 100000 z_1_9 <= 698475.33361264947
 c4104: 120 p_1_1 + 120 p_1_10 + 120 p_1_2 + 120 p_1_3 + 120 p_1_6 + 120 p_1_7 + 120 p_1_8 + 120 p_1_9 + 100000 z_1_1 + 100000 z_1_10 + 100000 z_1_2 + 100000 z_1_3 + 100000 z_1_6 + 100000 z_1_7 + 100000 z_1_8 + 100000 z_1_9 <= 798462.88198994554
 c4105: 120 p_1_10 + 120 p_1_4 + 120 p_1_6 + 120 p_1_7 + 120 p_1_8 + 120 p_1_9 + 100000 z_1_10 + 100000 z_1_4 + 100000 z_1_6 + 100000 z_1_7 + 100000 z_1_8 + 100000 z_1_9 <= 598460.3050632074
 c4106: 120 p_1_1 + 120 p_1_10 + 120 p_1_4 + 120 p_1_6 + 120 p_1_7 + 120 p_1_8 + 120 p_1_9 + 100000 z_1_1 + 100000 z_1_10 + 100000 z_1_4 + 100000 z_1_6 + 100000 z_1_7 + 100000 z_1_8 + 100000 z_1_9 <= 698442.03769388201
 c4107: 120 p_1_10 + 120 p_1_2 + 120 p_1_4 + 120 p_1_6 + 120 p_1_7 + 120 p_1_8 + 120 p_1_9 + 100000 z_1_10 + 100000 z_1_2 + 100000 z_1_4 + 100000 z_1_6 + 100000 z_1_7 + 100000 z_1_8 + 100000 z_1_9 <= 698442.34878460865
 c4108: 120 p_1_1 + 120 p_1_10 + 120 p_1_2 + 120 p_1_4 + 120 p_1_6 + 120 p_1_7 + 120 p_1_8 + 120 p_1_9 + 100000 z_1_1 + 100000 z_1_10 + 100000 z_1_2 + 100000 z_1_4 + 100000 z_1_6 + 100000 z_1_7 + 100000 z_1_8 + 100000 z_1_9 <= 798442.00848425459
 c4109: 120 p_1_10 + 120 p_1_3 + 120 p_1_4 + 120 p_1_6 + 120 p_1_7 + 120 p_1_8 + 120 p_1_9 + 100000 z_1_10 + 100000 z_1_3 + 100000 z_1_4 + 100000 z_1_6 + 100000 z_1_7 + 100000 z_1_8 + 100000 z_1_9 <= 698460.2950047123
 c4110: 120 p_1_1 + 120 p_1_10 + 120 p_1_3 + 120 p_1_4 + 120 p_1_6 + 120 p_1_7 + 120 p_1_8 + 120 p_1_9 + 100000 z_1_1 + 100000 z_1_10 + 100000 z_1_3 + 100000 z_1_4 + 100000 z_1_6 + 100000 z_1_7 + 100000 z_1_8 + 100000 z_1_9 <= 798437.52274214535
 c4111: 120 p_1_10 + 120 p_1_2 + 120 p_1_3 + 120 p_1_4 + 120 p_1_6 + 120 p_1_7 + 120 p_1_8 + 120 p_1_9 + 100000 z_1_10 + 100000 z_1_2 + 100000 z_1_3 + 100000 z_1_4 + 100000 z_1_6 + 100000 z_1_7 + 100000 z_1_8 + 100000 z_1_9 <= 798431.05746164289
 c4112: 120 p_1_1 + 120 p_1_10 + 120 p_1_2 + 120 p_1_3 + 120 p_1_4 + 120 p_1_6 + 120 p_1_7 + 120 p_1_8 + 120 p_1_9 + 100000 z_1_1 + 100000 z_1_10 + 100000 z_1_2 + 100000 z_1_3 + 100000 z_1_4 + 100000 z_1_6 + 100000 z_1_7 + 100000 z_1_8 + 100000 z_1_9 <= 898422.19218898914
 c4113: 120 p_1_10 + 120 p_1_5 + 120 p_1_6 + 120 p_1_7 + 120 p_1_8 + 120 p_1_9 + 100000 z_1_10 + 100000 z_1_5 + 100000 z_1_6 + 100000 z_1_7 + 100000 z_1_8 + 100000 z_1_9 <= 598485.21915761253
 c4114: 120 p_1_1 + 120 p_1_10 + 120 p_1_5 + 120 p_1_6 + 120 p_1_7 + 120 p_1_8 + 120 p_1_9 + 100000 z_1_1 + 100000 z_1_10 + 100000 z_1_5 + 100000 z_1_6 + 100000 z_1_7 + 100000 z_1_8 + 100000 z_1_9 <= 698475.42695778469
 c4115: 120 p_1_10 + 120 p_1_2 + 120 p_1_5 + 120 p_1_6 + 120 p_1_7 + 120 p_1_8 + 120 p_1_9 + 100000 z_1_10 + 100000 z_1_2 + 100000 z_1_5 + 100000 z_1_6 + 100000 z_1_7 + 100000 z_1_8 + 100000 z_1_9 <= 698466.43045852112
 c4116: 120 p_1_1 + 120 p_1_10 + 120 p_1_2 + 120 p_1_5 + 120 p_1_6 + 120 p_1_7 + 120 p_1_8 + 120 p_1_9 + 100000 z_1_1 + 100000 z_1_10 + 100000 z_1_2 + 100000 z_1_5 + 100000 z_1_6 + 100000 z_1_7 + 100000 z_1_8 + 100000 z_1_9 <= 798453.97883581719
 c4117: 120 p_1_10 + 120 p_1_3 + 120 p_1_5 + 120 p_1_6 + 120 p_1_7 + 120 p_1_8 + 120 p_1_9 + 100000 z_1_10 + 100000 z_1_3 + 100000 z_1_5 + 100000 z_1_6 + 100000 z_1_7 + 100000 z_1_8 + 100000 z_1_9 <= 698476.72601598618
 c4118: 120 p_1_1 + 120 p_1_10 + 120 p_1_3 + 120 p_1_5 + 120 p_1_6 + 120 p_1_7 + 120 p_1_8 + 120 p_1_9 + 100000 z_1_1 + 100000 z_1_10 + 100000 z_1_3 + 100000 z_1_5 + 100000 z_1_6 + 100000 z_1_7 + 100000 z_1_8 + 100000 z_1_9 <= 798475.41689928959
 c4119: 120 p_1_10 + 120 p_1_2 + 120 p_1_3 + 120 p_1_5 + 120 p_1_6 + 120 p_1_7 + 120 p_1_8 + 120 p_1_9 + 100000 z_1_10 + 100000 z_1_2 + 100000 z_1_3 + 100000 z_1_5 + 100000 z_1_6 + 100000 z_1_7 + 100000 z_1_8 + 100000 z_1_9 <= 798446.61416325567
 c4120: 120 p_1_1 + 120 p_1_10 + 120 p_1_2 + 120 p_1_3 + 120 p_1_5 + 120 p_1_6 + 120 p_1_7 + 120 p_1_8 + 120 p_1_9 + 100000 z_1_1 + 100000 z_1_10 + 100000 z_1_2 + 100000 z_1_3 + 100000 z_1_5 + 100000 z_1_6 + 100000 z_1_7 + 100000 z_1_8 + 100000 z_1_9 <= 898434.16254055174
 c4121: 120 p_1_10 + 120 p_1_4 + 120 p_1_5 + 120 p_1_6 + 120 p_1_7 + 120 p_1_8 + 120 p_1_9 + 100000 z_1_10 + 100000 z_1_4 + 100000 z_1_5 + 100000 z_1_6 + 100000 z_1_7 + 100000 z_1_8 + 100000 z_1_9 <= 698457.50941939524
 c4122: 120 p_1_1 + 120 p_1_10 + 120 p_1_4 + 120 p_1_5 + 120 p_1_6 + 120 p_1_7 + 120 p_1_8 + 120 p_1_9 + 100000 z_1_1 + 100000 z_1_10 + 100000 z_1_4 + 100000 z_1_5 + 100000 z_1_6 + 100000 z_1_7 + 100000 z_1_8 + 100000 z_1_9 <= 798434.73715682828
 c4123: 120 p_1_10 + 120 p_1_2 + 120 p_1_4 + 120 p_1_5 + 120 p_1_6 + 120 p_1_7 + 120 p_1_8 + 120 p_1_9 + 100000 z_1_10 + 100000 z_1_2 + 100000 z_1_4 + 100000 z_1_5 + 100000 z_1_6 + 100000 z_1_7 + 100000 z_1_8 + 100000 z_1_9 <= 798413.62933521485
 c4124: 120 p_1_1 + 120 p_1_10 + 120 p_1_2 + 120 p_1_4 + 120 p_1_5 + 120 p_1_6 + 120 p_1_7 + 120 p_1_8 + 120 p_1_9 + 100000 z_1_1 + 100000 z_1_10 + 100000 z_1_2 + 100000 z_1_4 + 100000 z_1_5 + 100000 z_1_6 + 100000 z_1_7 + 100000 z_1_8 + 100000 z_1_9 <= 898413.28903486079
 c4125: 120 p_1_10 + 120 p_1_3 + 120 p_1_4 + 120 p_1_5 + 120 p_1_6 + 120 p_1_7 + 120 p_1_8 + 120 p_1_9 + 100000 z_1_10 + 100000 z_1_3 + 100000 z_1_4 + 100000 z_1_5 + 100000 z_1_6 + 100000 z_1_7 + 100000 z_1_8 + 100000 z_1_9 <= 798457.49936090002
 c4126: 120 p_1_1 + 120 p_1_10 + 120 p_1_3 + 120 p_1_4 + 120 p_1_5 + 120 p_1_6 + 120 p_1_7 + 120 p_1_8 + 120 p_1_9 + 100000 z_1_1 + 100000 z_1_10 + 100000 z_1_3 + 100000 z_1_4 + 100000 z_1_5 + 100000 z_1_6 + 100000 z_1_7 + 100000 z_1_8 + 100000 z_1_9 <= 898434.72709833318
 c4127: 120 p_1_10 + 120 p_1_2 + 120 p_1_3 + 120 p_1_4 + 120 p_1_5 + 120 p_1_6 + 120 p_1_7 + 120 p_1_8 + 120 p_1_9 + 100000 z_1_10 + 100000 z_1_2 + 100000 z_1_3 + 100000 z_1_4 + 100000 z_1_5 + 100000 z_1_6 + 100000 z_1_7 + 100000 z_1_8 + 100000 z_1_9 <= 898402.33801224921
 c4128: 120 p_1_1 + 120 p_1_10 + 120 p_1_2 + 120 p_1_3 + 120 p_1_4 + 120 p_1_5 + 120 p_1_6 + 120 p_1_7 + 120 p_1_8 + 120 p_1_9 + 100000 z_1_1 + 100000 z_1_10 + 100000 z_1_2 + 100000 z_1_3 + 100000 z_1_4 + 100000 z_1_5 + 100000 z_1_6 + 100000 z_1_7 + 100000 z_1_8 + 100000 z_1_9 <= 998393.47273959534
 c4129: 120 p_2_1 + 100000 z_2_1 <= 101210.42039470175
 c4130: 120 p_2_2 + 100000 z_2_2 <= 101440.71834550035
 c4131: 120 p_2_1 + 120 p_2_2 + 100000 z_2_1 + 100000 z_2_2 <= 200389.61407434015
 c4132: 120 p_2_3 + 100000 z_2_3 <= 101151.64363737353
 c4133: 120 p_2_1 + 120 p_2_3 + 100000 z_2_1 + 100000 z_2_3 <= 200089.88330774006
 c4134: 120 p_2_2 + 120 p_2_3 + 100000 z_2_2 + 100000 z_2_3 <= 200376.6659818945
 c4135: 120 p_2_1 + 120 p_2_2 + 120 p_2_3 + 100000 z_2_1 + 100000 z_2_2 + 100000 z_2_3 <= 299325.56171073427
 c4136: 120 p_2_4 + 100000 z_2_4 <= 100955.18155320581
 c4137: 120 p_2_1 + 120 p_2_4 + 100000 z_2_1 + 100000 z_2_4 <= 200954.84125285168
 c4138: 120 p_2_2 + 120 p_2_4 + 100000 z_2_2 + 100000 z_2_4 <= 200141.90252778539
 c4139: 120 p_2_1 + 120 p_2_2 + 120 p_2_4 + 100000 z_2_1 + 100000 z_2_2 + 100000 z_2_4 <= 300141.56222743122
 c4140: 120 p_2_3 + 120 p_2_4 + 100000 z_2_3 + 100000 z_2_4 <= 199851.59390365845
 c4141: 120 p_2_1 + 120 p_2_3 + 120 p_2_4 + 100000 z_2_1 + 100000 z_2_3 + 100000 z_2_4 <= 299851.25360330433
 c4142: 120 p_2_2 + 120 p_2_3 + 120 p_2_4 + 100000 z_2_2 + 100000 z_2_3 + 100000 z_2_4 <= 299077.85016417952
 c4143: 120 p_2_1 + 120 p_2_2 + 120 p_2_3 + 120 p_2_4 + 100000 z_2_1 + 100000 z_2_2 + 100000 z_2_3 + 100000 z_2_4 <= 399077.5098638254
 c4144: 120 p_2_5 + 100000 z_2_5 <= 101441.55149663451
 c4145: 120 p_2_1 + 120 p_2_5 + 100000 z_2_1 + 100000 z_2_5 <= 200421.75333610782
 c4146: 120 p_2_2 + 120 p_2_5 + 100000 z_2_2 + 100000 z_2_5 <= 201386.39014798362
 c4147: 120 p_2_1 + 120 p_2_2 + 120 p_2_5 + 100000 z_2_1 + 100000 z_2_2 + 100000 z_2_5 <= 300366.59198745695
 c4148: 120 p_2_3 + 120 p_2_5 + 100000 z_2_3 + 100000 z_2_5 <= 200344.44136989393
 c4149: 120 p_2_1 + 120 p_2_3 + 120 p_2_5 + 100000 z_2_1 + 100000 z_2_3 + 100000 z_2_5 <= 299324.64320936723
 c4150: 120 p_2_2 + 120 p_2_3 + 120 p_2_5 + 100000 z_2_2 + 100000 z_2_3 + 100000 z_2_5 <= 300322.33778437774
 c4151: 120 p_2_1 + 120 p_2_2 + 120 p_2_3 + 120 p_2_5 + 100000 z_2_1 + 100000 z_2_2 + 100000 z_2_3 + 100000 z_2_5 <= 399302.53962385107
 c4152: 120 p_2_4 + 120 p_2_5 + 100000 z_2_4 + 100000 z_2_5 <= 200176.14316674654
 c4153: 120 p_2_1 + 120 p_2_4 + 120 p_2_5 + 100000 z_2_1 + 100000 z_2_4 + 100000 z_2_5 <= 300175.80286639236
 c4154: 120 p_2_2 + 120 p_2_4 + 120 p_2_5 + 100000 z_2_2 + 100000 z_2_4 + 100000 z_2_5 <= 300120.98181809566
 c4155: 120 p_2_1 + 120 p_2_2 + 120 p_2_4 + 120 p_2_5 + 100000 z_2_1 + 100000 z_2_2 + 100000 z_2_4 + 100000 z_2_5 <= 400120.64151774149
 c4156: 120 p_2_3 + 120 p_2_4 + 120 p_2_5 + 100000 z_2_3 + 100000 z_2_4 + 100000 z_2_5 <= 299079.03304000595
 c4157: 120 p_2_1 + 120 p_2_3 + 120 p_2_4 + 120 p_2_5 + 100000 z_2_1 + 100000 z_2_3 + 100000 z_2_4 + 100000 z_2_5 <= 399078.69273965183
 c4158: 120 p_2_2 + 120 p_2_3 + 120 p_2_4 + 120 p_2_5 + 100000 z_2_2 + 100000 z_2_3 + 100000 z_2_4 + 100000 z_2_5 <= 399056.92945448979
 c4159: 120 p_2_1 + 120 p_2_2 + 120 p_2_3 + 120 p_2_4 + 120 p_2_5 + 100000 z_2_1 + 100000 z_2_2 + 100000 z_2_3 + 100000 z_2_4 + 100000 z_2_5 <= 499056.58915413567
 c4160: 120 p_2_6 + 100000 z_2_6 <= 100791.10626901616
 c4161: 120 p_2_1 + 120 p_2_6 + 100000 z_2_1 + 100000 z_2_6 <= 199744.03834756371
 c4162: 120 p_2_2 + 120 p_2_6 + 100000 z_2_2 + 100000 z_2_6 <= 200035.93485030736
 c4163: 120 p_2_1 + 120 p_2_2 + 120 p_2_6 + 100000 z_2_1 + 100000 z_2_2 + 100000 z_2_6 <= 298988.8669288549
 c4164: 120 p_2_3 + 120 p_2_6 + 100000 z_2_3 + 100000 z_2_6 <= 200791.09621052101
 c4165: 120 p_2_1 + 120 p_2_3 + 120 p_2_6 + 100000 z_2_1 + 100000 z_2_3 + 100000 z_2_6 <= 299744.02828906855
 c4166: 120 p_2_2 + 120 p_2_3 + 120 p_2_6 + 100000 z_2_2 + 100000 z_2_3 + 100000 z_2_6 <= 300035.9247918122
 c4167: 120 p_2_1 + 120 p_2_2 + 120 p_2_3 + 120 p_2_6 + 100000 z_2_1 + 100000 z_2_2 + 100000 z_2_3 + 100000 z_2_6 <= 398984.82052065199
 c4168: 120 p_2_4 + 120 p_2_6 + 100000 z_2_4 + 100000 z_2_6 <= 199509.93919400984
 c4169: 120 p_2_1 + 120 p_2_4 + 120 p_2_6 + 100000 z_2_1 + 100000 z_2_4 + 100000 z_2_6 <= 299509.5988936557
 c4170: 120 p_2_2 + 120 p_2_4 + 120 p_2_6 + 100000 z_2_2 + 100000 z_2_4 + 100000 z_2_6 <= 298754.76777530106
 c4171: 120 p_2_1 + 120 p_2_2 + 120 p_2_4 + 120 p_2_6 + 100000 z_2_1 + 100000 z_2_2 + 100000 z_2_4 + 100000 z_2_6 <= 398754.42747494689
 c4172: 120 p_2_3 + 120 p_2_4 + 120 p_2_6 + 100000 z_2_3 + 100000 z_2_4 + 100000 z_2_6 <= 299509.92913551466
 c4173: 120 p_2_1 + 120 p_2_3 + 120 p_2_4 + 120 p_2_6 + 100000 z_2_1 + 100000 z_2_3 + 100000 z_2_4 + 100000 z_2_6 <= 399509.58883516054
 c4174: 120 p_2_2 + 120 p_2_3 + 120 p_2_4 + 120 p_2_6 + 100000 z_2_2 + 100000 z_2_3 + 100000 z_2_4 + 100000 z_2_6 <= 398737.10897409724
 c4175: 120 p_2_1 + 120 p_2_2 + 120 p_2_3 + 120 p_2_4 + 120 p_2_6 + 100000 z_2_1 + 100000 z_2_2 + 100000 z_2_3 + 100000 z_2_4 + 100000 z_2_6 <= 498736.76867374306
 c4176: 120 p_2_5 + 120 p_2_6 + 100000 z_2_5 + 100000 z_2_6 <= 200000.39535188209
 c4177: 120 p_2_1 + 120 p_2_5 + 120 p_2_6 + 100000 z_2_1 + 100000 z_2_5 + 100000 z_2_6 <= 298980.59719135542
 c4178: 120 p_2_2 + 120 p_2_5 + 120 p_2_6 + 100000 z_2_2 + 100000 z_2_5 + 100000 z_2_6 <= 299981.60665279062
 c4179: 120 p_2_1 + 120 p_2_2 + 120 p_2_5 + 120 p_2_6 + 100000 z_2_1 + 100000 z_2_2 + 100000 z_2_5 + 100000 z_2_6 <= 398961.80849226395
 c4180: 120 p_2_3 + 120 p_2_5 + 120 p_2_6 + 100000 z_2_3 + 100000 z_2_5 + 100000 z_2_6 <= 300000.38529338693
 c4181: 120 p_2_1 + 120 p_2_3 + 120 p_2_5 + 120 p_2_6 + 100000 z_2_1 + 100000 z_2_3 + 100000 z_2_5 + 100000 z_2_6 <= 398980.58713286027
 c4182: 120 p_2_2 + 120 p_2_3 + 120 p_2_5 + 120 p_2_6 + 100000 z_2_2 + 100000 z_2_3 + 100000 z_2_5 + 100000 z_2_6 <= 399981.59659429546
 c4183: 120 p_2_1 + 120 p_2_2 + 120 p_2_3 + 120 p_2_5 + 120 p_2_6 + 100000 z_2_1 + 100000 z_2_2 + 100000 z_2_3 + 100000 z_2_5 + 100000 z_2_6 <= 498961.7984337688
 c4184: 120 p_2_4 + 120 p_2_5 + 120 p_2_6 + 100000 z_2_4 + 100000 z_2_5 + 100000 z_2_6 <= 298734.98702199414
 c4185: 120 p_2_1 + 120 p_2_4 + 120 p_2_5 + 120 p_2_6 + 100000 z_2_1 + 100000 z_2_4 + 100000 z_2_5 + 100000 z_2_6 <= 398734.64672163996
 c4186: 120 p_2_2 + 120 p_2_4 + 120 p_2_5 + 120 p_2_6 + 100000 z_2_2 + 100000 z_2_4 + 100000 z_2_5 + 100000 z_2_6 <= 398716.19832290267
 c4187: 120 p_2_1 + 120 p_2_2 + 120 p_2_4 + 120 p_2_5 + 120 p_2_6 + 100000 z_2_1 + 100000 z_2_2 + 100000 z_2_4 + 100000 z_2_5 + 100000 z_2_6 <= 498715.85802254849
 c4188: 120 p_2_3 + 120 p_2_4 + 120 p_2_5 + 120 p_2_6 + 100000 z_2_3 + 100000 z_2_4 + 100000 z_2_5 + 100000 z_2_6 <= 398734.97696349898
 c4189: 120 p_2_1 + 120 p_2_3 + 120 p_2_4 + 120 p_2_5 + 120 p_2_6 + 100000 z_2_1 + 100000 z_2_3 + 100000 z_2_4 + 100000 z_2_5 + 100000 z_2_6 <= 498734.6366631448
 c4190: 120 p_2_2 + 120 p_2_3 + 120 p_2_4 + 120 p_2_5 + 120 p_2_6 + 100000 z_2_2 + 100000 z_2_3 + 100000 z_2_4 + 100000 z_2_5 + 100000 z_2_6 <= 498716.18826440751
 c4191: 120 p_2_1 + 120 p_2_2 + 120 p_2_3 + 120 p_2_4 + 120 p_2_5 + 120 p_2_6 + 100000 z_2_1 + 100000 z_2_2 + 100000 z_2_3 + 100000 z_2_4 + 100000 z_2_5 + 100000 z_2_6 <= 598715.84796405339
 c4192: 120 p_2_7 + 100000 z_2_7 <= 101382.94598648536
 c4193: 120 p_2_1 + 120 p_2_7 + 100000 z_2_1 + 100000 z_2_7 <= 201099.80128918844
 c4194: 120 p_2_2 + 120 p_2_7 + 100000 z_2_2 + 100000 z_2_7 <= 200642.12431123573
 c4195: 120 p_2_1 + 120 p_2_2 + 120 p_2_7 + 100000 z_2_1 + 100000 z_2_2 + 100000 z_2_7 <= 300358.97961393883
 c4196: 120 p_2_3 + 120 p_2_7 + 100000 z_2_3 + 100000 z_2_7 <= 200184.83695838426
 c4197: 120 p_2_1 + 120 p_2_3 + 120 p_2_7 + 100000 z_2_1 + 100000 z_2_3 + 100000 z_2_7 <= 299979.26420222677
 c4198: 120 p_2_2 + 120 p_2_3 + 120 p_2_7 + 100000 z_2_2 + 100000 z_2_3 + 100000 z_2_7 <= 299578.07194762985
 c4199: 120 p_2_1 + 120 p_2_2 + 120 p_2_3 + 120 p_2_7 + 100000 z_2_1 + 100000 z_2_2 + 100000 z_2_3 + 100000 z_2_7 <= 399294.92725033296
 c4200: 120 p_2_4 + 120 p_2_7 + 100000 z_2_4 + 100000 z_2_7 <= 200873.80532431524
 c4201: 120 p_2_1 + 120 p_2_4 + 120 p_2_7 + 100000 z_2_1 + 100000 z_2_4 + 100000 z_2_7 <= 300873.46502396109
 c4202: 120 p_2_2 + 120 p_2_4 + 120 p_2_7 + 100000 z_2_2 + 100000 z_2_4 + 100000 z_2_7 <= 300132.9836490656
 c4203: 120 p_2_1 + 120 p_2_2 + 120 p_2_4 + 120 p_2_7 + 100000 z_2_1 + 100000 z_2_2 + 100000 z_2_4 + 100000 z_2_7 <= 400132.64334871148
 c4204: 120 p_2_3 + 120 p_2_4 + 120 p_2_7 + 100000 z_2_3 + 100000 z_2_4 + 100000 z_2_7 <= 299770.21767476789
 c4205: 120 p_2_1 + 120 p_2_3 + 120 p_2_4 + 120 p_2_7 + 100000 z_2_1 + 100000 z_2_3 + 100000 z_2_4 + 100000 z_2_7 <= 399752.92793699942
 c4206: 120 p_2_2 + 120 p_2_3 + 120 p_2_4 + 120 p_2_7 + 100000 z_2_2 + 100000 z_2_3 + 100000 z_2_4 + 100000 z_2_7 <= 399068.93128545972
 c4207: 120 p_2_1 + 120 p_2_2 + 120 p_2_3 + 120 p_2_4 + 120 p_2_7 + 100000 z_2_1 + 100000 z_2_2 + 100000 z_2_3 + 100000 z_2_4 + 100000 z_2_7 <= 499068.59098510561
 c4208: 120 p_2_5 + 120 p_2_7 + 100000 z_2_5 + 100000 z_2_7 <= 200679.44931282365
 c4209: 120 p_2_1 + 120 p_2_5 + 120 p_2_7 + 100000 z_2_1 + 100000 z_2_5 + 100000 z_2_7 <= 300396.30461552675
 c4210: 120 p_2_2 + 120 p_2_5 + 120 p_2_7 + 100000 z_2_2 + 100000 z_2_5 + 100000 z_2_7 <= 300624.28796417278
 c4211: 120 p_2_1 + 120 p_2_2 + 120 p_2_5 + 120 p_2_7 + 100000 z_2_1 + 100000 z_2_2 + 100000 z_2_5 + 100000 z_2_7 <= 400341.14326687588
 c4212: 120 p_2_3 + 120 p_2_5 + 120 p_2_7 + 100000 z_2_3 + 100000 z_2_5 + 100000 z_2_7 <= 299582.33918608306
 c4213: 120 p_2_1 + 120 p_2_3 + 120 p_2_5 + 120 p_2_7 + 100000 z_2_1 + 100000 z_2_3 + 100000 z_2_5 + 100000 z_2_7 <= 399299.19448878616
 c4214: 120 p_2_2 + 120 p_2_3 + 120 p_2_5 + 120 p_2_7 + 100000 z_2_2 + 100000 z_2_3 + 100000 z_2_5 + 100000 z_2_7 <= 399560.2356005669
 c4215: 120 p_2_1 + 120 p_2_2 + 120 p_2_3 + 120 p_2_5 + 120 p_2_7 + 100000 z_2_1 + 100000 z_2_2 + 100000 z_2_3 + 100000 z_2_5 + 100000 z_2_7 <= 499277.09090327
 c4216: 120 p_2_4 + 120 p_2_5 + 120 p_2_7 + 100000 z_2_4 + 100000 z_2_5 + 100000 z_2_7 <= 300170.30865065352
 c4217: 120 p_2_1 + 120 p_2_4 + 120 p_2_5 + 120 p_2_7 + 100000 z_2_1 + 100000 z_2_4 + 100000 z_2_5 + 100000 z_2_7 <= 400169.9683502994
 c4218: 120 p_2_2 + 120 p_2_4 + 120 p_2_5 + 120 p_2_7 + 100000 z_2_2 + 100000 z_2_4 + 100000 z_2_5 + 100000 z_2_7 <= 400115.14730200265
 c4219: 120 p_2_1 + 120 p_2_2 + 120 p_2_4 + 120 p_2_5 + 120 p_2_7 + 100000 z_2_1 + 100000 z_2_2 + 100000 z_2_4 + 100000 z_2_5 + 100000 z_2_7 <= 500114.80700164853
 c4220: 120 p_2_3 + 120 p_2_4 + 120 p_2_5 + 120 p_2_7 + 100000 z_2_3 + 100000 z_2_4 + 100000 z_2_5 + 100000 z_2_7 <= 399073.19852391299
 c4221: 120 p_2_1 + 120 p_2_3 + 120 p_2_4 + 120 p_2_5 + 120 p_2_7 + 100000 z_2_1 + 100000 z_2_3 + 100000 z_2_4 + 100000 z_2_5 + 100000 z_2_7 <= 499072.85822355881
 c4222: 120 p_2_2 + 120 p_2_3 + 120 p_2_4 + 120 p_2_5 + 120 p_2_7 + 100000 z_2_2 + 100000 z_2_3 + 100000 z_2_4 + 100000 z_2_5 + 100000 z_2_7 <= 499051.09493839677
 c4223: 120 p_2_1 + 120 p_2_2 + 120 p_2_3 + 120 p_2_4 + 120 p_2_5 + 120 p_2_7 + 100000 z_2_1 + 100000 z_2_2 + 100000 z_2_3 + 100000 z_2_4 + 100000 z_2_5 + 100000 z_2_7 <= 599050.75463804265
 c4224: 120 p_2_6 + 120 p_2_7 + 100000 z_2_6 + 100000 z_2_7 <= 199829.3738144614
 c4225: 120 p_2_1 + 120 p_2_6 + 120 p_2_7 + 100000 z_2_1 + 100000 z_2_6 + 100000 z_2_7 <= 299633.41924205038
 c4226: 120 p_2_2 + 120 p_2_6 + 120 p_2_7 + 100000 z_2_2 + 100000 z_2_6 + 100000 z_2_7 <= 299237.34081604274
 c4227: 120 p_2_1 + 120 p_2_2 + 120 p_2_6 + 120 p_2_7 + 100000 z_2_1 + 100000 z_2_2 + 100000 z_2_6 + 100000 z_2_7 <= 398954.19611874584
 c4228: 120 p_2_3 + 120 p_2_6 + 120 p_2_7 + 100000 z_2_3 + 100000 z_2_6 + 100000 z_2_7 <= 299829.36375596625
 c4229: 120 p_2_1 + 120 p_2_3 + 120 p_2_6 + 120 p_2_7 + 100000 z_2_1 + 100000 z_2_3 + 100000 z_2_6 + 100000 z_2_7 <= 399633.40918355522
 c4230: 120 p_2_2 + 120 p_2_3 + 120 p_2_6 + 120 p_2_7 + 100000 z_2_2 + 100000 z_2_3 + 100000 z_2_6 + 100000 z_2_7 <= 399237.33075754758
 c4231: 120 p_2_1 + 120 p_2_2 + 120 p_2_3 + 120 p_2_6 + 120 p_2_7 + 100000 z_2_1 + 100000 z_2_2 + 100000 z_2_3 + 100000 z_2_6 + 100000 z_2_7 <= 498954.18606025062
 c4232: 120 p_2_4 + 120 p_2_6 + 120 p_2_7 + 100000 z_2_4 + 100000 z_2_6 + 100000 z_2_7 <= 299428.56296511926
 c4233: 120 p_2_1 + 120 p_2_4 + 120 p_2_6 + 120 p_2_7 + 100000 z_2_1 + 100000 z_2_4 + 100000 z_2_6 + 100000 z_2_7 <= 399407.08297682303
 c4234: 120 p_2_2 + 120 p_2_4 + 120 p_2_6 + 120 p_2_7 + 100000 z_2_2 + 100000 z_2_4 + 100000 z_2_6 + 100000 z_2_7 <= 398728.2001538726
 c4235: 120 p_2_1 + 120 p_2_2 + 120 p_2_4 + 120 p_2_6 + 120 p_2_7 + 100000 z_2_1 + 100000 z_2_2 + 100000 z_2_4 + 100000 z_2_6 + 100000 z_2_7 <= 498727.85985351849
 c4236: 120 p_2_3 + 120 p_2_4 + 120 p_2_6 + 120 p_2_7 + 100000 z_2_3 + 100000 z_2_4 + 100000 z_2_6 + 100000 z_2_7 <= 399428.5529066241
 c4237: 120 p_2_1 + 120 p_2_3 + 120 p_2_4 + 120 p_2_6 + 120 p_2_7 + 100000 z_2_1 + 100000 z_2_3 + 100000 z_2_4 + 100000 z_2_6 + 100000 z_2_7 <= 499407.07291832787
 c4238: 120 p_2_2 + 120 p_2_3 + 120 p_2_4 + 120 p_2_6 + 120 p_2_7 + 100000 z_2_2 + 100000 z_2_3 + 100000 z_2_4 + 100000 z_2_6 + 100000 z_2_7 <= 498728.19009537745
 c4239: 120 p_2_1 + 120 p_2_2 + 120 p_2_3 + 120 p_2_4 + 120 p_2_6 + 120 p_2_7 + 100000 z_2_1 + 100000 z_2_2 + 100000 z_2_3 + 100000 z_2_4 + 100000 z_2_6 + 100000 z_2_7 <= 598727.84979502333
 c4240: 120 p_2_5 + 120 p_2_6 + 120 p_2_7 + 100000 z_2_5 + 100000 z_2_6 + 100000 z_2_7 <= 299238.29316807125
 c4241: 120 p_2_1 + 120 p_2_5 + 120 p_2_6 + 120 p_2_7 + 100000 z_2_1 + 100000 z_2_5 + 100000 z_2_6 + 100000 z_2_7 <= 398955.14847077435
 c4242: 120 p_2_2 + 120 p_2_5 + 120 p_2_6 + 120 p_2_7 + 100000 z_2_2 + 100000 z_2_5 + 100000 z_2_6 + 100000 z_2_7 <= 399219.50446897978
 c4243: 120 p_2_1 + 120 p_2_2 + 120 p_2_5 + 120 p_2_6 + 120 p_2_7 + 100000 z_2_1 + 100000 z_2_2 + 100000 z_2_5 + 100000 z_2_6 + 100000 z_2_7 <= 498936.35977168288
 c4244: 120 p_2_3 + 120 p_2_5 + 120 p_2_6 + 120 p_2_7 + 100000 z_2_3 + 100000 z_2_5 + 100000 z_2_6 + 100000 z_2_7 <= 399238.28310957609
 c4245: 120 p_2_1 + 120 p_2_3 + 120 p_2_5 + 120 p_2_6 + 120 p_2_7 + 100000 z_2_1 + 100000 z_2_3 + 100000 z_2_5 + 100000 z_2_6 + 100000 z_2_7 <= 498955.13841227919
 c4246: 120 p_2_2 + 120 p_2_3 + 120 p_2_5 + 120 p_2_6 + 120 p_2_7 + 100000 z_2_2 + 100000 z_2_3 + 100000 z_2_5 + 100000 z_2_6 + 100000 z_2_7 <= 499219.49441048462
 c4247: 120 p_2_1 + 120 p_2_2 + 120 p_2_3 + 120 p_2_5 + 120 p_2_6 + 120 p_2_7 + 100000 z_2_1 + 100000 z_2_2 + 100000 z_2_3 + 100000 z_2_5 + 100000 z_2_6 + 100000 z_2_7 <= 598936.34971318766
 c4248: 120 p_2_4 + 120 p_2_5 + 120 p_2_6 + 120 p_2_7 + 100000 z_2_4 + 100000 z_2_5 + 100000 z_2_6 + 100000 z_2_7 <= 398729.15250590112
 c4249: 120 p_2_1 + 120 p_2_4 + 120 p_2_5 + 120 p_2_6 + 120 p_2_7 + 100000 z_2_1 + 100000 z_2_4 + 100000 z_2_5 + 100000 z_2_6 + 100000 z_2_7 <= 498728.812205547
 c4250: 120 p_2_2 + 120 p_2_4 + 120 p_2_5 + 120 p_2_6 + 120 p_2_7 + 100000 z_2_2 + 100000 z_2_4 + 100000 z_2_5 + 100000 z_2_6 + 100000 z_2_7 <= 498710.36380680965
 c4251: 120 p_2_1 + 120 p_2_2 + 120 p_2_4 + 120 p_2_5 + 120 p_2_6 + 120 p_2_7 + 100000 z_2_1 + 100000 z_2_2 + 100000 z_2_4 + 100000 z_2_5 + 100000 z_2_6 + 100000 z_2_7 <= 598710.02350645547
 c4252: 120 p_2_3 + 120 p_2_4 + 120 p_2_5 + 120 p_2_6 + 120 p_2_7 + 100000 z_2_3 + 100000 z_2_4 + 100000 z_2_5 + 100000 z_2_6 + 100000 z_2_7 <= 498729.14244740596
 c4253: 120 p_2_1 + 120 p_2_3 + 120 p_2_4 + 120 p_2_5 + 120 p_2_6 + 120 p_2_7 + 100000 z_2_1 + 100000 z_2_3 + 100000 z_2_4 + 100000 z_2_5 + 100000 z_2_6 + 100000 z_2_7 <= 598728.80214705179
 c4254: 120 p_2_2 + 120 p_2_3 + 120 p_2_4 + 120 p_2_5 + 120 p_2_6 + 120 p_2_7 + 100000 z_2_2 + 100000 z_2_3 + 100000 z_2_4 + 100000 z_2_5 + 100000 z_2_6 + 100000 z_2_7 <= 598710.35374831443
 c4255: 120 p_2_1 + 120 p_2_2 + 120 p_2_3 + 120 p_2_4 + 120 p_2_5 + 120 p_2_6 + 120 p_2_7 + 100000 z_2_1 + 100000 z_2_2 + 100000 z_2_3 + 100000 z_2_4 + 100000 z_2_5 + 100000 z_2_6 + 100000 z_2_7 <= 698710.01344796037
 c4256: 120 p_2_8 + 100000 z_2_8 <= 101217.1859100724
 c4257: 120 p_2_1 + 120 p_2_8 + 100000 z_2_1 + 100000 z_2_8 <= 200233.04253655256
 c4258: 120 p_2_2 + 120 p_2_8 + 100000 z_2_2 + 100000 z_2_8 <= 201187.94836700306
 c4259: 120 p_2_1 + 120 p_2_2 + 120 p_2_8 + 100000 z_2_1 + 100000 z_2_2 + 100000 z_2_8 <= 300203.80499348324
 c4260: 120 p_2_3 + 120 p_2_8 + 100000 z_2_3 + 100000 z_2_8 <= 200124.12221813298
 c4261: 120 p_2_1 + 120 p_2_3 + 120 p_2_8 + 100000 z_2_1 + 100000 z_2_3 + 100000 z_2_8 <= 299139.97884461313
 c4262: 120 p_2_2 + 120 p_2_3 + 120 p_2_8 + 100000 z_2_2 + 100000 z_2_3 + 100000 z_2_8 <= 300123.89600339718
 c4263: 120 p_2_1 + 120 p_2_2 + 120 p_2_3 + 120 p_2_8 + 100000 z_2_1 + 100000 z_2_2 + 100000 z_2_3 + 100000 z_2_8 <= 399139.75262987736
 c4264: 120 p_2_4 + 120 p_2_8 + 100000 z_2_4 + 100000 z_2_8 <= 199992.24588636652
 c4265: 120 p_2_1 + 120 p_2_4 + 120 p_2_8 + 100000 z_2_1 + 100000 z_2_4 + 100000 z_2_8 <= 299991.90558601235
 c4266: 120 p_2_2 + 120 p_2_4 + 120 p_2_8 + 100000 z_2_2 + 100000 z_2_4 + 100000 z_2_8 <= 299963.00834329717
 c4267: 120 p_2_1 + 120 p_2_2 + 120 p_2_4 + 120 p_2_8 + 100000 z_2_1 + 100000 z_2_2 + 100000 z_2_4 + 100000 z_2_8 <= 399962.66804294306
 c4268: 120 p_2_3 + 120 p_2_4 + 120 p_2_8 + 100000 z_2_3 + 100000 z_2_4 + 100000 z_2_8 <= 298899.18219442706
 c4269: 120 p_2_1 + 120 p_2_3 + 120 p_2_4 + 120 p_2_8 + 100000 z_2_1 + 100000 z_2_3 + 100000 z_2_4 + 100000 z_2_8 <= 398898.84189407295
 c4270: 120 p_2_2 + 120 p_2_3 + 120 p_2_4 + 120 p_2_8 + 100000 z_2_2 + 100000 z_2_3 + 100000 z_2_4 + 100000 z_2_8 <= 398898.95597969129
 c4271: 120 p_2_1 + 120 p_2_2 + 120 p_2_3 + 120 p_2_4 + 120 p_2_8 + 100000 z_2_1 + 100000 z_2_2 + 100000 z_2_3 + 100000 z_2_4 + 100000 z_2_8 <= 498898.61567933718
 c4272: 120 p_2_5 + 120 p_2_8 + 100000 z_2_5 + 100000 z_2_8 <= 201214.39026626016
 c4273: 120 p_2_1 + 120 p_2_5 + 120 p_2_8 + 100000 z_2_1 + 100000 z_2_5 + 100000 z_2_8 <= 300230.24689274031
 c4274: 120 p_2_2 + 120 p_2_5 + 120 p_2_8 + 100000 z_2_2 + 100000 z_2_5 + 100000 z_2_8 <= 301185.15272319084
 c4275: 120 p_2_1 + 120 p_2_2 + 120 p_2_5 + 120 p_2_8 + 100000 z_2_1 + 100000 z_2_2 + 100000 z_2_5 + 100000 z_2_8 <= 400175.08554408944
 c4276: 120 p_2_3 + 120 p_2_5 + 120 p_2_8 + 100000 z_2_3 + 100000 z_2_5 + 100000 z_2_8 <= 300121.32657432073
 c4277: 120 p_2_1 + 120 p_2_3 + 120 p_2_5 + 120 p_2_8 + 100000 z_2_1 + 100000 z_2_3 + 100000 z_2_5 + 100000 z_2_8 <= 399133.13676599978
 c4278: 120 p_2_2 + 120 p_2_3 + 120 p_2_5 + 120 p_2_8 + 100000 z_2_2 + 100000 z_2_3 + 100000 z_2_5 + 100000 z_2_8 <= 400121.10035958496
 c4279: 120 p_2_1 + 120 p_2_2 + 120 p_2_3 + 120 p_2_5 + 120 p_2_8 + 100000 z_2_1 + 100000 z_2_2 + 100000 z_2_3 + 100000 z_2_5 + 100000 z_2_8 <= 499111.03318048362
 c4280: 120 p_2_4 + 120 p_2_5 + 120 p_2_8 + 100000 z_2_4 + 100000 z_2_5 + 100000 z_2_8 <= 299989.4502425543
 c4281: 120 p_2_1 + 120 p_2_4 + 120 p_2_5 + 120 p_2_8 + 100000 z_2_1 + 100000 z_2_4 + 100000 z_2_5 + 100000 z_2_8 <= 399989.10994220013
 c4282: 120 p_2_2 + 120 p_2_4 + 120 p_2_5 + 120 p_2_8 + 100000 z_2_2 + 100000 z_2_4 + 100000 z_2_5 + 100000 z_2_8 <= 399934.28889390343
 c4283: 120 p_2_1 + 120 p_2_2 + 120 p_2_4 + 120 p_2_5 + 120 p_2_8 + 100000 z_2_1 + 100000 z_2_2 + 100000 z_2_4 + 100000 z_2_5 + 100000 z_2_8 <= 499933.94859354926
 c4284: 120 p_2_3 + 120 p_2_4 + 120 p_2_5 + 120 p_2_8 + 100000 z_2_3 + 100000 z_2_4 + 100000 z_2_5 + 100000 z_2_8 <= 398892.34011581371
 c4285: 120 p_2_1 + 120 p_2_3 + 120 p_2_4 + 120 p_2_5 + 120 p_2_8 + 100000 z_2_1 + 100000 z_2_3 + 100000 z_2_4 + 100000 z_2_5 + 100000 z_2_8 <= 498891.99981545954
 c4286: 120 p_2_2 + 120 p_2_3 + 120 p_2_4 + 120 p_2_5 + 120 p_2_8 + 100000 z_2_2 + 100000 z_2_3 + 100000 z_2_4 + 100000 z_2_5 + 100000 z_2_8 <= 498870.23653029755
 c4287: 120 p_2_1 + 120 p_2_2 + 120 p_2_3 + 120 p_2_4 + 120 p_2_5 + 120 p_2_8 + 100000 z_2_1 + 100000 z_2_2 + 100000 z_2_3 + 100000 z_2_4 + 100000 z_2_5 + 100000 z_2_8 <= 598869.89622994338
 c4288: 120 p_2_6 + 120 p_2_8 + 100000 z_2_6 + 100000 z_2_8 <= 199783.1940814376
 c4289: 120 p_2_1 + 120 p_2_6 + 120 p_2_8 + 100000 z_2_1 + 100000 z_2_6 + 100000 z_2_8 <= 298799.05070791778
 c4290: 120 p_2_2 + 120 p_2_6 + 120 p_2_8 + 100000 z_2_2 + 100000 z_2_6 + 100000 z_2_8 <= 299783.16487181006
 c4291: 120 p_2_1 + 120 p_2_2 + 120 p_2_6 + 120 p_2_8 + 100000 z_2_1 + 100000 z_2_2 + 100000 z_2_6 + 100000 z_2_8 <= 398799.02149829024
 c4292: 120 p_2_3 + 120 p_2_6 + 120 p_2_8 + 100000 z_2_3 + 100000 z_2_6 + 100000 z_2_8 <= 299783.18402294244
 c4293: 120 p_2_1 + 120 p_2_3 + 120 p_2_6 + 120 p_2_8 + 100000 z_2_1 + 100000 z_2_3 + 100000 z_2_6 + 100000 z_2_8 <= 398799.04064942262
 c4294: 120 p_2_2 + 120 p_2_3 + 120 p_2_6 + 120 p_2_8 + 100000 z_2_2 + 100000 z_2_3 + 100000 z_2_6 + 100000 z_2_8 <= 399783.1548133149
 c4295: 120 p_2_1 + 120 p_2_2 + 120 p_2_3 + 120 p_2_6 + 120 p_2_8 + 100000 z_2_1 + 100000 z_2_2 + 100000 z_2_3 + 100000 z_2_6 + 100000 z_2_8 <= 498799.01143979508
 c4296: 120 p_2_4 + 120 p_2_6 + 120 p_2_8 + 100000 z_2_4 + 100000 z_2_6 + 100000 z_2_8 <= 298558.25405773171
 c4297: 120 p_2_1 + 120 p_2_4 + 120 p_2_6 + 120 p_2_8 + 100000 z_2_1 + 100000 z_2_4 + 100000 z_2_6 + 100000 z_2_8 <= 398557.9137573776
 c4298: 120 p_2_2 + 120 p_2_4 + 120 p_2_6 + 120 p_2_8 + 100000 z_2_2 + 100000 z_2_4 + 100000 z_2_6 + 100000 z_2_8 <= 398558.22484810418
 c4299: 120 p_2_1 + 120 p_2_2 + 120 p_2_4 + 120 p_2_6 + 120 p_2_8 + 100000 z_2_1 + 100000 z_2_2 + 100000 z_2_4 + 100000 z_2_6 + 100000 z_2_8 <= 498557.88454775006
 c4300: 120 p_2_3 + 120 p_2_4 + 120 p_2_6 + 120 p_2_8 + 100000 z_2_3 + 100000 z_2_4 + 100000 z_2_6 + 100000 z_2_8 <= 398558.24399923655
 c4301: 120 p_2_1 + 120 p_2_3 + 120 p_2_4 + 120 p_2_6 + 120 p_2_8 + 100000 z_2_1 + 100000 z_2_3 + 100000 z_2_4 + 100000 z_2_6 + 100000 z_2_8 <= 498557.90369888238
 c4302: 120 p_2_2 + 120 p_2_3 + 120 p_2_4 + 120 p_2_6 + 120 p_2_8 + 100000 z_2_2 + 100000 z_2_3 + 100000 z_2_4 + 100000 z_2_6 + 100000 z_2_8 <= 498558.21478960902
 c4303: 120 p_2_1 + 120 p_2_2 + 120 p_2_3 + 120 p_2_4 + 120 p_2_6 + 120 p_2_8 + 100000 z_2_1 + 100000 z_2_2 + 100000 z_2_3 + 100000 z_2_4 + 100000 z_2_6 + 100000 z_2_8 <= 598557.8744892549
 c4304: 120 p_2_5 + 120 p_2_6 + 120 p_2_8 + 100000 z_2_5 + 100000 z_2_6 + 100000 z_2_8 <= 299780.39843762538
 c4305: 120 p_2_1 + 120 p_2_5 + 120 p_2_6 + 120 p_2_8 + 100000 z_2_1 + 100000 z_2_5 + 100000 z_2_6 + 100000 z_2_8 <= 398789.09074798791
 c4306: 120 p_2_2 + 120 p_2_5 + 120 p_2_6 + 120 p_2_8 + 100000 z_2_2 + 100000 z_2_5 + 100000 z_2_6 + 100000 z_2_8 <= 399780.36922799784
 c4307: 120 p_2_1 + 120 p_2_2 + 120 p_2_5 + 120 p_2_6 + 120 p_2_8 + 100000 z_2_1 + 100000 z_2_2 + 100000 z_2_5 + 100000 z_2_6 + 100000 z_2_8 <= 498770.30204889644
 c4308: 120 p_2_3 + 120 p_2_5 + 120 p_2_6 + 120 p_2_8 + 100000 z_2_3 + 100000 z_2_5 + 100000 z_2_6 + 100000 z_2_8 <= 399780.38837913016
 c4309: 120 p_2_1 + 120 p_2_3 + 120 p_2_5 + 120 p_2_6 + 120 p_2_8 + 100000 z_2_1 + 100000 z_2_3 + 100000 z_2_5 + 100000 z_2_6 + 100000 z_2_8 <= 498789.08068949275
 c4310: 120 p_2_2 + 120 p_2_3 + 120 p_2_5 + 120 p_2_6 + 120 p_2_8 + 100000 z_2_2 + 100000 z_2_3 + 100000 z_2_5 + 100000 z_2_6 + 100000 z_2_8 <= 499780.35916950268
 c4311: 120 p_2_1 + 120 p_2_2 + 120 p_2_3 + 120 p_2_5 + 120 p_2_6 + 120 p_2_8 + 100000 z_2_1 + 100000 z_2_2 + 100000 z_2_3 + 100000 z_2_5 + 100000 z_2_6 + 100000 z_2_8 <= 598770.29199040134
 c4312: 120 p_2_4 + 120 p_2_5 + 120 p_2_6 + 120 p_2_8 + 100000 z_2_4 + 100000 z_2_5 + 100000 z_2_6 + 100000 z_2_8 <= 398548.2940978019
 c4313: 120 p_2_1 + 120 p_2_4 + 120 p_2_5 + 120 p_2_6 + 120 p_2_8 + 100000 z_2_1 + 100000 z_2_4 + 100000 z_2_5 + 100000 z_2_6 + 100000 z_2_8 <= 498547.95379744773
 c4314: 120 p_2_2 + 120 p_2_4 + 120 p_2_5 + 120 p_2_6 + 120 p_2_8 + 100000 z_2_2 + 100000 z_2_4 + 100000 z_2_5 + 100000 z_2_6 + 100000 z_2_8 <= 498529.50539871043
 c4315: 120 p_2_1 + 120 p_2_2 + 120 p_2_4 + 120 p_2_5 + 120 p_2_6 + 120 p_2_8 + 100000 z_2_1 + 100000 z_2_2 + 100000 z_2_4 + 100000 z_2_5 + 100000 z_2_6 + 100000 z_2_8 <= 598529.16509835632
 c4316: 120 p_2_3 + 120 p_2_4 + 120 p_2_5 + 120 p_2_6 + 120 p_2_8 + 100000 z_2_3 + 100000 z_2_4 + 100000 z_2_5 + 100000 z_2_6 + 100000 z_2_8 <= 498548.28403930669
 c4317: 120 p_2_1 + 120 p_2_3 + 120 p_2_4 + 120 p_2_5 + 120 p_2_6 + 120 p_2_8 + 100000 z_2_1 + 100000 z_2_3 + 100000 z_2_4 + 100000 z_2_5 + 100000 z_2_6 + 100000 z_2_8 <= 598547.94373895251
 c4318: 120 p_2_2 + 120 p_2_3 + 120 p_2_4 + 120 p_2_5 + 120 p_2_6 + 120 p_2_8 + 100000 z_2_2 + 100000 z_2_3 + 100000 z_2_4 + 100000 z_2_5 + 100000 z_2_6 + 100000 z_2_8 <= 598529.49534021528
 c4319: 120 p_2_1 + 120 p_2_2 + 120 p_2_3 + 120 p_2_4 + 120 p_2_5 + 120 p_2_6 + 120 p_2_8 + 100000 z_2_1 + 100000 z_2_2 + 100000 z_2_3 + 100000 z_2_4 + 100000 z_2_5 + 100000 z_2_6 + 100000 z_2_8 <= 698529.1550398611
 c4320: 120 p_2_7 + 120 p_2_8 + 100000 z_2_7 + 100000 z_2_8 <= 200499.98989800474
 c4321: 120 p_2_1 + 120 p_2_7 + 120 p_2_8 + 100000 z_2_1 + 100000 z_2_7 + 100000 z_2_8 <= 300216.84520070784
 c4322: 120 p_2_2 + 120 p_2_7 + 120 p_2_8 + 100000 z_2_2 + 100000 z_2_7 + 100000 z_2_8 <= 300470.75235493539
 c4323: 120 p_2_1 + 120 p_2_2 + 120 p_2_7 + 120 p_2_8 + 100000 z_2_1 + 100000 z_2_2 + 100000 z_2_7 + 100000 z_2_8 <= 400187.60765763849
 c4324: 120 p_2_3 + 120 p_2_7 + 120 p_2_8 + 100000 z_2_3 + 100000 z_2_7 + 100000 z_2_8 <= 299406.92620606528
 c4325: 120 p_2_1 + 120 p_2_3 + 120 p_2_7 + 120 p_2_8 + 100000 z_2_1 + 100000 z_2_3 + 100000 z_2_7 + 100000 z_2_8 <= 399123.78150876838
 c4326: 120 p_2_2 + 120 p_2_3 + 120 p_2_7 + 120 p_2_8 + 100000 z_2_2 + 100000 z_2_3 + 100000 z_2_7 + 100000 z_2_8 <= 399406.69999132951
 c4327: 120 p_2_1 + 120 p_2_2 + 120 p_2_3 + 120 p_2_7 + 120 p_2_8 + 100000 z_2_1 + 100000 z_2_2 + 100000 z_2_3 + 100000 z_2_7 + 100000 z_2_8 <= 499123.55529403262
 c4328: 120 p_2_4 + 120 p_2_7 + 120 p_2_8 + 100000 z_2_4 + 100000 z_2_7 + 100000 z_2_8 <= 299990.84923583461
 c4329: 120 p_2_1 + 120 p_2_4 + 120 p_2_7 + 120 p_2_8 + 100000 z_2_1 + 100000 z_2_4 + 100000 z_2_7 + 100000 z_2_8 <= 399990.50893548049
 c4330: 120 p_2_2 + 120 p_2_4 + 120 p_2_7 + 120 p_2_8 + 100000 z_2_2 + 100000 z_2_4 + 100000 z_2_7 + 100000 z_2_8 <= 399961.61169276526
 c4331: 120 p_2_1 + 120 p_2_2 + 120 p_2_4 + 120 p_2_7 + 120 p_2_8 + 100000 z_2_1 + 100000 z_2_2 + 100000 z_2_4 + 100000 z_2_7 + 100000 z_2_8 <= 499961.27139241114
 c4332: 120 p_2_3 + 120 p_2_4 + 120 p_2_7 + 120 p_2_8 + 100000 z_2_3 + 100000 z_2_4 + 100000 z_2_7 + 100000 z_2_8 <= 398897.78554389521
 c4333: 120 p_2_1 + 120 p_2_3 + 120 p_2_4 + 120 p_2_7 + 120 p_2_8 + 100000 z_2_1 + 100000 z_2_3 + 100000 z_2_4 + 100000 z_2_7 + 100000 z_2_8 <= 498897.44524354103
 c4334: 120 p_2_2 + 120 p_2_3 + 120 p_2_4 + 120 p_2_7 + 120 p_2_8 + 100000 z_2_2 + 100000 z_2_3 + 100000 z_2_4 + 100000 z_2_7 + 100000 z_2_8 <= 498897.55932915944
 c4335: 120 p_2_1 + 120 p_2_2 + 120 p_2_3 + 120 p_2_4 + 120 p_2_7 + 120 p_2_8 + 100000 z_2_1 + 100000 z_2_2 + 100000 z_2_3 + 100000 z_2_4 + 100000 z_2_7 + 100000 z_2_8 <= 598897.21902880527
 c4336: 120 p_2_5 + 120 p_2_7 + 120 p_2_8 + 100000 z_2_5 + 100000 z_2_7 + 100000 z_2_8 <= 300497.19425419252
 c4337: 120 p_2_1 + 120 p_2_5 + 120 p_2_7 + 120 p_2_8 + 100000 z_2_1 + 100000 z_2_5 + 100000 z_2_7 + 100000 z_2_8 <= 400214.04955689562
 c4338: 120 p_2_2 + 120 p_2_5 + 120 p_2_7 + 120 p_2_8 + 100000 z_2_2 + 100000 z_2_5 + 100000 z_2_7 + 100000 z_2_8 <= 400442.03290554165
 c4339: 120 p_2_1 + 120 p_2_2 + 120 p_2_5 + 120 p_2_7 + 120 p_2_8 + 100000 z_2_1 + 100000 z_2_2 + 100000 z_2_5 + 100000 z_2_7 + 100000 z_2_8 <= 500158.88820824469
 c4340: 120 p_2_3 + 120 p_2_5 + 120 p_2_7 + 120 p_2_8 + 100000 z_2_3 + 100000 z_2_5 + 100000 z_2_7 + 100000 z_2_8 <= 399400.08412745193
 c4341: 120 p_2_1 + 120 p_2_3 + 120 p_2_5 + 120 p_2_7 + 120 p_2_8 + 100000 z_2_1 + 100000 z_2_3 + 100000 z_2_5 + 100000 z_2_7 + 100000 z_2_8 <= 499116.93943015503
 c4342: 120 p_2_2 + 120 p_2_3 + 120 p_2_5 + 120 p_2_7 + 120 p_2_8 + 100000 z_2_2 + 100000 z_2_3 + 100000 z_2_5 + 100000 z_2_7 + 100000 z_2_8 <= 499377.98054193577
 c4343: 120 p_2_1 + 120 p_2_2 + 120 p_2_3 + 120 p_2_5 + 120 p_2_7 + 120 p_2_8 + 100000 z_2_1 + 100000 z_2_2 + 100000 z_2_3 + 100000 z_2_5 + 100000 z_2_7 + 100000 z_2_8 <= 599094.83584463887
 c4344: 120 p_2_4 + 120 p_2_5 + 120 p_2_7 + 120 p_2_8 + 100000 z_2_4 + 100000 z_2_5 + 100000 z_2_7 + 100000 z_2_8 <= 399988.05359202239
 c4345: 120 p_2_1 + 120 p_2_4 + 120 p_2_5 + 120 p_2_7 + 120 p_2_8 + 100000 z_2_1 + 100000 z_2_4 + 100000 z_2_5 + 100000 z_2_7 + 100000 z_2_8 <= 499987.71329166827
 c4346: 120 p_2_2 + 120 p_2_4 + 120 p_2_5 + 120 p_2_7 + 120 p_2_8 + 100000 z_2_2 + 100000 z_2_4 + 100000 z_2_5 + 100000 z_2_7 + 100000 z_2_8 <= 499932.89224337152
 c4347: 120 p_2_1 + 120 p_2_2 + 120 p_2_4 + 120 p_2_5 + 120 p_2_7 + 120 p_2_8 + 100000 z_2_1 + 100000 z_2_2 + 100000 z_2_4 + 100000 z_2_5 + 100000 z_2_7 + 100000 z_2_8 <= 599932.5519430174
 c4348: 120 p_2_3 + 120 p_2_4 + 120 p_2_5 + 120 p_2_7 + 120 p_2_8 + 100000 z_2_3 + 100000 z_2_4 + 100000 z_2_5 + 100000 z_2_7 + 100000 z_2_8 <= 498890.9434652818
 c4349: 120 p_2_1 + 120 p_2_3 + 120 p_2_4 + 120 p_2_5 + 120 p_2_7 + 120 p_2_8 + 100000 z_2_1 + 100000 z_2_3 + 100000 z_2_4 + 100000 z_2_5 + 100000 z_2_7 + 100000 z_2_8 <= 598890.60316492768
 c4350: 120 p_2_2 + 120 p_2_3 + 120 p_2_4 + 120 p_2_5 + 120 p_2_7 + 120 p_2_8 + 100000 z_2_2 + 100000 z_2_3 + 100000 z_2_4 + 100000 z_2_5 + 100000 z_2_7 + 100000 z_2_8 <= 598868.83987976564
 c4351: 120 p_2_1 + 120 p_2_2 + 120 p_2_3 + 120 p_2_4 + 120 p_2_5 + 120 p_2_7 + 120 p_2_8 + 100000 z_2_1 + 100000 z_2_2 + 100000 z_2_3 + 100000 z_2_4 + 100000 z_2_5 + 100000 z_2_7 + 100000 z_2_8 <= 698868.49957941147
 c4352: 120 p_2_6 + 120 p_2_7 + 120 p_2_8 + 100000 z_2_6 + 100000 z_2_7 + 100000 z_2_8 <= 299065.99806936993
 c4353: 120 p_2_1 + 120 p_2_6 + 120 p_2_7 + 120 p_2_8 + 100000 z_2_1 + 100000 z_2_6 + 100000 z_2_7 + 100000 z_2_8 <= 398782.85337207303
 c4354: 120 p_2_2 + 120 p_2_6 + 120 p_2_7 + 120 p_2_8 + 100000 z_2_2 + 100000 z_2_6 + 100000 z_2_7 + 100000 z_2_8 <= 399065.9688597424
 c4355: 120 p_2_1 + 120 p_2_2 + 120 p_2_6 + 120 p_2_7 + 120 p_2_8 + 100000 z_2_1 + 100000 z_2_2 + 100000 z_2_6 + 100000 z_2_7 + 100000 z_2_8 <= 498782.8241624455
 c4356: 120 p_2_3 + 120 p_2_6 + 120 p_2_7 + 120 p_2_8 + 100000 z_2_3 + 100000 z_2_6 + 100000 z_2_7 + 100000 z_2_8 <= 399065.98801087477
 c4357: 120 p_2_1 + 120 p_2_3 + 120 p_2_6 + 120 p_2_7 + 120 p_2_8 + 100000 z_2_1 + 100000 z_2_3 + 100000 z_2_6 + 100000 z_2_7 + 100000 z_2_8 <= 498782.84331357788
 c4358: 120 p_2_2 + 120 p_2_3 + 120 p_2_6 + 120 p_2_7 + 120 p_2_8 + 100000 z_2_2 + 100000 z_2_3 + 100000 z_2_6 + 100000 z_2_7 + 100000 z_2_8 <= 499065.95880124724
 c4359: 120 p_2_1 + 120 p_2_2 + 120 p_2_3 + 120 p_2_6 + 120 p_2_7 + 120 p_2_8 + 100000 z_2_1 + 100000 z_2_2 + 100000 z_2_3 + 100000 z_2_6 + 100000 z_2_7 + 100000 z_2_8 <= 598782.81410395028
 c4360: 120 p_2_4 + 120 p_2_6 + 120 p_2_7 + 120 p_2_8 + 100000 z_2_4 + 100000 z_2_6 + 100000 z_2_7 + 100000 z_2_8 <= 398556.8574071998
 c4361: 120 p_2_1 + 120 p_2_4 + 120 p_2_6 + 120 p_2_7 + 120 p_2_8 + 100000 z_2_1 + 100000 z_2_4 + 100000 z_2_6 + 100000 z_2_7 + 100000 z_2_8 <= 498556.51710684568
 c4362: 120 p_2_2 + 120 p_2_4 + 120 p_2_6 + 120 p_2_7 + 120 p_2_8 + 100000 z_2_2 + 100000 z_2_4 + 100000 z_2_6 + 100000 z_2_7 + 100000 z_2_8 <= 498556.82819757226
 c4363: 120 p_2_1 + 120 p_2_2 + 120 p_2_4 + 120 p_2_6 + 120 p_2_7 + 120 p_2_8 + 100000 z_2_1 + 100000 z_2_2 + 100000 z_2_4 + 100000 z_2_6 + 100000 z_2_7 + 100000 z_2_8 <= 598556.48789721821
 c4364: 120 p_2_3 + 120 p_2_4 + 120 p_2_6 + 120 p_2_7 + 120 p_2_8 + 100000 z_2_3 + 100000 z_2_4 + 100000 z_2_6 + 100000 z_2_7 + 100000 z_2_8 <= 498556.84734870464
 c4365: 120 p_2_1 + 120 p_2_3 + 120 p_2_4 + 120 p_2_6 + 120 p_2_7 + 120 p_2_8 + 100000 z_2_1 + 100000 z_2_3 + 100000 z_2_4 + 100000 z_2_6 + 100000 z_2_7 + 100000 z_2_8 <= 598556.50704835053
 c4366: 120 p_2_2 + 120 p_2_3 + 120 p_2_4 + 120 p_2_6 + 120 p_2_7 + 120 p_2_8 + 100000 z_2_2 + 100000 z_2_3 + 100000 z_2_4 + 100000 z_2_6 + 100000 z_2_7 + 100000 z_2_8 <= 598556.81813907716
 c4367: 120 p_2_1 + 120 p_2_2 + 120 p_2_3 + 120 p_2_4 + 120 p_2_6 + 120 p_2_7 + 120 p_2_8 + 100000 z_2_1 + 100000 z_2_2 + 100000 z_2_3 + 100000 z_2_4 + 100000 z_2_6 + 100000 z_2_7 + 100000 z_2_8 <= 698556.47783872299
 c4368: 120 p_2_5 + 120 p_2_6 + 120 p_2_7 + 120 p_2_8 + 100000 z_2_5 + 100000 z_2_6 + 100000 z_2_7 + 100000 z_2_8 <= 399056.03810944012
 c4369: 120 p_2_1 + 120 p_2_5 + 120 p_2_6 + 120 p_2_7 + 120 p_2_8 + 100000 z_2_1 + 100000 z_2_5 + 100000 z_2_6 + 100000 z_2_7 + 100000 z_2_8 <= 498772.89341214317
 c4370: 120 p_2_2 + 120 p_2_5 + 120 p_2_6 + 120 p_2_7 + 120 p_2_8 + 100000 z_2_2 + 100000 z_2_5 + 100000 z_2_6 + 100000 z_2_7 + 100000 z_2_8 <= 499037.24941034865
 c4371: 120 p_2_1 + 120 p_2_2 + 120 p_2_5 + 120 p_2_6 + 120 p_2_7 + 120 p_2_8 + 100000 z_2_1 + 100000 z_2_2 + 100000 z_2_5 + 100000 z_2_6 + 100000 z_2_7 + 100000 z_2_8 <= 598754.1047130517
 c4372: 120 p_2_3 + 120 p_2_5 + 120 p_2_6 + 120 p_2_7 + 120 p_2_8 + 100000 z_2_3 + 100000 z_2_5 + 100000 z_2_6 + 100000 z_2_7 + 100000 z_2_8 <= 499056.02805094491
 c4373: 120 p_2_1 + 120 p_2_3 + 120 p_2_5 + 120 p_2_6 + 120 p_2_7 + 120 p_2_8 + 100000 z_2_1 + 100000 z_2_3 + 100000 z_2_5 + 100000 z_2_6 + 100000 z_2_7 + 100000 z_2_8 <= 598772.88335364801
 c4374: 120 p_2_2 + 120 p_2_3 + 120 p_2_5 + 120 p_2_6 + 120 p_2_7 + 120 p_2_8 + 100000 z_2_2 + 100000 z_2_3 + 100000 z_2_5 + 100000 z_2_6 + 100000 z_2_7 + 100000 z_2_8 <= 599037.2393518535
 c4375: 120 p_2_1 + 120 p_2_2 + 120 p_2_3 + 120 p_2_5 + 120 p_2_6 + 120 p_2_7 + 120 p_2_8 + 100000 z_2_1 + 100000 z_2_2 + 100000 z_2_3 + 100000 z_2_5 + 100000 z_2_6 + 100000 z_2_7 + 100000 z_2_8 <= 698754.0946545566
 c4376: 120 p_2_4 + 120 p_2_5 + 120 p_2_6 + 120 p_2_7 + 120 p_2_8 + 100000 z_2_4 + 100000 z_2_5 + 100000 z_2_6 + 100000 z_2_7 + 100000 z_2_8 <= 498546.89744726999
 c4377: 120 p_2_1 + 120 p_2_4 + 120 p_2_5 + 120 p_2_6 + 120 p_2_7 + 120 p_2_8 + 100000 z_2_1 + 100000 z_2_4 + 100000 z_2_5 + 100000 z_2_6 + 100000 z_2_7 + 100000 z_2_8 <= 598546.55714691582
 c4378: 120 p_2_2 + 120 p_2_4 + 120 p_2_5 + 120 p_2_6 + 120 p_2_7 + 120 p_2_8 + 100000 z_2_2 + 100000 z_2_4 + 100000 z_2_5 + 100000 z_2_6 + 100000 z_2_7 + 100000 z_2_8 <= 598528.10874817846
 c4379: 120 p_2_1 + 120 p_2_2 + 120 p_2_4 + 120 p_2_5 + 120 p_2_6 + 120 p_2_7 + 120 p_2_8 + 100000 z_2_1 + 100000 z_2_2 + 100000 z_2_4 + 100000 z_2_5 + 100000 z_2_6 + 100000 z_2_7 + 100000 z_2_8 <= 698527.7684478244
 c4380: 120 p_2_3 + 120 p_2_4 + 120 p_2_5 + 120 p_2_6 + 120 p_2_7 + 120 p_2_8 + 100000 z_2_3 + 100000 z_2_4 + 100000 z_2_5 + 100000 z_2_6 + 100000 z_2_7 + 100000 z_2_8 <= 598546.88738877478
 c4381: 120 p_2_1 + 120 p_2_3 + 120 p_2_4 + 120 p_2_5 + 120 p_2_6 + 120 p_2_7 + 120 p_2_8 + 100000 z_2_1 + 100000 z_2_3 + 100000 z_2_4 + 100000 z_2_5 + 100000 z_2_6 + 100000 z_2_7 + 100000 z_2_8 <= 698546.54708842072
 c4382: 120 p_2_2 + 120 p_2_3 + 120 p_2_4 + 120 p_2_5 + 120 p_2_6 + 120 p_2_7 + 120 p_2_8 + 100000 z_2_2 + 100000 z_2_3 + 100000 z_2_4 + 100000 z_2_5 + 100000 z_2_6 + 100000 z_2_7 + 100000 z_2_8 <= 698528.09868968336
 c4383: 120 p_2_1 + 120 p_2_2 + 120 p_2_3 + 120 p_2_4 + 120 p_2_5 + 120 p_2_6 + 120 p_2_7 + 120 p_2_8 + 100000 z_2_1 + 100000 z_2_2 + 100000 z_2_3 + 100000 z_2_4 + 100000 z_2_5 + 100000 z_2_6 + 100000 z_2_7 + 100000 z_2_8 <= 798527.75838932919
 c4384: 120 p_2_9 + 100000 z_2_9 <= 101080.63526739777
 c4385: 120 p_2_1 + 120 p_2_9 + 100000 z_2_1 + 100000 z_2_9 <= 200061.45267120705
 c4386: 120 p_2_2 + 120 p_2_9 + 100000 z_2_2 + 100000 z_2_9 <= 200271.29511563524
 c4387: 120 p_2_1 + 120 p_2_2 + 120 p_2_9 + 100000 z_2_1 + 100000 z_2_2 + 100000 z_2_9 <= 299252.11251944449
 c4388: 120 p_2_3 + 120 p_2_9 + 100000 z_2_3 + 100000 z_2_9 <= 201024.48473841583
 c4389: 120 p_2_1 + 120 p_2_3 + 120 p_2_9 + 100000 z_2_1 + 100000 z_2_3 + 100000 z_2_9 <= 300005.30214222509
 c4390: 120 p_2_2 + 120 p_2_3 + 120 p_2_9 + 100000 z_2_2 + 100000 z_2_3 + 100000 z_2_9 <= 300249.50708293682
 c4391: 120 p_2_1 + 120 p_2_2 + 120 p_2_3 + 120 p_2_9 + 100000 z_2_1 + 100000 z_2_2 + 100000 z_2_3 + 100000 z_2_9 <= 399230.3244867461
 c4392: 120 p_2_4 + 120 p_2_9 + 100000 z_2_4 + 100000 z_2_9 <= 199828.64579192386
 c4393: 120 p_2_1 + 120 p_2_4 + 120 p_2_9 + 100000 z_2_1 + 100000 z_2_4 + 100000 z_2_9 <= 299828.30549156974
 c4394: 120 p_2_2 + 120 p_2_4 + 120 p_2_9 + 100000 z_2_2 + 100000 z_2_4 + 100000 z_2_9 <= 299019.30564016133
 c4395: 120 p_2_1 + 120 p_2_2 + 120 p_2_4 + 120 p_2_9 + 100000 z_2_1 + 100000 z_2_2 + 100000 z_2_4 + 100000 z_2_9 <= 399018.96533980715
 c4396: 120 p_2_3 + 120 p_2_4 + 120 p_2_9 + 100000 z_2_3 + 100000 z_2_4 + 100000 z_2_9 <= 299772.49526294193
 c4397: 120 p_2_1 + 120 p_2_3 + 120 p_2_4 + 120 p_2_9 + 100000 z_2_1 + 100000 z_2_3 + 100000 z_2_4 + 100000 z_2_9 <= 399772.15496258781
 c4398: 120 p_2_2 + 120 p_2_3 + 120 p_2_4 + 120 p_2_9 + 100000 z_2_2 + 100000 z_2_3 + 100000 z_2_4 + 100000 z_2_9 <= 398997.51760746288
 c4399: 120 p_2_1 + 120 p_2_2 + 120 p_2_3 + 120 p_2_4 + 120 p_2_9 + 100000 z_2_1 + 100000 z_2_2 + 100000 z_2_3 + 100000 z_2_4 + 100000 z_2_9 <= 498997.17730710877
 c4400: 120 p_2_5 + 120 p_2_9 + 100000 z_2_5 + 100000 z_2_9 <= 200241.89604576558
 c4401: 120 p_2_1 + 120 p_2_5 + 120 p_2_9 + 100000 z_2_1 + 100000 z_2_5 + 100000 z_2_9 <= 299272.78561261314
 c4402: 120 p_2_2 + 120 p_2_5 + 120 p_2_9 + 100000 z_2_2 + 100000 z_2_5 + 100000 z_2_9 <= 300216.96691811847
 c4403: 120 p_2_1 + 120 p_2_2 + 120 p_2_5 + 120 p_2_9 + 100000 z_2_1 + 100000 z_2_2 + 100000 z_2_5 + 100000 z_2_9 <= 399217.62426396221
 c4404: 120 p_2_3 + 120 p_2_5 + 120 p_2_9 + 100000 z_2_3 + 100000 z_2_5 + 100000 z_2_9 <= 300217.28247093625
 c4405: 120 p_2_1 + 120 p_2_3 + 120 p_2_5 + 120 p_2_9 + 100000 z_2_1 + 100000 z_2_3 + 100000 z_2_5 + 100000 z_2_9 <= 399216.6350836312
 c4406: 120 p_2_2 + 120 p_2_3 + 120 p_2_5 + 120 p_2_9 + 100000 z_2_2 + 100000 z_2_3 + 100000 z_2_5 + 100000 z_2_9 <= 400195.17888542009
 c4407: 120 p_2_1 + 120 p_2_2 + 120 p_2_3 + 120 p_2_5 + 120 p_2_9 + 100000 z_2_1 + 100000 z_2_2 + 100000 z_2_3 + 100000 z_2_5 + 100000 z_2_9 <= 499175.99628922931
 c4408: 120 p_2_4 + 120 p_2_5 + 120 p_2_9 + 100000 z_2_4 + 100000 z_2_5 + 100000 z_2_9 <= 299049.60740546457
 c4409: 120 p_2_1 + 120 p_2_4 + 120 p_2_5 + 120 p_2_9 + 100000 z_2_1 + 100000 z_2_4 + 100000 z_2_5 + 100000 z_2_9 <= 399039.6384329758
 c4410: 120 p_2_2 + 120 p_2_4 + 120 p_2_5 + 120 p_2_9 + 100000 z_2_2 + 100000 z_2_4 + 100000 z_2_5 + 100000 z_2_9 <= 398994.4460568137
 c4411: 120 p_2_1 + 120 p_2_2 + 120 p_2_4 + 120 p_2_5 + 120 p_2_9 + 100000 z_2_1 + 100000 z_2_2 + 100000 z_2_4 + 100000 z_2_5 + 100000 z_2_9 <= 498984.47708432493
 c4412: 120 p_2_3 + 120 p_2_4 + 120 p_2_5 + 120 p_2_9 + 100000 z_2_3 + 100000 z_2_4 + 100000 z_2_5 + 100000 z_2_9 <= 398993.45687648264
 c4413: 120 p_2_1 + 120 p_2_3 + 120 p_2_4 + 120 p_2_5 + 120 p_2_9 + 100000 z_2_1 + 100000 z_2_3 + 100000 z_2_4 + 100000 z_2_5 + 100000 z_2_9 <= 498983.48790399387
 c4414: 120 p_2_2 + 120 p_2_3 + 120 p_2_4 + 120 p_2_5 + 120 p_2_9 + 100000 z_2_2 + 100000 z_2_3 + 100000 z_2_4 + 100000 z_2_5 + 100000 z_2_9 <= 498943.18940994615
 c4415: 120 p_2_1 + 120 p_2_2 + 120 p_2_3 + 120 p_2_4 + 120 p_2_5 + 120 p_2_9 + 100000 z_2_1 + 100000 z_2_2 + 100000 z_2_3 + 100000 z_2_4 + 100000 z_2_5 + 100000 z_2_9 <= 598942.84910959203
 c4416: 120 p_2_6 + 120 p_2_9 + 100000 z_2_6 + 100000 z_2_9 <= 200761.12093317122
 c4417: 120 p_2_1 + 120 p_2_6 + 120 p_2_9 + 100000 z_2_1 + 100000 z_2_6 + 100000 z_2_9 <= 299741.93833698053
 c4418: 120 p_2_2 + 120 p_2_6 + 120 p_2_9 + 100000 z_2_2 + 100000 z_2_6 + 100000 z_2_9 <= 300005.94951446244
 c4419: 120 p_2_1 + 120 p_2_2 + 120 p_2_6 + 120 p_2_9 + 100000 z_2_1 + 100000 z_2_2 + 100000 z_2_6 + 100000 z_2_9 <= 398986.76691827172
 c4420: 120 p_2_3 + 120 p_2_6 + 120 p_2_9 + 100000 z_2_3 + 100000 z_2_6 + 100000 z_2_9 <= 300761.11087467603
 c4421: 120 p_2_1 + 120 p_2_3 + 120 p_2_6 + 120 p_2_9 + 100000 z_2_1 + 100000 z_2_3 + 100000 z_2_6 + 100000 z_2_9 <= 399741.92827848531
 c4422: 120 p_2_2 + 120 p_2_3 + 120 p_2_6 + 120 p_2_9 + 100000 z_2_2 + 100000 z_2_3 + 100000 z_2_6 + 100000 z_2_9 <= 399986.13321919704
 c4423: 120 p_2_1 + 120 p_2_2 + 120 p_2_3 + 120 p_2_6 + 120 p_2_9 + 100000 z_2_1 + 100000 z_2_2 + 100000 z_2_3 + 100000 z_2_6 + 100000 z_2_9 <= 498966.95062300633
 c4424: 120 p_2_4 + 120 p_2_6 + 120 p_2_9 + 100000 z_2_4 + 100000 z_2_6 + 100000 z_2_9 <= 299509.13145769731
 c4425: 120 p_2_1 + 120 p_2_4 + 120 p_2_6 + 120 p_2_9 + 100000 z_2_1 + 100000 z_2_4 + 100000 z_2_6 + 100000 z_2_9 <= 399508.79115734319
 c4426: 120 p_2_2 + 120 p_2_4 + 120 p_2_6 + 120 p_2_9 + 100000 z_2_2 + 100000 z_2_4 + 100000 z_2_6 + 100000 z_2_9 <= 398753.9600389885
 c4427: 120 p_2_1 + 120 p_2_2 + 120 p_2_4 + 120 p_2_6 + 120 p_2_9 + 100000 z_2_1 + 100000 z_2_2 + 100000 z_2_4 + 100000 z_2_6 + 100000 z_2_9 <= 498753.61973863438
 c4428: 120 p_2_3 + 120 p_2_4 + 120 p_2_6 + 120 p_2_9 + 100000 z_2_3 + 100000 z_2_4 + 100000 z_2_6 + 100000 z_2_9 <= 399509.12139920215
 c4429: 120 p_2_1 + 120 p_2_3 + 120 p_2_4 + 120 p_2_6 + 120 p_2_9 + 100000 z_2_1 + 100000 z_2_3 + 100000 z_2_4 + 100000 z_2_6 + 100000 z_2_9 <= 499508.78109884803
 c4430: 120 p_2_2 + 120 p_2_3 + 120 p_2_4 + 120 p_2_6 + 120 p_2_9 + 100000 z_2_2 + 100000 z_2_3 + 100000 z_2_4 + 100000 z_2_6 + 100000 z_2_9 <= 498734.14374372311
 c4431: 120 p_2_1 + 120 p_2_2 + 120 p_2_3 + 120 p_2_4 + 120 p_2_6 + 120 p_2_9 + 100000 z_2_1 + 100000 z_2_2 + 100000 z_2_3 + 100000 z_2_4 + 100000 z_2_6 + 100000 z_2_9 <= 598733.80344336899
 c4432: 120 p_2_5 + 120 p_2_6 + 120 p_2_9 + 100000 z_2_5 + 100000 z_2_6 + 100000 z_2_9 <= 299970.41001603717
 c4433: 120 p_2_1 + 120 p_2_5 + 120 p_2_6 + 120 p_2_9 + 100000 z_2_1 + 100000 z_2_5 + 100000 z_2_6 + 100000 z_2_9 <= 398953.27127838659
 c4434: 120 p_2_2 + 120 p_2_5 + 120 p_2_6 + 120 p_2_9 + 100000 z_2_2 + 100000 z_2_5 + 100000 z_2_6 + 100000 z_2_9 <= 399951.6213169457
 c4435: 120 p_2_1 + 120 p_2_2 + 120 p_2_5 + 120 p_2_6 + 120 p_2_9 + 100000 z_2_1 + 100000 z_2_2 + 100000 z_2_5 + 100000 z_2_6 + 100000 z_2_9 <= 498932.43872075499
 c4436: 120 p_2_3 + 120 p_2_5 + 120 p_2_6 + 120 p_2_9 + 100000 z_2_3 + 100000 z_2_5 + 100000 z_2_6 + 100000 z_2_9 <= 399953.90860719647
 c4437: 120 p_2_1 + 120 p_2_3 + 120 p_2_5 + 120 p_2_6 + 120 p_2_9 + 100000 z_2_1 + 100000 z_2_3 + 100000 z_2_5 + 100000 z_2_6 + 100000 z_2_9 <= 498953.26121989143
 c4438: 120 p_2_2 + 120 p_2_3 + 120 p_2_5 + 120 p_2_6 + 120 p_2_9 + 100000 z_2_2 + 100000 z_2_3 + 100000 z_2_5 + 100000 z_2_6 + 100000 z_2_9 <= 499931.80502168031
 c4439: 120 p_2_1 + 120 p_2_2 + 120 p_2_3 + 120 p_2_5 + 120 p_2_6 + 120 p_2_9 + 100000 z_2_1 + 100000 z_2_2 + 100000 z_2_3 + 100000 z_2_5 + 100000 z_2_6 + 100000 z_2_9 <= 598912.62242548959
 c4440: 120 p_2_4 + 120 p_2_5 + 120 p_2_6 + 120 p_2_9 + 100000 z_2_4 + 100000 z_2_5 + 100000 z_2_6 + 100000 z_2_9 <= 398730.09307123802
 c4441: 120 p_2_1 + 120 p_2_4 + 120 p_2_5 + 120 p_2_6 + 120 p_2_9 + 100000 z_2_1 + 100000 z_2_4 + 100000 z_2_5 + 100000 z_2_6 + 100000 z_2_9 <= 498720.12409874925
 c4442: 120 p_2_2 + 120 p_2_4 + 120 p_2_5 + 120 p_2_6 + 120 p_2_9 + 100000 z_2_2 + 100000 z_2_4 + 100000 z_2_5 + 100000 z_2_6 + 100000 z_2_9 <= 498699.63184147177
 c4443: 120 p_2_1 + 120 p_2_2 + 120 p_2_4 + 120 p_2_5 + 120 p_2_6 + 120 p_2_9 + 100000 z_2_1 + 100000 z_2_2 + 100000 z_2_4 + 100000 z_2_5 + 100000 z_2_6 + 100000 z_2_9 <= 598699.29154111759
 c4444: 120 p_2_3 + 120 p_2_4 + 120 p_2_5 + 120 p_2_6 + 120 p_2_9 + 100000 z_2_3 + 100000 z_2_4 + 100000 z_2_5 + 100000 z_2_6 + 100000 z_2_9 <= 498730.08301274286
 c4445: 120 p_2_1 + 120 p_2_3 + 120 p_2_4 + 120 p_2_5 + 120 p_2_6 + 120 p_2_9 + 100000 z_2_1 + 100000 z_2_3 + 100000 z_2_4 + 100000 z_2_5 + 100000 z_2_6 + 100000 z_2_9 <= 598720.11404025403
 c4446: 120 p_2_2 + 120 p_2_3 + 120 p_2_4 + 120 p_2_5 + 120 p_2_6 + 120 p_2_9 + 100000 z_2_2 + 100000 z_2_3 + 100000 z_2_4 + 100000 z_2_5 + 100000 z_2_6 + 100000 z_2_9 <= 598679.81554620643
 c4447: 120 p_2_1 + 120 p_2_2 + 120 p_2_3 + 120 p_2_4 + 120 p_2_5 + 120 p_2_6 + 120 p_2_9 + 100000 z_2_1 + 100000 z_2_2 + 100000 z_2_3 + 100000 z_2_4 + 100000 z_2_5 + 100000 z_2_6 + 100000 z_2_9 <= 698679.47524585226
 c4448: 120 p_2_7 + 120 p_2_9 + 100000 z_2_7 + 100000 z_2_9 <= 200139.81329575158
 c4449: 120 p_2_1 + 120 p_2_7 + 120 p_2_9 + 100000 z_2_1 + 100000 z_2_7 + 100000 z_2_9 <= 299950.83356569376
 c4450: 120 p_2_2 + 120 p_2_7 + 120 p_2_9 + 100000 z_2_2 + 100000 z_2_7 + 100000 z_2_9 <= 299472.70108137059
 c4451: 120 p_2_1 + 120 p_2_2 + 120 p_2_7 + 120 p_2_9 + 100000 z_2_1 + 100000 z_2_2 + 100000 z_2_7 + 100000 z_2_9 <= 399210.01189044409
 c4452: 120 p_2_3 + 120 p_2_7 + 120 p_2_9 + 100000 z_2_3 + 100000 z_2_7 + 100000 z_2_9 <= 300083.66276676964
 c4453: 120 p_2_1 + 120 p_2_3 + 120 p_2_7 + 120 p_2_9 + 100000 z_2_1 + 100000 z_2_3 + 100000 z_2_7 + 100000 z_2_9 <= 399894.68303671182
 c4454: 120 p_2_2 + 120 p_2_3 + 120 p_2_7 + 120 p_2_9 + 100000 z_2_2 + 100000 z_2_3 + 100000 z_2_7 + 100000 z_2_9 <= 399450.91304867214
 c4455: 120 p_2_1 + 120 p_2_2 + 120 p_2_3 + 120 p_2_7 + 120 p_2_9 + 100000 z_2_1 + 100000 z_2_2 + 100000 z_2_3 + 100000 z_2_7 + 100000 z_2_9 <= 499167.76835137524
 c4456: 120 p_2_4 + 120 p_2_7 + 120 p_2_9 + 100000 z_2_4 + 100000 z_2_7 + 100000 z_2_9 <= 299747.2695630333
 c4457: 120 p_2_1 + 120 p_2_4 + 120 p_2_7 + 120 p_2_9 + 100000 z_2_1 + 100000 z_2_4 + 100000 z_2_7 + 100000 z_2_9 <= 399724.49730046641
 c4458: 120 p_2_2 + 120 p_2_4 + 120 p_2_7 + 120 p_2_9 + 100000 z_2_2 + 100000 z_2_4 + 100000 z_2_7 + 100000 z_2_9 <= 399006.44788778364
 c4459: 120 p_2_1 + 120 p_2_2 + 120 p_2_4 + 120 p_2_7 + 120 p_2_9 + 100000 z_2_1 + 100000 z_2_2 + 100000 z_2_4 + 100000 z_2_7 + 100000 z_2_9 <= 498983.67562521674
 c4460: 120 p_2_3 + 120 p_2_4 + 120 p_2_7 + 120 p_2_9 + 100000 z_2_3 + 100000 z_2_4 + 100000 z_2_7 + 100000 z_2_9 <= 399691.11903405137
 c4461: 120 p_2_1 + 120 p_2_3 + 120 p_2_4 + 120 p_2_7 + 120 p_2_9 + 100000 z_2_1 + 100000 z_2_3 + 100000 z_2_4 + 100000 z_2_7 + 100000 z_2_9 <= 499668.34677148447
 c4462: 120 p_2_2 + 120 p_2_3 + 120 p_2_4 + 120 p_2_7 + 120 p_2_9 + 100000 z_2_2 + 100000 z_2_3 + 100000 z_2_4 + 100000 z_2_7 + 100000 z_2_9 <= 498950.2973588017
 c4463: 120 p_2_1 + 120 p_2_2 + 120 p_2_3 + 120 p_2_4 + 120 p_2_7 + 120 p_2_9 + 100000 z_2_1 + 100000 z_2_2 + 100000 z_2_3 + 100000 z_2_4 + 100000 z_2_7 + 100000 z_2_9 <= 598941.43208614795
 c4464: 120 p_2_5 + 120 p_2_7 + 120 p_2_9 + 100000 z_2_5 + 100000 z_2_7 + 100000 z_2_9 <= 299479.79386195471
 c4465: 120 p_2_1 + 120 p_2_5 + 120 p_2_7 + 120 p_2_9 + 100000 z_2_1 + 100000 z_2_5 + 100000 z_2_7 + 100000 z_2_9 <= 399247.33689203206
 c4466: 120 p_2_2 + 120 p_2_5 + 120 p_2_7 + 120 p_2_9 + 100000 z_2_2 + 100000 z_2_5 + 100000 z_2_7 + 100000 z_2_9 <= 399454.86473430763
 c4467: 120 p_2_1 + 120 p_2_2 + 120 p_2_5 + 120 p_2_7 + 120 p_2_9 + 100000 z_2_1 + 100000 z_2_2 + 100000 z_2_5 + 100000 z_2_7 + 100000 z_2_9 <= 499192.17554338113
 c4468: 120 p_2_3 + 120 p_2_5 + 120 p_2_7 + 120 p_2_9 + 100000 z_2_3 + 100000 z_2_5 + 100000 z_2_7 + 100000 z_2_9 <= 399455.1802871254
 c4469: 120 p_2_1 + 120 p_2_3 + 120 p_2_5 + 120 p_2_7 + 120 p_2_9 + 100000 z_2_1 + 100000 z_2_3 + 100000 z_2_5 + 100000 z_2_7 + 100000 z_2_9 <= 499191.18636305007
 c4470: 120 p_2_2 + 120 p_2_3 + 120 p_2_5 + 120 p_2_7 + 120 p_2_9 + 100000 z_2_2 + 100000 z_2_3 + 100000 z_2_5 + 100000 z_2_7 + 100000 z_2_9 <= 499433.07670160924
 c4471: 120 p_2_1 + 120 p_2_2 + 120 p_2_3 + 120 p_2_5 + 120 p_2_7 + 120 p_2_9 + 100000 z_2_1 + 100000 z_2_2 + 100000 z_2_3 + 100000 z_2_5 + 100000 z_2_7 + 100000 z_2_9 <= 599149.93200431229
 c4472: 120 p_2_4 + 120 p_2_5 + 120 p_2_7 + 120 p_2_9 + 100000 z_2_4 + 100000 z_2_5 + 100000 z_2_7 + 100000 z_2_9 <= 399043.77288937161
 c4473: 120 p_2_1 + 120 p_2_4 + 120 p_2_5 + 120 p_2_7 + 120 p_2_9 + 100000 z_2_1 + 100000 z_2_4 + 100000 z_2_5 + 100000 z_2_7 + 100000 z_2_9 <= 499021.00062680471
 c4474: 120 p_2_2 + 120 p_2_4 + 120 p_2_5 + 120 p_2_7 + 120 p_2_9 + 100000 z_2_2 + 100000 z_2_4 + 100000 z_2_5 + 100000 z_2_7 + 100000 z_2_9 <= 498988.61154072068
 c4475: 120 p_2_1 + 120 p_2_2 + 120 p_2_4 + 120 p_2_5 + 120 p_2_7 + 120 p_2_9 + 100000 z_2_1 + 100000 z_2_2 + 100000 z_2_4 + 100000 z_2_5 + 100000 z_2_7 + 100000 z_2_9 <= 598965.83927815384
 c4476: 120 p_2_3 + 120 p_2_4 + 120 p_2_5 + 120 p_2_7 + 120 p_2_9 + 100000 z_2_3 + 100000 z_2_4 + 100000 z_2_5 + 100000 z_2_7 + 100000 z_2_9 <= 498987.62236038968
 c4477: 120 p_2_1 + 120 p_2_3 + 120 p_2_4 + 120 p_2_5 + 120 p_2_7 + 120 p_2_9 + 100000 z_2_1 + 100000 z_2_3 + 100000 z_2_4 + 100000 z_2_5 + 100000 z_2_7 + 100000 z_2_9 <= 598964.85009782272
 c4478: 120 p_2_2 + 120 p_2_3 + 120 p_2_4 + 120 p_2_5 + 120 p_2_7 + 120 p_2_9 + 100000 z_2_2 + 100000 z_2_3 + 100000 z_2_4 + 100000 z_2_5 + 100000 z_2_7 + 100000 z_2_9 <= 598932.46101173875
 c4479: 120 p_2_1 + 120 p_2_2 + 120 p_2_3 + 120 p_2_4 + 120 p_2_5 + 120 p_2_7 + 120 p_2_9 + 100000 z_2_1 + 100000 z_2_2 + 100000 z_2_3 + 100000 z_2_4 + 100000 z_2_5 + 100000 z_2_7 + 100000 z_2_9 <= 698923.59573908499
 c4480: 120 p_2_6 + 120 p_2_7 + 120 p_2_9 + 100000 z_2_6 + 100000 z_2_7 + 100000 z_2_9 <= 299820.29896152503
 c4481: 120 p_2_1 + 120 p_2_6 + 120 p_2_7 + 120 p_2_9 + 100000 z_2_1 + 100000 z_2_6 + 100000 z_2_7 + 100000 z_2_9 <= 399631.31923146721
 c4482: 120 p_2_2 + 120 p_2_6 + 120 p_2_7 + 120 p_2_9 + 100000 z_2_2 + 100000 z_2_6 + 100000 z_2_7 + 100000 z_2_9 <= 399207.35548019782
 c4483: 120 p_2_1 + 120 p_2_2 + 120 p_2_6 + 120 p_2_7 + 120 p_2_9 + 100000 z_2_1 + 100000 z_2_2 + 100000 z_2_6 + 100000 z_2_7 + 100000 z_2_9 <= 498924.21078290086
 c4484: 120 p_2_3 + 120 p_2_6 + 120 p_2_7 + 120 p_2_9 + 100000 z_2_3 + 100000 z_2_6 + 100000 z_2_7 + 100000 z_2_9 <= 399820.28890302987
 c4485: 120 p_2_1 + 120 p_2_3 + 120 p_2_6 + 120 p_2_7 + 120 p_2_9 + 100000 z_2_1 + 100000 z_2_3 + 100000 z_2_6 + 100000 z_2_7 + 100000 z_2_9 <= 499631.30917297205
 c4486: 120 p_2_2 + 120 p_2_3 + 120 p_2_6 + 120 p_2_7 + 120 p_2_9 + 100000 z_2_2 + 100000 z_2_3 + 100000 z_2_6 + 100000 z_2_7 + 100000 z_2_9 <= 499187.53918493236
 c4487: 120 p_2_1 + 120 p_2_2 + 120 p_2_3 + 120 p_2_6 + 120 p_2_7 + 120 p_2_9 + 100000 z_2_1 + 100000 z_2_2 + 100000 z_2_3 + 100000 z_2_6 + 100000 z_2_7 + 100000 z_2_9 <= 598904.39448763547
 c4488: 120 p_2_4 + 120 p_2_6 + 120 p_2_7 + 120 p_2_9 + 100000 z_2_4 + 100000 z_2_6 + 100000 z_2_7 + 100000 z_2_9 <= 399427.75522880675
 c4489: 120 p_2_1 + 120 p_2_4 + 120 p_2_6 + 120 p_2_7 + 120 p_2_9 + 100000 z_2_1 + 100000 z_2_4 + 100000 z_2_6 + 100000 z_2_7 + 100000 z_2_9 <= 499404.98296623986
 c4490: 120 p_2_2 + 120 p_2_4 + 120 p_2_6 + 120 p_2_7 + 120 p_2_9 + 100000 z_2_2 + 100000 z_2_4 + 100000 z_2_6 + 100000 z_2_7 + 100000 z_2_9 <= 498698.21481802769
 c4491: 120 p_2_1 + 120 p_2_2 + 120 p_2_4 + 120 p_2_6 + 120 p_2_7 + 120 p_2_9 + 100000 z_2_1 + 100000 z_2_2 + 100000 z_2_4 + 100000 z_2_6 + 100000 z_2_7 + 100000 z_2_9 <= 598697.87451767351
 c4492: 120 p_2_3 + 120 p_2_4 + 120 p_2_6 + 120 p_2_7 + 120 p_2_9 + 100000 z_2_3 + 100000 z_2_4 + 100000 z_2_6 + 100000 z_2_7 + 100000 z_2_9 <= 499427.74517031159
 c4493: 120 p_2_1 + 120 p_2_3 + 120 p_2_4 + 120 p_2_6 + 120 p_2_7 + 120 p_2_9 + 100000 z_2_1 + 100000 z_2_3 + 100000 z_2_4 + 100000 z_2_6 + 100000 z_2_7 + 100000 z_2_9 <= 599404.9729077447
 c4494: 120 p_2_2 + 120 p_2_3 + 120 p_2_4 + 120 p_2_6 + 120 p_2_7 + 120 p_2_9 + 100000 z_2_2 + 100000 z_2_3 + 100000 z_2_4 + 100000 z_2_6 + 100000 z_2_7 + 100000 z_2_9 <= 598686.92349506193
 c4495: 120 p_2_1 + 120 p_2_2 + 120 p_2_3 + 120 p_2_4 + 120 p_2_6 + 120 p_2_7 + 120 p_2_9 + 100000 z_2_1 + 100000 z_2_2 + 100000 z_2_3 + 100000 z_2_4 + 100000 z_2_6 + 100000 z_2_7 + 100000 z_2_9 <= 698678.05822240817
 c4496: 120 p_2_5 + 120 p_2_6 + 120 p_2_7 + 120 p_2_9 + 100000 z_2_5 + 100000 z_2_6 + 100000 z_2_7 + 100000 z_2_9 <= 399208.30783222633
 c4497: 120 p_2_1 + 120 p_2_5 + 120 p_2_6 + 120 p_2_7 + 120 p_2_9 + 100000 z_2_1 + 100000 z_2_5 + 100000 z_2_6 + 100000 z_2_7 + 100000 z_2_9 <= 498927.82255780551
 c4498: 120 p_2_2 + 120 p_2_5 + 120 p_2_6 + 120 p_2_7 + 120 p_2_9 + 100000 z_2_2 + 100000 z_2_5 + 100000 z_2_6 + 100000 z_2_7 + 100000 z_2_9 <= 499189.51913313486
 c4499: 120 p_2_1 + 120 p_2_2 + 120 p_2_5 + 120 p_2_6 + 120 p_2_7 + 120 p_2_9 + 100000 z_2_1 + 100000 z_2_2 + 100000 z_2_5 + 100000 z_2_6 + 100000 z_2_7 + 100000 z_2_9 <= 598906.37443583796
 c4500: 120 p_2_3 + 120 p_2_5 + 120 p_2_6 + 120 p_2_7 + 120 p_2_9 + 100000 z_2_3 + 100000 z_2_5 + 100000 z_2_6 + 100000 z_2_7 + 100000 z_2_9 <= 499191.80642338563
 c4501: 120 p_2_1 + 120 p_2_3 + 120 p_2_5 + 120 p_2_6 + 120 p_2_7 + 120 p_2_9 + 100000 z_2_1 + 100000 z_2_3 + 100000 z_2_5 + 100000 z_2_6 + 100000 z_2_7 + 100000 z_2_9 <= 598927.81249931036
 c4502: 120 p_2_2 + 120 p_2_3 + 120 p_2_5 + 120 p_2_6 + 120 p_2_7 + 120 p_2_9 + 100000 z_2_2 + 100000 z_2_3 + 100000 z_2_5 + 100000 z_2_6 + 100000 z_2_7 + 100000 z_2_9 <= 599169.70283786941
 c4503: 120 p_2_1 + 120 p_2_2 + 120 p_2_3 + 120 p_2_5 + 120 p_2_6 + 120 p_2_7 + 120 p_2_9 + 100000 z_2_1 + 100000 z_2_2 + 100000 z_2_3 + 100000 z_2_5 + 100000 z_2_6 + 100000 z_2_7 + 100000 z_2_9 <= 698886.55814057251
 c4504: 120 p_2_4 + 120 p_2_5 + 120 p_2_6 + 120 p_2_7 + 120 p_2_9 + 100000 z_2_4 + 100000 z_2_5 + 100000 z_2_6 + 100000 z_2_7 + 100000 z_2_9 <= 498724.25855514506
 c4505: 120 p_2_1 + 120 p_2_4 + 120 p_2_5 + 120 p_2_6 + 120 p_2_7 + 120 p_2_9 + 100000 z_2_1 + 100000 z_2_4 + 100000 z_2_5 + 100000 z_2_6 + 100000 z_2_7 + 100000 z_2_9 <= 598701.48629257816
 c4506: 120 p_2_2 + 120 p_2_4 + 120 p_2_5 + 120 p_2_6 + 120 p_2_7 + 120 p_2_9 + 100000 z_2_2 + 100000 z_2_4 + 100000 z_2_5 + 100000 z_2_6 + 100000 z_2_7 + 100000 z_2_9 <= 598680.37847096473
 c4507: 120 p_2_1 + 120 p_2_2 + 120 p_2_4 + 120 p_2_5 + 120 p_2_6 + 120 p_2_7 + 120 p_2_9 + 100000 z_2_1 + 100000 z_2_2 + 100000 z_2_4 + 100000 z_2_5 + 100000 z_2_6 + 100000 z_2_7 + 100000 z_2_9 <= 698680.03817061055
 c4508: 120 p_2_3 + 120 p_2_4 + 120 p_2_5 + 120 p_2_6 + 120 p_2_7 + 120 p_2_9 + 100000 z_2_3 + 100000 z_2_4 + 100000 z_2_5 + 100000 z_2_6 + 100000 z_2_7 + 100000 z_2_9 <= 598724.2484966499
 c4509: 120 p_2_1 + 120 p_2_3 + 120 p_2_4 + 120 p_2_5 + 120 p_2_6 + 120 p_2_7 + 120 p_2_9 + 100000 z_2_1 + 100000 z_2_3 + 100000 z_2_4 + 100000 z_2_5 + 100000 z_2_6 + 100000 z_2_7 + 100000 z_2_9 <= 698701.47623408295
 c4510: 120 p_2_2 + 120 p_2_3 + 120 p_2_4 + 120 p_2_5 + 120 p_2_6 + 120 p_2_7 + 120 p_2_9 + 100000 z_2_2 + 100000 z_2_3 + 100000 z_2_4 + 100000 z_2_5 + 100000 z_2_6 + 100000 z_2_7 + 100000 z_2_9 <= 698669.08714799897
 c4511: 120 p_2_1 + 120 p_2_2 + 120 p_2_3 + 120 p_2_4 + 120 p_2_5 + 120 p_2_6 + 120 p_2_7 + 120 p_2_9 + 100000 z_2_1 + 100000 z_2_2 + 100000 z_2_3 + 100000 z_2_4 + 100000 z_2_5 + 100000 z_2_6 + 100000 z_2_7 + 100000 z_2_9 <= 798660.22187534522
 c4512: 120 p_2_8 + 120 p_2_9 + 100000 z_2_8 + 100000 z_2_9 <= 200019.45860494344
 c4513: 120 p_2_1 + 120 p_2_8 + 120 p_2_9 + 100000 z_2_1 + 100000 z_2_8 + 100000 z_2_9 <= 299084.07481305784
 c4514: 120 p_2_2 + 120 p_2_8 + 120 p_2_9 + 100000 z_2_2 + 100000 z_2_8 + 100000 z_2_9 <= 300018.52513713791
 c4515: 120 p_2_1 + 120 p_2_2 + 120 p_2_8 + 120 p_2_9 + 100000 z_2_1 + 100000 z_2_2 + 100000 z_2_8 + 100000 z_2_9 <= 399054.83726998855
 c4516: 120 p_2_3 + 120 p_2_8 + 120 p_2_9 + 100000 z_2_3 + 100000 z_2_8 + 100000 z_2_9 <= 299996.96331917529
 c4517: 120 p_2_1 + 120 p_2_3 + 120 p_2_8 + 120 p_2_9 + 100000 z_2_1 + 100000 z_2_3 + 100000 z_2_8 + 100000 z_2_9 <= 399027.92428407591
 c4518: 120 p_2_2 + 120 p_2_3 + 120 p_2_8 + 120 p_2_9 + 100000 z_2_2 + 100000 z_2_3 + 100000 z_2_8 + 100000 z_2_9 <= 399996.73710443953
 c4519: 120 p_2_1 + 120 p_2_2 + 120 p_2_3 + 120 p_2_8 + 120 p_2_9 + 100000 z_2_1 + 100000 z_2_2 + 100000 z_2_3 + 100000 z_2_8 + 100000 z_2_9 <= 499012.5937309197
 c4520: 120 p_2_4 + 120 p_2_8 + 120 p_2_9 + 100000 z_2_4 + 100000 z_2_8 + 100000 z_2_9 <= 298865.71012508456
 c4521: 120 p_2_1 + 120 p_2_4 + 120 p_2_8 + 120 p_2_9 + 100000 z_2_1 + 100000 z_2_4 + 100000 z_2_8 + 100000 z_2_9 <= 398850.92763342056
 c4522: 120 p_2_2 + 120 p_2_4 + 120 p_2_8 + 120 p_2_9 + 100000 z_2_2 + 100000 z_2_4 + 100000 z_2_8 + 100000 z_2_9 <= 398836.47258201521
 c4523: 120 p_2_1 + 120 p_2_2 + 120 p_2_4 + 120 p_2_8 + 120 p_2_9 + 100000 z_2_1 + 100000 z_2_2 + 100000 z_2_4 + 100000 z_2_8 + 100000 z_2_9 <= 498821.69009035121
 c4524: 120 p_2_3 + 120 p_2_4 + 120 p_2_8 + 120 p_2_9 + 100000 z_2_3 + 100000 z_2_4 + 100000 z_2_8 + 100000 z_2_9 <= 398809.55959610263
 c4525: 120 p_2_1 + 120 p_2_3 + 120 p_2_4 + 120 p_2_8 + 120 p_2_9 + 100000 z_2_1 + 100000 z_2_3 + 100000 z_2_4 + 100000 z_2_8 + 100000 z_2_9 <= 498794.77710443863
 c4526: 120 p_2_2 + 120 p_2_3 + 120 p_2_4 + 120 p_2_8 + 120 p_2_9 + 100000 z_2_2 + 100000 z_2_3 + 100000 z_2_4 + 100000 z_2_8 + 100000 z_2_9 <= 498780.32205303328
 c4527: 120 p_2_1 + 120 p_2_2 + 120 p_2_3 + 120 p_2_4 + 120 p_2_8 + 120 p_2_9 + 100000 z_2_1 + 100000 z_2_2 + 100000 z_2_3 + 100000 z_2_4 + 100000 z_2_8 + 100000 z_2_9 <= 598771.45678037952
 c4528: 120 p_2_5 + 120 p_2_8 + 120 p_2_9 + 100000 z_2_5 + 100000 z_2_8 + 100000 z_2_9 <= 300016.66296113119
 c4529: 120 p_2_1 + 120 p_2_5 + 120 p_2_8 + 120 p_2_9 + 100000 z_2_1 + 100000 z_2_5 + 100000 z_2_8 + 100000 z_2_9 <= 399081.27916924562
 c4530: 120 p_2_2 + 120 p_2_5 + 120 p_2_8 + 120 p_2_9 + 100000 z_2_2 + 100000 z_2_5 + 100000 z_2_8 + 100000 z_2_9 <= 400015.72949332569
 c4531: 120 p_2_1 + 120 p_2_2 + 120 p_2_5 + 120 p_2_8 + 120 p_2_9 + 100000 z_2_1 + 100000 z_2_2 + 100000 z_2_5 + 100000 z_2_8 + 100000 z_2_9 <= 499026.11782059475
 c4532: 120 p_2_3 + 120 p_2_5 + 120 p_2_8 + 120 p_2_9 + 100000 z_2_3 + 100000 z_2_5 + 100000 z_2_8 + 100000 z_2_9 <= 399994.16767536302
 c4533: 120 p_2_1 + 120 p_2_3 + 120 p_2_5 + 120 p_2_8 + 120 p_2_9 + 100000 z_2_1 + 100000 z_2_3 + 100000 z_2_5 + 100000 z_2_8 + 100000 z_2_9 <= 499025.12864026369
 c4534: 120 p_2_2 + 120 p_2_3 + 120 p_2_5 + 120 p_2_8 + 120 p_2_9 + 100000 z_2_2 + 100000 z_2_3 + 100000 z_2_5 + 100000 z_2_8 + 100000 z_2_9 <= 499993.94146062725
 c4535: 120 p_2_1 + 120 p_2_2 + 120 p_2_3 + 120 p_2_5 + 120 p_2_8 + 120 p_2_9 + 100000 z_2_1 + 100000 z_2_2 + 100000 z_2_3 + 100000 z_2_5 + 100000 z_2_8 + 100000 z_2_9 <= 598983.87428152584
 c4536: 120 p_2_4 + 120 p_2_5 + 120 p_2_8 + 120 p_2_9 + 100000 z_2_4 + 100000 z_2_5 + 100000 z_2_8 + 100000 z_2_9 <= 398862.91448127234
 c4537: 120 p_2_1 + 120 p_2_4 + 120 p_2_5 + 120 p_2_8 + 120 p_2_9 + 100000 z_2_1 + 100000 z_2_4 + 100000 z_2_5 + 100000 z_2_8 + 100000 z_2_9 <= 498848.13198960829
 c4538: 120 p_2_2 + 120 p_2_4 + 120 p_2_5 + 120 p_2_8 + 120 p_2_9 + 100000 z_2_2 + 100000 z_2_4 + 100000 z_2_5 + 100000 z_2_8 + 100000 z_2_9 <= 498807.75313262147
 c4539: 120 p_2_1 + 120 p_2_2 + 120 p_2_4 + 120 p_2_5 + 120 p_2_8 + 120 p_2_9 + 100000 z_2_1 + 100000 z_2_2 + 100000 z_2_4 + 100000 z_2_5 + 100000 z_2_8 + 100000 z_2_9 <= 598792.97064095747
 c4540: 120 p_2_3 + 120 p_2_4 + 120 p_2_5 + 120 p_2_8 + 120 p_2_9 + 100000 z_2_3 + 100000 z_2_4 + 100000 z_2_5 + 100000 z_2_8 + 100000 z_2_9 <= 498806.76395229041
 c4541: 120 p_2_1 + 120 p_2_3 + 120 p_2_4 + 120 p_2_5 + 120 p_2_8 + 120 p_2_9 + 100000 z_2_1 + 100000 z_2_3 + 100000 z_2_4 + 100000 z_2_5 + 100000 z_2_8 + 100000 z_2_9 <= 598791.98146062635
 c4542: 120 p_2_2 + 120 p_2_3 + 120 p_2_4 + 120 p_2_5 + 120 p_2_8 + 120 p_2_9 + 100000 z_2_2 + 100000 z_2_3 + 100000 z_2_4 + 100000 z_2_5 + 100000 z_2_8 + 100000 z_2_9 <= 598751.60260363948
 c4543: 120 p_2_1 + 120 p_2_2 + 120 p_2_3 + 120 p_2_4 + 120 p_2_5 + 120 p_2_8 + 120 p_2_9 + 100000 z_2_1 + 100000 z_2_2 + 100000 z_2_3 + 100000 z_2_4 + 100000 z_2_5 + 100000 z_2_8 + 100000 z_2_9 <= 698742.73733098572
 c4544: 120 p_2_6 + 120 p_2_8 + 120 p_2_9 + 100000 z_2_6 + 100000 z_2_8 + 100000 z_2_9 <= 299753.20874559268
 c4545: 120 p_2_1 + 120 p_2_6 + 120 p_2_8 + 120 p_2_9 + 100000 z_2_1 + 100000 z_2_6 + 100000 z_2_8 + 100000 z_2_9 <= 398769.0653720728
 c4546: 120 p_2_2 + 120 p_2_6 + 120 p_2_8 + 120 p_2_9 + 100000 z_2_2 + 100000 z_2_6 + 100000 z_2_8 + 100000 z_2_9 <= 399753.17953596514
 c4547: 120 p_2_1 + 120 p_2_2 + 120 p_2_6 + 120 p_2_8 + 120 p_2_9 + 100000 z_2_1 + 100000 z_2_2 + 100000 z_2_6 + 100000 z_2_8 + 100000 z_2_9 <= 498769.03616244532
 c4548: 120 p_2_3 + 120 p_2_6 + 120 p_2_8 + 120 p_2_9 + 100000 z_2_3 + 100000 z_2_6 + 100000 z_2_8 + 100000 z_2_9 <= 399733.58945543552
 c4549: 120 p_2_1 + 120 p_2_3 + 120 p_2_6 + 120 p_2_8 + 120 p_2_9 + 100000 z_2_1 + 100000 z_2_3 + 100000 z_2_6 + 100000 z_2_8 + 100000 z_2_9 <= 498764.55042033613
 c4550: 120 p_2_2 + 120 p_2_3 + 120 p_2_6 + 120 p_2_8 + 120 p_2_9 + 100000 z_2_2 + 100000 z_2_3 + 100000 z_2_6 + 100000 z_2_8 + 100000 z_2_9 <= 499733.36324069975
 c4551: 120 p_2_1 + 120 p_2_2 + 120 p_2_3 + 120 p_2_6 + 120 p_2_8 + 120 p_2_9 + 100000 z_2_1 + 100000 z_2_2 + 100000 z_2_3 + 100000 z_2_6 + 100000 z_2_8 + 100000 z_2_9 <= 598749.21986717987
 c4552: 120 p_2_4 + 120 p_2_6 + 120 p_2_8 + 120 p_2_9 + 100000 z_2_4 + 100000 z_2_6 + 100000 z_2_8 + 100000 z_2_9 <= 398546.19579085801
 c4553: 120 p_2_1 + 120 p_2_4 + 120 p_2_6 + 120 p_2_8 + 120 p_2_9 + 100000 z_2_1 + 100000 z_2_4 + 100000 z_2_6 + 100000 z_2_8 + 100000 z_2_9 <= 498531.41329919401
 c4554: 120 p_2_2 + 120 p_2_4 + 120 p_2_6 + 120 p_2_8 + 120 p_2_9 + 100000 z_2_2 + 100000 z_2_4 + 100000 z_2_6 + 100000 z_2_8 + 100000 z_2_9 <= 498528.23951225926
 c4555: 120 p_2_1 + 120 p_2_2 + 120 p_2_4 + 120 p_2_6 + 120 p_2_8 + 120 p_2_9 + 100000 z_2_1 + 100000 z_2_2 + 100000 z_2_4 + 100000 z_2_6 + 100000 z_2_8 + 100000 z_2_9 <= 598527.89921190508
 c4556: 120 p_2_3 + 120 p_2_4 + 120 p_2_6 + 120 p_2_8 + 120 p_2_9 + 100000 z_2_3 + 100000 z_2_4 + 100000 z_2_6 + 100000 z_2_8 + 100000 z_2_9 <= 498546.18573236285
 c4557: 120 p_2_1 + 120 p_2_3 + 120 p_2_4 + 120 p_2_6 + 120 p_2_8 + 120 p_2_9 + 100000 z_2_1 + 100000 z_2_3 + 100000 z_2_4 + 100000 z_2_6 + 100000 z_2_8 + 100000 z_2_9 <= 598531.40324069886
 c4558: 120 p_2_2 + 120 p_2_3 + 120 p_2_4 + 120 p_2_6 + 120 p_2_8 + 120 p_2_9 + 100000 z_2_2 + 100000 z_2_3 + 100000 z_2_4 + 100000 z_2_6 + 100000 z_2_8 + 100000 z_2_9 <= 598516.9481892935
 c4559: 120 p_2_1 + 120 p_2_2 + 120 p_2_3 + 120 p_2_4 + 120 p_2_6 + 120 p_2_8 + 120 p_2_9 + 100000 z_2_1 + 100000 z_2_2 + 100000 z_2_3 + 100000 z_2_4 + 100000 z_2_6 + 100000 z_2_8 + 100000 z_2_9 <= 698508.08291663975
 c4560: 120 p_2_5 + 120 p_2_6 + 120 p_2_8 + 120 p_2_9 + 100000 z_2_5 + 100000 z_2_6 + 100000 z_2_8 + 100000 z_2_9 <= 399750.4131017804
 c4561: 120 p_2_1 + 120 p_2_5 + 120 p_2_6 + 120 p_2_8 + 120 p_2_9 + 100000 z_2_1 + 100000 z_2_5 + 100000 z_2_6 + 100000 z_2_8 + 100000 z_2_9 <= 498761.76483501907
 c4562: 120 p_2_2 + 120 p_2_5 + 120 p_2_6 + 120 p_2_8 + 120 p_2_9 + 100000 z_2_2 + 100000 z_2_5 + 100000 z_2_6 + 100000 z_2_8 + 100000 z_2_9 <= 499750.38389215292
 c4563: 120 p_2_1 + 120 p_2_2 + 120 p_2_5 + 120 p_2_6 + 120 p_2_8 + 120 p_2_9 + 100000 z_2_1 + 100000 z_2_2 + 100000 z_2_5 + 100000 z_2_6 + 100000 z_2_8 + 100000 z_2_9 <= 598740.31671305152
 c4564: 120 p_2_3 + 120 p_2_5 + 120 p_2_6 + 120 p_2_8 + 120 p_2_9 + 100000 z_2_3 + 100000 z_2_5 + 100000 z_2_6 + 100000 z_2_8 + 100000 z_2_9 <= 499730.79381162324
 c4565: 120 p_2_1 + 120 p_2_3 + 120 p_2_5 + 120 p_2_6 + 120 p_2_8 + 120 p_2_9 + 100000 z_2_1 + 100000 z_2_3 + 100000 z_2_5 + 100000 z_2_6 + 100000 z_2_8 + 100000 z_2_9 <= 598761.75477652391
 c4566: 120 p_2_2 + 120 p_2_3 + 120 p_2_5 + 120 p_2_6 + 120 p_2_8 + 120 p_2_9 + 100000 z_2_2 + 100000 z_2_3 + 100000 z_2_5 + 100000 z_2_6 + 100000 z_2_8 + 100000 z_2_9 <= 599730.56759688747
 c4567: 120 p_2_1 + 120 p_2_2 + 120 p_2_3 + 120 p_2_5 + 120 p_2_6 + 120 p_2_8 + 120 p_2_9 + 100000 z_2_1 + 100000 z_2_2 + 100000 z_2_3 + 100000 z_2_5 + 100000 z_2_6 + 100000 z_2_8 + 100000 z_2_9 <= 698720.50041778607
 c4568: 120 p_2_4 + 120 p_2_5 + 120 p_2_6 + 120 p_2_8 + 120 p_2_9 + 100000 z_2_4 + 100000 z_2_5 + 100000 z_2_6 + 100000 z_2_8 + 100000 z_2_9 <= 498543.40014704579
 c4569: 120 p_2_1 + 120 p_2_4 + 120 p_2_5 + 120 p_2_6 + 120 p_2_8 + 120 p_2_9 + 100000 z_2_1 + 100000 z_2_4 + 100000 z_2_5 + 100000 z_2_6 + 100000 z_2_8 + 100000 z_2_9 <= 598528.61765538179
 c4570: 120 p_2_2 + 120 p_2_4 + 120 p_2_5 + 120 p_2_6 + 120 p_2_8 + 120 p_2_9 + 100000 z_2_2 + 100000 z_2_4 + 100000 z_2_5 + 100000 z_2_6 + 100000 z_2_8 + 100000 z_2_9 <= 598499.52006286546
 c4571: 120 p_2_1 + 120 p_2_2 + 120 p_2_4 + 120 p_2_5 + 120 p_2_6 + 120 p_2_8 + 120 p_2_9 + 100000 z_2_1 + 100000 z_2_2 + 100000 z_2_4 + 100000 z_2_5 + 100000 z_2_6 + 100000 z_2_8 + 100000 z_2_9 <= 698499.17976251128
 c4572: 120 p_2_3 + 120 p_2_4 + 120 p_2_5 + 120 p_2_6 + 120 p_2_8 + 120 p_2_9 + 100000 z_2_3 + 100000 z_2_4 + 100000 z_2_5 + 100000 z_2_6 + 100000 z_2_8 + 100000 z_2_9 <= 598543.39008855063
 c4573: 120 p_2_1 + 120 p_2_3 + 120 p_2_4 + 120 p_2_5 + 120 p_2_6 + 120 p_2_8 + 120 p_2_9 + 100000 z_2_1 + 100000 z_2_3 + 100000 z_2_4 + 100000 z_2_5 + 100000 z_2_6 + 100000 z_2_8 + 100000 z_2_9 <= 698528.60759688658
 c4574: 120 p_2_2 + 120 p_2_3 + 120 p_2_4 + 120 p_2_5 + 120 p_2_6 + 120 p_2_8 + 120 p_2_9 + 100000 z_2_2 + 100000 z_2_3 + 100000 z_2_4 + 100000 z_2_5 + 100000 z_2_6 + 100000 z_2_8 + 100000 z_2_9 <= 698488.2287398997
 c4575: 120 p_2_1 + 120 p_2_2 + 120 p_2_3 + 120 p_2_4 + 120 p_2_5 + 120 p_2_6 + 120 p_2_8 + 120 p_2_9 + 100000 z_2_1 + 100000 z_2_2 + 100000 z_2_3 + 100000 z_2_4 + 100000 z_2_5 + 100000 z_2_6 + 100000 z_2_8 + 100000 z_2_9 <= 798479.36346724594
 c4576: 120 p_2_7 + 120 p_2_8 + 120 p_2_9 + 100000 z_2_7 + 100000 z_2_8 + 100000 z_2_9 <= 299302.26259287581
 c4577: 120 p_2_1 + 120 p_2_7 + 120 p_2_8 + 120 p_2_9 + 100000 z_2_1 + 100000 z_2_7 + 100000 z_2_8 + 100000 z_2_9 <= 399067.8774772131
 c4578: 120 p_2_2 + 120 p_2_7 + 120 p_2_8 + 120 p_2_9 + 100000 z_2_2 + 100000 z_2_7 + 100000 z_2_8 + 100000 z_2_9 <= 399301.3291250703
 c4579: 120 p_2_1 + 120 p_2_2 + 120 p_2_7 + 120 p_2_8 + 120 p_2_9 + 100000 z_2_1 + 100000 z_2_2 + 100000 z_2_7 + 100000 z_2_8 + 100000 z_2_9 <= 499038.63993414381
 c4580: 120 p_2_3 + 120 p_2_7 + 120 p_2_8 + 120 p_2_9 + 100000 z_2_3 + 100000 z_2_7 + 100000 z_2_8 + 100000 z_2_9 <= 399279.76730710763
 c4581: 120 p_2_1 + 120 p_2_3 + 120 p_2_7 + 120 p_2_8 + 120 p_2_9 + 100000 z_2_1 + 100000 z_2_3 + 100000 z_2_7 + 100000 z_2_8 + 100000 z_2_9 <= 499011.72694823117
 c4582: 120 p_2_2 + 120 p_2_3 + 120 p_2_7 + 120 p_2_8 + 120 p_2_9 + 100000 z_2_2 + 100000 z_2_3 + 100000 z_2_7 + 100000 z_2_8 + 100000 z_2_9 <= 499279.54109237186
 c4583: 120 p_2_1 + 120 p_2_2 + 120 p_2_3 + 120 p_2_7 + 120 p_2_8 + 120 p_2_9 + 100000 z_2_1 + 100000 z_2_2 + 100000 z_2_3 + 100000 z_2_7 + 100000 z_2_8 + 100000 z_2_9 <= 598996.3963950749
 c4584: 120 p_2_4 + 120 p_2_7 + 120 p_2_8 + 120 p_2_9 + 100000 z_2_4 + 100000 z_2_7 + 100000 z_2_8 + 100000 z_2_9 <= 398864.31347455265
 c4585: 120 p_2_1 + 120 p_2_4 + 120 p_2_7 + 120 p_2_8 + 120 p_2_9 + 100000 z_2_1 + 100000 z_2_4 + 100000 z_2_7 + 100000 z_2_8 + 100000 z_2_9 <= 498841.54121198575
 c4586: 120 p_2_2 + 120 p_2_4 + 120 p_2_7 + 120 p_2_8 + 120 p_2_9 + 100000 z_2_2 + 100000 z_2_4 + 100000 z_2_7 + 100000 z_2_8 + 100000 z_2_9 <= 498835.07593148336
 c4587: 120 p_2_1 + 120 p_2_2 + 120 p_2_4 + 120 p_2_7 + 120 p_2_8 + 120 p_2_9 + 100000 z_2_1 + 100000 z_2_2 + 100000 z_2_4 + 100000 z_2_7 + 100000 z_2_8 + 100000 z_2_9 <= 598812.30366891646
 c4588: 120 p_2_3 + 120 p_2_4 + 120 p_2_7 + 120 p_2_8 + 120 p_2_9 + 100000 z_2_3 + 100000 z_2_4 + 100000 z_2_7 + 100000 z_2_8 + 100000 z_2_9 <= 498808.16294557072
 c4589: 120 p_2_1 + 120 p_2_3 + 120 p_2_4 + 120 p_2_7 + 120 p_2_8 + 120 p_2_9 + 100000 z_2_1 + 100000 z_2_3 + 100000 z_2_4 + 100000 z_2_7 + 100000 z_2_8 + 100000 z_2_9 <= 598785.39068300382
 c4590: 120 p_2_2 + 120 p_2_3 + 120 p_2_4 + 120 p_2_7 + 120 p_2_8 + 120 p_2_9 + 100000 z_2_2 + 100000 z_2_3 + 100000 z_2_4 + 100000 z_2_7 + 100000 z_2_8 + 100000 z_2_9 <= 598778.92540250137
 c4591: 120 p_2_1 + 120 p_2_2 + 120 p_2_3 + 120 p_2_4 + 120 p_2_7 + 120 p_2_8 + 120 p_2_9 + 100000 z_2_1 + 100000 z_2_2 + 100000 z_2_3 + 100000 z_2_4 + 100000 z_2_7 + 100000 z_2_8 + 100000 z_2_9 <= 698770.06012984761
 c4592: 120 p_2_5 + 120 p_2_7 + 120 p_2_8 + 120 p_2_9 + 100000 z_2_5 + 100000 z_2_7 + 100000 z_2_8 + 100000 z_2_9 <= 399297.53880332358
 c4593: 120 p_2_1 + 120 p_2_5 + 120 p_2_7 + 120 p_2_8 + 120 p_2_9 + 100000 z_2_1 + 100000 z_2_5 + 100000 z_2_7 + 100000 z_2_8 + 100000 z_2_9 <= 499065.08183340088
 c4594: 120 p_2_2 + 120 p_2_5 + 120 p_2_7 + 120 p_2_8 + 120 p_2_9 + 100000 z_2_2 + 100000 z_2_5 + 100000 z_2_7 + 100000 z_2_8 + 100000 z_2_9 <= 499272.6096756765
 c4595: 120 p_2_1 + 120 p_2_2 + 120 p_2_5 + 120 p_2_7 + 120 p_2_8 + 120 p_2_9 + 100000 z_2_1 + 100000 z_2_2 + 100000 z_2_5 + 100000 z_2_7 + 100000 z_2_8 + 100000 z_2_9 <= 599009.92048475007
 c4596: 120 p_2_3 + 120 p_2_5 + 120 p_2_7 + 120 p_2_8 + 120 p_2_9 + 100000 z_2_3 + 100000 z_2_5 + 100000 z_2_7 + 100000 z_2_8 + 100000 z_2_9 <= 499272.92522849422
 c4597: 120 p_2_1 + 120 p_2_3 + 120 p_2_5 + 120 p_2_7 + 120 p_2_8 + 120 p_2_9 + 100000 z_2_1 + 100000 z_2_3 + 100000 z_2_5 + 100000 z_2_7 + 100000 z_2_8 + 100000 z_2_9 <= 599008.93130441895
 c4598: 120 p_2_2 + 120 p_2_3 + 120 p_2_5 + 120 p_2_7 + 120 p_2_8 + 120 p_2_9 + 100000 z_2_2 + 100000 z_2_3 + 100000 z_2_5 + 100000 z_2_7 + 100000 z_2_8 + 100000 z_2_9 <= 599250.82164297812
 c4599: 120 p_2_1 + 120 p_2_2 + 120 p_2_3 + 120 p_2_5 + 120 p_2_7 + 120 p_2_8 + 120 p_2_9 + 100000 z_2_1 + 100000 z_2_2 + 100000 z_2_3 + 100000 z_2_5 + 100000 z_2_7 + 100000 z_2_8 + 100000 z_2_9 <= 698967.6769456811
 c4600: 120 p_2_4 + 120 p_2_5 + 120 p_2_7 + 120 p_2_8 + 120 p_2_9 + 100000 z_2_4 + 100000 z_2_5 + 100000 z_2_7 + 100000 z_2_8 + 100000 z_2_9 <= 498861.51783074043
 c4601: 120 p_2_1 + 120 p_2_4 + 120 p_2_5 + 120 p_2_7 + 120 p_2_8 + 120 p_2_9 + 100000 z_2_1 + 100000 z_2_4 + 100000 z_2_5 + 100000 z_2_7 + 100000 z_2_8 + 100000 z_2_9 <= 598838.74556817359
 c4602: 120 p_2_2 + 120 p_2_4 + 120 p_2_5 + 120 p_2_7 + 120 p_2_8 + 120 p_2_9 + 100000 z_2_2 + 100000 z_2_4 + 100000 z_2_5 + 100000 z_2_7 + 100000 z_2_8 + 100000 z_2_9 <= 598806.35648208961
 c4603: 120 p_2_1 + 120 p_2_2 + 120 p_2_4 + 120 p_2_5 + 120 p_2_7 + 120 p_2_8 + 120 p_2_9 + 100000 z_2_1 + 100000 z_2_2 + 100000 z_2_4 + 100000 z_2_5 + 100000 z_2_7 + 100000 z_2_8 + 100000 z_2_9 <= 698783.58421952266
 c4604: 120 p_2_3 + 120 p_2_4 + 120 p_2_5 + 120 p_2_7 + 120 p_2_8 + 120 p_2_9 + 100000 z_2_3 + 100000 z_2_4 + 100000 z_2_5 + 100000 z_2_7 + 100000 z_2_8 + 100000 z_2_9 <= 598805.3673017585
 c4605: 120 p_2_1 + 120 p_2_3 + 120 p_2_4 + 120 p_2_5 + 120 p_2_7 + 120 p_2_8 + 120 p_2_9 + 100000 z_2_1 + 100000 z_2_3 + 100000 z_2_4 + 100000 z_2_5 + 100000 z_2_7 + 100000 z_2_8 + 100000 z_2_9 <= 698782.59503919166
 c4606: 120 p_2_2 + 120 p_2_3 + 120 p_2_4 + 120 p_2_5 + 120 p_2_7 + 120 p_2_8 + 120 p_2_9 + 100000 z_2_2 + 100000 z_2_3 + 100000 z_2_4 + 100000 z_2_5 + 100000 z_2_7 + 100000 z_2_8 + 100000 z_2_9 <= 698750.20595310768
 c4607: 120 p_2_1 + 120 p_2_2 + 120 p_2_3 + 120 p_2_4 + 120 p_2_5 + 120 p_2_7 + 120 p_2_8 + 120 p_2_9 + 100000 z_2_1 + 100000 z_2_2 + 100000 z_2_3 + 100000 z_2_4 + 100000 z_2_5 + 100000 z_2_7 + 100000 z_2_8 + 100000 z_2_9 <= 798741.34068045381
 c4608: 120 p_2_6 + 120 p_2_7 + 120 p_2_8 + 120 p_2_9 + 100000 z_2_6 + 100000 z_2_7 + 100000 z_2_8 + 100000 z_2_9 <= 399036.01273352501
 c4609: 120 p_2_1 + 120 p_2_6 + 120 p_2_7 + 120 p_2_8 + 120 p_2_9 + 100000 z_2_1 + 100000 z_2_6 + 100000 z_2_7 + 100000 z_2_8 + 100000 z_2_9 <= 498752.86803622812
 c4610: 120 p_2_2 + 120 p_2_6 + 120 p_2_7 + 120 p_2_8 + 120 p_2_9 + 100000 z_2_2 + 100000 z_2_6 + 100000 z_2_7 + 100000 z_2_8 + 100000 z_2_9 <= 499035.98352389748
 c4611: 120 p_2_1 + 120 p_2_2 + 120 p_2_6 + 120 p_2_7 + 120 p_2_8 + 120 p_2_9 + 100000 z_2_1 + 100000 z_2_2 + 100000 z_2_6 + 100000 z_2_7 + 100000 z_2_8 + 100000 z_2_9 <= 598752.83882660058
 c4612: 120 p_2_3 + 120 p_2_6 + 120 p_2_7 + 120 p_2_8 + 120 p_2_9 + 100000 z_2_3 + 100000 z_2_6 + 100000 z_2_7 + 100000 z_2_8 + 100000 z_2_9 <= 499016.39344336785
 c4613: 120 p_2_1 + 120 p_2_3 + 120 p_2_6 + 120 p_2_7 + 120 p_2_8 + 120 p_2_9 + 100000 z_2_1 + 100000 z_2_3 + 100000 z_2_6 + 100000 z_2_7 + 100000 z_2_8 + 100000 z_2_9 <= 598748.35308449145
 c4614: 120 p_2_2 + 120 p_2_3 + 120 p_2_6 + 120 p_2_7 + 120 p_2_8 + 120 p_2_9 + 100000 z_2_2 + 100000 z_2_3 + 100000 z_2_6 + 100000 z_2_7 + 100000 z_2_8 + 100000 z_2_9 <= 599016.16722863202
 c4615: 120 p_2_1 + 120 p_2_2 + 120 p_2_3 + 120 p_2_6 + 120 p_2_7 + 120 p_2_8 + 120 p_2_9 + 100000 z_2_1 + 100000 z_2_2 + 100000 z_2_3 + 100000 z_2_6 + 100000 z_2_7 + 100000 z_2_8 + 100000 z_2_9 <= 698733.02253133513
 c4616: 120 p_2_4 + 120 p_2_6 + 120 p_2_7 + 120 p_2_8 + 120 p_2_9 + 100000 z_2_4 + 100000 z_2_6 + 100000 z_2_7 + 100000 z_2_8 + 100000 z_2_9 <= 498544.79914032615
 c4617: 120 p_2_1 + 120 p_2_4 + 120 p_2_6 + 120 p_2_7 + 120 p_2_8 + 120 p_2_9 + 100000 z_2_1 + 100000 z_2_4 + 100000 z_2_6 + 100000 z_2_7 + 100000 z_2_8 + 100000 z_2_9 <= 598526.53177100071
 c4618: 120 p_2_2 + 120 p_2_4 + 120 p_2_6 + 120 p_2_7 + 120 p_2_8 + 120 p_2_9 + 100000 z_2_2 + 100000 z_2_4 + 100000 z_2_6 + 100000 z_2_7 + 100000 z_2_8 + 100000 z_2_9 <= 598526.84286172735
 c4619: 120 p_2_1 + 120 p_2_2 + 120 p_2_4 + 120 p_2_6 + 120 p_2_7 + 120 p_2_8 + 120 p_2_9 + 100000 z_2_1 + 100000 z_2_2 + 100000 z_2_4 + 100000 z_2_6 + 100000 z_2_7 + 100000 z_2_8 + 100000 z_2_9 <= 698526.50256137317
 c4620: 120 p_2_3 + 120 p_2_4 + 120 p_2_6 + 120 p_2_7 + 120 p_2_8 + 120 p_2_9 + 100000 z_2_3 + 100000 z_2_4 + 100000 z_2_6 + 100000 z_2_7 + 100000 z_2_8 + 100000 z_2_9 <= 598544.789081831
 c4621: 120 p_2_1 + 120 p_2_3 + 120 p_2_4 + 120 p_2_6 + 120 p_2_7 + 120 p_2_8 + 120 p_2_9 + 100000 z_2_1 + 100000 z_2_3 + 100000 z_2_4 + 100000 z_2_6 + 100000 z_2_7 + 100000 z_2_8 + 100000 z_2_9 <= 698522.01681926404
 c4622: 120 p_2_2 + 120 p_2_3 + 120 p_2_4 + 120 p_2_6 + 120 p_2_7 + 120 p_2_8 + 120 p_2_9 + 100000 z_2_2 + 100000 z_2_3 + 100000 z_2_4 + 100000 z_2_6 + 100000 z_2_7 + 100000 z_2_8 + 100000 z_2_9 <= 698515.55153876159
 c4623: 120 p_2_1 + 120 p_2_2 + 120 p_2_3 + 120 p_2_4 + 120 p_2_6 + 120 p_2_7 + 120 p_2_8 + 120 p_2_9 + 100000 z_2_1 + 100000 z_2_2 + 100000 z_2_3 + 100000 z_2_4 + 100000 z_2_6 + 100000 z_2_7 + 100000 z_2_8 + 100000 z_2_9 <= 798506.68626610783
 c4624: 120 p_2_5 + 120 p_2_6 + 120 p_2_7 + 120 p_2_8 + 120 p_2_9 + 100000 z_2_5 + 100000 z_2_6 + 100000 z_2_7 + 100000 z_2_8 + 100000 z_2_9 <= 499026.05277359515
 c4625: 120 p_2_1 + 120 p_2_5 + 120 p_2_6 + 120 p_2_7 + 120 p_2_8 + 120 p_2_9 + 100000 z_2_1 + 100000 z_2_5 + 100000 z_2_6 + 100000 z_2_7 + 100000 z_2_8 + 100000 z_2_9 <= 598745.56749917439
 c4626: 120 p_2_2 + 120 p_2_5 + 120 p_2_6 + 120 p_2_7 + 120 p_2_8 + 120 p_2_9 + 100000 z_2_2 + 100000 z_2_5 + 100000 z_2_6 + 100000 z_2_7 + 100000 z_2_8 + 100000 z_2_9 <= 599007.26407450368
 c4627: 120 p_2_1 + 120 p_2_2 + 120 p_2_5 + 120 p_2_6 + 120 p_2_7 + 120 p_2_8 + 120 p_2_9 + 100000 z_2_1 + 100000 z_2_2 + 100000 z_2_5 + 100000 z_2_6 + 100000 z_2_7 + 100000 z_2_8 + 100000 z_2_9 <= 698724.11937720678
 c4628: 120 p_2_3 + 120 p_2_5 + 120 p_2_6 + 120 p_2_7 + 120 p_2_8 + 120 p_2_9 + 100000 z_2_3 + 100000 z_2_5 + 100000 z_2_6 + 100000 z_2_7 + 100000 z_2_8 + 100000 z_2_9 <= 599009.55136475444
 c4629: 120 p_2_1 + 120 p_2_3 + 120 p_2_5 + 120 p_2_6 + 120 p_2_7 + 120 p_2_8 + 120 p_2_9 + 100000 z_2_1 + 100000 z_2_3 + 100000 z_2_5 + 100000 z_2_6 + 100000 z_2_7 + 100000 z_2_8 + 100000 z_2_9 <= 698745.55744067917
 c4630: 120 p_2_2 + 120 p_2_3 + 120 p_2_5 + 120 p_2_6 + 120 p_2_7 + 120 p_2_8 + 120 p_2_9 + 100000 z_2_2 + 100000 z_2_3 + 100000 z_2_5 + 100000 z_2_6 + 100000 z_2_7 + 100000 z_2_8 + 100000 z_2_9 <= 698987.44777923834
 c4631: 120 p_2_1 + 120 p_2_2 + 120 p_2_3 + 120 p_2_5 + 120 p_2_6 + 120 p_2_7 + 120 p_2_8 + 120 p_2_9 + 100000 z_2_1 + 100000 z_2_2 + 100000 z_2_3 + 100000 z_2_5 + 100000 z_2_6 + 100000 z_2_7 + 100000 z_2_8 + 100000 z_2_9 <= 798704.30308194133
 c4632: 120 p_2_4 + 120 p_2_5 + 120 p_2_6 + 120 p_2_7 + 120 p_2_8 + 120 p_2_9 + 100000 z_2_4 + 100000 z_2_5 + 100000 z_2_6 + 100000 z_2_7 + 100000 z_2_8 + 100000 z_2_9 <= 598542.00349651393
 c4633: 120 p_2_1 + 120 p_2_4 + 120 p_2_5 + 120 p_2_6 + 120 p_2_7 + 120 p_2_8 + 120 p_2_9 + 100000 z_2_1 + 100000 z_2_4 + 100000 z_2_5 + 100000 z_2_6 + 100000 z_2_7 + 100000 z_2_8 + 100000 z_2_9 <= 698519.23123394698
 c4634: 120 p_2_2 + 120 p_2_4 + 120 p_2_5 + 120 p_2_6 + 120 p_2_7 + 120 p_2_8 + 120 p_2_9 + 100000 z_2_2 + 100000 z_2_4 + 100000 z_2_5 + 100000 z_2_6 + 100000 z_2_7 + 100000 z_2_8 + 100000 z_2_9 <= 698498.12341233355
 c4635: 120 p_2_1 + 120 p_2_2 + 120 p_2_4 + 120 p_2_5 + 120 p_2_6 + 120 p_2_7 + 120 p_2_8 + 120 p_2_9 + 100000 z_2_1 + 100000 z_2_2 + 100000 z_2_4 + 100000 z_2_5 + 100000 z_2_6 + 100000 z_2_7 + 100000 z_2_8 + 100000 z_2_9 <= 798497.78311197949
 c4636: 120 p_2_3 + 120 p_2_4 + 120 p_2_5 + 120 p_2_6 + 120 p_2_7 + 120 p_2_8 + 120 p_2_9 + 100000 z_2_3 + 100000 z_2_4 + 100000 z_2_5 + 100000 z_2_6 + 100000 z_2_7 + 100000 z_2_8 + 100000 z_2_9 <= 698541.99343801872
 c4637: 120 p_2_1 + 120 p_2_3 + 120 p_2_4 + 120 p_2_5 + 120 p_2_6 + 120 p_2_7 + 120 p_2_8 + 120 p_2_9 + 100000 z_2_1 + 100000 z_2_3 + 100000 z_2_4 + 100000 z_2_5 + 100000 z_2_6 + 100000 z_2_7 + 100000 z_2_8 + 100000 z_2_9 <= 798519.22117545188
 c4638: 120 p_2_2 + 120 p_2_3 + 120 p_2_4 + 120 p_2_5 + 120 p_2_6 + 120 p_2_7 + 120 p_2_8 + 120 p_2_9 + 100000 z_2_2 + 100000 z_2_3 + 100000 z_2_4 + 100000 z_2_5 + 100000 z_2_6 + 100000 z_2_7 + 100000 z_2_8 + 100000 z_2_9 <= 798486.83208936779
 c4639: 120 p_2_1 + 120 p_2_2 + 120 p_2_3 + 120 p_2_4 + 120 p_2_5 + 120 p_2_6 + 120 p_2_7 + 120 p_2_8 + 120 p_2_9 + 100000 z_2_1 + 100000 z_2_2 + 100000 z_2_3 + 100000 z_2_4 + 100000 z_2_5 + 100000 z_2_6 + 100000 z_2_7 + 100000 z_2_8 + 100000 z_2_9 <= 898477.96681671403
 c4640: 120 p_2_10 + 100000 z_2_10 <= 100878.43207799659
 c4641: 120 p_2_1 + 120 p_2_10 + 100000 z_2_1 + 100000 z_2_10 <= 200865.98045529265
 c4642: 120 p_2_10 + 120 p_2_2 + 100000 z_2_10 + 100000 z_2_2 <= 200101.34750562912
 c4643: 120 p_2_1 + 120 p_2_10 + 120 p_2_2 + 100000 z_2_1 + 100000 z_2_10 + 100000 z_2_2 <= 300088.89588292519
 c4644: 120 p_2_10 + 120 p_2_3 + 100000 z_2_10 + 100000 z_2_3 <= 199745.61082463374
 c4645: 120 p_2_1 + 120 p_2_10 + 120 p_2_3 + 100000 z_2_1 + 100000 z_2_10 + 100000 z_2_3 <= 299745.44336833095
 c4646: 120 p_2_10 + 120 p_2_2 + 120 p_2_3 + 100000 z_2_10 + 100000 z_2_2 + 100000 z_2_3 <= 299037.29514202324
 c4647: 120 p_2_1 + 120 p_2_10 + 120 p_2_2 + 120 p_2_3 + 100000 z_2_1 + 100000 z_2_10 + 100000 z_2_2 + 100000 z_2_3 <= 399024.84351931931
 c4648: 120 p_2_10 + 120 p_2_4 + 100000 z_2_10 + 100000 z_2_4 <= 200825.63095469039
 c4649: 120 p_2_1 + 120 p_2_10 + 120 p_2_4 + 100000 z_2_1 + 100000 z_2_10 + 100000 z_2_4 <= 300825.29065433628
 c4650: 120 p_2_10 + 120 p_2_2 + 120 p_2_4 + 100000 z_2_10 + 100000 z_2_2 + 100000 z_2_4 <= 300048.54638232291
 c4651: 120 p_2_1 + 120 p_2_10 + 120 p_2_2 + 120 p_2_4 + 100000 z_2_1 + 100000 z_2_10 + 100000 z_2_2 + 100000 z_2_4 <= 400048.20608196879
 c4652: 120 p_2_10 + 120 p_2_3 + 120 p_2_4 + 100000 z_2_10 + 100000 z_2_3 + 100000 z_2_4 <= 299722.04330514302
 c4653: 120 p_2_1 + 120 p_2_10 + 120 p_2_3 + 120 p_2_4 + 100000 z_2_1 + 100000 z_2_10 + 100000 z_2_3 + 100000 z_2_4 <= 399709.59168243909
 c4654: 120 p_2_10 + 120 p_2_2 + 120 p_2_3 + 120 p_2_4 + 100000 z_2_10 + 100000 z_2_2 + 100000 z_2_3 + 100000 z_2_4 <= 398984.49401871709
 c4655: 120 p_2_1 + 120 p_2_10 + 120 p_2_2 + 120 p_2_3 + 120 p_2_4 + 100000 z_2_1 + 100000 z_2_10 + 100000 z_2_2 + 100000 z_2_3 + 100000 z_2_4 <= 498984.15371836291
 c4656: 120 p_2_10 + 120 p_2_5 + 100000 z_2_10 + 100000 z_2_5 <= 200139.23110041581
 c4657: 120 p_2_1 + 120 p_2_10 + 120 p_2_5 + 100000 z_2_1 + 100000 z_2_10 + 100000 z_2_5 <= 300126.77947771188
 c4658: 120 p_2_10 + 120 p_2_2 + 120 p_2_5 + 100000 z_2_10 + 100000 z_2_2 + 100000 z_2_5 <= 300084.06975176494
 c4659: 120 p_2_1 + 120 p_2_10 + 120 p_2_2 + 120 p_2_5 + 100000 z_2_1 + 100000 z_2_10 + 100000 z_2_2 + 100000 z_2_5 <= 400071.61812906101
 c4660: 120 p_2_10 + 120 p_2_3 + 120 p_2_5 + 100000 z_2_10 + 100000 z_2_3 + 100000 z_2_5 <= 299042.12097367522
 c4661: 120 p_2_1 + 120 p_2_10 + 120 p_2_3 + 120 p_2_5 + 100000 z_2_1 + 100000 z_2_10 + 100000 z_2_3 + 100000 z_2_5 <= 399029.66935097129
 c4662: 120 p_2_10 + 120 p_2_2 + 120 p_2_3 + 120 p_2_5 + 100000 z_2_10 + 100000 z_2_2 + 100000 z_2_3 + 100000 z_2_5 <= 399020.01738815906
 c4663: 120 p_2_1 + 120 p_2_10 + 120 p_2_2 + 120 p_2_3 + 120 p_2_5 + 100000 z_2_1 + 100000 z_2_10 + 100000 z_2_2 + 100000 z_2_3 + 100000 z_2_5 <= 499007.56576545513
 c4664: 120 p_2_10 + 120 p_2_4 + 120 p_2_5 + 100000 z_2_10 + 100000 z_2_4 + 100000 z_2_5 <= 300086.4299771096
 c4665: 120 p_2_1 + 120 p_2_10 + 120 p_2_4 + 120 p_2_5 + 100000 z_2_1 + 100000 z_2_10 + 100000 z_2_4 + 100000 z_2_5 <= 400086.08967675548
 c4666: 120 p_2_10 + 120 p_2_2 + 120 p_2_4 + 120 p_2_5 + 100000 z_2_10 + 100000 z_2_2 + 100000 z_2_4 + 100000 z_2_5 <= 400031.26862845873
 c4667: 120 p_2_1 + 120 p_2_10 + 120 p_2_2 + 120 p_2_4 + 120 p_2_5 + 100000 z_2_1 + 100000 z_2_10 + 100000 z_2_2 + 100000 z_2_4 + 100000 z_2_5 <= 500030.92832810461
 c4668: 120 p_2_10 + 120 p_2_3 + 120 p_2_4 + 120 p_2_5 + 100000 z_2_10 + 100000 z_2_3 + 100000 z_2_4 + 100000 z_2_5 <= 398989.31985036907
 c4669: 120 p_2_1 + 120 p_2_10 + 120 p_2_3 + 120 p_2_4 + 120 p_2_5 + 100000 z_2_1 + 100000 z_2_10 + 100000 z_2_3 + 100000 z_2_4 + 100000 z_2_5 <= 498988.97955001489
 c4670: 120 p_2_10 + 120 p_2_2 + 120 p_2_3 + 120 p_2_4 + 120 p_2_5 + 100000 z_2_10 + 100000 z_2_2 + 100000 z_2_3 + 100000 z_2_4 + 100000 z_2_5 <= 498967.2162648529
 c4671: 120 p_2_1 + 120 p_2_10 + 120 p_2_2 + 120 p_2_3 + 120 p_2_4 + 120 p_2_5 + 100000 z_2_1 + 100000 z_2_10 + 100000 z_2_2 + 100000 z_2_3 + 100000 z_2_4 + 100000 z_2_5 <= 598966.87596449873
 c4672: 120 p_2_10 + 120 p_2_6 + 100000 z_2_10 + 100000 z_2_6 <= 199400.50301376407
 c4673: 120 p_2_1 + 120 p_2_10 + 120 p_2_6 + 100000 z_2_1 + 100000 z_2_10 + 100000 z_2_6 <= 299399.59840815462
 c4674: 120 p_2_10 + 120 p_2_2 + 120 p_2_6 + 100000 z_2_10 + 100000 z_2_2 + 100000 z_2_6 <= 298696.56401043612
 c4675: 120 p_2_1 + 120 p_2_10 + 120 p_2_2 + 120 p_2_6 + 100000 z_2_1 + 100000 z_2_10 + 100000 z_2_2 + 100000 z_2_6 <= 398684.1123877322
 c4676: 120 p_2_10 + 120 p_2_3 + 120 p_2_6 + 100000 z_2_10 + 100000 z_2_3 + 100000 z_2_6 <= 299400.49295526888
 c4677: 120 p_2_1 + 120 p_2_10 + 120 p_2_3 + 120 p_2_6 + 100000 z_2_1 + 100000 z_2_10 + 100000 z_2_3 + 100000 z_2_6 <= 399399.58834965946
 c4678: 120 p_2_10 + 120 p_2_2 + 120 p_2_3 + 120 p_2_6 + 100000 z_2_10 + 100000 z_2_2 + 100000 z_2_3 + 100000 z_2_6 <= 398696.55395194096
 c4679: 120 p_2_1 + 120 p_2_10 + 120 p_2_2 + 120 p_2_3 + 120 p_2_6 + 100000 z_2_1 + 100000 z_2_10 + 100000 z_2_2 + 100000 z_2_3 + 100000 z_2_6 <= 498684.10232923704
 c4680: 120 p_2_10 + 120 p_2_4 + 120 p_2_6 + 100000 z_2_10 + 100000 z_2_4 + 100000 z_2_6 <= 299380.38859549444
 c4681: 120 p_2_1 + 120 p_2_10 + 120 p_2_4 + 120 p_2_6 + 100000 z_2_1 + 100000 z_2_10 + 100000 z_2_4 + 100000 z_2_6 <= 399367.93697279051
 c4682: 120 p_2_10 + 120 p_2_2 + 120 p_2_4 + 120 p_2_6 + 100000 z_2_10 + 100000 z_2_2 + 100000 z_2_4 + 100000 z_2_6 <= 398643.76288712991
 c4683: 120 p_2_1 + 120 p_2_10 + 120 p_2_2 + 120 p_2_4 + 120 p_2_6 + 100000 z_2_1 + 100000 z_2_10 + 100000 z_2_2 + 100000 z_2_4 + 100000 z_2_6 <= 498643.42258677579
 c4684: 120 p_2_10 + 120 p_2_3 + 120 p_2_4 + 120 p_2_6 + 100000 z_2_10 + 100000 z_2_3 + 100000 z_2_4 + 100000 z_2_6 <= 399380.37853699928
 c4685: 120 p_2_1 + 120 p_2_10 + 120 p_2_3 + 120 p_2_4 + 120 p_2_6 + 100000 z_2_1 + 100000 z_2_10 + 100000 z_2_3 + 100000 z_2_4 + 100000 z_2_6 <= 499367.92691429536
 c4686: 120 p_2_10 + 120 p_2_2 + 120 p_2_3 + 120 p_2_4 + 120 p_2_6 + 100000 z_2_10 + 100000 z_2_2 + 100000 z_2_3 + 100000 z_2_4 + 100000 z_2_6 <= 498643.75282863475
 c4687: 120 p_2_1 + 120 p_2_10 + 120 p_2_2 + 120 p_2_3 + 120 p_2_4 + 120 p_2_6 + 100000 z_2_1 + 100000 z_2_10 + 100000 z_2_2 + 100000 z_2_3 + 100000 z_2_4 + 100000 z_2_6 <= 598643.41252828063
 c4688: 120 p_2_10 + 120 p_2_5 + 120 p_2_6 + 100000 z_2_10 + 100000 z_2_5 + 100000 z_2_6 <= 298698.07495566341
 c4689: 120 p_2_1 + 120 p_2_10 + 120 p_2_5 + 120 p_2_6 + 100000 z_2_1 + 100000 z_2_10 + 100000 z_2_5 + 100000 z_2_6 <= 398685.62333295948
 c4690: 120 p_2_10 + 120 p_2_2 + 120 p_2_5 + 120 p_2_6 + 100000 z_2_10 + 100000 z_2_2 + 100000 z_2_5 + 100000 z_2_6 <= 398679.28625657194
 c4691: 120 p_2_1 + 120 p_2_10 + 120 p_2_2 + 120 p_2_5 + 120 p_2_6 + 100000 z_2_1 + 100000 z_2_10 + 100000 z_2_2 + 100000 z_2_5 + 100000 z_2_6 <= 498666.83463386801
 c4692: 120 p_2_10 + 120 p_2_3 + 120 p_2_5 + 120 p_2_6 + 100000 z_2_10 + 100000 z_2_3 + 100000 z_2_5 + 100000 z_2_6 <= 398698.06489716825
 c4693: 120 p_2_1 + 120 p_2_10 + 120 p_2_3 + 120 p_2_5 + 120 p_2_6 + 100000 z_2_1 + 100000 z_2_10 + 100000 z_2_3 + 100000 z_2_5 + 100000 z_2_6 <= 498685.61327446433
 c4694: 120 p_2_10 + 120 p_2_2 + 120 p_2_3 + 120 p_2_5 + 120 p_2_6 + 100000 z_2_10 + 100000 z_2_2 + 100000 z_2_3 + 100000 z_2_5 + 100000 z_2_6 <= 498679.27619807678
 c4695: 120 p_2_1 + 120 p_2_10 + 120 p_2_2 + 120 p_2_3 + 120 p_2_5 + 120 p_2_6 + 100000 z_2_1 + 100000 z_2_10 + 100000 z_2_2 + 100000 z_2_3 + 100000 z_2_5 + 100000 z_2_6 <= 598666.82457537286
 c4696: 120 p_2_10 + 120 p_2_4 + 120 p_2_5 + 120 p_2_6 + 100000 z_2_10 + 100000 z_2_4 + 100000 z_2_5 + 100000 z_2_6 <= 398645.2738323572
 c4697: 120 p_2_1 + 120 p_2_10 + 120 p_2_4 + 120 p_2_5 + 120 p_2_6 + 100000 z_2_1 + 100000 z_2_10 + 100000 z_2_4 + 100000 z_2_5 + 100000 z_2_6 <= 498644.93353200308
 c4698: 120 p_2_10 + 120 p_2_2 + 120 p_2_4 + 120 p_2_5 + 120 p_2_6 + 100000 z_2_10 + 100000 z_2_2 + 100000 z_2_4 + 100000 z_2_5 + 100000 z_2_6 <= 498626.48513326573
 c4699: 120 p_2_1 + 120 p_2_10 + 120 p_2_2 + 120 p_2_4 + 120 p_2_5 + 120 p_2_6 + 100000 z_2_1 + 100000 z_2_10 + 100000 z_2_2 + 100000 z_2_4 + 100000 z_2_5 + 100000 z_2_6 <= 598626.14483291155
 c4700: 120 p_2_10 + 120 p_2_3 + 120 p_2_4 + 120 p_2_5 + 120 p_2_6 + 100000 z_2_10 + 100000 z_2_3 + 100000 z_2_4 + 100000 z_2_5 + 100000 z_2_6 <= 498645.26377386204
 c4701: 120 p_2_1 + 120 p_2_10 + 120 p_2_3 + 120 p_2_4 + 120 p_2_5 + 120 p_2_6 + 100000 z_2_1 + 100000 z_2_10 + 100000 z_2_3 + 100000 z_2_4 + 100000 z_2_5 + 100000 z_2_6 <= 598644.92347350786
 c4702: 120 p_2_10 + 120 p_2_2 + 120 p_2_3 + 120 p_2_4 + 120 p_2_5 + 120 p_2_6 + 100000 z_2_10 + 100000 z_2_2 + 100000 z_2_3 + 100000 z_2_4 + 100000 z_2_5 + 100000 z_2_6 <= 598626.47507477063
 c4703: 120 p_2_1 + 120 p_2_10 + 120 p_2_2 + 120 p_2_3 + 120 p_2_4 + 120 p_2_5 + 120 p_2_6 + 100000 z_2_1 + 100000 z_2_10 + 100000 z_2_2 + 100000 z_2_3 + 100000 z_2_4 + 100000 z_2_5 + 100000 z_2_6 <= 698626.13477441645
 c4704: 120 p_2_10 + 120 p_2_7 + 100000 z_2_10 + 100000 z_2_7 <= 200842.11237050276
 c4705: 120 p_2_1 + 120 p_2_10 + 120 p_2_7 + 100000 z_2_1 + 100000 z_2_10 + 100000 z_2_7 <= 300829.6607477988
 c4706: 120 p_2_10 + 120 p_2_2 + 120 p_2_7 + 100000 z_2_10 + 100000 z_2_2 + 100000 z_2_7 <= 300101.29069525312
 c4707: 120 p_2_1 + 120 p_2_10 + 120 p_2_2 + 120 p_2_7 + 100000 z_2_1 + 100000 z_2_10 + 100000 z_2_2 + 100000 z_2_7 <= 400088.83907254919
 c4708: 120 p_2_10 + 120 p_2_3 + 120 p_2_7 + 100000 z_2_10 + 100000 z_2_3 + 100000 z_2_7 <= 299709.29111713992
 c4709: 120 p_2_1 + 120 p_2_10 + 120 p_2_3 + 120 p_2_7 + 100000 z_2_1 + 100000 z_2_10 + 100000 z_2_3 + 100000 z_2_7 <= 399709.12366083713
 c4710: 120 p_2_10 + 120 p_2_2 + 120 p_2_3 + 120 p_2_7 + 100000 z_2_10 + 100000 z_2_2 + 100000 z_2_3 + 100000 z_2_7 <= 399037.23833164724
 c4711: 120 p_2_1 + 120 p_2_10 + 120 p_2_2 + 120 p_2_3 + 120 p_2_7 + 100000 z_2_1 + 100000 z_2_10 + 100000 z_2_2 + 100000 z_2_3 + 100000 z_2_7 <= 499024.78670894331
 c4712: 120 p_2_10 + 120 p_2_4 + 120 p_2_7 + 100000 z_2_10 + 100000 z_2_4 + 100000 z_2_7 <= 300789.31124719657
 c4713: 120 p_2_1 + 120 p_2_10 + 120 p_2_4 + 120 p_2_7 + 100000 z_2_1 + 100000 z_2_10 + 100000 z_2_4 + 100000 z_2_7 <= 400788.9709468424
 c4714: 120 p_2_10 + 120 p_2_2 + 120 p_2_4 + 120 p_2_7 + 100000 z_2_10 + 100000 z_2_2 + 100000 z_2_4 + 100000 z_2_7 <= 400048.48957194691
 c4715: 120 p_2_1 + 120 p_2_10 + 120 p_2_2 + 120 p_2_4 + 120 p_2_7 + 100000 z_2_1 + 100000 z_2_10 + 100000 z_2_2 + 100000 z_2_4 + 100000 z_2_7 <= 500048.14927159279
 c4716: 120 p_2_10 + 120 p_2_3 + 120 p_2_4 + 120 p_2_7 + 100000 z_2_10 + 100000 z_2_3 + 100000 z_2_4 + 100000 z_2_7 <= 399685.72359764919
 c4717: 120 p_2_1 + 120 p_2_10 + 120 p_2_3 + 120 p_2_4 + 120 p_2_7 + 100000 z_2_1 + 100000 z_2_10 + 100000 z_2_3 + 100000 z_2_4 + 100000 z_2_7 <= 499668.43385988072
 c4718: 120 p_2_10 + 120 p_2_2 + 120 p_2_3 + 120 p_2_4 + 120 p_2_7 + 100000 z_2_10 + 100000 z_2_2 + 100000 z_2_3 + 100000 z_2_4 + 100000 z_2_7 <= 498984.43720834109
 c4719: 120 p_2_1 + 120 p_2_10 + 120 p_2_2 + 120 p_2_3 + 120 p_2_4 + 120 p_2_7 + 100000 z_2_1 + 100000 z_2_10 + 100000 z_2_2 + 100000 z_2_3 + 100000 z_2_4 + 100000 z_2_7 <= 598984.09690798691
 c4720: 120 p_2_10 + 120 p_2_5 + 120 p_2_7 + 100000 z_2_10 + 100000 z_2_5 + 100000 z_2_7 <= 300138.61569684104
 c4721: 120 p_2_1 + 120 p_2_10 + 120 p_2_5 + 120 p_2_7 + 100000 z_2_1 + 100000 z_2_10 + 100000 z_2_5 + 100000 z_2_7 <= 400126.16407413711
 c4722: 120 p_2_10 + 120 p_2_2 + 120 p_2_5 + 120 p_2_7 + 100000 z_2_10 + 100000 z_2_2 + 100000 z_2_5 + 100000 z_2_7 <= 400083.45434819016
 c4723: 120 p_2_1 + 120 p_2_10 + 120 p_2_2 + 120 p_2_5 + 120 p_2_7 + 100000 z_2_1 + 100000 z_2_10 + 100000 z_2_2 + 100000 z_2_5 + 100000 z_2_7 <= 500071.00272548624
 c4724: 120 p_2_10 + 120 p_2_3 + 120 p_2_5 + 120 p_2_7 + 100000 z_2_10 + 100000 z_2_3 + 100000 z_2_5 + 100000 z_2_7 <= 399041.5055701005
 c4725: 120 p_2_1 + 120 p_2_10 + 120 p_2_3 + 120 p_2_5 + 120 p_2_7 + 100000 z_2_1 + 100000 z_2_10 + 100000 z_2_3 + 100000 z_2_5 + 100000 z_2_7 <= 499029.05394739658
 c4726: 120 p_2_10 + 120 p_2_2 + 120 p_2_3 + 120 p_2_5 + 120 p_2_7 + 100000 z_2_10 + 100000 z_2_2 + 100000 z_2_3 + 100000 z_2_5 + 100000 z_2_7 <= 499019.40198458428
 c4727: 120 p_2_1 + 120 p_2_10 + 120 p_2_2 + 120 p_2_3 + 120 p_2_5 + 120 p_2_7 + 100000 z_2_1 + 100000 z_2_10 + 100000 z_2_2 + 100000 z_2_3 + 100000 z_2_5 + 100000 z_2_7 <= 599006.95036188036
 c4728: 120 p_2_10 + 120 p_2_4 + 120 p_2_5 + 120 p_2_7 + 100000 z_2_10 + 100000 z_2_4 + 100000 z_2_5 + 100000 z_2_7 <= 400085.81457353488
 c4729: 120 p_2_1 + 120 p_2_10 + 120 p_2_4 + 120 p_2_5 + 120 p_2_7 + 100000 z_2_1 + 100000 z_2_10 + 100000 z_2_4 + 100000 z_2_5 + 100000 z_2_7 <= 500085.47427318071
 c4730: 120 p_2_10 + 120 p_2_2 + 120 p_2_4 + 120 p_2_5 + 120 p_2_7 + 100000 z_2_10 + 100000 z_2_2 + 100000 z_2_4 + 100000 z_2_5 + 100000 z_2_7 <= 500030.65322488401
 c4731: 120 p_2_1 + 120 p_2_10 + 120 p_2_2 + 120 p_2_4 + 120 p_2_5 + 120 p_2_7 + 100000 z_2_1 + 100000 z_2_10 + 100000 z_2_2 + 100000 z_2_4 + 100000 z_2_5 + 100000 z_2_7 <= 600030.31292452989
 c4732: 120 p_2_10 + 120 p_2_3 + 120 p_2_4 + 120 p_2_5 + 120 p_2_7 + 100000 z_2_10 + 100000 z_2_3 + 100000 z_2_4 + 100000 z_2_5 + 100000 z_2_7 <= 498988.70444679429
 c4733: 120 p_2_1 + 120 p_2_10 + 120 p_2_3 + 120 p_2_4 + 120 p_2_5 + 120 p_2_7 + 100000 z_2_1 + 100000 z_2_10 + 100000 z_2_3 + 100000 z_2_4 + 100000 z_2_5 + 100000 z_2_7 <= 598988.36414644017
 c4734: 120 p_2_10 + 120 p_2_2 + 120 p_2_3 + 120 p_2_4 + 120 p_2_5 + 120 p_2_7 + 100000 z_2_10 + 100000 z_2_2 + 100000 z_2_3 + 100000 z_2_4 + 100000 z_2_5 + 100000 z_2_7 <= 598966.60086127813
 c4735: 120 p_2_1 + 120 p_2_10 + 120 p_2_2 + 120 p_2_3 + 120 p_2_4 + 120 p_2_5 + 120 p_2_7 + 100000 z_2_1 + 100000 z_2_10 + 100000 z_2_2 + 100000 z_2_3 + 100000 z_2_4 + 100000 z_2_5 + 100000 z_2_7 <= 698966.26056092395
 c4736: 120 p_2_10 + 120 p_2_6 + 120 p_2_7 + 100000 z_2_10 + 100000 z_2_6 + 100000 z_2_7 <= 299364.18330627022
 c4737: 120 p_2_1 + 120 p_2_10 + 120 p_2_6 + 120 p_2_7 + 100000 z_2_1 + 100000 z_2_10 + 100000 z_2_6 + 100000 z_2_7 <= 399363.2787006608
 c4738: 120 p_2_10 + 120 p_2_2 + 120 p_2_6 + 120 p_2_7 + 100000 z_2_10 + 100000 z_2_2 + 100000 z_2_6 + 100000 z_2_7 <= 398696.50720006012
 c4739: 120 p_2_1 + 120 p_2_10 + 120 p_2_2 + 120 p_2_6 + 120 p_2_7 + 100000 z_2_1 + 100000 z_2_10 + 100000 z_2_2 + 100000 z_2_6 + 100000 z_2_7 <= 498684.05557735619
 c4740: 120 p_2_10 + 120 p_2_3 + 120 p_2_6 + 120 p_2_7 + 100000 z_2_10 + 100000 z_2_3 + 100000 z_2_6 + 100000 z_2_7 <= 399364.17324777506
 c4741: 120 p_2_1 + 120 p_2_10 + 120 p_2_3 + 120 p_2_6 + 120 p_2_7 + 100000 z_2_1 + 100000 z_2_10 + 100000 z_2_3 + 100000 z_2_6 + 100000 z_2_7 <= 499363.26864216558
 c4742: 120 p_2_10 + 120 p_2_2 + 120 p_2_3 + 120 p_2_6 + 120 p_2_7 + 100000 z_2_10 + 100000 z_2_2 + 100000 z_2_3 + 100000 z_2_6 + 100000 z_2_7 <= 498696.49714156496
 c4743: 120 p_2_1 + 120 p_2_10 + 120 p_2_2 + 120 p_2_3 + 120 p_2_6 + 120 p_2_7 + 100000 z_2_1 + 100000 z_2_10 + 100000 z_2_2 + 100000 z_2_3 + 100000 z_2_6 + 100000 z_2_7 <= 598684.04551886104
 c4744: 120 p_2_10 + 120 p_2_4 + 120 p_2_6 + 120 p_2_7 + 100000 z_2_10 + 100000 z_2_4 + 100000 z_2_6 + 100000 z_2_7 <= 399344.06888800056
 c4745: 120 p_2_1 + 120 p_2_10 + 120 p_2_4 + 120 p_2_6 + 120 p_2_7 + 100000 z_2_1 + 100000 z_2_10 + 100000 z_2_4 + 100000 z_2_6 + 100000 z_2_7 <= 499322.58889970439
 c4746: 120 p_2_10 + 120 p_2_2 + 120 p_2_4 + 120 p_2_6 + 120 p_2_7 + 100000 z_2_10 + 100000 z_2_2 + 100000 z_2_4 + 100000 z_2_6 + 100000 z_2_7 <= 498643.70607675391
 c4747: 120 p_2_1 + 120 p_2_10 + 120 p_2_2 + 120 p_2_4 + 120 p_2_6 + 120 p_2_7 + 100000 z_2_1 + 100000 z_2_10 + 100000 z_2_2 + 100000 z_2_4 + 100000 z_2_6 + 100000 z_2_7 <= 598643.36577639973
 c4748: 120 p_2_10 + 120 p_2_3 + 120 p_2_4 + 120 p_2_6 + 120 p_2_7 + 100000 z_2_10 + 100000 z_2_3 + 100000 z_2_4 + 100000 z_2_6 + 100000 z_2_7 <= 499344.0588295054
 c4749: 120 p_2_1 + 120 p_2_10 + 120 p_2_3 + 120 p_2_4 + 120 p_2_6 + 120 p_2_7 + 100000 z_2_1 + 100000 z_2_10 + 100000 z_2_3 + 100000 z_2_4 + 100000 z_2_6 + 100000 z_2_7 <= 599322.57884120918
 c4750: 120 p_2_10 + 120 p_2_2 + 120 p_2_3 + 120 p_2_4 + 120 p_2_6 + 120 p_2_7 + 100000 z_2_10 + 100000 z_2_2 + 100000 z_2_3 + 100000 z_2_4 + 100000 z_2_6 + 100000 z_2_7 <= 598643.69601825881
 c4751: 120 p_2_1 + 120 p_2_10 + 120 p_2_2 + 120 p_2_3 + 120 p_2_4 + 120 p_2_6 + 120 p_2_7 + 100000 z_2_1 + 100000 z_2_10 + 100000 z_2_2 + 100000 z_2_3 + 100000 z_2_4 + 100000 z_2_6 + 100000 z_2_7 <= 698643.35571790463
 c4752: 120 p_2_10 + 120 p_2_5 + 120 p_2_6 + 120 p_2_7 + 100000 z_2_10 + 100000 z_2_5 + 100000 z_2_6 + 100000 z_2_7 <= 398697.45955208864
 c4753: 120 p_2_1 + 120 p_2_10 + 120 p_2_5 + 120 p_2_6 + 120 p_2_7 + 100000 z_2_1 + 100000 z_2_10 + 100000 z_2_5 + 100000 z_2_6 + 100000 z_2_7 <= 498685.00792938471
 c4754: 120 p_2_10 + 120 p_2_2 + 120 p_2_5 + 120 p_2_6 + 120 p_2_7 + 100000 z_2_10 + 100000 z_2_2 + 100000 z_2_5 + 100000 z_2_6 + 100000 z_2_7 <= 498678.67085299717
 c4755: 120 p_2_1 + 120 p_2_10 + 120 p_2_2 + 120 p_2_5 + 120 p_2_6 + 120 p_2_7 + 100000 z_2_1 + 100000 z_2_10 + 100000 z_2_2 + 100000 z_2_5 + 100000 z_2_6 + 100000 z_2_7 <= 598666.2192302933
 c4756: 120 p_2_10 + 120 p_2_3 + 120 p_2_5 + 120 p_2_6 + 120 p_2_7 + 100000 z_2_10 + 100000 z_2_3 + 100000 z_2_5 + 100000 z_2_6 + 100000 z_2_7 <= 498697.44949359348
 c4757: 120 p_2_1 + 120 p_2_10 + 120 p_2_3 + 120 p_2_5 + 120 p_2_6 + 120 p_2_7 + 100000 z_2_1 + 100000 z_2_10 + 100000 z_2_3 + 100000 z_2_5 + 100000 z_2_6 + 100000 z_2_7 <= 598684.99787088949
 c4758: 120 p_2_10 + 120 p_2_2 + 120 p_2_3 + 120 p_2_5 + 120 p_2_6 + 120 p_2_7 + 100000 z_2_10 + 100000 z_2_2 + 100000 z_2_3 + 100000 z_2_5 + 100000 z_2_6 + 100000 z_2_7 <= 598678.66079450201
 c4759: 120 p_2_1 + 120 p_2_10 + 120 p_2_2 + 120 p_2_3 + 120 p_2_5 + 120 p_2_6 + 120 p_2_7 + 100000 z_2_1 + 100000 z_2_10 + 100000 z_2_2 + 100000 z_2_3 + 100000 z_2_5 + 100000 z_2_6 + 100000 z_2_7 <= 698666.20917179808
 c4760: 120 p_2_10 + 120 p_2_4 + 120 p_2_5 + 120 p_2_6 + 120 p_2_7 + 100000 z_2_10 + 100000 z_2_4 + 100000 z_2_5 + 100000 z_2_6 + 100000 z_2_7 <= 498644.65842878248
 c4761: 120 p_2_1 + 120 p_2_10 + 120 p_2_4 + 120 p_2_5 + 120 p_2_6 + 120 p_2_7 + 100000 z_2_1 + 100000 z_2_10 + 100000 z_2_4 + 100000 z_2_5 + 100000 z_2_6 + 100000 z_2_7 <= 598644.31812842831
 c4762: 120 p_2_10 + 120 p_2_2 + 120 p_2_4 + 120 p_2_5 + 120 p_2_6 + 120 p_2_7 + 100000 z_2_10 + 100000 z_2_2 + 100000 z_2_4 + 100000 z_2_5 + 100000 z_2_6 + 100000 z_2_7 <= 598625.86972969095
 c4763: 120 p_2_1 + 120 p_2_10 + 120 p_2_2 + 120 p_2_4 + 120 p_2_5 + 120 p_2_6 + 120 p_2_7 + 100000 z_2_1 + 100000 z_2_10 + 100000 z_2_2 + 100000 z_2_4 + 100000 z_2_5 + 100000 z_2_6 + 100000 z_2_7 <= 698625.52942933689
 c4764: 120 p_2_10 + 120 p_2_3 + 120 p_2_4 + 120 p_2_5 + 120 p_2_6 + 120 p_2_7 + 100000 z_2_10 + 100000 z_2_3 + 100000 z_2_4 + 100000 z_2_5 + 100000 z_2_6 + 100000 z_2_7 <= 598644.64837028726
 c4765: 120 p_2_1 + 120 p_2_10 + 120 p_2_3 + 120 p_2_4 + 120 p_2_5 + 120 p_2_6 + 120 p_2_7 + 100000 z_2_1 + 100000 z_2_10 + 100000 z_2_3 + 100000 z_2_4 + 100000 z_2_5 + 100000 z_2_6 + 100000 z_2_7 <= 698644.30806993309
 c4766: 120 p_2_10 + 120 p_2_2 + 120 p_2_3 + 120 p_2_4 + 120 p_2_5 + 120 p_2_6 + 120 p_2_7 + 100000 z_2_10 + 100000 z_2_2 + 100000 z_2_3 + 100000 z_2_4 + 100000 z_2_5 + 100000 z_2_6 + 100000 z_2_7 <= 698625.85967119585
 c4767: 120 p_2_1 + 120 p_2_10 + 120 p_2_2 + 120 p_2_3 + 120 p_2_4 + 120 p_2_5 + 120 p_2_6 + 120 p_2_7 + 100000 z_2_1 + 100000 z_2_10 + 100000 z_2_2 + 100000 z_2_3 + 100000 z_2_4 + 100000 z_2_5 + 100000 z_2_6 + 100000 z_2_7 <= 798625.51937084168
 c4768: 120 p_2_10 + 120 p_2_8 + 100000 z_2_10 + 100000 z_2_8 <= 199963.34803805582
 c4769: 120 p_2_1 + 120 p_2_10 + 120 p_2_8 + 100000 z_2_1 + 100000 z_2_10 + 100000 z_2_8 <= 299950.89641535189
 c4770: 120 p_2_10 + 120 p_2_2 + 120 p_2_8 + 100000 z_2_10 + 100000 z_2_2 + 100000 z_2_8 <= 299934.11049498647
 c4771: 120 p_2_1 + 120 p_2_10 + 120 p_2_2 + 120 p_2_8 + 100000 z_2_1 + 100000 z_2_10 + 100000 z_2_2 + 100000 z_2_8 <= 399921.65887228254
 c4772: 120 p_2_10 + 120 p_2_3 + 120 p_2_8 + 100000 z_2_10 + 100000 z_2_3 + 100000 z_2_8 <= 298870.28434611642
 c4773: 120 p_2_1 + 120 p_2_10 + 120 p_2_3 + 120 p_2_8 + 100000 z_2_1 + 100000 z_2_10 + 100000 z_2_3 + 100000 z_2_8 <= 398857.83272341243
 c4774: 120 p_2_10 + 120 p_2_2 + 120 p_2_3 + 120 p_2_8 + 100000 z_2_10 + 100000 z_2_2 + 100000 z_2_3 + 100000 z_2_8 <= 398870.05813138065
 c4775: 120 p_2_1 + 120 p_2_10 + 120 p_2_2 + 120 p_2_3 + 120 p_2_8 + 100000 z_2_1 + 100000 z_2_10 + 100000 z_2_2 + 100000 z_2_3 + 100000 z_2_8 <= 498857.60650867666
 c4776: 120 p_2_10 + 120 p_2_4 + 120 p_2_8 + 100000 z_2_10 + 100000 z_2_4 + 100000 z_2_8 <= 299910.5469147496
 c4777: 120 p_2_1 + 120 p_2_10 + 120 p_2_4 + 120 p_2_8 + 100000 z_2_1 + 100000 z_2_10 + 100000 z_2_4 + 100000 z_2_8 <= 399910.20661439549
 c4778: 120 p_2_10 + 120 p_2_2 + 120 p_2_4 + 120 p_2_8 + 100000 z_2_10 + 100000 z_2_2 + 100000 z_2_4 + 100000 z_2_8 <= 399881.30937168031
 c4779: 120 p_2_1 + 120 p_2_10 + 120 p_2_2 + 120 p_2_4 + 120 p_2_8 + 100000 z_2_1 + 100000 z_2_10 + 100000 z_2_2 + 100000 z_2_4 + 100000 z_2_8 <= 499880.96907132614
 c4780: 120 p_2_10 + 120 p_2_3 + 120 p_2_4 + 120 p_2_8 + 100000 z_2_10 + 100000 z_2_3 + 100000 z_2_4 + 100000 z_2_8 <= 398817.4832228102
 c4781: 120 p_2_1 + 120 p_2_10 + 120 p_2_3 + 120 p_2_4 + 120 p_2_8 + 100000 z_2_1 + 100000 z_2_10 + 100000 z_2_3 + 100000 z_2_4 + 100000 z_2_8 <= 498817.14292245603
 c4782: 120 p_2_10 + 120 p_2_2 + 120 p_2_3 + 120 p_2_4 + 120 p_2_8 + 100000 z_2_10 + 100000 z_2_2 + 100000 z_2_3 + 100000 z_2_4 + 100000 z_2_8 <= 498817.25700807443
 c4783: 120 p_2_1 + 120 p_2_10 + 120 p_2_2 + 120 p_2_3 + 120 p_2_4 + 120 p_2_8 + 100000 z_2_1 + 100000 z_2_10 + 100000 z_2_2 + 100000 z_2_3 + 100000 z_2_4 + 100000 z_2_8 <= 598816.91670772026
 c4784: 120 p_2_10 + 120 p_2_5 + 120 p_2_8 + 100000 z_2_10 + 100000 z_2_5 + 100000 z_2_8 <= 299960.5523942436
 c4785: 120 p_2_1 + 120 p_2_10 + 120 p_2_5 + 120 p_2_8 + 100000 z_2_1 + 100000 z_2_10 + 100000 z_2_5 + 100000 z_2_8 <= 399948.10077153967
 c4786: 120 p_2_10 + 120 p_2_2 + 120 p_2_5 + 120 p_2_8 + 100000 z_2_10 + 100000 z_2_2 + 100000 z_2_5 + 100000 z_2_8 <= 399905.39104559273
 c4787: 120 p_2_1 + 120 p_2_10 + 120 p_2_2 + 120 p_2_5 + 120 p_2_8 + 100000 z_2_1 + 100000 z_2_10 + 100000 z_2_2 + 100000 z_2_5 + 100000 z_2_8 <= 499892.9394228888
 c4788: 120 p_2_10 + 120 p_2_3 + 120 p_2_5 + 120 p_2_8 + 100000 z_2_10 + 100000 z_2_3 + 100000 z_2_5 + 100000 z_2_8 <= 398863.44226750301
 c4789: 120 p_2_1 + 120 p_2_10 + 120 p_2_3 + 120 p_2_5 + 120 p_2_8 + 100000 z_2_1 + 100000 z_2_10 + 100000 z_2_3 + 100000 z_2_5 + 100000 z_2_8 <= 498850.99064479908
 c4790: 120 p_2_10 + 120 p_2_2 + 120 p_2_3 + 120 p_2_5 + 120 p_2_8 + 100000 z_2_10 + 100000 z_2_2 + 100000 z_2_3 + 100000 z_2_5 + 100000 z_2_8 <= 498841.33868198685
 c4791: 120 p_2_1 + 120 p_2_10 + 120 p_2_2 + 120 p_2_3 + 120 p_2_5 + 120 p_2_8 + 100000 z_2_1 + 100000 z_2_10 + 100000 z_2_2 + 100000 z_2_3 + 100000 z_2_5 + 100000 z_2_8 <= 598828.88705928286
 c4792: 120 p_2_10 + 120 p_2_4 + 120 p_2_5 + 120 p_2_8 + 100000 z_2_10 + 100000 z_2_4 + 100000 z_2_5 + 100000 z_2_8 <= 399907.75127093738
 c4793: 120 p_2_1 + 120 p_2_10 + 120 p_2_4 + 120 p_2_5 + 120 p_2_8 + 100000 z_2_1 + 100000 z_2_10 + 100000 z_2_4 + 100000 z_2_5 + 100000 z_2_8 <= 499907.41097058327
 c4794: 120 p_2_10 + 120 p_2_2 + 120 p_2_4 + 120 p_2_5 + 120 p_2_8 + 100000 z_2_10 + 100000 z_2_2 + 100000 z_2_4 + 100000 z_2_5 + 100000 z_2_8 <= 499852.58992228651
 c4795: 120 p_2_1 + 120 p_2_10 + 120 p_2_2 + 120 p_2_4 + 120 p_2_5 + 120 p_2_8 + 100000 z_2_1 + 100000 z_2_10 + 100000 z_2_2 + 100000 z_2_4 + 100000 z_2_5 + 100000 z_2_8 <= 599852.24962193239
 c4796: 120 p_2_10 + 120 p_2_3 + 120 p_2_4 + 120 p_2_5 + 120 p_2_8 + 100000 z_2_10 + 100000 z_2_3 + 100000 z_2_4 + 100000 z_2_5 + 100000 z_2_8 <= 498810.64114419679
 c4797: 120 p_2_1 + 120 p_2_10 + 120 p_2_3 + 120 p_2_4 + 120 p_2_5 + 120 p_2_8 + 100000 z_2_1 + 100000 z_2_10 + 100000 z_2_3 + 100000 z_2_4 + 100000 z_2_5 + 100000 z_2_8 <= 598810.30084384268
 c4798: 120 p_2_10 + 120 p_2_2 + 120 p_2_3 + 120 p_2_4 + 120 p_2_5 + 120 p_2_8 + 100000 z_2_10 + 100000 z_2_2 + 100000 z_2_3 + 100000 z_2_4 + 100000 z_2_5 + 100000 z_2_8 <= 598788.53755868063
 c4799: 120 p_2_1 + 120 p_2_10 + 120 p_2_2 + 120 p_2_3 + 120 p_2_4 + 120 p_2_5 + 120 p_2_8 + 100000 z_2_1 + 100000 z_2_10 + 100000 z_2_2 + 100000 z_2_3 + 100000 z_2_4 + 100000 z_2_5 + 100000 z_2_8 <= 698788.19725832646
 c4800: 120 p_2_10 + 120 p_2_6 + 120 p_2_8 + 100000 z_2_10 + 100000 z_2_6 + 100000 z_2_8 <= 298529.35620942101
 c4801: 120 p_2_1 + 120 p_2_10 + 120 p_2_6 + 120 p_2_8 + 100000 z_2_1 + 100000 z_2_10 + 100000 z_2_6 + 100000 z_2_8 <= 398516.90458671708
 c4802: 120 p_2_10 + 120 p_2_2 + 120 p_2_6 + 120 p_2_8 + 100000 z_2_10 + 100000 z_2_2 + 100000 z_2_6 + 100000 z_2_8 <= 398529.32699979347
 c4803: 120 p_2_1 + 120 p_2_10 + 120 p_2_2 + 120 p_2_6 + 120 p_2_8 + 100000 z_2_1 + 100000 z_2_10 + 100000 z_2_2 + 100000 z_2_6 + 100000 z_2_8 <= 498516.87537708954
 c4804: 120 p_2_10 + 120 p_2_3 + 120 p_2_6 + 120 p_2_8 + 100000 z_2_10 + 100000 z_2_3 + 100000 z_2_6 + 100000 z_2_8 <= 398529.34615092585
 c4805: 120 p_2_1 + 120 p_2_10 + 120 p_2_3 + 120 p_2_6 + 120 p_2_8 + 100000 z_2_1 + 100000 z_2_10 + 100000 z_2_3 + 100000 z_2_6 + 100000 z_2_8 <= 498516.89452822192
 c4806: 120 p_2_10 + 120 p_2_2 + 120 p_2_3 + 120 p_2_6 + 120 p_2_8 + 100000 z_2_10 + 100000 z_2_2 + 100000 z_2_3 + 100000 z_2_6 + 100000 z_2_8 <= 498529.31694129831
 c4807: 120 p_2_1 + 120 p_2_10 + 120 p_2_2 + 120 p_2_3 + 120 p_2_6 + 120 p_2_8 + 100000 z_2_1 + 100000 z_2_10 + 100000 z_2_2 + 100000 z_2_3 + 100000 z_2_6 + 100000 z_2_8 <= 598516.86531859438
 c4808: 120 p_2_10 + 120 p_2_4 + 120 p_2_6 + 120 p_2_8 + 100000 z_2_10 + 100000 z_2_4 + 100000 z_2_6 + 100000 z_2_8 <= 398476.55508611485
 c4809: 120 p_2_1 + 120 p_2_10 + 120 p_2_4 + 120 p_2_6 + 120 p_2_8 + 100000 z_2_1 + 100000 z_2_10 + 100000 z_2_4 + 100000 z_2_6 + 100000 z_2_8 <= 498476.21478576068
 c4810: 120 p_2_10 + 120 p_2_2 + 120 p_2_4 + 120 p_2_6 + 120 p_2_8 + 100000 z_2_10 + 100000 z_2_2 + 100000 z_2_4 + 100000 z_2_6 + 100000 z_2_8 <= 498476.52587648731
 c4811: 120 p_2_1 + 120 p_2_10 + 120 p_2_2 + 120 p_2_4 + 120 p_2_6 + 120 p_2_8 + 100000 z_2_1 + 100000 z_2_10 + 100000 z_2_2 + 100000 z_2_4 + 100000 z_2_6 + 100000 z_2_8 <= 598476.1855761332
 c4812: 120 p_2_10 + 120 p_2_3 + 120 p_2_4 + 120 p_2_6 + 120 p_2_8 + 100000 z_2_10 + 100000 z_2_3 + 100000 z_2_4 + 100000 z_2_6 + 100000 z_2_8 <= 498476.54502761964
 c4813: 120 p_2_1 + 120 p_2_10 + 120 p_2_3 + 120 p_2_4 + 120 p_2_6 + 120 p_2_8 + 100000 z_2_1 + 100000 z_2_10 + 100000 z_2_3 + 100000 z_2_4 + 100000 z_2_6 + 100000 z_2_8 <= 598476.20472726552
 c4814: 120 p_2_10 + 120 p_2_2 + 120 p_2_3 + 120 p_2_4 + 120 p_2_6 + 120 p_2_8 + 100000 z_2_10 + 100000 z_2_2 + 100000 z_2_3 + 100000 z_2_4 + 100000 z_2_6 + 100000 z_2_8 <= 598476.51581799216
 c4815: 120 p_2_1 + 120 p_2_10 + 120 p_2_2 + 120 p_2_3 + 120 p_2_4 + 120 p_2_6 + 120 p_2_8 + 100000 z_2_1 + 100000 z_2_10 + 100000 z_2_2 + 100000 z_2_3 + 100000 z_2_4 + 100000 z_2_6 + 100000 z_2_8 <= 698476.17551763798
 c4816: 120 p_2_10 + 120 p_2_5 + 120 p_2_6 + 120 p_2_8 + 100000 z_2_10 + 100000 z_2_5 + 100000 z_2_6 + 100000 z_2_8 <= 398519.3962494912
 c4817: 120 p_2_1 + 120 p_2_10 + 120 p_2_5 + 120 p_2_6 + 120 p_2_8 + 100000 z_2_1 + 100000 z_2_10 + 100000 z_2_5 + 100000 z_2_6 + 100000 z_2_8 <= 498506.94462678727
 c4818: 120 p_2_10 + 120 p_2_2 + 120 p_2_5 + 120 p_2_6 + 120 p_2_8 + 100000 z_2_10 + 100000 z_2_2 + 100000 z_2_5 + 100000 z_2_6 + 100000 z_2_8 <= 498500.60755039973
 c4819: 120 p_2_1 + 120 p_2_10 + 120 p_2_2 + 120 p_2_5 + 120 p_2_6 + 120 p_2_8 + 100000 z_2_1 + 100000 z_2_10 + 100000 z_2_2 + 100000 z_2_5 + 100000 z_2_6 + 100000 z_2_8 <= 598488.1559276958
 c4820: 120 p_2_10 + 120 p_2_3 + 120 p_2_5 + 120 p_2_6 + 120 p_2_8 + 100000 z_2_10 + 100000 z_2_3 + 100000 z_2_5 + 100000 z_2_6 + 100000 z_2_8 <= 498519.38619099604
 c4821: 120 p_2_1 + 120 p_2_10 + 120 p_2_3 + 120 p_2_5 + 120 p_2_6 + 120 p_2_8 + 100000 z_2_1 + 100000 z_2_10 + 100000 z_2_3 + 100000 z_2_5 + 100000 z_2_6 + 100000 z_2_8 <= 598506.93456829211
 c4822: 120 p_2_10 + 120 p_2_2 + 120 p_2_3 + 120 p_2_5 + 120 p_2_6 + 120 p_2_8 + 100000 z_2_10 + 100000 z_2_2 + 100000 z_2_3 + 100000 z_2_5 + 100000 z_2_6 + 100000 z_2_8 <= 598500.59749190451
 c4823: 120 p_2_1 + 120 p_2_10 + 120 p_2_2 + 120 p_2_3 + 120 p_2_5 + 120 p_2_6 + 120 p_2_8 + 100000 z_2_1 + 100000 z_2_10 + 100000 z_2_2 + 100000 z_2_3 + 100000 z_2_5 + 100000 z_2_6 + 100000 z_2_8 <= 698488.14586920058
 c4824: 120 p_2_10 + 120 p_2_4 + 120 p_2_5 + 120 p_2_6 + 120 p_2_8 + 100000 z_2_10 + 100000 z_2_4 + 100000 z_2_5 + 100000 z_2_6 + 100000 z_2_8 <= 498466.59512618498
 c4825: 120 p_2_1 + 120 p_2_10 + 120 p_2_4 + 120 p_2_5 + 120 p_2_6 + 120 p_2_8 + 100000 z_2_1 + 100000 z_2_10 + 100000 z_2_4 + 100000 z_2_5 + 100000 z_2_6 + 100000 z_2_8 <= 598466.25482583081
 c4826: 120 p_2_10 + 120 p_2_2 + 120 p_2_4 + 120 p_2_5 + 120 p_2_6 + 120 p_2_8 + 100000 z_2_10 + 100000 z_2_2 + 100000 z_2_4 + 100000 z_2_5 + 100000 z_2_6 + 100000 z_2_8 <= 598447.80642709357
 c4827: 120 p_2_1 + 120 p_2_10 + 120 p_2_2 + 120 p_2_4 + 120 p_2_5 + 120 p_2_6 + 120 p_2_8 + 100000 z_2_1 + 100000 z_2_10 + 100000 z_2_2 + 100000 z_2_4 + 100000 z_2_5 + 100000 z_2_6 + 100000 z_2_8 <= 698447.4661267394
 c4828: 120 p_2_10 + 120 p_2_3 + 120 p_2_4 + 120 p_2_5 + 120 p_2_6 + 120 p_2_8 + 100000 z_2_10 + 100000 z_2_3 + 100000 z_2_4 + 100000 z_2_5 + 100000 z_2_6 + 100000 z_2_8 <= 598466.58506768977
 c4829: 120 p_2_1 + 120 p_2_10 + 120 p_2_3 + 120 p_2_4 + 120 p_2_5 + 120 p_2_6 + 120 p_2_8 + 100000 z_2_1 + 100000 z_2_10 + 100000 z_2_3 + 100000 z_2_4 + 100000 z_2_5 + 100000 z_2_6 + 100000 z_2_8 <= 698466.24476733571
 c4830: 120 p_2_10 + 120 p_2_2 + 120 p_2_3 + 120 p_2_4 + 120 p_2_5 + 120 p_2_6 + 120 p_2_8 + 100000 z_2_10 + 100000 z_2_2 + 100000 z_2_3 + 100000 z_2_4 + 100000 z_2_5 + 100000 z_2_6 + 100000 z_2_8 <= 698447.79636859836
 c4831: 120 p_2_1 + 120 p_2_10 + 120 p_2_2 + 120 p_2_3 + 120 p_2_4 + 120 p_2_5 + 120 p_2_6 + 120 p_2_8 + 100000 z_2_1 + 100000 z_2_10 + 100000 z_2_2 + 100000 z_2_3 + 100000 z_2_4 + 100000 z_2_5 + 100000 z_2_6 + 100000 z_2_8 <= 798447.45606824418
 c4832: 120 p_2_10 + 120 p_2_7 + 120 p_2_8 + 100000 z_2_10 + 100000 z_2_7 + 100000 z_2_8 <= 299959.15628202213
 c4833: 120 p_2_1 + 120 p_2_10 + 120 p_2_7 + 120 p_2_8 + 100000 z_2_1 + 100000 z_2_10 + 100000 z_2_7 + 100000 z_2_8 <= 399946.7046593182
 c4834: 120 p_2_10 + 120 p_2_2 + 120 p_2_7 + 120 p_2_8 + 100000 z_2_10 + 100000 z_2_2 + 100000 z_2_7 + 100000 z_2_8 <= 399929.91873895278
 c4835: 120 p_2_1 + 120 p_2_10 + 120 p_2_2 + 120 p_2_7 + 120 p_2_8 + 100000 z_2_1 + 100000 z_2_10 + 100000 z_2_2 + 100000 z_2_7 + 100000 z_2_8 <= 499917.46711624885
 c4836: 120 p_2_10 + 120 p_2_3 + 120 p_2_7 + 120 p_2_8 + 100000 z_2_10 + 100000 z_2_3 + 100000 z_2_7 + 100000 z_2_8 <= 398866.09259008273
 c4837: 120 p_2_1 + 120 p_2_10 + 120 p_2_3 + 120 p_2_7 + 120 p_2_8 + 100000 z_2_1 + 100000 z_2_10 + 100000 z_2_3 + 100000 z_2_7 + 100000 z_2_8 <= 498853.6409673788
 c4838: 120 p_2_10 + 120 p_2_2 + 120 p_2_3 + 120 p_2_7 + 120 p_2_8 + 100000 z_2_10 + 100000 z_2_2 + 100000 z_2_3 + 100000 z_2_7 + 100000 z_2_8 <= 498865.86637534696
 c4839: 120 p_2_1 + 120 p_2_10 + 120 p_2_2 + 120 p_2_3 + 120 p_2_7 + 120 p_2_8 + 100000 z_2_1 + 100000 z_2_10 + 100000 z_2_2 + 100000 z_2_3 + 100000 z_2_7 + 100000 z_2_8 <= 598853.41475264297
 c4840: 120 p_2_10 + 120 p_2_4 + 120 p_2_7 + 120 p_2_8 + 100000 z_2_10 + 100000 z_2_4 + 100000 z_2_7 + 100000 z_2_8 <= 399906.35515871597
 c4841: 120 p_2_1 + 120 p_2_10 + 120 p_2_4 + 120 p_2_7 + 120 p_2_8 + 100000 z_2_1 + 100000 z_2_10 + 100000 z_2_4 + 100000 z_2_7 + 100000 z_2_8 <= 499906.0148583618
 c4842: 120 p_2_10 + 120 p_2_2 + 120 p_2_4 + 120 p_2_7 + 120 p_2_8 + 100000 z_2_10 + 100000 z_2_2 + 100000 z_2_4 + 100000 z_2_7 + 100000 z_2_8 <= 499877.11761564662
 c4843: 120 p_2_1 + 120 p_2_10 + 120 p_2_2 + 120 p_2_4 + 120 p_2_7 + 120 p_2_8 + 100000 z_2_1 + 100000 z_2_10 + 100000 z_2_2 + 100000 z_2_4 + 100000 z_2_7 + 100000 z_2_8 <= 599876.77731529251
 c4844: 120 p_2_10 + 120 p_2_3 + 120 p_2_4 + 120 p_2_7 + 120 p_2_8 + 100000 z_2_10 + 100000 z_2_3 + 100000 z_2_4 + 100000 z_2_7 + 100000 z_2_8 <= 498813.29146677651
 c4845: 120 p_2_1 + 120 p_2_10 + 120 p_2_3 + 120 p_2_4 + 120 p_2_7 + 120 p_2_8 + 100000 z_2_1 + 100000 z_2_10 + 100000 z_2_3 + 100000 z_2_4 + 100000 z_2_7 + 100000 z_2_8 <= 598812.95116642234
 c4846: 120 p_2_10 + 120 p_2_2 + 120 p_2_3 + 120 p_2_4 + 120 p_2_7 + 120 p_2_8 + 100000 z_2_10 + 100000 z_2_2 + 100000 z_2_3 + 100000 z_2_4 + 100000 z_2_7 + 100000 z_2_8 <= 598813.06525204075
 c4847: 120 p_2_1 + 120 p_2_10 + 120 p_2_2 + 120 p_2_3 + 120 p_2_4 + 120 p_2_7 + 120 p_2_8 + 100000 z_2_1 + 100000 z_2_10 + 100000 z_2_2 + 100000 z_2_3 + 100000 z_2_4 + 100000 z_2_7 + 100000 z_2_8 <= 698812.72495168657
 c4848: 120 p_2_10 + 120 p_2_5 + 120 p_2_7 + 120 p_2_8 + 100000 z_2_10 + 100000 z_2_5 + 100000 z_2_7 + 100000 z_2_8 <= 399956.36063820991
 c4849: 120 p_2_1 + 120 p_2_10 + 120 p_2_5 + 120 p_2_7 + 120 p_2_8 + 100000 z_2_1 + 100000 z_2_10 + 100000 z_2_5 + 100000 z_2_7 + 100000 z_2_8 <= 499943.90901550598
 c4850: 120 p_2_10 + 120 p_2_2 + 120 p_2_5 + 120 p_2_7 + 120 p_2_8 + 100000 z_2_10 + 100000 z_2_2 + 100000 z_2_5 + 100000 z_2_7 + 100000 z_2_8 <= 499901.19928955904
 c4851: 120 p_2_1 + 120 p_2_10 + 120 p_2_2 + 120 p_2_5 + 120 p_2_7 + 120 p_2_8 + 100000 z_2_1 + 100000 z_2_10 + 100000 z_2_2 + 100000 z_2_5 + 100000 z_2_7 + 100000 z_2_8 <= 599888.74766685511
 c4852: 120 p_2_10 + 120 p_2_3 + 120 p_2_5 + 120 p_2_7 + 120 p_2_8 + 100000 z_2_10 + 100000 z_2_3 + 100000 z_2_5 + 100000 z_2_7 + 100000 z_2_8 <= 498859.25051146932
 c4853: 120 p_2_1 + 120 p_2_10 + 120 p_2_3 + 120 p_2_5 + 120 p_2_7 + 120 p_2_8 + 100000 z_2_1 + 100000 z_2_10 + 100000 z_2_3 + 100000 z_2_5 + 100000 z_2_7 + 100000 z_2_8 <= 598846.79888876539
 c4854: 120 p_2_10 + 120 p_2_2 + 120 p_2_3 + 120 p_2_5 + 120 p_2_7 + 120 p_2_8 + 100000 z_2_10 + 100000 z_2_2 + 100000 z_2_3 + 100000 z_2_5 + 100000 z_2_7 + 100000 z_2_8 <= 598837.14692595322
 c4855: 120 p_2_1 + 120 p_2_10 + 120 p_2_2 + 120 p_2_3 + 120 p_2_5 + 120 p_2_7 + 120 p_2_8 + 100000 z_2_1 + 100000 z_2_10 + 100000 z_2_2 + 100000 z_2_3 + 100000 z_2_5 + 100000 z_2_7 + 100000 z_2_8 <= 698824.69530324929
 c4856: 120 p_2_10 + 120 p_2_4 + 120 p_2_5 + 120 p_2_7 + 120 p_2_8 + 100000 z_2_10 + 100000 z_2_4 + 100000 z_2_5 + 100000 z_2_7 + 100000 z_2_8 <= 499903.5595149037
 c4857: 120 p_2_1 + 120 p_2_10 + 120 p_2_4 + 120 p_2_5 + 120 p_2_7 + 120 p_2_8 + 100000 z_2_1 + 100000 z_2_10 + 100000 z_2_4 + 100000 z_2_5 + 100000 z_2_7 + 100000 z_2_8 <= 599903.21921454952
 c4858: 120 p_2_10 + 120 p_2_2 + 120 p_2_4 + 120 p_2_5 + 120 p_2_7 + 120 p_2_8 + 100000 z_2_10 + 100000 z_2_2 + 100000 z_2_4 + 100000 z_2_5 + 100000 z_2_7 + 100000 z_2_8 <= 599848.39816625288
 c4859: 120 p_2_1 + 120 p_2_10 + 120 p_2_2 + 120 p_2_4 + 120 p_2_5 + 120 p_2_7 + 120 p_2_8 + 100000 z_2_1 + 100000 z_2_10 + 100000 z_2_2 + 100000 z_2_4 + 100000 z_2_5 + 100000 z_2_7 + 100000 z_2_8 <= 699848.05786589871
 c4860: 120 p_2_10 + 120 p_2_3 + 120 p_2_4 + 120 p_2_5 + 120 p_2_7 + 120 p_2_8 + 100000 z_2_10 + 100000 z_2_3 + 100000 z_2_4 + 100000 z_2_5 + 100000 z_2_7 + 100000 z_2_8 <= 598806.44938816316
 c4861: 120 p_2_1 + 120 p_2_10 + 120 p_2_3 + 120 p_2_4 + 120 p_2_5 + 120 p_2_7 + 120 p_2_8 + 100000 z_2_1 + 100000 z_2_10 + 100000 z_2_3 + 100000 z_2_4 + 100000 z_2_5 + 100000 z_2_7 + 100000 z_2_8 <= 698806.10908780899
 c4862: 120 p_2_10 + 120 p_2_2 + 120 p_2_3 + 120 p_2_4 + 120 p_2_5 + 120 p_2_7 + 120 p_2_8 + 100000 z_2_10 + 100000 z_2_2 + 100000 z_2_3 + 100000 z_2_4 + 100000 z_2_5 + 100000 z_2_7 + 100000 z_2_8 <= 698784.34580264695
 c4863: 120 p_2_1 + 120 p_2_10 + 120 p_2_2 + 120 p_2_3 + 120 p_2_4 + 120 p_2_5 + 120 p_2_7 + 120 p_2_8 + 100000 z_2_1 + 100000 z_2_10 + 100000 z_2_2 + 100000 z_2_3 + 100000 z_2_4 + 100000 z_2_5 + 100000 z_2_7 + 100000 z_2_8 <= 798784.00550229277
 c4864: 120 p_2_10 + 120 p_2_6 + 120 p_2_7 + 120 p_2_8 + 100000 z_2_10 + 100000 z_2_6 + 100000 z_2_7 + 100000 z_2_8 <= 398525.16445338732
 c4865: 120 p_2_1 + 120 p_2_10 + 120 p_2_6 + 120 p_2_7 + 120 p_2_8 + 100000 z_2_1 + 100000 z_2_10 + 100000 z_2_6 + 100000 z_2_7 + 100000 z_2_8 <= 498512.71283068339
 c4866: 120 p_2_10 + 120 p_2_2 + 120 p_2_6 + 120 p_2_7 + 120 p_2_8 + 100000 z_2_10 + 100000 z_2_2 + 100000 z_2_6 + 100000 z_2_7 + 100000 z_2_8 <= 498525.13524375984
 c4867: 120 p_2_1 + 120 p_2_10 + 120 p_2_2 + 120 p_2_6 + 120 p_2_7 + 120 p_2_8 + 100000 z_2_1 + 100000 z_2_10 + 100000 z_2_2 + 100000 z_2_6 + 100000 z_2_7 + 100000 z_2_8 <= 598512.68362105591
 c4868: 120 p_2_10 + 120 p_2_3 + 120 p_2_6 + 120 p_2_7 + 120 p_2_8 + 100000 z_2_10 + 100000 z_2_3 + 100000 z_2_6 + 100000 z_2_7 + 100000 z_2_8 <= 498525.15439489216
 c4869: 120 p_2_1 + 120 p_2_10 + 120 p_2_3 + 120 p_2_6 + 120 p_2_7 + 120 p_2_8 + 100000 z_2_1 + 100000 z_2_10 + 100000 z_2_3 + 100000 z_2_6 + 100000 z_2_7 + 100000 z_2_8 <= 598512.70277218823
 c4870: 120 p_2_10 + 120 p_2_2 + 120 p_2_3 + 120 p_2_6 + 120 p_2_7 + 120 p_2_8 + 100000 z_2_10 + 100000 z_2_2 + 100000 z_2_3 + 100000 z_2_6 + 100000 z_2_7 + 100000 z_2_8 <= 598525.12518526462
 c4871: 120 p_2_1 + 120 p_2_10 + 120 p_2_2 + 120 p_2_3 + 120 p_2_6 + 120 p_2_7 + 120 p_2_8 + 100000 z_2_1 + 100000 z_2_10 + 100000 z_2_2 + 100000 z_2_3 + 100000 z_2_6 + 100000 z_2_7 + 100000 z_2_8 <= 698512.6735625607
 c4872: 120 p_2_10 + 120 p_2_4 + 120 p_2_6 + 120 p_2_7 + 120 p_2_8 + 100000 z_2_10 + 100000 z_2_4 + 100000 z_2_6 + 100000 z_2_7 + 100000 z_2_8 <= 498472.36333008116
 c4873: 120 p_2_1 + 120 p_2_10 + 120 p_2_4 + 120 p_2_6 + 120 p_2_7 + 120 p_2_8 + 100000 z_2_1 + 100000 z_2_10 + 100000 z_2_4 + 100000 z_2_6 + 100000 z_2_7 + 100000 z_2_8 <= 598472.02302972705
 c4874: 120 p_2_10 + 120 p_2_2 + 120 p_2_4 + 120 p_2_6 + 120 p_2_7 + 120 p_2_8 + 100000 z_2_10 + 100000 z_2_2 + 100000 z_2_4 + 100000 z_2_6 + 100000 z_2_7 + 100000 z_2_8 <= 598472.33412045357
 c4875: 120 p_2_1 + 120 p_2_10 + 120 p_2_2 + 120 p_2_4 + 120 p_2_6 + 120 p_2_7 + 120 p_2_8 + 100000 z_2_1 + 100000 z_2_10 + 100000 z_2_2 + 100000 z_2_4 + 100000 z_2_6 + 100000 z_2_7 + 100000 z_2_8 <= 698471.99382009951
 c4876: 120 p_2_10 + 120 p_2_3 + 120 p_2_4 + 120 p_2_6 + 120 p_2_7 + 120 p_2_8 + 100000 z_2_10 + 100000 z_2_3 + 100000 z_2_4 + 100000 z_2_6 + 100000 z_2_7 + 100000 z_2_8 <= 598472.35327158601
 c4877: 120 p_2_1 + 120 p_2_10 + 120 p_2_3 + 120 p_2_4 + 120 p_2_6 + 120 p_2_7 + 120 p_2_8 + 100000 z_2_1 + 100000 z_2_10 + 100000 z_2_3 + 100000 z_2_4 + 100000 z_2_6 + 100000 z_2_7 + 100000 z_2_8 <= 698472.01297123183
 c4878: 120 p_2_10 + 120 p_2_2 + 120 p_2_3 + 120 p_2_4 + 120 p_2_6 + 120 p_2_7 + 120 p_2_8 + 100000 z_2_10 + 100000 z_2_2 + 100000 z_2_3 + 100000 z_2_4 + 100000 z_2_6 + 100000 z_2_7 + 100000 z_2_8 <= 698472.32406195847
 c4879: 120 p_2_1 + 120 p_2_10 + 120 p_2_2 + 120 p_2_3 + 120 p_2_4 + 120 p_2_6 + 120 p_2_7 + 120 p_2_8 + 100000 z_2_1 + 100000 z_2_10 + 100000 z_2_2 + 100000 z_2_3 + 100000 z_2_4 + 100000 z_2_6 + 100000 z_2_7 + 100000 z_2_8 <= 798471.98376160429
 c4880: 120 p_2_10 + 120 p_2_5 + 120 p_2_6 + 120 p_2_7 + 120 p_2_8 + 100000 z_2_10 + 100000 z_2_5 + 100000 z_2_6 + 100000 z_2_7 + 100000 z_2_8 <= 498515.20449345751
 c4881: 120 p_2_1 + 120 p_2_10 + 120 p_2_5 + 120 p_2_6 + 120 p_2_7 + 120 p_2_8 + 100000 z_2_1 + 100000 z_2_10 + 100000 z_2_5 + 100000 z_2_6 + 100000 z_2_7 + 100000 z_2_8 <= 598502.75287075352
 c4882: 120 p_2_10 + 120 p_2_2 + 120 p_2_5 + 120 p_2_6 + 120 p_2_7 + 120 p_2_8 + 100000 z_2_10 + 100000 z_2_2 + 100000 z_2_5 + 100000 z_2_6 + 100000 z_2_7 + 100000 z_2_8 <= 598496.41579436604
 c4883: 120 p_2_1 + 120 p_2_10 + 120 p_2_2 + 120 p_2_5 + 120 p_2_6 + 120 p_2_7 + 120 p_2_8 + 100000 z_2_1 + 100000 z_2_10 + 100000 z_2_2 + 100000 z_2_5 + 100000 z_2_6 + 100000 z_2_7 + 100000 z_2_8 <= 698483.96417166211
 c4884: 120 p_2_10 + 120 p_2_3 + 120 p_2_5 + 120 p_2_6 + 120 p_2_7 + 120 p_2_8 + 100000 z_2_10 + 100000 z_2_3 + 100000 z_2_5 + 100000 z_2_6 + 100000 z_2_7 + 100000 z_2_8 <= 598515.19443496235
 c4885: 120 p_2_1 + 120 p_2_10 + 120 p_2_3 + 120 p_2_5 + 120 p_2_6 + 120 p_2_7 + 120 p_2_8 + 100000 z_2_1 + 100000 z_2_10 + 100000 z_2_3 + 100000 z_2_5 + 100000 z_2_6 + 100000 z_2_7 + 100000 z_2_8 <= 698502.74281225842
 c4886: 120 p_2_10 + 120 p_2_2 + 120 p_2_3 + 120 p_2_5 + 120 p_2_6 + 120 p_2_7 + 120 p_2_8 + 100000 z_2_10 + 100000 z_2_2 + 100000 z_2_3 + 100000 z_2_5 + 100000 z_2_6 + 100000 z_2_7 + 100000 z_2_8 <= 698496.40573587082
 c4887: 120 p_2_1 + 120 p_2_10 + 120 p_2_2 + 120 p_2_3 + 120 p_2_5 + 120 p_2_6 + 120 p_2_7 + 120 p_2_8 + 100000 z_2_1 + 100000 z_2_10 + 100000 z_2_2 + 100000 z_2_3 + 100000 z_2_5 + 100000 z_2_6 + 100000 z_2_7 + 100000 z_2_8 <= 798483.9541131669
 c4888: 120 p_2_10 + 120 p_2_4 + 120 p_2_5 + 120 p_2_6 + 120 p_2_7 + 120 p_2_8 + 100000 z_2_10 + 100000 z_2_4 + 100000 z_2_5 + 100000 z_2_6 + 100000 z_2_7 + 100000 z_2_8 <= 598462.4033701513
 c4889: 120 p_2_1 + 120 p_2_10 + 120 p_2_4 + 120 p_2_5 + 120 p_2_6 + 120 p_2_7 + 120 p_2_8 + 100000 z_2_1 + 100000 z_2_10 + 100000 z_2_4 + 100000 z_2_5 + 100000 z_2_6 + 100000 z_2_7 + 100000 z_2_8 <= 698462.06306979712
 c4890: 120 p_2_10 + 120 p_2_2 + 120 p_2_4 + 120 p_2_5 + 120 p_2_6 + 120 p_2_7 + 120 p_2_8 + 100000 z_2_10 + 100000 z_2_2 + 100000 z_2_4 + 100000 z_2_5 + 100000 z_2_6 + 100000 z_2_7 + 100000 z_2_8 <= 698443.61467105988
 c4891: 120 p_2_1 + 120 p_2_10 + 120 p_2_2 + 120 p_2_4 + 120 p_2_5 + 120 p_2_6 + 120 p_2_7 + 120 p_2_8 + 100000 z_2_1 + 100000 z_2_10 + 100000 z_2_2 + 100000 z_2_4 + 100000 z_2_5 + 100000 z_2_6 + 100000 z_2_7 + 100000 z_2_8 <= 798443.27437070571
 c4892: 120 p_2_10 + 120 p_2_3 + 120 p_2_4 + 120 p_2_5 + 120 p_2_6 + 120 p_2_7 + 120 p_2_8 + 100000 z_2_10 + 100000 z_2_3 + 100000 z_2_4 + 100000 z_2_5 + 100000 z_2_6 + 100000 z_2_7 + 100000 z_2_8 <= 698462.3933116562
 c4893: 120 p_2_1 + 120 p_2_10 + 120 p_2_3 + 120 p_2_4 + 120 p_2_5 + 120 p_2_6 + 120 p_2_7 + 120 p_2_8 + 100000 z_2_1 + 100000 z_2_10 + 100000 z_2_3 + 100000 z_2_4 + 100000 z_2_5 + 100000 z_2_6 + 100000 z_2_7 + 100000 z_2_8 <= 798462.05301130202
 c4894: 120 p_2_10 + 120 p_2_2 + 120 p_2_3 + 120 p_2_4 + 120 p_2_5 + 120 p_2_6 + 120 p_2_7 + 120 p_2_8 + 100000 z_2_10 + 100000 z_2_2 + 100000 z_2_3 + 100000 z_2_4 + 100000 z_2_5 + 100000 z_2_6 + 100000 z_2_7 + 100000 z_2_8 <= 798443.60461256467
 c4895: 120 p_2_1 + 120 p_2_10 + 120 p_2_2 + 120 p_2_3 + 120 p_2_4 + 120 p_2_5 + 120 p_2_6 + 120 p_2_7 + 120 p_2_8 + 100000 z_2_1 + 100000 z_2_10 + 100000 z_2_2 + 100000 z_2_3 + 100000 z_2_4 + 100000 z_2_5 + 100000 z_2_6 + 100000 z_2_7 + 100000 z_2_8 <= 898443.26431221049
 c4896: 120 p_2_10 + 120 p_2_9 + 100000 z_2_10 + 100000 z_2_9 <= 199718.32184849452
 c4897: 120 p_2_1 + 120 p_2_10 + 120 p_2_9 + 100000 z_2_1 + 100000 z_2_10 + 100000 z_2_9 <= 299717.01273179793
 c4898: 120 p_2_10 + 120 p_2_2 + 120 p_2_9 + 100000 z_2_10 + 100000 z_2_2 + 100000 z_2_9 <= 298941.23727612704
 c4899: 120 p_2_1 + 120 p_2_10 + 120 p_2_2 + 120 p_2_9 + 100000 z_2_1 + 100000 z_2_10 + 100000 z_2_2 + 100000 z_2_9 <= 398939.92815943051
 c4900: 120 p_2_10 + 120 p_2_3 + 120 p_2_9 + 100000 z_2_10 + 100000 z_2_3 + 100000 z_2_9 <= 299662.17131951259
 c4901: 120 p_2_1 + 120 p_2_10 + 120 p_2_3 + 120 p_2_9 + 100000 z_2_1 + 100000 z_2_10 + 100000 z_2_3 + 100000 z_2_9 <= 399660.862202816
 c4902: 120 p_2_10 + 120 p_2_2 + 120 p_2_3 + 120 p_2_9 + 100000 z_2_10 + 100000 z_2_2 + 100000 z_2_3 + 100000 z_2_9 <= 398910.13624306559
 c4903: 120 p_2_1 + 120 p_2_10 + 120 p_2_2 + 120 p_2_3 + 120 p_2_9 + 100000 z_2_1 + 100000 z_2_10 + 100000 z_2_2 + 100000 z_2_3 + 100000 z_2_9 <= 498897.68462036166
 c4904: 120 p_2_10 + 120 p_2_4 + 120 p_2_9 + 100000 z_2_10 + 100000 z_2_4 + 100000 z_2_9 <= 299699.09519340843
 c4905: 120 p_2_1 + 120 p_2_10 + 120 p_2_4 + 120 p_2_9 + 100000 z_2_1 + 100000 z_2_10 + 100000 z_2_4 + 100000 z_2_9 <= 399686.6435707045
 c4906: 120 p_2_10 + 120 p_2_2 + 120 p_2_4 + 120 p_2_9 + 100000 z_2_10 + 100000 z_2_2 + 100000 z_2_4 + 100000 z_2_9 <= 398922.010621041
 c4907: 120 p_2_1 + 120 p_2_10 + 120 p_2_2 + 120 p_2_4 + 120 p_2_9 + 100000 z_2_1 + 100000 z_2_10 + 100000 z_2_2 + 100000 z_2_4 + 100000 z_2_9 <= 498899.2383584741
 c4908: 120 p_2_10 + 120 p_2_3 + 120 p_2_4 + 120 p_2_9 + 100000 z_2_10 + 100000 z_2_3 + 100000 z_2_4 + 100000 z_2_9 <= 399642.9446644265
 c4909: 120 p_2_1 + 120 p_2_10 + 120 p_2_3 + 120 p_2_4 + 120 p_2_9 + 100000 z_2_1 + 100000 z_2_10 + 100000 z_2_3 + 100000 z_2_4 + 100000 z_2_9 <= 499630.49304172257
 c4910: 120 p_2_10 + 120 p_2_2 + 120 p_2_3 + 120 p_2_4 + 120 p_2_9 + 100000 z_2_10 + 100000 z_2_2 + 100000 z_2_3 + 100000 z_2_4 + 100000 z_2_9 <= 498867.96700894751
 c4911: 120 p_2_1 + 120 p_2_10 + 120 p_2_2 + 120 p_2_3 + 120 p_2_4 + 120 p_2_9 + 100000 z_2_1 + 100000 z_2_10 + 100000 z_2_2 + 100000 z_2_3 + 100000 z_2_4 + 100000 z_2_9 <= 598856.99481940526
 c4912: 120 p_2_10 + 120 p_2_5 + 120 p_2_9 + 100000 z_2_10 + 100000 z_2_5 + 100000 z_2_9 <= 298979.12087091373
 c4913: 120 p_2_1 + 120 p_2_10 + 120 p_2_5 + 120 p_2_9 + 100000 z_2_1 + 100000 z_2_10 + 100000 z_2_5 + 100000 z_2_9 <= 398977.8117542172
 c4914: 120 p_2_10 + 120 p_2_2 + 120 p_2_5 + 120 p_2_9 + 100000 z_2_10 + 100000 z_2_2 + 100000 z_2_5 + 100000 z_2_9 <= 398923.95952226286
 c4915: 120 p_2_1 + 120 p_2_10 + 120 p_2_2 + 120 p_2_5 + 120 p_2_9 + 100000 z_2_1 + 100000 z_2_10 + 100000 z_2_2 + 100000 z_2_5 + 100000 z_2_9 <= 498922.65040556632
 c4916: 120 p_2_10 + 120 p_2_3 + 120 p_2_5 + 120 p_2_9 + 100000 z_2_10 + 100000 z_2_3 + 100000 z_2_5 + 100000 z_2_9 <= 398922.9703419318
 c4917: 120 p_2_1 + 120 p_2_10 + 120 p_2_3 + 120 p_2_5 + 120 p_2_9 + 100000 z_2_1 + 100000 z_2_10 + 100000 z_2_3 + 100000 z_2_5 + 100000 z_2_9 <= 498921.66122523526
 c4918: 120 p_2_10 + 120 p_2_2 + 120 p_2_3 + 120 p_2_5 + 120 p_2_9 + 100000 z_2_10 + 100000 z_2_2 + 100000 z_2_3 + 100000 z_2_5 + 100000 z_2_9 <= 498892.8584892014
 c4919: 120 p_2_1 + 120 p_2_10 + 120 p_2_2 + 120 p_2_3 + 120 p_2_5 + 120 p_2_9 + 100000 z_2_1 + 100000 z_2_10 + 100000 z_2_2 + 100000 z_2_3 + 100000 z_2_5 + 100000 z_2_9 <= 598880.40686649748
 c4920: 120 p_2_10 + 120 p_2_4 + 120 p_2_5 + 120 p_2_9 + 100000 z_2_10 + 100000 z_2_4 + 100000 z_2_5 + 100000 z_2_9 <= 398959.89421582769
 c4921: 120 p_2_1 + 120 p_2_10 + 120 p_2_4 + 120 p_2_5 + 120 p_2_9 + 100000 z_2_1 + 100000 z_2_10 + 100000 z_2_4 + 100000 z_2_5 + 100000 z_2_9 <= 498937.12195326079
 c4922: 120 p_2_10 + 120 p_2_2 + 120 p_2_4 + 120 p_2_5 + 120 p_2_9 + 100000 z_2_10 + 100000 z_2_2 + 100000 z_2_4 + 100000 z_2_5 + 100000 z_2_9 <= 498904.73286717682
 c4923: 120 p_2_1 + 120 p_2_10 + 120 p_2_2 + 120 p_2_4 + 120 p_2_5 + 120 p_2_9 + 100000 z_2_1 + 100000 z_2_10 + 100000 z_2_2 + 100000 z_2_4 + 100000 z_2_5 + 100000 z_2_9 <= 598881.96060460992
 c4924: 120 p_2_10 + 120 p_2_3 + 120 p_2_4 + 120 p_2_5 + 120 p_2_9 + 100000 z_2_10 + 100000 z_2_3 + 100000 z_2_4 + 100000 z_2_5 + 100000 z_2_9 <= 498903.74368684576
 c4925: 120 p_2_1 + 120 p_2_10 + 120 p_2_3 + 120 p_2_4 + 120 p_2_5 + 120 p_2_9 + 100000 z_2_1 + 100000 z_2_10 + 100000 z_2_3 + 100000 z_2_4 + 100000 z_2_5 + 100000 z_2_9 <= 598880.9714242788
 c4926: 120 p_2_10 + 120 p_2_2 + 120 p_2_3 + 120 p_2_4 + 120 p_2_5 + 120 p_2_9 + 100000 z_2_10 + 100000 z_2_2 + 100000 z_2_3 + 100000 z_2_4 + 100000 z_2_5 + 100000 z_2_9 <= 598848.58233819483
 c4927: 120 p_2_1 + 120 p_2_10 + 120 p_2_2 + 120 p_2_3 + 120 p_2_4 + 120 p_2_5 + 120 p_2_9 + 100000 z_2_1 + 100000 z_2_10 + 100000 z_2_2 + 100000 z_2_3 + 100000 z_2_4 + 100000 z_2_5 + 100000 z_2_9 <= 698839.71706554107
 c4928: 120 p_2_10 + 120 p_2_6 + 120 p_2_9 + 100000 z_2_10 + 100000 z_2_6 + 100000 z_2_9 <= 299398.80751426797
 c4929: 120 p_2_1 + 120 p_2_10 + 120 p_2_6 + 120 p_2_9 + 100000 z_2_1 + 100000 z_2_10 + 100000 z_2_6 + 100000 z_2_9 <= 399397.49839757144
 c4930: 120 p_2_10 + 120 p_2_2 + 120 p_2_6 + 120 p_2_9 + 100000 z_2_10 + 100000 z_2_2 + 100000 z_2_6 + 100000 z_2_9 <= 398666.5786745912
 c4931: 120 p_2_1 + 120 p_2_10 + 120 p_2_2 + 120 p_2_6 + 120 p_2_9 + 100000 z_2_1 + 100000 z_2_10 + 100000 z_2_2 + 100000 z_2_6 + 100000 z_2_9 <= 498654.12705188728
 c4932: 120 p_2_10 + 120 p_2_3 + 120 p_2_6 + 120 p_2_9 + 100000 z_2_10 + 100000 z_2_3 + 100000 z_2_6 + 100000 z_2_9 <= 399398.79745577282
 c4933: 120 p_2_1 + 120 p_2_10 + 120 p_2_3 + 120 p_2_6 + 120 p_2_9 + 100000 z_2_1 + 100000 z_2_10 + 100000 z_2_3 + 100000 z_2_6 + 100000 z_2_9 <= 499397.48833907623
 c4934: 120 p_2_10 + 120 p_2_2 + 120 p_2_3 + 120 p_2_6 + 120 p_2_9 + 100000 z_2_10 + 100000 z_2_2 + 100000 z_2_3 + 100000 z_2_6 + 100000 z_2_9 <= 498646.76237932581
 c4935: 120 p_2_1 + 120 p_2_10 + 120 p_2_2 + 120 p_2_3 + 120 p_2_6 + 120 p_2_9 + 100000 z_2_1 + 100000 z_2_10 + 100000 z_2_2 + 100000 z_2_3 + 100000 z_2_6 + 100000 z_2_9 <= 598634.31075662188
 c4936: 120 p_2_10 + 120 p_2_4 + 120 p_2_6 + 120 p_2_9 + 100000 z_2_10 + 100000 z_2_4 + 100000 z_2_6 + 100000 z_2_9 <= 399379.58085918194
 c4937: 120 p_2_1 + 120 p_2_10 + 120 p_2_4 + 120 p_2_6 + 120 p_2_9 + 100000 z_2_1 + 100000 z_2_10 + 100000 z_2_4 + 100000 z_2_6 + 100000 z_2_9 <= 499367.12923647795
 c4938: 120 p_2_10 + 120 p_2_2 + 120 p_2_4 + 120 p_2_6 + 120 p_2_9 + 100000 z_2_10 + 100000 z_2_2 + 100000 z_2_4 + 100000 z_2_6 + 100000 z_2_9 <= 498624.40944047313
 c4939: 120 p_2_1 + 120 p_2_10 + 120 p_2_2 + 120 p_2_4 + 120 p_2_6 + 120 p_2_9 + 100000 z_2_1 + 100000 z_2_10 + 100000 z_2_2 + 100000 z_2_4 + 100000 z_2_6 + 100000 z_2_9 <= 598613.43725093082
 c4940: 120 p_2_10 + 120 p_2_3 + 120 p_2_4 + 120 p_2_6 + 120 p_2_9 + 100000 z_2_10 + 100000 z_2_3 + 100000 z_2_4 + 100000 z_2_6 + 100000 z_2_9 <= 499379.57080068672
 c4941: 120 p_2_1 + 120 p_2_10 + 120 p_2_3 + 120 p_2_4 + 120 p_2_6 + 120 p_2_9 + 100000 z_2_1 + 100000 z_2_10 + 100000 z_2_3 + 100000 z_2_4 + 100000 z_2_6 + 100000 z_2_9 <= 599367.11917798279
 c4942: 120 p_2_10 + 120 p_2_2 + 120 p_2_3 + 120 p_2_4 + 120 p_2_6 + 120 p_2_9 + 100000 z_2_10 + 100000 z_2_2 + 100000 z_2_3 + 100000 z_2_4 + 100000 z_2_6 + 100000 z_2_9 <= 598604.59314520773
 c4943: 120 p_2_1 + 120 p_2_10 + 120 p_2_2 + 120 p_2_3 + 120 p_2_4 + 120 p_2_6 + 120 p_2_9 + 100000 z_2_1 + 100000 z_2_10 + 100000 z_2_2 + 100000 z_2_3 + 100000 z_2_4 + 100000 z_2_6 + 100000 z_2_9 <= 698593.62095566548
 c4944: 120 p_2_10 + 120 p_2_5 + 120 p_2_6 + 120 p_2_9 + 100000 z_2_10 + 100000 z_2_5 + 100000 z_2_6 + 100000 z_2_9 <= 398668.08961981849
 c4945: 120 p_2_1 + 120 p_2_10 + 120 p_2_5 + 120 p_2_6 + 120 p_2_9 + 100000 z_2_1 + 100000 z_2_10 + 100000 z_2_5 + 100000 z_2_6 + 100000 z_2_9 <= 498658.29741999065
 c4946: 120 p_2_10 + 120 p_2_2 + 120 p_2_5 + 120 p_2_6 + 120 p_2_9 + 100000 z_2_10 + 100000 z_2_2 + 100000 z_2_5 + 100000 z_2_6 + 100000 z_2_9 <= 498649.30092072702
 c4947: 120 p_2_1 + 120 p_2_10 + 120 p_2_2 + 120 p_2_5 + 120 p_2_6 + 120 p_2_9 + 100000 z_2_1 + 100000 z_2_10 + 100000 z_2_2 + 100000 z_2_5 + 100000 z_2_6 + 100000 z_2_9 <= 598636.84929802304
 c4948: 120 p_2_10 + 120 p_2_3 + 120 p_2_5 + 120 p_2_6 + 120 p_2_9 + 100000 z_2_10 + 100000 z_2_3 + 100000 z_2_5 + 100000 z_2_6 + 100000 z_2_9 <= 498659.59647819202
 c4949: 120 p_2_1 + 120 p_2_10 + 120 p_2_3 + 120 p_2_5 + 120 p_2_6 + 120 p_2_9 + 100000 z_2_1 + 100000 z_2_10 + 100000 z_2_3 + 100000 z_2_5 + 100000 z_2_6 + 100000 z_2_9 <= 598658.28736149543
 c4950: 120 p_2_10 + 120 p_2_2 + 120 p_2_3 + 120 p_2_5 + 120 p_2_6 + 120 p_2_9 + 100000 z_2_10 + 100000 z_2_2 + 100000 z_2_3 + 100000 z_2_5 + 100000 z_2_6 + 100000 z_2_9 <= 598629.48462546163
 c4951: 120 p_2_1 + 120 p_2_10 + 120 p_2_2 + 120 p_2_3 + 120 p_2_5 + 120 p_2_6 + 120 p_2_9 + 100000 z_2_1 + 100000 z_2_10 + 100000 z_2_2 + 100000 z_2_3 + 100000 z_2_5 + 100000 z_2_6 + 100000 z_2_9 <= 698617.0330027577
 c4952: 120 p_2_10 + 120 p_2_4 + 120 p_2_5 + 120 p_2_6 + 120 p_2_9 + 100000 z_2_10 + 100000 z_2_4 + 100000 z_2_5 + 100000 z_2_6 + 100000 z_2_9 <= 498640.37988160114
 c4953: 120 p_2_1 + 120 p_2_10 + 120 p_2_4 + 120 p_2_5 + 120 p_2_6 + 120 p_2_9 + 100000 z_2_1 + 100000 z_2_10 + 100000 z_2_4 + 100000 z_2_5 + 100000 z_2_6 + 100000 z_2_9 <= 598617.60761903424
 c4954: 120 p_2_10 + 120 p_2_2 + 120 p_2_4 + 120 p_2_5 + 120 p_2_6 + 120 p_2_9 + 100000 z_2_10 + 100000 z_2_2 + 100000 z_2_4 + 100000 z_2_5 + 100000 z_2_6 + 100000 z_2_9 <= 598596.49979742081
 c4955: 120 p_2_1 + 120 p_2_10 + 120 p_2_2 + 120 p_2_4 + 120 p_2_5 + 120 p_2_6 + 120 p_2_9 + 100000 z_2_1 + 100000 z_2_10 + 100000 z_2_2 + 100000 z_2_4 + 100000 z_2_5 + 100000 z_2_6 + 100000 z_2_9 <= 698596.15949706663
 c4956: 120 p_2_10 + 120 p_2_3 + 120 p_2_4 + 120 p_2_5 + 120 p_2_6 + 120 p_2_9 + 100000 z_2_10 + 100000 z_2_3 + 100000 z_2_4 + 100000 z_2_5 + 100000 z_2_6 + 100000 z_2_9 <= 598640.36982310598
 c4957: 120 p_2_1 + 120 p_2_10 + 120 p_2_3 + 120 p_2_4 + 120 p_2_5 + 120 p_2_6 + 120 p_2_9 + 100000 z_2_1 + 100000 z_2_10 + 100000 z_2_3 + 100000 z_2_4 + 100000 z_2_5 + 100000 z_2_6 + 100000 z_2_9 <= 698617.59756053903
 c4958: 120 p_2_10 + 120 p_2_2 + 120 p_2_3 + 120 p_2_4 + 120 p_2_5 + 120 p_2_6 + 120 p_2_9 + 100000 z_2_10 + 100000 z_2_2 + 100000 z_2_3 + 100000 z_2_4 + 100000 z_2_5 + 100000 z_2_6 + 100000 z_2_9 <= 698585.20847445505
 c4959: 120 p_2_1 + 120 p_2_10 + 120 p_2_2 + 120 p_2_3 + 120 p_2_4 + 120 p_2_5 + 120 p_2_6 + 120 p_2_9 + 100000 z_2_1 + 100000 z_2_10 + 100000 z_2_2 + 100000 z_2_3 + 100000 z_2_4 + 100000 z_2_5 + 100000 z_2_6 + 100000 z_2_9 <= 798576.3432018013
 c4960: 120 p_2_10 + 120 p_2_7 + 120 p_2_9 + 100000 z_2_10 + 100000 z_2_7 + 100000 z_2_9 <= 299682.0021410007
 c4961: 120 p_2_1 + 120 p_2_10 + 120 p_2_7 + 120 p_2_9 + 100000 z_2_1 + 100000 z_2_10 + 100000 z_2_7 + 100000 z_2_9 <= 399680.69302430411
 c4962: 120 p_2_10 + 120 p_2_2 + 120 p_2_7 + 120 p_2_9 + 100000 z_2_10 + 100000 z_2_2 + 100000 z_2_7 + 100000 z_2_9 <= 398941.18046575104
 c4963: 120 p_2_1 + 120 p_2_10 + 120 p_2_2 + 120 p_2_7 + 120 p_2_9 + 100000 z_2_1 + 100000 z_2_10 + 100000 z_2_2 + 100000 z_2_7 + 100000 z_2_9 <= 498939.87134905451
 c4964: 120 p_2_10 + 120 p_2_3 + 120 p_2_7 + 120 p_2_9 + 100000 z_2_10 + 100000 z_2_3 + 100000 z_2_7 + 100000 z_2_9 <= 399625.85161201871
 c4965: 120 p_2_1 + 120 p_2_10 + 120 p_2_3 + 120 p_2_7 + 120 p_2_9 + 100000 z_2_1 + 100000 z_2_10 + 100000 z_2_3 + 100000 z_2_7 + 100000 z_2_9 <= 499624.54249532218
 c4966: 120 p_2_10 + 120 p_2_2 + 120 p_2_3 + 120 p_2_7 + 120 p_2_9 + 100000 z_2_10 + 100000 z_2_2 + 100000 z_2_3 + 100000 z_2_7 + 100000 z_2_9 <= 498910.07943268958
 c4967: 120 p_2_1 + 120 p_2_10 + 120 p_2_2 + 120 p_2_3 + 120 p_2_7 + 120 p_2_9 + 100000 z_2_1 + 100000 z_2_10 + 100000 z_2_2 + 100000 z_2_3 + 100000 z_2_7 + 100000 z_2_9 <= 598897.62780998566
 c4968: 120 p_2_10 + 120 p_2_4 + 120 p_2_7 + 120 p_2_9 + 100000 z_2_10 + 100000 z_2_4 + 100000 z_2_7 + 100000 z_2_9 <= 399662.77548591461
 c4969: 120 p_2_1 + 120 p_2_10 + 120 p_2_4 + 120 p_2_7 + 120 p_2_9 + 100000 z_2_1 + 100000 z_2_10 + 100000 z_2_4 + 100000 z_2_7 + 100000 z_2_9 <= 499640.00322334771
 c4970: 120 p_2_10 + 120 p_2_2 + 120 p_2_4 + 120 p_2_7 + 120 p_2_9 + 100000 z_2_10 + 100000 z_2_2 + 100000 z_2_4 + 100000 z_2_7 + 100000 z_2_9 <= 498921.953810665
 c4971: 120 p_2_1 + 120 p_2_10 + 120 p_2_2 + 120 p_2_4 + 120 p_2_7 + 120 p_2_9 + 100000 z_2_1 + 100000 z_2_10 + 100000 z_2_2 + 100000 z_2_4 + 100000 z_2_7 + 100000 z_2_9 <= 598899.1815480981
 c4972: 120 p_2_10 + 120 p_2_3 + 120 p_2_4 + 120 p_2_7 + 120 p_2_9 + 100000 z_2_10 + 100000 z_2_3 + 100000 z_2_4 + 100000 z_2_7 + 100000 z_2_9 <= 499606.62495693268
 c4973: 120 p_2_1 + 120 p_2_10 + 120 p_2_3 + 120 p_2_4 + 120 p_2_7 + 120 p_2_9 + 100000 z_2_1 + 100000 z_2_10 + 100000 z_2_3 + 100000 z_2_4 + 100000 z_2_7 + 100000 z_2_9 <= 599583.85269436578
 c4974: 120 p_2_10 + 120 p_2_2 + 120 p_2_3 + 120 p_2_4 + 120 p_2_7 + 120 p_2_9 + 100000 z_2_10 + 100000 z_2_2 + 100000 z_2_3 + 100000 z_2_4 + 100000 z_2_7 + 100000 z_2_9 <= 598865.80328168301
 c4975: 120 p_2_1 + 120 p_2_10 + 120 p_2_2 + 120 p_2_3 + 120 p_2_4 + 120 p_2_7 + 120 p_2_9 + 100000 z_2_1 + 100000 z_2_10 + 100000 z_2_2 + 100000 z_2_3 + 100000 z_2_4 + 100000 z_2_7 + 100000 z_2_9 <= 698856.93800902925
 c4976: 120 p_2_10 + 120 p_2_5 + 120 p_2_7 + 120 p_2_9 + 100000 z_2_10 + 100000 z_2_5 + 100000 z_2_7 + 100000 z_2_9 <= 398978.50546733895
 c4977: 120 p_2_1 + 120 p_2_10 + 120 p_2_5 + 120 p_2_7 + 120 p_2_9 + 100000 z_2_1 + 100000 z_2_10 + 100000 z_2_5 + 100000 z_2_7 + 100000 z_2_9 <= 498977.19635064242
 c4978: 120 p_2_10 + 120 p_2_2 + 120 p_2_5 + 120 p_2_7 + 120 p_2_9 + 100000 z_2_10 + 100000 z_2_2 + 100000 z_2_5 + 100000 z_2_7 + 100000 z_2_9 <= 498923.34411868808
 c4979: 120 p_2_1 + 120 p_2_10 + 120 p_2_2 + 120 p_2_5 + 120 p_2_7 + 120 p_2_9 + 100000 z_2_1 + 100000 z_2_10 + 100000 z_2_2 + 100000 z_2_5 + 100000 z_2_7 + 100000 z_2_9 <= 598922.03500199155
 c4980: 120 p_2_10 + 120 p_2_3 + 120 p_2_5 + 120 p_2_7 + 120 p_2_9 + 100000 z_2_10 + 100000 z_2_3 + 100000 z_2_5 + 100000 z_2_7 + 100000 z_2_9 <= 498922.35493835702
 c4981: 120 p_2_1 + 120 p_2_10 + 120 p_2_3 + 120 p_2_5 + 120 p_2_7 + 120 p_2_9 + 100000 z_2_1 + 100000 z_2_10 + 100000 z_2_3 + 100000 z_2_5 + 100000 z_2_7 + 100000 z_2_9 <= 598921.04582166043
 c4982: 120 p_2_10 + 120 p_2_2 + 120 p_2_3 + 120 p_2_5 + 120 p_2_7 + 120 p_2_9 + 100000 z_2_10 + 100000 z_2_2 + 100000 z_2_3 + 100000 z_2_5 + 100000 z_2_7 + 100000 z_2_9 <= 598892.24308562663
 c4983: 120 p_2_1 + 120 p_2_10 + 120 p_2_2 + 120 p_2_3 + 120 p_2_5 + 120 p_2_7 + 120 p_2_9 + 100000 z_2_1 + 100000 z_2_10 + 100000 z_2_2 + 100000 z_2_3 + 100000 z_2_5 + 100000 z_2_7 + 100000 z_2_9 <= 698879.7914629227
 c4984: 120 p_2_10 + 120 p_2_4 + 120 p_2_5 + 120 p_2_7 + 120 p_2_9 + 100000 z_2_10 + 100000 z_2_4 + 100000 z_2_5 + 100000 z_2_7 + 100000 z_2_9 <= 498959.27881225292
 c4985: 120 p_2_1 + 120 p_2_10 + 120 p_2_4 + 120 p_2_5 + 120 p_2_7 + 120 p_2_9 + 100000 z_2_1 + 100000 z_2_10 + 100000 z_2_4 + 100000 z_2_5 + 100000 z_2_7 + 100000 z_2_9 <= 598936.50654968596
 c4986: 120 p_2_10 + 120 p_2_2 + 120 p_2_4 + 120 p_2_5 + 120 p_2_7 + 120 p_2_9 + 100000 z_2_10 + 100000 z_2_2 + 100000 z_2_4 + 100000 z_2_5 + 100000 z_2_7 + 100000 z_2_9 <= 598904.11746360199
 c4987: 120 p_2_1 + 120 p_2_10 + 120 p_2_2 + 120 p_2_4 + 120 p_2_5 + 120 p_2_7 + 120 p_2_9 + 100000 z_2_1 + 100000 z_2_10 + 100000 z_2_2 + 100000 z_2_4 + 100000 z_2_5 + 100000 z_2_7 + 100000 z_2_9 <= 698881.34520103515
 c4988: 120 p_2_10 + 120 p_2_3 + 120 p_2_4 + 120 p_2_5 + 120 p_2_7 + 120 p_2_9 + 100000 z_2_10 + 100000 z_2_3 + 100000 z_2_4 + 100000 z_2_5 + 100000 z_2_7 + 100000 z_2_9 <= 598903.12828327098
 c4989: 120 p_2_1 + 120 p_2_10 + 120 p_2_3 + 120 p_2_4 + 120 p_2_5 + 120 p_2_7 + 120 p_2_9 + 100000 z_2_1 + 100000 z_2_10 + 100000 z_2_3 + 100000 z_2_4 + 100000 z_2_5 + 100000 z_2_7 + 100000 z_2_9 <= 698880.35602070403
 c4990: 120 p_2_10 + 120 p_2_2 + 120 p_2_3 + 120 p_2_4 + 120 p_2_5 + 120 p_2_7 + 120 p_2_9 + 100000 z_2_10 + 100000 z_2_2 + 100000 z_2_3 + 100000 z_2_4 + 100000 z_2_5 + 100000 z_2_7 + 100000 z_2_9 <= 698847.96693462005
 c4991: 120 p_2_1 + 120 p_2_10 + 120 p_2_2 + 120 p_2_3 + 120 p_2_4 + 120 p_2_5 + 120 p_2_7 + 120 p_2_9 + 100000 z_2_1 + 100000 z_2_10 + 100000 z_2_2 + 100000 z_2_3 + 100000 z_2_4 + 100000 z_2_5 + 100000 z_2_7 + 100000 z_2_9 <= 798839.1016619663
 c4992: 120 p_2_10 + 120 p_2_6 + 120 p_2_7 + 120 p_2_9 + 100000 z_2_10 + 100000 z_2_6 + 100000 z_2_7 + 100000 z_2_9 <= 399362.48780677415
 c4993: 120 p_2_1 + 120 p_2_10 + 120 p_2_6 + 120 p_2_7 + 120 p_2_9 + 100000 z_2_1 + 100000 z_2_10 + 100000 z_2_6 + 100000 z_2_7 + 100000 z_2_9 <= 499361.17869007756
 c4994: 120 p_2_10 + 120 p_2_2 + 120 p_2_6 + 120 p_2_7 + 120 p_2_9 + 100000 z_2_10 + 100000 z_2_2 + 100000 z_2_6 + 100000 z_2_7 + 100000 z_2_9 <= 498666.5218642152
 c4995: 120 p_2_1 + 120 p_2_10 + 120 p_2_2 + 120 p_2_6 + 120 p_2_7 + 120 p_2_9 + 100000 z_2_1 + 100000 z_2_10 + 100000 z_2_2 + 100000 z_2_6 + 100000 z_2_7 + 100000 z_2_9 <= 598654.07024151122
 c4996: 120 p_2_10 + 120 p_2_3 + 120 p_2_6 + 120 p_2_7 + 120 p_2_9 + 100000 z_2_10 + 100000 z_2_3 + 100000 z_2_6 + 100000 z_2_7 + 100000 z_2_9 <= 499362.47774827894
 c4997: 120 p_2_1 + 120 p_2_10 + 120 p_2_3 + 120 p_2_6 + 120 p_2_7 + 120 p_2_9 + 100000 z_2_1 + 100000 z_2_10 + 100000 z_2_3 + 100000 z_2_6 + 100000 z_2_7 + 100000 z_2_9 <= 599361.1686315824
 c4998: 120 p_2_10 + 120 p_2_2 + 120 p_2_3 + 120 p_2_6 + 120 p_2_7 + 120 p_2_9 + 100000 z_2_10 + 100000 z_2_2 + 100000 z_2_3 + 100000 z_2_6 + 100000 z_2_7 + 100000 z_2_9 <= 598646.70556894981
 c4999: 120 p_2_1 + 120 p_2_10 + 120 p_2_2 + 120 p_2_3 + 120 p_2_6 + 120 p_2_7 + 120 p_2_9 + 100000 z_2_1 + 100000 z_2_10 + 100000 z_2_2 + 100000 z_2_3 + 100000 z_2_6 + 100000 z_2_7 + 100000 z_2_9 <= 698634.25394624588
 c5000: 120 p_2_10 + 120 p_2_4 + 120 p_2_6 + 120 p_2_7 + 120 p_2_9 + 100000 z_2_10 + 100000 z_2_4 + 100000 z_2_6 + 100000 z_2_7 + 100000 z_2_9 <= 499343.26115168806
 c5001: 120 p_2_1 + 120 p_2_10 + 120 p_2_4 + 120 p_2_6 + 120 p_2_7 + 120 p_2_9 + 100000 z_2_1 + 100000 z_2_10 + 100000 z_2_4 + 100000 z_2_6 + 100000 z_2_7 + 100000 z_2_9 <= 599320.48888912122
 c5002: 120 p_2_10 + 120 p_2_2 + 120 p_2_4 + 120 p_2_6 + 120 p_2_7 + 120 p_2_9 + 100000 z_2_10 + 100000 z_2_2 + 100000 z_2_4 + 100000 z_2_6 + 100000 z_2_7 + 100000 z_2_9 <= 598613.72074090899
 c5003: 120 p_2_1 + 120 p_2_10 + 120 p_2_2 + 120 p_2_4 + 120 p_2_6 + 120 p_2_7 + 120 p_2_9 + 100000 z_2_1 + 100000 z_2_10 + 100000 z_2_2 + 100000 z_2_4 + 100000 z_2_6 + 100000 z_2_7 + 100000 z_2_9 <= 698613.38044055481
 c5004: 120 p_2_10 + 120 p_2_3 + 120 p_2_4 + 120 p_2_6 + 120 p_2_7 + 120 p_2_9 + 100000 z_2_10 + 100000 z_2_3 + 100000 z_2_4 + 100000 z_2_6 + 100000 z_2_7 + 100000 z_2_9 <= 599343.25109319284
 c5005: 120 p_2_1 + 120 p_2_10 + 120 p_2_3 + 120 p_2_4 + 120 p_2_6 + 120 p_2_7 + 120 p_2_9 + 100000 z_2_1 + 100000 z_2_10 + 100000 z_2_3 + 100000 z_2_4 + 100000 z_2_6 + 100000 z_2_7 + 100000 z_2_9 <= 699320.478830626
 c5006: 120 p_2_10 + 120 p_2_2 + 120 p_2_3 + 120 p_2_4 + 120 p_2_6 + 120 p_2_7 + 120 p_2_9 + 100000 z_2_10 + 100000 z_2_2 + 100000 z_2_3 + 100000 z_2_4 + 100000 z_2_6 + 100000 z_2_7 + 100000 z_2_9 <= 698602.42941794323
 c5007: 120 p_2_1 + 120 p_2_10 + 120 p_2_2 + 120 p_2_3 + 120 p_2_4 + 120 p_2_6 + 120 p_2_7 + 120 p_2_9 + 100000 z_2_1 + 100000 z_2_10 + 100000 z_2_2 + 100000 z_2_3 + 100000 z_2_4 + 100000 z_2_6 + 100000 z_2_7 + 100000 z_2_9 <= 798593.56414528948
 c5008: 120 p_2_10 + 120 p_2_5 + 120 p_2_6 + 120 p_2_7 + 120 p_2_9 + 100000 z_2_10 + 100000 z_2_5 + 100000 z_2_6 + 100000 z_2_7 + 100000 z_2_9 <= 498667.47421624372
 c5009: 120 p_2_1 + 120 p_2_10 + 120 p_2_5 + 120 p_2_6 + 120 p_2_7 + 120 p_2_9 + 100000 z_2_1 + 100000 z_2_10 + 100000 z_2_5 + 100000 z_2_6 + 100000 z_2_7 + 100000 z_2_9 <= 598657.68201641587
 c5010: 120 p_2_10 + 120 p_2_2 + 120 p_2_5 + 120 p_2_6 + 120 p_2_7 + 120 p_2_9 + 100000 z_2_10 + 100000 z_2_2 + 100000 z_2_5 + 100000 z_2_6 + 100000 z_2_7 + 100000 z_2_9 <= 598648.68551715219
 c5011: 120 p_2_1 + 120 p_2_10 + 120 p_2_2 + 120 p_2_5 + 120 p_2_6 + 120 p_2_7 + 120 p_2_9 + 100000 z_2_1 + 100000 z_2_10 + 100000 z_2_2 + 100000 z_2_5 + 100000 z_2_6 + 100000 z_2_7 + 100000 z_2_9 <= 698636.23389444826
 c5012: 120 p_2_10 + 120 p_2_3 + 120 p_2_5 + 120 p_2_6 + 120 p_2_7 + 120 p_2_9 + 100000 z_2_10 + 100000 z_2_3 + 100000 z_2_5 + 100000 z_2_6 + 100000 z_2_7 + 100000 z_2_9 <= 598658.98107461724
 c5013: 120 p_2_1 + 120 p_2_10 + 120 p_2_3 + 120 p_2_5 + 120 p_2_6 + 120 p_2_7 + 120 p_2_9 + 100000 z_2_1 + 100000 z_2_10 + 100000 z_2_3 + 100000 z_2_5 + 100000 z_2_6 + 100000 z_2_7 + 100000 z_2_9 <= 698657.67195792065
 c5014: 120 p_2_10 + 120 p_2_2 + 120 p_2_3 + 120 p_2_5 + 120 p_2_6 + 120 p_2_7 + 120 p_2_9 + 100000 z_2_10 + 100000 z_2_2 + 100000 z_2_3 + 100000 z_2_5 + 100000 z_2_6 + 100000 z_2_7 + 100000 z_2_9 <= 698628.86922188685
 c5015: 120 p_2_1 + 120 p_2_10 + 120 p_2_2 + 120 p_2_3 + 120 p_2_5 + 120 p_2_6 + 120 p_2_7 + 120 p_2_9 + 100000 z_2_1 + 100000 z_2_10 + 100000 z_2_2 + 100000 z_2_3 + 100000 z_2_5 + 100000 z_2_6 + 100000 z_2_7 + 100000 z_2_9 <= 798616.41759918293
 c5016: 120 p_2_10 + 120 p_2_4 + 120 p_2_5 + 120 p_2_6 + 120 p_2_7 + 120 p_2_9 + 100000 z_2_10 + 100000 z_2_4 + 100000 z_2_5 + 100000 z_2_6 + 100000 z_2_7 + 100000 z_2_9 <= 598639.76447802642
 c5017: 120 p_2_1 + 120 p_2_10 + 120 p_2_4 + 120 p_2_5 + 120 p_2_6 + 120 p_2_7 + 120 p_2_9 + 100000 z_2_1 + 100000 z_2_10 + 100000 z_2_4 + 100000 z_2_5 + 100000 z_2_6 + 100000 z_2_7 + 100000 z_2_9 <= 698616.99221545947
 c5018: 120 p_2_10 + 120 p_2_2 + 120 p_2_4 + 120 p_2_5 + 120 p_2_6 + 120 p_2_7 + 120 p_2_9 + 100000 z_2_10 + 100000 z_2_2 + 100000 z_2_4 + 100000 z_2_5 + 100000 z_2_6 + 100000 z_2_7 + 100000 z_2_9 <= 698595.88439384603
 c5019: 120 p_2_1 + 120 p_2_10 + 120 p_2_2 + 120 p_2_4 + 120 p_2_5 + 120 p_2_6 + 120 p_2_7 + 120 p_2_9 + 100000 z_2_1 + 100000 z_2_10 + 100000 z_2_2 + 100000 z_2_4 + 100000 z_2_5 + 100000 z_2_6 + 100000 z_2_7 + 100000 z_2_9 <= 798595.54409349186
 c5020: 120 p_2_10 + 120 p_2_3 + 120 p_2_4 + 120 p_2_5 + 120 p_2_6 + 120 p_2_7 + 120 p_2_9 + 100000 z_2_10 + 100000 z_2_3 + 100000 z_2_4 + 100000 z_2_5 + 100000 z_2_6 + 100000 z_2_7 + 100000 z_2_9 <= 698639.75441953121
 c5021: 120 p_2_1 + 120 p_2_10 + 120 p_2_3 + 120 p_2_4 + 120 p_2_5 + 120 p_2_6 + 120 p_2_7 + 120 p_2_9 + 100000 z_2_1 + 100000 z_2_10 + 100000 z_2_3 + 100000 z_2_4 + 100000 z_2_5 + 100000 z_2_6 + 100000 z_2_7 + 100000 z_2_9 <= 798616.98215696425
 c5022: 120 p_2_10 + 120 p_2_2 + 120 p_2_3 + 120 p_2_4 + 120 p_2_5 + 120 p_2_6 + 120 p_2_7 + 120 p_2_9 + 100000 z_2_10 + 100000 z_2_2 + 100000 z_2_3 + 100000 z_2_4 + 100000 z_2_5 + 100000 z_2_6 + 100000 z_2_7 + 100000 z_2_9 <= 798584.59307088028
 c5023: 120 p_2_1 + 120 p_2_10 + 120 p_2_2 + 120 p_2_3 + 120 p_2_4 + 120 p_2_5 + 120 p_2_6 + 120 p_2_7 + 120 p_2_9 + 100000 z_2_1 + 100000 z_2_10 + 100000 z_2_2 + 100000 z_2_3 + 100000 z_2_4 + 100000 z_2_5 + 100000 z_2_6 + 100000 z_2_7 + 100000 z_2_9 <= 898575.72779822652
 c5024: 120 p_2_10 + 120 p_2_8 + 120 p_2_9 + 100000 z_2_10 + 100000 z_2_8 + 100000 z_2_9 <= 298803.23780855373
 c5025: 120 p_2_1 + 120 p_2_10 + 120 p_2_8 + 120 p_2_9 + 100000 z_2_1 + 100000 z_2_10 + 100000 z_2_8 + 100000 z_2_9 <= 398801.9286918572
 c5026: 120 p_2_10 + 120 p_2_2 + 120 p_2_8 + 120 p_2_9 + 100000 z_2_10 + 100000 z_2_2 + 100000 z_2_8 + 100000 z_2_9 <= 398774.00026548438
 c5027: 120 p_2_1 + 120 p_2_10 + 120 p_2_2 + 120 p_2_8 + 120 p_2_9 + 100000 z_2_1 + 100000 z_2_10 + 100000 z_2_2 + 100000 z_2_8 + 100000 z_2_9 <= 498772.69114878785
 c5028: 120 p_2_10 + 120 p_2_3 + 120 p_2_8 + 120 p_2_9 + 100000 z_2_10 + 100000 z_2_3 + 100000 z_2_8 + 100000 z_2_9 <= 398747.0872795718
 c5029: 120 p_2_1 + 120 p_2_10 + 120 p_2_3 + 120 p_2_8 + 120 p_2_9 + 100000 z_2_1 + 100000 z_2_10 + 100000 z_2_3 + 100000 z_2_8 + 100000 z_2_9 <= 498745.77816287527
 c5030: 120 p_2_10 + 120 p_2_2 + 120 p_2_3 + 120 p_2_8 + 120 p_2_9 + 100000 z_2_10 + 100000 z_2_2 + 100000 z_2_3 + 100000 z_2_8 + 100000 z_2_9 <= 498742.89923242293
 c5031: 120 p_2_1 + 120 p_2_10 + 120 p_2_2 + 120 p_2_3 + 120 p_2_8 + 120 p_2_9 + 100000 z_2_1 + 100000 z_2_10 + 100000 z_2_2 + 100000 z_2_3 + 100000 z_2_8 + 100000 z_2_9 <= 598730.44760971901
 c5032: 120 p_2_10 + 120 p_2_4 + 120 p_2_8 + 120 p_2_9 + 100000 z_2_10 + 100000 z_2_4 + 100000 z_2_8 + 100000 z_2_9 <= 398784.0111534677
 c5033: 120 p_2_1 + 120 p_2_10 + 120 p_2_4 + 120 p_2_8 + 120 p_2_9 + 100000 z_2_1 + 100000 z_2_10 + 100000 z_2_4 + 100000 z_2_8 + 100000 z_2_9 <= 498761.2388909008
 c5034: 120 p_2_10 + 120 p_2_2 + 120 p_2_4 + 120 p_2_8 + 120 p_2_9 + 100000 z_2_10 + 100000 z_2_2 + 100000 z_2_4 + 100000 z_2_8 + 100000 z_2_9 <= 498754.77361039835
 c5035: 120 p_2_1 + 120 p_2_10 + 120 p_2_2 + 120 p_2_4 + 120 p_2_8 + 120 p_2_9 + 100000 z_2_1 + 100000 z_2_10 + 100000 z_2_2 + 100000 z_2_4 + 100000 z_2_8 + 100000 z_2_9 <= 598732.00134783145
 c5036: 120 p_2_10 + 120 p_2_3 + 120 p_2_4 + 120 p_2_8 + 120 p_2_9 + 100000 z_2_10 + 100000 z_2_3 + 100000 z_2_4 + 100000 z_2_8 + 100000 z_2_9 <= 498727.86062448577
 c5037: 120 p_2_1 + 120 p_2_10 + 120 p_2_3 + 120 p_2_4 + 120 p_2_8 + 120 p_2_9 + 100000 z_2_1 + 100000 z_2_10 + 100000 z_2_3 + 100000 z_2_4 + 100000 z_2_8 + 100000 z_2_9 <= 598705.08836191881
 c5038: 120 p_2_10 + 120 p_2_2 + 120 p_2_3 + 120 p_2_4 + 120 p_2_8 + 120 p_2_9 + 100000 z_2_10 + 100000 z_2_2 + 100000 z_2_3 + 100000 z_2_4 + 100000 z_2_8 + 100000 z_2_9 <= 598698.62308141636
 c5039: 120 p_2_1 + 120 p_2_10 + 120 p_2_2 + 120 p_2_3 + 120 p_2_4 + 120 p_2_8 + 120 p_2_9 + 100000 z_2_1 + 100000 z_2_10 + 100000 z_2_2 + 100000 z_2_3 + 100000 z_2_4 + 100000 z_2_8 + 100000 z_2_9 <= 698689.7578087626
 c5040: 120 p_2_10 + 120 p_2_5 + 120 p_2_8 + 120 p_2_9 + 100000 z_2_10 + 100000 z_2_5 + 100000 z_2_8 + 100000 z_2_9 <= 398800.44216474151
 c5041: 120 p_2_1 + 120 p_2_10 + 120 p_2_5 + 120 p_2_8 + 120 p_2_9 + 100000 z_2_1 + 100000 z_2_10 + 100000 z_2_5 + 100000 z_2_8 + 100000 z_2_9 <= 498799.13304804498
 c5042: 120 p_2_10 + 120 p_2_2 + 120 p_2_5 + 120 p_2_8 + 120 p_2_9 + 100000 z_2_10 + 100000 z_2_2 + 100000 z_2_5 + 100000 z_2_8 + 100000 z_2_9 <= 498745.28081609064
 c5043: 120 p_2_1 + 120 p_2_10 + 120 p_2_2 + 120 p_2_5 + 120 p_2_8 + 120 p_2_9 + 100000 z_2_1 + 100000 z_2_10 + 100000 z_2_2 + 100000 z_2_5 + 100000 z_2_8 + 100000 z_2_9 <= 598743.97169939405
 c5044: 120 p_2_10 + 120 p_2_3 + 120 p_2_5 + 120 p_2_8 + 120 p_2_9 + 100000 z_2_10 + 100000 z_2_3 + 100000 z_2_5 + 100000 z_2_8 + 100000 z_2_9 <= 498744.29163575958
 c5045: 120 p_2_1 + 120 p_2_10 + 120 p_2_3 + 120 p_2_5 + 120 p_2_8 + 120 p_2_9 + 100000 z_2_1 + 100000 z_2_10 + 100000 z_2_3 + 100000 z_2_5 + 100000 z_2_8 + 100000 z_2_9 <= 598742.98251906305
 c5046: 120 p_2_10 + 120 p_2_2 + 120 p_2_3 + 120 p_2_5 + 120 p_2_8 + 120 p_2_9 + 100000 z_2_10 + 100000 z_2_2 + 100000 z_2_3 + 100000 z_2_5 + 100000 z_2_8 + 100000 z_2_9 <= 598714.17978302913
 c5047: 120 p_2_1 + 120 p_2_10 + 120 p_2_2 + 120 p_2_3 + 120 p_2_5 + 120 p_2_8 + 120 p_2_9 + 100000 z_2_1 + 100000 z_2_10 + 100000 z_2_2 + 100000 z_2_3 + 100000 z_2_5 + 100000 z_2_8 + 100000 z_2_9 <= 698701.7281603252
 c5048: 120 p_2_10 + 120 p_2_4 + 120 p_2_5 + 120 p_2_8 + 120 p_2_9 + 100000 z_2_10 + 100000 z_2_4 + 100000 z_2_5 + 100000 z_2_8 + 100000 z_2_9 <= 498781.21550965548
 c5049: 120 p_2_1 + 120 p_2_10 + 120 p_2_4 + 120 p_2_5 + 120 p_2_8 + 120 p_2_9 + 100000 z_2_1 + 100000 z_2_10 + 100000 z_2_4 + 100000 z_2_5 + 100000 z_2_8 + 100000 z_2_9 <= 598758.44324708858
 c5050: 120 p_2_10 + 120 p_2_2 + 120 p_2_4 + 120 p_2_5 + 120 p_2_8 + 120 p_2_9 + 100000 z_2_10 + 100000 z_2_2 + 100000 z_2_4 + 100000 z_2_5 + 100000 z_2_8 + 100000 z_2_9 <= 598726.05416100461
 c5051: 120 p_2_1 + 120 p_2_10 + 120 p_2_2 + 120 p_2_4 + 120 p_2_5 + 120 p_2_8 + 120 p_2_9 + 100000 z_2_1 + 100000 z_2_10 + 100000 z_2_2 + 100000 z_2_4 + 100000 z_2_5 + 100000 z_2_8 + 100000 z_2_9 <= 698703.28189843765
 c5052: 120 p_2_10 + 120 p_2_3 + 120 p_2_4 + 120 p_2_5 + 120 p_2_8 + 120 p_2_9 + 100000 z_2_10 + 100000 z_2_3 + 100000 z_2_4 + 100000 z_2_5 + 100000 z_2_8 + 100000 z_2_9 <= 598725.06498067349
 c5053: 120 p_2_1 + 120 p_2_10 + 120 p_2_3 + 120 p_2_4 + 120 p_2_5 + 120 p_2_8 + 120 p_2_9 + 100000 z_2_1 + 100000 z_2_10 + 100000 z_2_3 + 100000 z_2_4 + 100000 z_2_5 + 100000 z_2_8 + 100000 z_2_9 <= 698702.29271810665
 c5054: 120 p_2_10 + 120 p_2_2 + 120 p_2_3 + 120 p_2_4 + 120 p_2_5 + 120 p_2_8 + 120 p_2_9 + 100000 z_2_10 + 100000 z_2_2 + 100000 z_2_3 + 100000 z_2_4 + 100000 z_2_5 + 100000 z_2_8 + 100000 z_2_9 <= 698669.90363202267
 c5055: 120 p_2_1 + 120 p_2_10 + 120 p_2_2 + 120 p_2_3 + 120 p_2_4 + 120 p_2_5 + 120 p_2_8 + 120 p_2_9 + 100000 z_2_1 + 100000 z_2_10 + 100000 z_2_2 + 100000 z_2_3 + 100000 z_2_4 + 100000 z_2_5 + 100000 z_2_8 + 100000 z_2_9 <= 798661.0383593688
 c5056: 120 p_2_10 + 120 p_2_6 + 120 p_2_8 + 120 p_2_9 + 100000 z_2_10 + 100000 z_2_6 + 100000 z_2_8 + 100000 z_2_9 <= 398499.37087357609
 c5057: 120 p_2_1 + 120 p_2_10 + 120 p_2_6 + 120 p_2_8 + 120 p_2_9 + 100000 z_2_1 + 100000 z_2_10 + 100000 z_2_6 + 100000 z_2_8 + 100000 z_2_9 <= 498486.91925087216
 c5058: 120 p_2_10 + 120 p_2_2 + 120 p_2_6 + 120 p_2_8 + 120 p_2_9 + 100000 z_2_10 + 100000 z_2_2 + 100000 z_2_6 + 100000 z_2_8 + 100000 z_2_9 <= 498499.34166394855
 c5059: 120 p_2_1 + 120 p_2_10 + 120 p_2_2 + 120 p_2_6 + 120 p_2_8 + 120 p_2_9 + 100000 z_2_1 + 100000 z_2_10 + 100000 z_2_2 + 100000 z_2_6 + 100000 z_2_8 + 100000 z_2_9 <= 598486.89004124457
 c5060: 120 p_2_10 + 120 p_2_3 + 120 p_2_6 + 120 p_2_8 + 120 p_2_9 + 100000 z_2_10 + 100000 z_2_3 + 100000 z_2_6 + 100000 z_2_8 + 100000 z_2_9 <= 498483.71341583203
 c5061: 120 p_2_1 + 120 p_2_10 + 120 p_2_3 + 120 p_2_6 + 120 p_2_8 + 120 p_2_9 + 100000 z_2_1 + 100000 z_2_10 + 100000 z_2_3 + 100000 z_2_6 + 100000 z_2_8 + 100000 z_2_9 <= 598482.40429913544
 c5062: 120 p_2_10 + 120 p_2_2 + 120 p_2_3 + 120 p_2_6 + 120 p_2_8 + 120 p_2_9 + 100000 z_2_10 + 100000 z_2_2 + 100000 z_2_3 + 100000 z_2_6 + 100000 z_2_8 + 100000 z_2_9 <= 598479.52536868316
 c5063: 120 p_2_1 + 120 p_2_10 + 120 p_2_2 + 120 p_2_3 + 120 p_2_6 + 120 p_2_8 + 120 p_2_9 + 100000 z_2_1 + 100000 z_2_10 + 100000 z_2_2 + 100000 z_2_3 + 100000 z_2_6 + 100000 z_2_8 + 100000 z_2_9 <= 698467.07374597923
 c5064: 120 p_2_10 + 120 p_2_4 + 120 p_2_6 + 120 p_2_8 + 120 p_2_9 + 100000 z_2_10 + 100000 z_2_4 + 100000 z_2_6 + 100000 z_2_8 + 100000 z_2_9 <= 498464.49681924115
 c5065: 120 p_2_1 + 120 p_2_10 + 120 p_2_4 + 120 p_2_6 + 120 p_2_8 + 120 p_2_9 + 100000 z_2_1 + 100000 z_2_10 + 100000 z_2_4 + 100000 z_2_6 + 100000 z_2_8 + 100000 z_2_9 <= 598446.2294499157
 c5066: 120 p_2_10 + 120 p_2_2 + 120 p_2_4 + 120 p_2_6 + 120 p_2_8 + 120 p_2_9 + 100000 z_2_10 + 100000 z_2_2 + 100000 z_2_4 + 100000 z_2_6 + 100000 z_2_8 + 100000 z_2_9 <= 598446.54054064234
 c5067: 120 p_2_1 + 120 p_2_10 + 120 p_2_2 + 120 p_2_4 + 120 p_2_6 + 120 p_2_8 + 120 p_2_9 + 100000 z_2_1 + 100000 z_2_10 + 100000 z_2_2 + 100000 z_2_4 + 100000 z_2_6 + 100000 z_2_8 + 100000 z_2_9 <= 698446.20024028816
 c5068: 120 p_2_10 + 120 p_2_3 + 120 p_2_4 + 120 p_2_6 + 120 p_2_8 + 120 p_2_9 + 100000 z_2_10 + 100000 z_2_3 + 100000 z_2_4 + 100000 z_2_6 + 100000 z_2_8 + 100000 z_2_9 <= 598464.48676074599
 c5069: 120 p_2_1 + 120 p_2_10 + 120 p_2_3 + 120 p_2_4 + 120 p_2_6 + 120 p_2_8 + 120 p_2_9 + 100000 z_2_1 + 100000 z_2_10 + 100000 z_2_3 + 100000 z_2_4 + 100000 z_2_6 + 100000 z_2_8 + 100000 z_2_9 <= 698441.71449817903
 c5070: 120 p_2_10 + 120 p_2_2 + 120 p_2_3 + 120 p_2_4 + 120 p_2_6 + 120 p_2_8 + 120 p_2_9 + 100000 z_2_10 + 100000 z_2_2 + 100000 z_2_3 + 100000 z_2_4 + 100000 z_2_6 + 100000 z_2_8 + 100000 z_2_9 <= 698435.24921767658
 c5071: 120 p_2_1 + 120 p_2_10 + 120 p_2_2 + 120 p_2_3 + 120 p_2_4 + 120 p_2_6 + 120 p_2_8 + 120 p_2_9 + 100000 z_2_1 + 100000 z_2_10 + 100000 z_2_2 + 100000 z_2_3 + 100000 z_2_4 + 100000 z_2_6 + 100000 z_2_8 + 100000 z_2_9 <= 798426.38394502283
 c5072: 120 p_2_10 + 120 p_2_5 + 120 p_2_6 + 120 p_2_8 + 120 p_2_9 + 100000 z_2_10 + 100000 z_2_5 + 100000 z_2_6 + 100000 z_2_8 + 100000 z_2_9 <= 498489.41091364622
 c5073: 120 p_2_1 + 120 p_2_10 + 120 p_2_5 + 120 p_2_6 + 120 p_2_8 + 120 p_2_9 + 100000 z_2_1 + 100000 z_2_10 + 100000 z_2_5 + 100000 z_2_6 + 100000 z_2_8 + 100000 z_2_9 <= 598479.61871381837
 c5074: 120 p_2_10 + 120 p_2_2 + 120 p_2_5 + 120 p_2_6 + 120 p_2_8 + 120 p_2_9 + 100000 z_2_10 + 100000 z_2_2 + 100000 z_2_5 + 100000 z_2_6 + 100000 z_2_8 + 100000 z_2_9 <= 598470.62221455481
 c5075: 120 p_2_1 + 120 p_2_10 + 120 p_2_2 + 120 p_2_5 + 120 p_2_6 + 120 p_2_8 + 120 p_2_9 + 100000 z_2_1 + 100000 z_2_10 + 100000 z_2_2 + 100000 z_2_5 + 100000 z_2_6 + 100000 z_2_8 + 100000 z_2_9 <= 698458.17059185088
 c5076: 120 p_2_10 + 120 p_2_3 + 120 p_2_5 + 120 p_2_6 + 120 p_2_8 + 120 p_2_9 + 100000 z_2_10 + 100000 z_2_3 + 100000 z_2_5 + 100000 z_2_6 + 100000 z_2_8 + 100000 z_2_9 <= 598480.91777201975
 c5077: 120 p_2_1 + 120 p_2_10 + 120 p_2_3 + 120 p_2_5 + 120 p_2_6 + 120 p_2_8 + 120 p_2_9 + 100000 z_2_1 + 100000 z_2_10 + 100000 z_2_3 + 100000 z_2_5 + 100000 z_2_6 + 100000 z_2_8 + 100000 z_2_9 <= 698479.60865532327
 c5078: 120 p_2_10 + 120 p_2_2 + 120 p_2_3 + 120 p_2_5 + 120 p_2_6 + 120 p_2_8 + 120 p_2_9 + 100000 z_2_10 + 100000 z_2_2 + 100000 z_2_3 + 100000 z_2_5 + 100000 z_2_6 + 100000 z_2_8 + 100000 z_2_9 <= 698450.80591928936
 c5079: 120 p_2_1 + 120 p_2_10 + 120 p_2_2 + 120 p_2_3 + 120 p_2_5 + 120 p_2_6 + 120 p_2_8 + 120 p_2_9 + 100000 z_2_1 + 100000 z_2_10 + 100000 z_2_2 + 100000 z_2_3 + 100000 z_2_5 + 100000 z_2_6 + 100000 z_2_8 + 100000 z_2_9 <= 798438.35429658543
 c5080: 120 p_2_10 + 120 p_2_4 + 120 p_2_5 + 120 p_2_6 + 120 p_2_8 + 120 p_2_9 + 100000 z_2_10 + 100000 z_2_4 + 100000 z_2_5 + 100000 z_2_6 + 100000 z_2_8 + 100000 z_2_9 <= 598461.70117542893
 c5081: 120 p_2_1 + 120 p_2_10 + 120 p_2_4 + 120 p_2_5 + 120 p_2_6 + 120 p_2_8 + 120 p_2_9 + 100000 z_2_1 + 100000 z_2_10 + 100000 z_2_4 + 100000 z_2_5 + 100000 z_2_6 + 100000 z_2_8 + 100000 z_2_9 <= 698438.92891286197
 c5082: 120 p_2_10 + 120 p_2_2 + 120 p_2_4 + 120 p_2_5 + 120 p_2_6 + 120 p_2_8 + 120 p_2_9 + 100000 z_2_10 + 100000 z_2_2 + 100000 z_2_4 + 100000 z_2_5 + 100000 z_2_6 + 100000 z_2_8 + 100000 z_2_9 <= 698417.82109124854
 c5083: 120 p_2_1 + 120 p_2_10 + 120 p_2_2 + 120 p_2_4 + 120 p_2_5 + 120 p_2_6 + 120 p_2_8 + 120 p_2_9 + 100000 z_2_1 + 100000 z_2_10 + 100000 z_2_2 + 100000 z_2_4 + 100000 z_2_5 + 100000 z_2_6 + 100000 z_2_8 + 100000 z_2_9 <= 798417.48079089448
 c5084: 120 p_2_10 + 120 p_2_3 + 120 p_2_4 + 120 p_2_5 + 120 p_2_6 + 120 p_2_8 + 120 p_2_9 + 100000 z_2_10 + 100000 z_2_3 + 100000 z_2_4 + 100000 z_2_5 + 100000 z_2_6 + 100000 z_2_8 + 100000 z_2_9 <= 698461.69111693371
 c5085: 120 p_2_1 + 120 p_2_10 + 120 p_2_3 + 120 p_2_4 + 120 p_2_5 + 120 p_2_6 + 120 p_2_8 + 120 p_2_9 + 100000 z_2_1 + 100000 z_2_10 + 100000 z_2_3 + 100000 z_2_4 + 100000 z_2_5 + 100000 z_2_6 + 100000 z_2_8 + 100000 z_2_9 <= 798438.91885436687
 c5086: 120 p_2_10 + 120 p_2_2 + 120 p_2_3 + 120 p_2_4 + 120 p_2_5 + 120 p_2_6 + 120 p_2_8 + 120 p_2_9 + 100000 z_2_10 + 100000 z_2_2 + 100000 z_2_3 + 100000 z_2_4 + 100000 z_2_5 + 100000 z_2_6 + 100000 z_2_8 + 100000 z_2_9 <= 798406.5297682829
 c5087: 120 p_2_1 + 120 p_2_10 + 120 p_2_2 + 120 p_2_3 + 120 p_2_4 + 120 p_2_5 + 120 p_2_6 + 120 p_2_8 + 120 p_2_9 + 100000 z_2_1 + 100000 z_2_10 + 100000 z_2_2 + 100000 z_2_3 + 100000 z_2_4 + 100000 z_2_5 + 100000 z_2_6 + 100000 z_2_8 + 100000 z_2_9 <= 898397.66449562903
 c5088: 120 p_2_10 + 120 p_2_7 + 120 p_2_8 + 120 p_2_9 + 100000 z_2_10 + 100000 z_2_7 + 100000 z_2_8 + 100000 z_2_9 <= 398799.04605252005
 c5089: 120 p_2_1 + 120 p_2_10 + 120 p_2_7 + 120 p_2_8 + 120 p_2_9 + 100000 z_2_1 + 100000 z_2_10 + 100000 z_2_7 + 100000 z_2_8 + 100000 z_2_9 <= 498797.73693582352
 c5090: 120 p_2_10 + 120 p_2_2 + 120 p_2_7 + 120 p_2_8 + 120 p_2_9 + 100000 z_2_10 + 100000 z_2_2 + 100000 z_2_7 + 100000 z_2_8 + 100000 z_2_9 <= 498769.80850945076
 c5091: 120 p_2_1 + 120 p_2_10 + 120 p_2_2 + 120 p_2_7 + 120 p_2_8 + 120 p_2_9 + 100000 z_2_1 + 100000 z_2_10 + 100000 z_2_2 + 100000 z_2_7 + 100000 z_2_8 + 100000 z_2_9 <= 598768.49939275417
 c5092: 120 p_2_10 + 120 p_2_3 + 120 p_2_7 + 120 p_2_8 + 120 p_2_9 + 100000 z_2_10 + 100000 z_2_3 + 100000 z_2_7 + 100000 z_2_8 + 100000 z_2_9 <= 498742.89552353811
 c5093: 120 p_2_1 + 120 p_2_10 + 120 p_2_3 + 120 p_2_7 + 120 p_2_8 + 120 p_2_9 + 100000 z_2_1 + 100000 z_2_10 + 100000 z_2_3 + 100000 z_2_7 + 100000 z_2_8 + 100000 z_2_9 <= 598741.58640684152
 c5094: 120 p_2_10 + 120 p_2_2 + 120 p_2_3 + 120 p_2_7 + 120 p_2_8 + 120 p_2_9 + 100000 z_2_10 + 100000 z_2_2 + 100000 z_2_3 + 100000 z_2_7 + 100000 z_2_8 + 100000 z_2_9 <= 598738.70747638925
 c5095: 120 p_2_1 + 120 p_2_10 + 120 p_2_2 + 120 p_2_3 + 120 p_2_7 + 120 p_2_8 + 120 p_2_9 + 100000 z_2_1 + 100000 z_2_10 + 100000 z_2_2 + 100000 z_2_3 + 100000 z_2_7 + 100000 z_2_8 + 100000 z_2_9 <= 698726.25585368532
 c5096: 120 p_2_10 + 120 p_2_4 + 120 p_2_7 + 120 p_2_8 + 120 p_2_9 + 100000 z_2_10 + 100000 z_2_4 + 100000 z_2_7 + 100000 z_2_8 + 100000 z_2_9 <= 498779.81939743401
 c5097: 120 p_2_1 + 120 p_2_10 + 120 p_2_4 + 120 p_2_7 + 120 p_2_8 + 120 p_2_9 + 100000 z_2_1 + 100000 z_2_10 + 100000 z_2_4 + 100000 z_2_7 + 100000 z_2_8 + 100000 z_2_9 <= 598757.04713486705
 c5098: 120 p_2_10 + 120 p_2_2 + 120 p_2_4 + 120 p_2_7 + 120 p_2_8 + 120 p_2_9 + 100000 z_2_10 + 100000 z_2_2 + 100000 z_2_4 + 100000 z_2_7 + 100000 z_2_8 + 100000 z_2_9 <= 598750.58185436472
 c5099: 120 p_2_1 + 120 p_2_10 + 120 p_2_2 + 120 p_2_4 + 120 p_2_7 + 120 p_2_8 + 120 p_2_9 + 100000 z_2_1 + 100000 z_2_10 + 100000 z_2_2 + 100000 z_2_4 + 100000 z_2_7 + 100000 z_2_8 + 100000 z_2_9 <= 698727.80959179776
 c5100: 120 p_2_10 + 120 p_2_3 + 120 p_2_4 + 120 p_2_7 + 120 p_2_8 + 120 p_2_9 + 100000 z_2_10 + 100000 z_2_3 + 100000 z_2_4 + 100000 z_2_7 + 100000 z_2_8 + 100000 z_2_9 <= 598723.66886845208
 c5101: 120 p_2_1 + 120 p_2_10 + 120 p_2_3 + 120 p_2_4 + 120 p_2_7 + 120 p_2_8 + 120 p_2_9 + 100000 z_2_1 + 100000 z_2_10 + 100000 z_2_3 + 100000 z_2_4 + 100000 z_2_7 + 100000 z_2_8 + 100000 z_2_9 <= 698700.89660588512
 c5102: 120 p_2_10 + 120 p_2_2 + 120 p_2_3 + 120 p_2_4 + 120 p_2_7 + 120 p_2_8 + 120 p_2_9 + 100000 z_2_10 + 100000 z_2_2 + 100000 z_2_3 + 100000 z_2_4 + 100000 z_2_7 + 100000 z_2_8 + 100000 z_2_9 <= 698694.43132538267
 c5103: 120 p_2_1 + 120 p_2_10 + 120 p_2_2 + 120 p_2_3 + 120 p_2_4 + 120 p_2_7 + 120 p_2_8 + 120 p_2_9 + 100000 z_2_1 + 100000 z_2_10 + 100000 z_2_2 + 100000 z_2_3 + 100000 z_2_4 + 100000 z_2_7 + 100000 z_2_8 + 100000 z_2_9 <= 798685.56605272891
 c5104: 120 p_2_10 + 120 p_2_5 + 120 p_2_7 + 120 p_2_8 + 120 p_2_9 + 100000 z_2_10 + 100000 z_2_5 + 100000 z_2_7 + 100000 z_2_8 + 100000 z_2_9 <= 498796.25040870783
 c5105: 120 p_2_1 + 120 p_2_10 + 120 p_2_5 + 120 p_2_7 + 120 p_2_8 + 120 p_2_9 + 100000 z_2_1 + 100000 z_2_10 + 100000 z_2_5 + 100000 z_2_7 + 100000 z_2_8 + 100000 z_2_9 <= 598794.9412920113
 c5106: 120 p_2_10 + 120 p_2_2 + 120 p_2_5 + 120 p_2_7 + 120 p_2_8 + 120 p_2_9 + 100000 z_2_10 + 100000 z_2_2 + 100000 z_2_5 + 100000 z_2_7 + 100000 z_2_8 + 100000 z_2_9 <= 598741.08906005695
 c5107: 120 p_2_1 + 120 p_2_10 + 120 p_2_2 + 120 p_2_5 + 120 p_2_7 + 120 p_2_8 + 120 p_2_9 + 100000 z_2_1 + 100000 z_2_10 + 100000 z_2_2 + 100000 z_2_5 + 100000 z_2_7 + 100000 z_2_8 + 100000 z_2_9 <= 698739.77994336036
 c5108: 120 p_2_10 + 120 p_2_3 + 120 p_2_5 + 120 p_2_7 + 120 p_2_8 + 120 p_2_9 + 100000 z_2_10 + 100000 z_2_3 + 100000 z_2_5 + 100000 z_2_7 + 100000 z_2_8 + 100000 z_2_9 <= 598740.09987972595
 c5109: 120 p_2_1 + 120 p_2_10 + 120 p_2_3 + 120 p_2_5 + 120 p_2_7 + 120 p_2_8 + 120 p_2_9 + 100000 z_2_1 + 100000 z_2_10 + 100000 z_2_3 + 100000 z_2_5 + 100000 z_2_7 + 100000 z_2_8 + 100000 z_2_9 <= 698738.79076302936
 c5110: 120 p_2_10 + 120 p_2_2 + 120 p_2_3 + 120 p_2_5 + 120 p_2_7 + 120 p_2_8 + 120 p_2_9 + 100000 z_2_10 + 100000 z_2_2 + 100000 z_2_3 + 100000 z_2_5 + 100000 z_2_7 + 100000 z_2_8 + 100000 z_2_9 <= 698709.98802699544
 c5111: 120 p_2_1 + 120 p_2_10 + 120 p_2_2 + 120 p_2_3 + 120 p_2_5 + 120 p_2_7 + 120 p_2_8 + 120 p_2_9 + 100000 z_2_1 + 100000 z_2_10 + 100000 z_2_2 + 100000 z_2_3 + 100000 z_2_5 + 100000 z_2_7 + 100000 z_2_8 + 100000 z_2_9 <= 798697.53640429152
 c5112: 120 p_2_10 + 120 p_2_4 + 120 p_2_5 + 120 p_2_7 + 120 p_2_8 + 120 p_2_9 + 100000 z_2_10 + 100000 z_2_4 + 100000 z_2_5 + 100000 z_2_7 + 100000 z_2_8 + 100000 z_2_9 <= 598777.02375362173
 c5113: 120 p_2_1 + 120 p_2_10 + 120 p_2_4 + 120 p_2_5 + 120 p_2_7 + 120 p_2_8 + 120 p_2_9 + 100000 z_2_1 + 100000 z_2_10 + 100000 z_2_4 + 100000 z_2_5 + 100000 z_2_7 + 100000 z_2_8 + 100000 z_2_9 <= 698754.25149105489
 c5114: 120 p_2_10 + 120 p_2_2 + 120 p_2_4 + 120 p_2_5 + 120 p_2_7 + 120 p_2_8 + 120 p_2_9 + 100000 z_2_10 + 100000 z_2_2 + 100000 z_2_4 + 100000 z_2_5 + 100000 z_2_7 + 100000 z_2_8 + 100000 z_2_9 <= 698721.86240497092
 c5115: 120 p_2_1 + 120 p_2_10 + 120 p_2_2 + 120 p_2_4 + 120 p_2_5 + 120 p_2_7 + 120 p_2_8 + 120 p_2_9 + 100000 z_2_1 + 100000 z_2_10 + 100000 z_2_2 + 100000 z_2_4 + 100000 z_2_5 + 100000 z_2_7 + 100000 z_2_8 + 100000 z_2_9 <= 798699.09014240396
 c5116: 120 p_2_10 + 120 p_2_3 + 120 p_2_4 + 120 p_2_5 + 120 p_2_7 + 120 p_2_8 + 120 p_2_9 + 100000 z_2_10 + 100000 z_2_3 + 100000 z_2_4 + 100000 z_2_5 + 100000 z_2_7 + 100000 z_2_8 + 100000 z_2_9 <= 698720.8732246398
 c5117: 120 p_2_1 + 120 p_2_10 + 120 p_2_3 + 120 p_2_4 + 120 p_2_5 + 120 p_2_7 + 120 p_2_8 + 120 p_2_9 + 100000 z_2_1 + 100000 z_2_10 + 100000 z_2_3 + 100000 z_2_4 + 100000 z_2_5 + 100000 z_2_7 + 100000 z_2_8 + 100000 z_2_9 <= 798698.10096207296
 c5118: 120 p_2_10 + 120 p_2_2 + 120 p_2_3 + 120 p_2_4 + 120 p_2_5 + 120 p_2_7 + 120 p_2_8 + 120 p_2_9 + 100000 z_2_10 + 100000 z_2_2 + 100000 z_2_3 + 100000 z_2_4 + 100000 z_2_5 + 100000 z_2_7 + 100000 z_2_8 + 100000 z_2_9 <= 798665.71187598899
 c5119: 120 p_2_1 + 120 p_2_10 + 120 p_2_2 + 120 p_2_3 + 120 p_2_4 + 120 p_2_5 + 120 p_2_7 + 120 p_2_8 + 120 p_2_9 + 100000 z_2_1 + 100000 z_2_10 + 100000 z_2_2 + 100000 z_2_3 + 100000 z_2_4 + 100000 z_2_5 + 100000 z_2_7 + 100000 z_2_8 + 100000 z_2_9 <= 898656.84660333511
 c5120: 120 p_2_10 + 120 p_2_6 + 120 p_2_7 + 120 p_2_8 + 120 p_2_9 + 100000 z_2_10 + 100000 z_2_6 + 100000 z_2_7 + 100000 z_2_8 + 100000 z_2_9 <= 498495.1791175424
 c5121: 120 p_2_1 + 120 p_2_10 + 120 p_2_6 + 120 p_2_7 + 120 p_2_8 + 120 p_2_9 + 100000 z_2_1 + 100000 z_2_10 + 100000 z_2_6 + 100000 z_2_7 + 100000 z_2_8 + 100000 z_2_9 <= 598482.72749483841
 c5122: 120 p_2_10 + 120 p_2_2 + 120 p_2_6 + 120 p_2_7 + 120 p_2_8 + 120 p_2_9 + 100000 z_2_10 + 100000 z_2_2 + 100000 z_2_6 + 100000 z_2_7 + 100000 z_2_8 + 100000 z_2_9 <= 598495.14990791492
 c5123: 120 p_2_1 + 120 p_2_10 + 120 p_2_2 + 120 p_2_6 + 120 p_2_7 + 120 p_2_8 + 120 p_2_9 + 100000 z_2_1 + 100000 z_2_10 + 100000 z_2_2 + 100000 z_2_6 + 100000 z_2_7 + 100000 z_2_8 + 100000 z_2_9 <= 698482.69828521099
 c5124: 120 p_2_10 + 120 p_2_3 + 120 p_2_6 + 120 p_2_7 + 120 p_2_8 + 120 p_2_9 + 100000 z_2_10 + 100000 z_2_3 + 100000 z_2_6 + 100000 z_2_7 + 100000 z_2_8 + 100000 z_2_9 <= 598479.52165979834
 c5125: 120 p_2_1 + 120 p_2_10 + 120 p_2_3 + 120 p_2_6 + 120 p_2_7 + 120 p_2_8 + 120 p_2_9 + 100000 z_2_1 + 100000 z_2_10 + 100000 z_2_3 + 100000 z_2_6 + 100000 z_2_7 + 100000 z_2_8 + 100000 z_2_9 <= 698478.21254310175
 c5126: 120 p_2_10 + 120 p_2_2 + 120 p_2_3 + 120 p_2_6 + 120 p_2_7 + 120 p_2_8 + 120 p_2_9 + 100000 z_2_10 + 100000 z_2_2 + 100000 z_2_3 + 100000 z_2_6 + 100000 z_2_7 + 100000 z_2_8 + 100000 z_2_9 <= 698475.33361264947
 c5127: 120 p_2_1 + 120 p_2_10 + 120 p_2_2 + 120 p_2_3 + 120 p_2_6 + 120 p_2_7 + 120 p_2_8 + 120 p_2_9 + 100000 z_2_1 + 100000 z_2_10 + 100000 z_2_2 + 100000 z_2_3 + 100000 z_2_6 + 100000 z_2_7 + 100000 z_2_8 + 100000 z_2_9 <= 798462.88198994554
 c5128: 120 p_2_10 + 120 p_2_4 + 120 p_2_6 + 120 p_2_7 + 120 p_2_8 + 120 p_2_9 + 100000 z_2_10 + 100000 z_2_4 + 100000 z_2_6 + 100000 z_2_7 + 100000 z_2_8 + 100000 z_2_9 <= 598460.3050632074
 c5129: 120 p_2_1 + 120 p_2_10 + 120 p_2_4 + 120 p_2_6 + 120 p_2_7 + 120 p_2_8 + 120 p_2_9 + 100000 z_2_1 + 100000 z_2_10 + 100000 z_2_4 + 100000 z_2_6 + 100000 z_2_7 + 100000 z_2_8 + 100000 z_2_9 <= 698442.03769388201
 c5130: 120 p_2_10 + 120 p_2_2 + 120 p_2_4 + 120 p_2_6 + 120 p_2_7 + 120 p_2_8 + 120 p_2_9 + 100000 z_2_10 + 100000 z_2_2 + 100000 z_2_4 + 100000 z_2_6 + 100000 z_2_7 + 100000 z_2_8 + 100000 z_2_9 <= 698442.34878460865
 c5131: 120 p_2_1 + 120 p_2_10 + 120 p_2_2 + 120 p_2_4 + 120 p_2_6 + 120 p_2_7 + 120 p_2_8 + 120 p_2_9 + 100000 z_2_1 + 100000 z_2_10 + 100000 z_2_2 + 100000 z_2_4 + 100000 z_2_6 + 100000 z_2_7 + 100000 z_2_8 + 100000 z_2_9 <= 798442.00848425459
 c5132: 120 p_2_10 + 120 p_2_3 + 120 p_2_4 + 120 p_2_6 + 120 p_2_7 + 120 p_2_8 + 120 p_2_9 + 100000 z_2_10 + 100000 z_2_3 + 100000 z_2_4 + 100000 z_2_6 + 100000 z_2_7 + 100000 z_2_8 + 100000 z_2_9 <= 698460.2950047123
 c5133: 120 p_2_1 + 120 p_2_10 + 120 p_2_3 + 120 p_2_4 + 120 p_2_6 + 120 p_2_7 + 120 p_2_8 + 120 p_2_9 + 100000 z_2_1 + 100000 z_2_10 + 100000 z_2_3 + 100000 z_2_4 + 100000 z_2_6 + 100000 z_2_7 + 100000 z_2_8 + 100000 z_2_9 <= 798437.52274214535
 c5134: 120 p_2_10 + 120 p_2_2 + 120 p_2_3 + 120 p_2_4 + 120 p_2_6 + 120 p_2_7 + 120 p_2_8 + 120 p_2_9 + 100000 z_2_10 + 100000 z_2_2 + 100000 z_2_3 + 100000 z_2_4 + 100000 z_2_6 + 100000 z_2_7 + 100000 z_2_8 + 100000 z_2_9 <= 798431.05746164289
 c5135: 120 p_2_1 + 120 p_2_10 + 120 p_2_2 + 120 p_2_3 + 120 p_2_4 + 120 p_2_6 + 120 p_2_7 + 120 p_2_8 + 120 p_2_9 + 100000 z_2_1 + 100000 z_2_10 + 100000 z_2_2 + 100000 z_2_3 + 100000 z_2_4 + 100000 z_2_6 + 100000 z_2_7 + 100000 z_2_8 + 100000 z_2_9 <= 898422.19218898914
 c5136: 120 p_2_10 + 120 p_2_5 + 120 p_2_6 + 120 p_2_7 + 120 p_2_8 + 120 p_2_9 + 100000 z_2_10 + 100000 z_2_5 + 100000 z_2_6 + 100000 z_2_7 + 100000 z_2_8 + 100000 z_2_9 <= 598485.21915761253
 c5137: 120 p_2_1 + 120 p_2_10 + 120 p_2_5 + 120 p_2_6 + 120 p_2_7 + 120 p_2_8 + 120 p_2_9 + 100000 z_2_1 + 100000 z_2_10 + 100000 z_2_5 + 100000 z_2_6 + 100000 z_2_7 + 100000 z_2_8 + 100000 z_2_9 <= 698475.42695778469
 c5138: 120 p_2_10 + 120 p_2_2 + 120 p_2_5 + 120 p_2_6 + 120 p_2_7 + 120 p_2_8 + 120 p_2_9 + 100000 z_2_10 + 100000 z_2_2 + 100000 z_2_5 + 100000 z_2_6 + 100000 z_2_7 + 100000 z_2_8 + 100000 z_2_9 <= 698466.43045852112
 c5139: 120 p_2_1 + 120 p_2_10 + 120 p_2_2 + 120 p_2_5 + 120 p_2_6 + 120 p_2_7 + 120 p_2_8 + 120 p_2_9 + 100000 z_2_1 + 100000 z_2_10 + 100000 z_2_2 + 100000 z_2_5 + 100000 z_2_6 + 100000 z_2_7 + 100000 z_2_8 + 100000 z_2_9 <= 798453.97883581719
 c5140: 120 p_2_10 + 120 p_2_3 + 120 p_2_5 + 120 p_2_6 + 120 p_2_7 + 120 p_2_8 + 120 p_2_9 + 100000 z_2_10 + 100000 z_2_3 + 100000 z_2_5 + 100000 z_2_6 + 100000 z_2_7 + 100000 z_2_8 + 100000 z_2_9 <= 698476.72601598618
 c5141: 120 p_2_1 + 120 p_2_10 + 120 p_2_3 + 120 p_2_5 + 120 p_2_6 + 120 p_2_7 + 120 p_2_8 + 120 p_2_9 + 100000 z_2_1 + 100000 z_2_10 + 100000 z_2_3 + 100000 z_2_5 + 100000 z_2_6 + 100000 z_2_7 + 100000 z_2_8 + 100000 z_2_9 <= 798475.41689928959
 c5142: 120 p_2_10 + 120 p_2_2 + 120 p_2_3 + 120 p_2_5 + 120 p_2_6 + 120 p_2_7 + 120 p_2_8 + 120 p_2_9 + 100000 z_2_10 + 100000 z_2_2 + 100000 z_2_3 + 100000 z_2_5 + 100000 z_2_6 + 100000 z_2_7 + 100000 z_2_8 + 100000 z_2_9 <= 798446.61416325567
 c5143: 120 p_2_1 + 120 p_2_10 + 120 p_2_2 + 120 p_2_3 + 120 p_2_5 + 120 p_2_6 + 120 p_2_7 + 120 p_2_8 + 120 p_2_9 + 100000 z_2_1 + 100000 z_2_10 + 100000 z_2_2 + 100000 z_2_3 + 100000 z_2_5 + 100000 z_2_6 + 100000 z_2_7 + 100000 z_2_8 + 100000 z_2_9 <= 898434.16254055174
 c5144: 120 p_2_10 + 120 p_2_4 + 120 p_2_5 + 120 p_2_6 + 120 p_2_7 + 120 p_2_8 + 120 p_2_9 + 100000 z_2_10 + 100000 z_2_4 + 100000 z_2_5 + 100000 z_2_6 + 100000 z_2_7 + 100000 z_2_8 + 100000 z_2_9 <= 698457.50941939524
 c5145: 120 p_2_1 + 120 p_2_10 + 120 p_2_4 + 120 p_2_5 + 120 p_2_6 + 120 p_2_7 + 120 p_2_8 + 120 p_2_9 + 100000 z_2_1 + 100000 z_2_10 + 100000 z_2_4 + 100000 z_2_5 + 100000 z_2_6 + 100000 z_2_7 + 100000 z_2_8 + 100000 z_2_9 <= 798434.73715682828
 c5146: 120 p_2_10 + 120 p_2_2 + 120 p_2_4 + 120 p_2_5 + 120 p_2_6 + 120 p_2_7 + 120 p_2_8 + 120 p_2_9 + 100000 z_2_10 + 100000 z_2_2 + 100000 z_2_4 + 100000 z_2_5 + 100000 z_2_6 + 100000 z_2_7 + 100000 z_2_8 + 100000 z_2_9 <= 798413.62933521485
 c5147: 120 p_2_1 + 120 p_2_10 + 120 p_2_2 + 120 p_2_4 + 120 p_2_5 + 120 p_2_6 + 120 p_2_7 + 120 p_2_8 + 120 p_2_9 + 100000 z_2_1 + 100000 z_2_10 + 100000 z_2_2 + 100000 z_2_4 + 100000 z_2_5 + 100000 z_2_6 + 100000 z_2_7 + 100000 z_2_8 + 100000 z_2_9 <= 898413.28903486079
 c5148: 120 p_2_10 + 120 p_2_3 + 120 p_2_4 + 120 p_2_5 + 120 p_2_6 + 120 p_2_7 + 120 p_2_8 + 120 p_2_9 + 100000 z_2_10 + 100000 z_2_3 + 100000 z_2_4 + 100000 z_2_5 + 100000 z_2_6 + 100000 z_2_7 + 100000 z_2_8 + 100000 z_2_9 <= 798457.49936090002
 c5149: 120 p_2_1 + 120 p_2_10 + 120 p_2_3 + 120 p_2_4 + 120 p_2_5 + 120 p_2_6 + 120 p_2_7 + 120 p_2_8 + 120 p_2_9 + 100000 z_2_1 + 100000 z_2_10 + 100000 z_2_3 + 100000 z_2_4 + 100000 z_2_5 + 100000 z_2_6 + 100000 z_2_7 + 100000 z_2_8 + 100000 z_2_9 <= 898434.72709833318
 c5150: 120 p_2_10 + 120 p_2_2 + 120 p_2_3 + 120 p_2_4 + 120 p_2_5 + 120 p_2_6 + 120 p_2_7 + 120 p_2_8 + 120 p_2_9 + 100000 z_2_10 + 100000 z_2_2 + 100000 z_2_3 + 100000 z_2_4 + 100000 z_2_5 + 100000 z_2_6 + 100000 z_2_7 + 100000 z_2_8 + 100000 z_2_9 <= 898402.33801224921
 c5151: 120 p_2_1 + 120 p_2_10 + 120 p_2_2 + 120 p_2_3 + 120 p_2_4 + 120 p_2_5 + 120 p_2_6 + 120 p_2_7 + 120 p_2_8 + 120 p_2_9 + 100000 z_2_1 + 100000 z_2_10 + 100000 z_2_2 + 100000 z_2_3 + 100000 z_2_4 + 100000 z_2_5 + 100000 z_2_6 + 100000 z_2_7 + 100000 z_2_8 + 100000 z_2_9 <= 998393.47273959534
 c5152: 120 p_0_1 + 120 p_0_2 + 8130.3859256598498 z_0_1 + 8130.3859256598498 z_0_2 <= 16650.385925659848
 c5153: z_0_1 + z_0_3 <= 1
 c5154: 120 p_0_1 + 120 p_0_4 + 6245.1587471483308 z_0_1 + 6245.1587471483308 z_0_4 <= 13445.158747148331
 c5155: 120 p_0_1 + 120 p_0_5 + 7498.2466638921833 z_0_1 + 7498.2466638921833 z_0_5 <= 15418.246663892183
 c5156: z_0_1 + z_0_6 <= 1
 c5157: 120 p_0_1 + 120 p_0_7 + 8380.1987108115627 z_0_1 + 8380.1987108115627 z_0_7 <= 17860.198710811565
 c5158: 120 p_0_1 + 120 p_0_8 + 9366.9574634474302 z_0_1 + 9366.9574634474302 z_0_8 <= 18966.95746344743
 c5159: z_0_1 + z_0_9 <= 1
 c5160: 120 p_0_1 + 120 p_0_10 + 6934.0195447073384 z_0_1 + 6934.0195447073384 z_0_10 <= 14734.019544707338
 c5161: 120 p_0_2 + 120 p_0_3 + 7423.3340181055046 z_0_2 + 7423.3340181055046 z_0_3 <= 15223.334018105505
 c5162: 120 p_0_2 + 120 p_0_4 + 5978.0974722146102 z_0_2 + 5978.0974722146102 z_0_4 <= 12098.097472214609
 c5163: 120 p_0_2 + 120 p_0_5 + 5453.6098520163796 z_0_2 + 5453.6098520163796 z_0_5 <= 12293.60985201638
 c5164: z_0_2 + z_0_6 <= 1
 c5165: 120 p_0_2 + 120 p_0_7 + 7757.8756887642803 z_0_2 + 7757.8756887642803 z_0_7 <= 16157.875688764281
 c5166: 120 p_0_2 + 120 p_0_8 + 7332.0516329969378 z_0_2 + 7332.0516329969378 z_0_8 <= 15852.051632996938
 c5167: 120 p_0_2 + 120 p_0_9 + 6568.7048843647681 z_0_2 + 6568.7048843647681 z_0_9 <= 13408.704884364768
 c5168: z_0_10 + z_0_2 <= 1
 c5169: z_0_3 + z_0_4 <= 1
 c5170: 120 p_0_3 + 120 p_0_5 + 6855.5586301060721 z_0_3 + 6855.5586301060721 z_0_5 <= 14055.558630106072
 c5171: 120 p_0_3 + 120 p_0_6 + 8088.9037894790063 z_0_3 + 8088.9037894790063 z_0_6 <= 16968.903789479005
 c5172: 120 p_0_3 + 120 p_0_7 + 8575.163041615735 z_0_3 + 8575.163041615735 z_0_7 <= 17335.163041615735
 c5173: 120 p_0_3 + 120 p_0_8 + 8755.8777818670333 z_0_3 + 8755.8777818670333 z_0_8 <= 17635.877781867035
 c5174: 120 p_0_3 + 120 p_0_9 + 6175.5152615841653 z_0_3 + 6175.5152615841653 z_0_9 <= 13375.515261584165
 c5175: z_0_10 + z_0_3 <= 1
 c5176: 120 p_0_4 + 120 p_0_5 + 5343.8568332534705 z_0_4 + 5343.8568332534705 z_0_5 <= 10863.856833253471
 c5177: z_0_4 + z_0_6 <= 1
 c5178: 120 p_0_4 + 120 p_0_7 + 6206.1946756847674 z_0_4 + 6206.1946756847674 z_0_7 <= 13286.194675684768
 c5179: z_0_4 + z_0_8 <= 1
 c5180: z_0_4 + z_0_9 <= 1
 c5181: 120 p_0_10 + 120 p_0_4 + 4574.3690453095987 z_0_10 + 4574.3690453095987 z_0_4 <= 9974.3690453095987
 c5182: z_0_5 + z_0_6 <= 1
 c5183: 120 p_0_5 + 120 p_0_7 + 7120.5506871763428 z_0_5 + 7120.5506871763428 z_0_7 <= 14920.550687176343
 c5184: 120 p_0_5 + 120 p_0_8 + 6705.6097337398332 z_0_5 + 6705.6097337398332 z_0_8 <= 14625.609733739833
 c5185: 120 p_0_5 + 120 p_0_9 + 5998.1039542344297 z_0_5 + 5998.1039542344297 z_0_9 <= 12238.10395423443
 c5186: 120 p_0_10 + 120 p_0_5 + 5980.7688995841836 z_0_10 + 5980.7688995841836 z_0_5 <= 12100.768899584184
 c5187: z_0_6 + z_0_7 <= 1
 c5188: z_0_6 + z_0_8 <= 1
 c5189: 120 p_0_6 + 120 p_0_9 + 7158.8790668287711 z_0_6 + 7158.8790668287711 z_0_9 <= 15078.879066828771
 c5190: z_0_10 + z_0_6 <= 1
 c5191: 120 p_0_7 + 120 p_0_8 + 8980.0101019952563 z_0_7 + 8980.0101019952563 z_0_8 <= 18460.010101995256
 c5192: 120 p_0_7 + 120 p_0_9 + 7660.18670424843 z_0_7 + 7660.18670424843 z_0_9 <= 15460.18670424843
 c5193: 120 p_0_10 + 120 p_0_7 + 6837.8876294972488 z_0_10 + 6837.8876294972488 z_0_7 <= 14517.887629497249
 c5194: z_0_8 + z_0_9 <= 1
 c5195: z_0_10 + z_0_8 <= 1
 c5196: z_0_10 + z_0_9 <= 1
 c5197: z_0_1 + z_0_2 + z_0_3 <= 2
 c5198: z_0_1 + z_0_2 + z_0_4 <= 2
 c5199: 120 p_0_1 + 120 p_0_2 + 120 p_0_5 + 8873.4080125430664 z_0_1 + 8873.4080125430664 z_0_2 + 8873.4080125430664 z_0_5 <= 26986.816025086133
 c5200: z_0_1 + z_0_2 + z_0_6 <= 2
 c5201: 120 p_0_1 + 120 p_0_2 + 120 p_0_7 + 10441.020386061195 z_0_1 + 10441.020386061195 z_0_2 + 10441.020386061195 z_0_7 <= 31682.040772122389
 c5202: z_0_1 + z_0_2 + z_0_8 <= 2
 c5203: z_0_1 + z_0_2 + z_0_9 <= 2
 c5204: z_0_1 + z_0_10 + z_0_2 <= 2
 c5205: z_0_1 + z_0_3 + z_0_4 <= 2
 c5206: z_0_1 + z_0_3 + z_0_5 <= 2
 c5207: z_0_1 + z_0_3 + z_0_6 <= 2
 c5208: z_0_1 + z_0_3 + z_0_7 <= 2
 c5209: z_0_1 + z_0_3 + z_0_8 <= 2
 c5210: z_0_1 + z_0_3 + z_0_9 <= 2
 c5211: z_0_1 + z_0_10 + z_0_3 <= 2
 c5212: z_0_1 + z_0_4 + z_0_5 <= 2
 c5213: z_0_1 + z_0_4 + z_0_6 <= 2
 c5214: 120 p_0_1 + 120 p_0_4 + 120 p_0_7 + 8606.5349760389108 z_0_1 + 8606.5349760389108 z_0_4 + 8606.5349760389108 z_0_7 <= 26693.069952077822
 c5215: z_0_1 + z_0_4 + z_0_8 <= 2
 c5216: z_0_1 + z_0_4 + z_0_9 <= 2
 c5217: 120 p_0_1 + 120 p_0_10 + 120 p_0_4 + 6974.7093456637431 z_0_1 + 6974.7093456637431 z_0_10 + 6974.7093456637431 z_0_4 <= 21749.418691327486
 c5218: z_0_1 + z_0_5 + z_0_6 <= 2
 c5219: 120 p_0_1 + 120 p_0_5 + 120 p_0_7 + 9803.6953844732579 z_0_1 + 9803.6953844732579 z_0_5 + 9803.6953844732579 z_0_7 <= 29807.39076894652
 c5220: z_0_1 + z_0_5 + z_0_8 <= 2
 c5221: z_0_1 + z_0_5 + z_0_9 <= 2
 c5222: z_0_1 + z_0_10 + z_0_5 <= 2
 c5223: z_0_1 + z_0_6 + z_0_7 <= 2
 c5224: z_0_1 + z_0_6 + z_0_8 <= 2
 c5225: z_0_1 + z_0_6 + z_0_9 <= 2
 c5226: z_0_1 + z_0_10 + z_0_6 <= 2
 c5227: z_0_1 + z_0_7 + z_0_8 <= 2
 c5228: z_0_1 + z_0_7 + z_0_9 <= 2
 c5229: 120 p_0_1 + 120 p_0_10 + 120 p_0_7 + 9250.3392522011818 z_0_1 + 9250.3392522011818 z_0_10 + 9250.3392522011818 z_0_7 <= 28580.678504402364
 c5230: z_0_1 + z_0_8 + z_0_9 <= 2
 c5231: z_0_1 + z_0_10 + z_0_8 <= 2
 c5232: z_0_1 + z_0_10 + z_0_9 <= 2
 c5233: z_0_2 + z_0_3 + z_0_4 <= 2
 c5234: 120 p_0_2 + 120 p_0_3 + 120 p_0_5 + 8197.662215622242 z_0_2 + 8197.662215622242 z_0_3 + 8197.662215622242 z_0_5 <= 24915.32443124448
 c5235: z_0_2 + z_0_3 + z_0_6 <= 2
 c5236: z_0_2 + z_0_3 + z_0_7 <= 2
 c5237: z_0_2 + z_0_3 + z_0_8 <= 2
 c5238: 120 p_0_2 + 120 p_0_3 + 120 p_0_9 + 8270.4929170631967 z_0_2 + 8270.4929170631967 z_0_3 + 8270.4929170631967 z_0_9 <= 25060.985834126393
 c5239: z_0_10 + z_0_2 + z_0_3 <= 2
 c5240: z_0_2 + z_0_4 + z_0_5 <= 2
 c5241: z_0_2 + z_0_4 + z_0_6 <= 2
 c5242: z_0_2 + z_0_4 + z_0_7 <= 2
 c5243: z_0_2 + z_0_4 + z_0_8 <= 2
 c5244: z_0_2 + z_0_4 + z_0_9 <= 2
 c5245: z_0_10 + z_0_2 + z_0_4 <= 2
 c5246: z_0_2 + z_0_5 + z_0_6 <= 2
 c5247: 120 p_0_2 + 120 p_0_5 + 120 p_0_7 + 8495.7120358272259 z_0_2 + 8495.7120358272259 z_0_5 + 8495.7120358272259 z_0_7 <= 26111.424071654452
 c5248: 120 p_0_2 + 120 p_0_5 + 120 p_0_8 + 8054.8472768091715 z_0_2 + 8054.8472768091715 z_0_5 + 8054.8472768091715 z_0_8 <= 25349.694553618345
 c5249: z_0_2 + z_0_5 + z_0_9 <= 2
 c5250: z_0_10 + z_0_2 + z_0_5 <= 2
 c5251: z_0_2 + z_0_6 + z_0_7 <= 2
 c5252: z_0_2 + z_0_6 + z_0_8 <= 2
 c5253: z_0_2 + z_0_6 + z_0_9 <= 2
 c5254: z_0_10 + z_0_2 + z_0_6 <= 2
 c5255: 120 p_0_2 + 120 p_0_7 + 120 p_0_8 + 10329.247645064594 z_0_2 + 10329.247645064594 z_0_7 + 10329.247645064594 z_0_8 <= 31458.495290129187
 c5256: z_0_2 + z_0_7 + z_0_9 <= 2
 c5257: z_0_10 + z_0_2 + z_0_7 <= 2
 c5258: z_0_2 + z_0_8 + z_0_9 <= 2
 c5259: z_0_10 + z_0_2 + z_0_8 <= 2
 c5260: z_0_10 + z_0_2 + z_0_9 <= 2
 c5261: z_0_3 + z_0_4 + z_0_5 <= 2
 c5262: z_0_3 + z_0_4 + z_0_6 <= 2
 c5263: z_0_3 + z_0_4 + z_0_7 <= 2
 c5264: z_0_3 + z_0_4 + z_0_8 <= 2
 c5265: z_0_3 + z_0_4 + z_0_9 <= 2
 c5266: z_0_10 + z_0_3 + z_0_4 <= 2
 c5267: z_0_3 + z_0_5 + z_0_6 <= 2
 c5268: z_0_3 + z_0_5 + z_0_7 <= 2
 c5269: z_0_3 + z_0_5 + z_0_8 <= 2
 c5270: z_0_3 + z_0_5 + z_0_9 <= 2
 c5271: z_0_10 + z_0_3 + z_0_5 <= 2
 c5272: z_0_3 + z_0_6 + z_0_7 <= 2
 c5273: z_0_3 + z_0_6 + z_0_8 <= 2
 c5274: 120 p_0_3 + 120 p_0_6 + 120 p_0_9 + 8838.8891253239417 z_0_3 + 8838.8891253239417 z_0_6 + 8838.8891253239417 z_0_9 <= 27277.778250647883
 c5275: z_0_10 + z_0_3 + z_0_6 <= 2
 c5276: z_0_3 + z_0_7 + z_0_8 <= 2
 c5277: z_0_3 + z_0_7 + z_0_9 <= 2
 c5278: z_0_10 + z_0_3 + z_0_7 <= 2
 c5279: z_0_3 + z_0_8 + z_0_9 <= 2
 c5280: z_0_10 + z_0_3 + z_0_8 <= 2
 c5281: z_0_10 + z_0_3 + z_0_9 <= 2
 c5282: z_0_4 + z_0_5 + z_0_6 <= 2
 c5283: z_0_4 + z_0_5 + z_0_7 <= 2
 c5284: z_0_4 + z_0_5 + z_0_8 <= 2
 c5285: z_0_4 + z_0_5 + z_0_9 <= 2
 c5286: z_0_10 + z_0_4 + z_0_5 <= 2
 c5287: z_0_4 + z_0_6 + z_0_7 <= 2
 c5288: z_0_4 + z_0_6 + z_0_8 <= 2
 c5289: z_0_4 + z_0_6 + z_0_9 <= 2
 c5290: z_0_10 + z_0_4 + z_0_6 <= 2
 c5291: z_0_4 + z_0_7 + z_0_8 <= 2
 c5292: z_0_4 + z_0_7 + z_0_9 <= 2
 c5293: 120 p_0_10 + 120 p_0_4 + 120 p_0_7 + 6890.6887528034422 z_0_10 + 6890.6887528034422 z_0_4 + 6890.6887528034422 z_0_7 <= 21461.377505606884
 c5294: z_0_4 + z_0_8 + z_0_9 <= 2
 c5295: z_0_10 + z_0_4 + z_0_8 <= 2
 c5296: z_0_10 + z_0_4 + z_0_9 <= 2
 c5297: z_0_5 + z_0_6 + z_0_7 <= 2
 c5298: z_0_5 + z_0_6 + z_0_8 <= 2
 c5299: z_0_5 + z_0_6 + z_0_9 <= 2
 c5300: z_0_10 + z_0_5 + z_0_6 <= 2
 c5301: 120 p_0_5 + 120 p_0_7 + 120 p_0_8 + 9702.8057458074891 z_0_5 + 9702.8057458074891 z_0_7 + 9702.8057458074891 z_0_8 <= 29605.611491614975
 c5302: z_0_5 + z_0_7 + z_0_9 <= 2
 c5303: z_0_10 + z_0_5 + z_0_7 <= 2
 c5304: z_0_5 + z_0_8 + z_0_9 <= 2
 c5305: z_0_10 + z_0_5 + z_0_8 <= 2
 c5306: z_0_10 + z_0_5 + z_0_9 <= 2
 c5307: z_0_6 + z_0_7 + z_0_8 <= 2
 c5308: z_0_6 + z_0_7 + z_0_9 <= 2
 c5309: z_0_10 + z_0_6 + z_0_7 <= 2
 c5310: z_0_6 + z_0_8 + z_0_9 <= 2
 c5311: z_0_10 + z_0_6 + z_0_8 <= 2
 c5312: z_0_10 + z_0_6 + z_0_9 <= 2
 c5313: z_0_7 + z_0_8 + z_0_9 <= 2
 c5314: z_0_10 + z_0_7 + z_0_8 <= 2
 c5315: z_0_10 + z_0_7 + z_0_9 <= 2
 c5316: z_0_10 + z_0_8 + z_0_9 <= 2
 c5317: 120 p_1_1 + 120 p_1_2 + 8130.3859256598498 z_1_1 + 8130.3859256598498 z_1_2 <= 16650.385925659848
 c5318: z_1_1 + z_1_3 <= 1
 c5319: 120 p_1_1 + 120 p_1_4 + 6245.1587471483308 z_1_1 + 6245.1587471483308 z_1_4 <= 13445.158747148331
 c5320: 120 p_1_1 + 120 p_1_5 + 7498.2466638921833 z_1_1 + 7498.2466638921833 z_1_5 <= 15418.246663892183
 c5321: z_1_1 + z_1_6 <= 1
 c5322: 120 p_1_1 + 120 p_1_7 + 8380.1987108115627 z_1_1 + 8380.1987108115627 z_1_7 <= 17860.198710811565
 c5323: 120 p_1_1 + 120 p_1_8 + 9366.9574634474302 z_1_1 + 9366.9574634474302 z_1_8 <= 18966.95746344743
 c5324: z_1_1 + z_1_9 <= 1
 c5325: 120 p_1_1 + 120 p_1_10 + 6934.0195447073384 z_1_1 + 6934.0195447073384 z_1_10 <= 14734.019544707338
 c5326: 120 p_1_2 + 120 p_1_3 + 7423.3340181055046 z_1_2 + 7423.3340181055046 z_1_3 <= 15223.334018105505
 c5327: 120 p_1_2 + 120 p_1_4 + 5978.0974722146102 z_1_2 + 5978.0974722146102 z_1_4 <= 12098.097472214609
 c5328: 120 p_1_2 + 120 p_1_5 + 5453.6098520163796 z_1_2 + 5453.6098520163796 z_1_5 <= 12293.60985201638
 c5329: z_1_2 + z_1_6 <= 1
 c5330: 120 p_1_2 + 120 p_1_7 + 7757.8756887642803 z_1_2 + 7757.8756887642803 z_1_7 <= 16157.875688764281
 c5331: 120 p_1_2 + 120 p_1_8 + 7332.0516329969378 z_1_2 + 7332.0516329969378 z_1_8 <= 15852.051632996938
 c5332: 120 p_1_2 + 120 p_1_9 + 6568.7048843647681 z_1_2 + 6568.7048843647681 z_1_9 <= 13408.704884364768
 c5333: z_1_10 + z_1_2 <= 1
 c5334: z_1_3 + z_1_4 <= 1
 c5335: 120 p_1_3 + 120 p_1_5 + 6855.5586301060721 z_1_3 + 6855.5586301060721 z_1_5 <= 14055.558630106072
 c5336: 120 p_1_3 + 120 p_1_6 + 8088.9037894790063 z_1_3 + 8088.9037894790063 z_1_6 <= 16968.903789479005
 c5337: 120 p_1_3 + 120 p_1_7 + 8575.163041615735 z_1_3 + 8575.163041615735 z_1_7 <= 17335.163041615735
 c5338: 120 p_1_3 + 120 p_1_8 + 8755.8777818670333 z_1_3 + 8755.8777818670333 z_1_8 <= 17635.877781867035
 c5339: 120 p_1_3 + 120 p_1_9 + 6175.5152615841653 z_1_3 + 6175.5152615841653 z_1_9 <= 13375.515261584165
 c5340: z_1_10 + z_1_3 <= 1
 c5341: 120 p_1_4 + 120 p_1_5 + 5343.8568332534705 z_1_4 + 5343.8568332534705 z_1_5 <= 10863.856833253471
 c5342: z_1_4 + z_1_6 <= 1
 c5343: 120 p_1_4 + 120 p_1_7 + 6206.1946756847674 z_1_4 + 6206.1946756847674 z_1_7 <= 13286.194675684768
 c5344: z_1_4 + z_1_8 <= 1
 c5345: z_1_4 + z_1_9 <= 1
 c5346: 120 p_1_10 + 120 p_1_4 + 4574.3690453095987 z_1_10 + 4574.3690453095987 z_1_4 <= 9974.3690453095987
 c5347: z_1_5 + z_1_6 <= 1
 c5348: 120 p_1_5 + 120 p_1_7 + 7120.5506871763428 z_1_5 + 7120.5506871763428 z_1_7 <= 14920.550687176343
 c5349: 120 p_1_5 + 120 p_1_8 + 6705.6097337398332 z_1_5 + 6705.6097337398332 z_1_8 <= 14625.609733739833
 c5350: 120 p_1_5 + 120 p_1_9 + 5998.1039542344297 z_1_5 + 5998.1039542344297 z_1_9 <= 12238.10395423443
 c5351: 120 p_1_10 + 120 p_1_5 + 5980.7688995841836 z_1_10 + 5980.7688995841836 z_1_5 <= 12100.768899584184
 c5352: z_1_6 + z_1_7 <= 1
 c5353: z_1_6 + z_1_8 <= 1
 c5354: 120 p_1_6 + 120 p_1_9 + 7158.8790668287711 z_1_6 + 7158.8790668287711 z_1_9 <= 15078.879066828771
 c5355: z_1_10 + z_1_6 <= 1
 c5356: 120 p_1_7 + 120 p_1_8 + 8980.0101019952563 z_1_7 + 8980.0101019952563 z_1_8 <= 18460.010101995256
 c5357: 120 p_1_7 + 120 p_1_9 + 7660.18670424843 z_1_7 + 7660.18670424843 z_1_9 <= 15460.18670424843
 c5358: 120 p_1_10 + 120 p_1_7 + 6837.8876294972488 z_1_10 + 6837.8876294972488 z_1_7 <= 14517.887629497249
 c5359: z_1_8 + z_1_9 <= 1
 c5360: z_1_10 + z_1_8 <= 1
 c5361: z_1_10 + z_1_9 <= 1
 c5362: z_1_1 + z_1_2 + z_1_3 <= 2
 c5363: z_1_1 + z_1_2 + z_1_4 <= 2
 c5364: 120 p_1_1 + 120 p_1_2 + 120 p_1_5 + 8873.4080125430664 z_1_1 + 8873.4080125430664 z_1_2 + 8873.4080125430664 z_1_5 <= 26986.816025086133
 c5365: z_1_1 + z_1_2 + z_1_6 <= 2
 c5366: 120 p_1_1 + 120 p_1_2 + 120 p_1_7 + 10441.020386061195 z_1_1 + 10441.020386061195 z_1_2 + 10441.020386061195 z_1_7 <= 31682.040772122389
 c5367: z_1_1 + z_1_2 + z_1_8 <= 2
 c5368: z_1_1 + z_1_2 + z_1_9 <= 2
 c5369: z_1_1 + z_1_10 + z_1_2 <= 2
 c5370: z_1_1 + z_1_3 + z_1_4 <= 2
 c5371: z_1_1 + z_1_3 + z_1_5 <= 2
 c5372: z_1_1 + z_1_3 + z_1_6 <= 2
 c5373: z_1_1 + z_1_3 + z_1_7 <= 2
 c5374: z_1_1 + z_1_3 + z_1_8 <= 2
 c5375: z_1_1 + z_1_3 + z_1_9 <= 2
 c5376: z_1_1 + z_1_10 + z_1_3 <= 2
 c5377: z_1_1 + z_1_4 + z_1_5 <= 2
 c5378: z_1_1 + z_1_4 + z_1_6 <= 2
 c5379: 120 p_1_1 + 120 p_1_4 + 120 p_1_7 + 8606.5349760389108 z_1_1 + 8606.5349760389108 z_1_4 + 8606.5349760389108 z_1_7 <= 26693.069952077822
 c5380: z_1_1 + z_1_4 + z_1_8 <= 2
 c5381: z_1_1 + z_1_4 + z_1_9 <= 2
 c5382: 120 p_1_1 + 120 p_1_10 + 120 p_1_4 + 6974.7093456637431 z_1_1 + 6974.7093456637431 z_1_10 + 6974.7093456637431 z_1_4 <= 21749.418691327486
 c5383: z_1_1 + z_1_5 + z_1_6 <= 2
 c5384: 120 p_1_1 + 120 p_1_5 + 120 p_1_7 + 9803.6953844732579 z_1_1 + 9803.6953844732579 z_1_5 + 9803.6953844732579 z_1_7 <= 29807.39076894652
 c5385: z_1_1 + z_1_5 + z_1_8 <= 2
 c5386: z_1_1 + z_1_5 + z_1_9 <= 2
 c5387: z_1_1 + z_1_10 + z_1_5 <= 2
 c5388: z_1_1 + z_1_6 + z_1_7 <= 2
 c5389: z_1_1 + z_1_6 + z_1_8 <= 2
 c5390: z_1_1 + z_1_6 + z_1_9 <= 2
 c5391: z_1_1 + z_1_10 + z_1_6 <= 2
 c5392: z_1_1 + z_1_7 + z_1_8 <= 2
 c5393: z_1_1 + z_1_7 + z_1_9 <= 2
 c5394: 120 p_1_1 + 120 p_1_10 + 120 p_1_7 + 9250.3392522011818 z_1_1 + 9250.3392522011818 z_1_10 + 9250.3392522011818 z_1_7 <= 28580.678504402364
 c5395: z_1_1 + z_1_8 + z_1_9 <= 2
 c5396: z_1_1 + z_1_10 + z_1_8 <= 2
 c5397: z_1_1 + z_1_10 + z_1_9 <= 2
 c5398: z_1_2 + z_1_3 + z_1_4 <= 2
 c5399: 120 p_1_2 + 120 p_1_3 + 120 p_1_5 + 8197.662215622242 z_1_2 + 8197.662215622242 z_1_3 + 8197.662215622242 z_1_5 <= 24915.32443124448
 c5400: z_1_2 + z_1_3 + z_1_6 <= 2
 c5401: z_1_2 + z_1_3 + z_1_7 <= 2
 c5402: z_1_2 + z_1_3 + z_1_8 <= 2
 c5403: 120 p_1_2 + 120 p_1_3 + 120 p_1_9 + 8270.4929170631967 z_1_2 + 8270.4929170631967 z_1_3 + 8270.4929170631967 z_1_9 <= 25060.985834126393
 c5404: z_1_10 + z_1_2 + z_1_3 <= 2
 c5405: z_1_2 + z_1_4 + z_1_5 <= 2
 c5406: z_1_2 + z_1_4 + z_1_6 <= 2
 c5407: z_1_2 + z_1_4 + z_1_7 <= 2
 c5408: z_1_2 + z_1_4 + z_1_8 <= 2
 c5409: z_1_2 + z_1_4 + z_1_9 <= 2
 c5410: z_1_10 + z_1_2 + z_1_4 <= 2
 c5411: z_1_2 + z_1_5 + z_1_6 <= 2
 c5412: 120 p_1_2 + 120 p_1_5 + 120 p_1_7 + 8495.7120358272259 z_1_2 + 8495.7120358272259 z_1_5 + 8495.7120358272259 z_1_7 <= 26111.424071654452
 c5413: 120 p_1_2 + 120 p_1_5 + 120 p_1_8 + 8054.8472768091715 z_1_2 + 8054.8472768091715 z_1_5 + 8054.8472768091715 z_1_8 <= 25349.694553618345
 c5414: z_1_2 + z_1_5 + z_1_9 <= 2
 c5415: z_1_10 + z_1_2 + z_1_5 <= 2
 c5416: z_1_2 + z_1_6 + z_1_7 <= 2
 c5417: z_1_2 + z_1_6 + z_1_8 <= 2
 c5418: z_1_2 + z_1_6 + z_1_9 <= 2
 c5419: z_1_10 + z_1_2 + z_1_6 <= 2
 c5420: 120 p_1_2 + 120 p_1_7 + 120 p_1_8 + 10329.247645064594 z_1_2 + 10329.247645064594 z_1_7 + 10329.247645064594 z_1_8 <= 31458.495290129187
 c5421: z_1_2 + z_1_7 + z_1_9 <= 2
 c5422: z_1_10 + z_1_2 + z_1_7 <= 2
 c5423: z_1_2 + z_1_8 + z_1_9 <= 2
 c5424: z_1_10 + z_1_2 + z_1_8 <= 2
 c5425: z_1_10 + z_1_2 + z_1_9 <= 2
 c5426: z_1_3 + z_1_4 + z_1_5 <= 2
 c5427: z_1_3 + z_1_4 + z_1_6 <= 2
 c5428: z_1_3 + z_1_4 + z_1_7 <= 2
 c5429: z_1_3 + z_1_4 + z_1_8 <= 2
 c5430: z_1_3 + z_1_4 + z_1_9 <= 2
 c5431: z_1_10 + z_1_3 + z_1_4 <= 2
 c5432: z_1_3 + z_1_5 + z_1_6 <= 2
 c5433: z_1_3 + z_1_5 + z_1_7 <= 2
 c5434: z_1_3 + z_1_5 + z_1_8 <= 2
 c5435: z_1_3 + z_1_5 + z_1_9 <= 2
 c5436: z_1_10 + z_1_3 + z_1_5 <= 2
 c5437: z_1_3 + z_1_6 + z_1_7 <= 2
 c5438: z_1_3 + z_1_6 + z_1_8 <= 2
 c5439: 120 p_1_3 + 120 p_1_6 + 120 p_1_9 + 8838.8891253239417 z_1_3 + 8838.8891253239417 z_1_6 + 8838.8891253239417 z_1_9 <= 27277.778250647883
 c5440: z_1_10 + z_1_3 + z_1_6 <= 2
 c5441: z_1_3 + z_1_7 + z_1_8 <= 2
 c5442: z_1_3 + z_1_7 + z_1_9 <= 2
 c5443: z_1_10 + z_1_3 + z_1_7 <= 2
 c5444: z_1_3 + z_1_8 + z_1_9 <= 2
 c5445: z_1_10 + z_1_3 + z_1_8 <= 2
 c5446: z_1_10 + z_1_3 + z_1_9 <= 2
 c5447: z_1_4 + z_1_5 + z_1_6 <= 2
 c5448: z_1_4 + z_1_5 + z_1_7 <= 2
 c5449: z_1_4 + z_1_5 + z_1_8 <= 2
 c5450: z_1_4 + z_1_5 + z_1_9 <= 2
 c5451: z_1_10 + z_1_4 + z_1_5 <= 2
 c5452: z_1_4 + z_1_6 + z_1_7 <= 2
 c5453: z_1_4 + z_1_6 + z_1_8 <= 2
 c5454: z_1_4 + z_1_6 + z_1_9 <= 2
 c5455: z_1_10 + z_1_4 + z_1_6 <= 2
 c5456: z_1_4 + z_1_7 + z_1_8 <= 2
 c5457: z_1_4 + z_1_7 + z_1_9 <= 2
 c5458: 120 p_1_10 + 120 p_1_4 + 120 p_1_7 + 6890.6887528034422 z_1_10 + 6890.6887528034422 z_1_4 + 6890.6887528034422 z_1_7 <= 21461.377505606884
 c5459: z_1_4 + z_1_8 + z_1_9 <= 2
 c5460: z_1_10 + z_1_4 + z_1_8 <= 2
 c5461: z_1_10 + z_1_4 + z_1_9 <= 2
 c5462: z_1_5 + z_1_6 + z_1_7 <= 2
 c5463: z_1_5 + z_1_6 + z_1_8 <= 2
 c5464: z_1_5 + z_1_6 + z_1_9 <= 2
 c5465: z_1_10 + z_1_5 + z_1_6 <= 2
 c5466: 120 p_1_5 + 120 p_1_7 + 120 p_1_8 + 9702.8057458074891 z_1_5 + 9702.8057458074891 z_1_7 + 9702.8057458074891 z_1_8 <= 29605.611491614975
 c5467: z_1_5 + z_1_7 + z_1_9 <= 2
 c5468: z_1_10 + z_1_5 + z_1_7 <= 2
 c5469: z_1_5 + z_1_8 + z_1_9 <= 2
 c5470: z_1_10 + z_1_5 + z_1_8 <= 2
 c5471: z_1_10 + z_1_5 + z_1_9 <= 2
 c5472: z_1_6 + z_1_7 + z_1_8 <= 2
 c5473: z_1_6 + z_1_7 + z_1_9 <= 2
 c5474: z_1_10 + z_1_6 + z_1_7 <= 2
 c5475: z_1_6 + z_1_8 + z_1_9 <= 2
 c5476: z_1_10 + z_1_6 + z_1_8 <= 2
 c5477: z_1_10 + z_1_6 + z_1_9 <= 2
 c5478: z_1_7 + z_1_8 + z_1_9 <= 2
 c5479: z_1_10 + z_1_7 + z_1_8 <= 2
 c5480: z_1_10 + z_1_7 + z_1_9 <= 2
 c5481: z_1_10 + z_1_8 + z_1_9 <= 2
 c5482: 120 p_2_1 + 120 p_2_2 + 8130.3859256598498 z_2_1 + 8130.3859256598498 z_2_2 <= 16650.385925659848
 c5483: z_2_1 + z_2_3 <= 1
 c5484: 120 p_2_1 + 120 p_2_4 + 6245.1587471483308 z_2_1 + 6245.1587471483308 z_2_4 <= 13445.158747148331
 c5485: 120 p_2_1 + 120 p_2_5 + 7498.2466638921833 z_2_1 + 7498.2466638921833 z_2_5 <= 15418.246663892183
 c5486: z_2_1 + z_2_6 <= 1
 c5487: 120 p_2_1 + 120 p_2_7 + 8380.1987108115627 z_2_1 + 8380.1987108115627 z_2_7 <= 17860.198710811565
 c5488: 120 p_2_1 + 120 p_2_8 + 9366.9574634474302 z_2_1 + 9366.9574634474302 z_2_8 <= 18966.95746344743
 c5489: z_2_1 + z_2_9 <= 1
 c5490: 120 p_2_1 + 120 p_2_10 + 6934.0195447073384 z_2_1 + 6934.0195447073384 z_2_10 <= 14734.019544707338
 c5491: 120 p_2_2 + 120 p_2_3 + 7423.3340181055046 z_2_2 + 7423.3340181055046 z_2_3 <= 15223.334018105505
 c5492: 120 p_2_2 + 120 p_2_4 + 5978.0974722146102 z_2_2 + 5978.0974722146102 z_2_4 <= 12098.097472214609
 c5493: 120 p_2_2 + 120 p_2_5 + 5453.6098520163796 z_2_2 + 5453.6098520163796 z_2_5 <= 12293.60985201638
 c5494: z_2_2 + z_2_6 <= 1
 c5495: 120 p_2_2 + 120 p_2_7 + 7757.8756887642803 z_2_2 + 7757.8756887642803 z_2_7 <= 16157.875688764281
 c5496: 120 p_2_2 + 120 p_2_8 + 7332.0516329969378 z_2_2 + 7332.0516329969378 z_2_8 <= 15852.051632996938
 c5497: 120 p_2_2 + 120 p_2_9 + 6568.7048843647681 z_2_2 + 6568.7048843647681 z_2_9 <= 13408.704884364768
 c5498: z_2_10 + z_2_2 <= 1
 c5499: z_2_3 + z_2_4 <= 1
 c5500: 120 p_2_3 + 120 p_2_5 + 6855.5586301060721 z_2_3 + 6855.5586301060721 z_2_5 <= 14055.558630106072
 c5501: 120 p_2_3 + 120 p_2_6 + 8088.9037894790063 z_2_3 + 8088.9037894790063 z_2_6 <= 16968.903789479005
 c5502: 120 p_2_3 + 120 p_2_7 + 8575.163041615735 z_2_3 + 8575.163041615735 z_2_7 <= 17335.163041615735
 c5503: 120 p_2_3 + 120 p_2_8 + 8755.8777818670333 z_2_3 + 8755.8777818670333 z_2_8 <= 17635.877781867035
 c5504: 120 p_2_3 + 120 p_2_9 + 6175.5152615841653 z_2_3 + 6175.5152615841653 z_2_9 <= 13375.515261584165
 c5505: z_2_10 + z_2_3 <= 1
 c5506: 120 p_2_4 + 120 p_2_5 + 5343.8568332534705 z_2_4 + 5343.8568332534705 z_2_5 <= 10863.856833253471
 c5507: z_2_4 + z_2_6 <= 1
 c5508: 120 p_2_4 + 120 p_2_7 + 6206.1946756847674 z_2_4 + 6206.1946756847674 z_2_7 <= 13286.194675684768
 c5509: z_2_4 + z_2_8 <= 1
 c5510: z_2_4 + z_2_9 <= 1
 c5511: 120 p_2_10 + 120 p_2_4 + 4574.3690453095987 z_2_10 + 4574.3690453095987 z_2_4 <= 9974.3690453095987
 c5512: z_2_5 + z_2_6 <= 1
 c5513: 120 p_2_5 + 120 p_2_7 + 7120.5506871763428 z_2_5 + 7120.5506871763428 z_2_7 <= 14920.550687176343
 c5514: 120 p_2_5 + 120 p_2_8 + 6705.6097337398332 z_2_5 + 6705.6097337398332 z_2_8 <= 14625.609733739833
 c5515: 120 p_2_5 + 120 p_2_9 + 5998.1039542344297 z_2_5 + 5998.1039542344297 z_2_9 <= 12238.10395423443
 c5516: 120 p_2_10 + 120 p_2_5 + 5980.7688995841836 z_2_10 + 5980.7688995841836 z_2_5 <= 12100.768899584184
 c5517: z_2_6 + z_2_7 <= 1
 c5518: z_2_6 + z_2_8 <= 1
 c5519: 120 p_2_6 + 120 p_2_9 + 7158.8790668287711 z_2_6 + 7158.8790668287711 z_2_9 <= 15078.879066828771
 c5520: z_2_10 + z_2_6 <= 1
 c5521: 120 p_2_7 + 120 p_2_8 + 8980.0101019952563 z_2_7 + 8980.0101019952563 z_2_8 <= 18460.010101995256
 c5522: 120 p_2_7 + 120 p_2_9 + 7660.18670424843 z_2_7 + 7660.18670424843 z_2_9 <= 15460.18670424843
 c5523: 120 p_2_10 + 120 p_2_7 + 6837.8876294972488 z_2_10 + 6837.8876294972488 z_2_7 <= 14517.887629497249
 c5524: z_2_8 + z_2_9 <= 1
 c5525: z_2_10 + z_2_8 <= 1
 c5526: z_2_10 + z_2_9 <= 1
 c5527: z_2_1 + z_2_2 + z_2_3 <= 2
 c5528: z_2_1 + z_2_2 + z_2_4 <= 2
 c5529: 120 p_2_1 + 120 p_2_2 + 120 p_2_5 + 8873.4080125430664 z_2_1 + 8873.4080125430664 z_2_2 + 8873.4080125430664 z_2_5 <= 26986.816025086133
 c5530: z_2_1 + z_2_2 + z_2_6 <= 2
 c5531: 120 p_2_1 + 120 p_2_2 + 120 p_2_7 + 10441.020386061195 z_2_1 + 10441.020386061195 z_2_2 + 10441.020386061195 z_2_7 <= 31682.040772122389
 c5532: z_2_1 + z_2_2 + z_2_8 <= 2
 c5533: z_2_1 + z_2_2 + z_2_9 <= 2
 c5534: z_2_1 + z_2_10 + z_2_2 <= 2
 c5535: z_2_1 + z_2_3 + z_2_4 <= 2
 c5536: z_2_1 + z_2_3 + z_2_5 <= 2
 c5537: z_2_1 + z_2_3 + z_2_6 <= 2
 c5538: z_2_1 + z_2_3 + z_2_7 <= 2
 c5539: z_2_1 + z_2_3 + z_2_8 <= 2
 c5540: z_2_1 + z_2_3 + z_2_9 <= 2
 c5541: z_2_1 + z_2_10 + z_2_3 <= 2
 c5542: z_2_1 + z_2_4 + z_2_5 <= 2
 c5543: z_2_1 + z_2_4 + z_2_6 <= 2
 c5544: 120 p_2_1 + 120 p_2_4 + 120 p_2_7 + 8606.5349760389108 z_2_1 + 8606.5349760389108 z_2_4 + 8606.5349760389108 z_2_7 <= 26693.069952077822
 c5545: z_2_1 + z_2_4 + z_2_8 <= 2
 c5546: z_2_1 + z_2_4 + z_2_9 <= 2
 c5547: 120 p_2_1 + 120 p_2_10 + 120 p_2_4 + 6974.7093456637431 z_2_1 + 6974.7093456637431 z_2_10 + 6974.7093456637431 z_2_4 <= 21749.418691327486
 c5548: z_2_1 + z_2_5 + z_2_6 <= 2
 c5549: 120 p_2_1 + 120 p_2_5 + 120 p_2_7 + 9803.6953844732579 z_2_1 + 9803.6953844732579 z_2_5 + 9803.6953844732579 z_2_7 <= 29807.39076894652
 c5550: z_2_1 + z_2_5 + z_2_8 <= 2
 c5551: z_2_1 + z_2_5 + z_2_9 <= 2
 c5552: z_2_1 + z_2_10 + z_2_5 <= 2
 c5553: z_2_1 + z_2_6 + z_2_7 <= 2
 c5554: z_2_1 + z_2_6 + z_2_8 <= 2
 c5555: z_2_1 + z_2_6 + z_2_9 <= 2
 c5556: z_2_1 + z_2_10 + z_2_6 <= 2
 c5557: z_2_1 + z_2_7 + z_2_8 <= 2
 c5558: z_2_1 + z_2_7 + z_2_9 <= 2
 c5559: 120 p_2_1 + 120 p_2_10 + 120 p_2_7 + 9250.3392522011818 z_2_1 + 9250.3392522011818 z_2_10 + 9250.3392522011818 z_2_7 <= 28580.678504402364
 c5560: z_2_1 + z_2_8 + z_2_9 <= 2
 c5561: z_2_1 + z_2_10 + z_2_8 <= 2
 c5562: z_2_1 + z_2_10 + z_2_9 <= 2
 c5563: z_2_2 + z_2_3 + z_2_4 <= 2
 c5564: 120 p_2_2 + 120 p_2_3 + 120 p_2_5 + 8197.662215622242 z_2_2 + 8197.662215622242 z_2_3 + 8197.662215622242 z_2_5 <= 24915.32443124448
 c5565: z_2_2 + z_2_3 + z_2_6 <= 2
 c5566: z_2_2 + z_2_3 + z_2_7 <= 2
 c5567: z_2_2 + z_2_3 + z_2_8 <= 2
 c5568: 120 p_2_2 + 120 p_2_3 + 120 p_2_9 + 8270.4929170631967 z_2_2 + 8270.4929170631967 z_2_3 + 8270.4929170631967 z_2_9 <= 25060.985834126393
 c5569: z_2_10 + z_2_2 + z_2_3 <= 2
 c5570: z_2_2 + z_2_4 + z_2_5 <= 2
 c5571: z_2_2 + z_2_4 + z_2_6 <= 2
 c5572: z_2_2 + z_2_4 + z_2_7 <= 2
 c5573: z_2_2 + z_2_4 + z_2_8 <= 2
 c5574: z_2_2 + z_2_4 + z_2_9 <= 2
 c5575: z_2_10 + z_2_2 + z_2_4 <= 2
 c5576: z_2_2 + z_2_5 + z_2_6 <= 2
 c5577: 120 p_2_2 + 120 p_2_5 + 120 p_2_7 + 8495.7120358272259 z_2_2 + 8495.7120358272259 z_2_5 + 8495.7120358272259 z_2_7 <= 26111.424071654452
 c5578: 120 p_2_2 + 120 p_2_5 + 120 p_2_8 + 8054.8472768091715 z_2_2 + 8054.8472768091715 z_2_5 + 8054.8472768091715 z_2_8 <= 25349.694553618345
 c5579: z_2_2 + z_2_5 + z_2_9 <= 2
 c5580: z_2_10 + z_2_2 + z_2_5 <= 2
 c5581: z_2_2 + z_2_6 + z_2_7 <= 2
 c5582: z_2_2 + z_2_6 + z_2_8 <= 2
 c5583: z_2_2 + z_2_6 + z_2_9 <= 2
 c5584: z_2_10 + z_2_2 + z_2_6 <= 2
 c5585: 120 p_2_2 + 120 p_2_7 + 120 p_2_8 + 10329.247645064594 z_2_2 + 10329.247645064594 z_2_7 + 10329.247645064594 z_2_8 <= 31458.495290129187
 c5586: z_2_2 + z_2_7 + z_2_9 <= 2
 c5587: z_2_10 + z_2_2 + z_2_7 <= 2
 c5588: z_2_2 + z_2_8 + z_2_9 <= 2
 c5589: z_2_10 + z_2_2 + z_2_8 <= 2
 c5590: z_2_10 + z_2_2 + z_2_9 <= 2
 c5591: z_2_3 + z_2_4 + z_2_5 <= 2
 c5592: z_2_3 + z_2_4 + z_2_6 <= 2
 c5593: z_2_3 + z_2_4 + z_2_7 <= 2
 c5594: z_2_3 + z_2_4 + z_2_8 <= 2
 c5595: z_2_3 + z_2_4 + z_2_9 <= 2
 c5596: z_2_10 + z_2_3 + z_2_4 <= 2
 c5597: z_2_3 + z_2_5 + z_2_6 <= 2
 c5598: z_2_3 + z_2_5 + z_2_7 <= 2
 c5599: z_2_3 + z_2_5 + z_2_8 <= 2
 c5600: z_2_3 + z_2_5 + z_2_9 <= 2
 c5601: z_2_10 + z_2_3 + z_2_5 <= 2
 c5602: z_2_3 + z_2_6 + z_2_7 <= 2
 c5603: z_2_3 + z_2_6 + z_2_8 <= 2
 c5604: 120 p_2_3 + 120 p_2_6 + 120 p_2_9 + 8838.8891253239417 z_2_3 + 8838.8891253239417 z_2_6 + 8838.8891253239417 z_2_9 <= 27277.778250647883
 c5605: z_2_10 + z_2_3 + z_2_6 <= 2
 c5606: z_2_3 + z_2_7 + z_2_8 <= 2
 c5607: z_2_3 + z_2_7 + z_2_9 <= 2
 c5608: z_2_10 + z_2_3 + z_2_7 <= 2
 c5609: z_2_3 + z_2_8 + z_2_9 <= 2
 c5610: z_2_10 + z_2_3 + z_2_8 <= 2
 c5611: z_2_10 + z_2_3 + z_2_9 <= 2
 c5612: z_2_4 + z_2_5 + z_2_6 <= 2
 c5613: z_2_4 + z_2_5 + z_2_7 <= 2
 c5614: z_2_4 + z_2_5 + z_2_8 <= 2
 c5615: z_2_4 + z_2_5 + z_2_9 <= 2
 c5616: z_2_10 + z_2_4 + z_2_5 <= 2
 c5617: z_2_4 + z_2_6 + z_2_7 <= 2
 c5618: z_2_4 + z_2_6 + z_2_8 <= 2
 c5619: z_2_4 + z_2_6 + z_2_9 <= 2
 c5620: z_2_10 + z_2_4 + z_2_6 <= 2
 c5621: z_2_4 + z_2_7 + z_2_8 <= 2
 c5622: z_2_4 + z_2_7 + z_2_9 <= 2
 c5623: 120 p_2_10 + 120 p_2_4 + 120 p_2_7 + 6890.6887528034422 z_2_10 + 6890.6887528034422 z_2_4 + 6890.6887528034422 z_2_7 <= 21461.377505606884
 c5624: z_2_4 + z_2_8 + z_2_9 <= 2
 c5625: z_2_10 + z_2_4 + z_2_8 <= 2
 c5626: z_2_10 + z_2_4 + z_2_9 <= 2
 c5627: z_2_5 + z_2_6 + z_2_7 <= 2
 c5628: z_2_5 + z_2_6 + z_2_8 <= 2
 c5629: z_2_5 + z_2_6 + z_2_9 <= 2
 c5630: z_2_10 + z_2_5 + z_2_6 <= 2
 c5631: 120 p_2_5 + 120 p_2_7 + 120 p_2_8 + 9702.8057458074891 z_2_5 + 9702.8057458074891 z_2_7 + 9702.8057458074891 z_2_8 <= 29605.611491614975
 c5632: z_2_5 + z_2_7 + z_2_9 <= 2
 c5633: z_2_10 + z_2_5 + z_2_7 <= 2
 c5634: z_2_5 + z_2_8 + z_2_9 <= 2
 c5635: z_2_10 + z_2_5 + z_2_8 <= 2
 c5636: z_2_10 + z_2_5 + z_2_9 <= 2
 c5637: z_2_6 + z_2_7 + z_2_8 <= 2
 c5638: z_2_6 + z_2_7 + z_2_9 <= 2
 c5639: z_2_10 + z_2_6 + z_2_7 <= 2
 c5640: z_2_6 + z_2_8 + z_2_9 <= 2
 c5641: z_2_10 + z_2_6 + z_2_8 <= 2
 c5642: z_2_10 + z_2_6 + z_2_9 <= 2
 c5643: z_2_7 + z_2_8 + z_2_9 <= 2
 c5644: z_2_10 + z_2_7 + z_2_8 <= 2
 c5645: z_2_10 + z_2_7 + z_2_9 <= 2
 c5646: z_2_10 + z_2_8 + z_2_9 <= 2
 c5647: z_0_1 + z_0_10 + z_0_2 + z_0_3 + z_0_4 + z_0_5 + z_0_6 + z_0_7 + z_0_8 + z_0_9 - z_1_1 - z_1_10 - z_1_2 - z_1_3 - z_1_4 - z_1_5 - z_1_6 - z_1_7 - z_1_8 - z_1_9 >= 0
 c5648: z_1_1 + z_1_10 + z_1_2 + z_1_3 + z_1_4 + z_1_5 + z_1_6 + z_1_7 + z_1_8 + z_1_9 - z_2_1 - z_2_10 - z_2_2 - z_2_3 - z_2_4 - z_2_5 - z_2_6 - z_2_7 - z_2_8 - z_2_9 >= 0
 c5649: Y_1 - d_0_1 - d_1_1 - d_2_1 + p_0_1 + p_1_1 + p_2_1 = 32
 c5650: - 0.052631578947368418 Y_1 + r_1 = 0
 c5651: e_1 - r_1 >= -1
 c5652: e_1 + r_1 >= 1
 c5653: Y_2 - d_0_2 - d_1_2 - d_2_2 + p_0_2 + p_1_2 + p_2_2 = 11
 c5654: - 0.090909090909090912 Y_2 + r_2 = 0
 c5655: e_2 - r_2 >= -1
 c5656: e_2 + r_2 >= 1
 c5657: Y_3 - d_0_3 - d_1_3 - d_2_3 + p_0_3 + p_1_3 + p_2_3 = 14
 c5658: - 0.037037037037037035 Y_3 + r_3 = 0
 c5659: e_3 - r_3 >= -1
 c5660: e_3 + r_3 >= 1
 c5661: Y_4 - d_0_4 - d_1_4 - d_2_4 + p_0_4 + p_1_4 + p_2_4 = 0
 c5662: - 0.090909090909090912 Y_4 + r_4 = 0
 c5663: e_4 - r_4 >= -1
 c5664: e_4 + r_4 >= 1
 c5665: Y_5 - d_0_5 - d_1_5 - d_2_5 + p_0_5 + p_1_5 + p_2_5 = 6
 c5666: - 0.052631578947368418 Y_5 + r_5 = 0
 c5667: e_5 - r_5 >= -1
 c5668: e_5 + r_5 >= 1
 c5669: Y_6 - d_0_6 - d_1_6 - d_2_6 + p_0_6 + p_1_6 + p_2_6 = 24
 c5670: - 0.0625 Y_6 + r_6 = 0
 c5671: e_6 - r_6 >= -1
 c5672: e_6 + r_6 >= 1
 c5673: Y_7 - d_0_7 - d_1_7 - d_2_7 + p_0_7 + p_1_7 + p_2_7 = 19
 c5674: - 0.125 Y_7 + r_7 = 0
 c5675: e_7 - r_7 >= -1
 c5676: e_7 + r_7 >= 1
 c5677: Y_8 - d_0_8 - d_1_8 - d_2_8 + p_0_8 + p_1_8 + p_2_8 = 37
 c5678: - 0.035714285714285712 Y_8 + r_8 = 0
 c5679: e_8 - r_8 >= -1
 c5680: e_8 + r_8 >= 1
 c5681: Y_9 - d_0_9 - d_1_9 - d_2_9 + p_0_9 + p_1_9 + p_2_9 = 6
 c5682: - 0.071428571428571425 Y_9 + r_9 = 0
 c5683: e_9 - r_9 >= -1
 c5684: e_9 + r_9 >= 1
 c5685: Y_10 - d_0_10 - d_1_10 - d_2_10 + p_0_10 + p_1_10 + p_2_10 = 5
 c5686: - 0.055555555555555552 Y_10 + r_10 = 0
 c5687: e_10 - r_10 >= -1
 c5688: e_10 + r_10 >= 1
 c5689: Y_1 - z_0_1 - z_1_1 - z_2_1 <= 32
 c5690: - Y_1 - 32 z_0_1 - 32 z_1_1 - 32 z_2_1 <= -32
 c5691: Y_2 - 15 z_0_2 - 15 z_1_2 - 15 z_2_2 <= 11
 c5692: - Y_2 - 11 z_0_2 - 11 z_1_2 - 11 z_2_2 <= -11
 c5693: Y_3 - 33 z_0_3 - 33 z_1_3 - 33 z_2_3 <= 14
 c5694: - Y_3 - 14 z_0_3 - 14 z_1_3 - 14 z_2_3 <= -14
 c5695: Y_4 - 30 z_0_4 - 30 z_1_4 - 30 z_2_4 <= 0
 c5696: - Y_4 <= 0
 c5697: Y_5 - 41 z_0_5 - 41 z_1_5 - 41 z_2_5 <= 6
 c5698: - Y_5 - 6 z_0_5 - 6 z_1_5 - 6 z_2_5 <= -6
 c5699: Y_6 - 2 z_0_6 - 2 z_1_6 - 2 z_2_6 <= 24
 c5700: - Y_6 - 24 z_0_6 - 24 z_1_6 - 24 z_2_6 <= -24
 c5701: Y_7 - z_0_7 - z_1_7 - z_2_7 <= 19
 c5702: - Y_7 - 19 z_0_7 - 19 z_1_7 - 19 z_2_7 <= -19
 c5703: Y_8 - 11 z_0_8 - 11 z_1_8 - 11 z_2_8 <= 37
 c5704: - Y_8 - 37 z_0_8 - 37 z_1_8 - 37 z_2_8 <= -37
 c5705: Y_9 - 32 z_0_9 - 32 z_1_9 - 32 z_2_9 <= 6
 c5706: - Y_9 - 6 z_0_9 - 6 z_1_9 - 6 z_2_9 <= -6
 c5707: Y_10 - 26 z_0_10 - 26 z_1_10 - 26 z_2_10 <= 5
 c5708: - Y_10 - 5 z_0_10 - 5 z_1_10 - 5 z_2_10 <= -5
 c5709: 120 p_0_1 + 120 p_0_10 + 120 p_0_2 + 120 p_0_3 + 120 p_0_4 + 120 p_0_5 + 120 p_0_6 + 120 p_0_7 + 120 p_0_8 + 120 p_0_9 + 120 p_1_1 + 120 p_1_10 + 120 p_1_2 + 120 p_1_3 + 120 p_1_4 + 120 p_1_5 + 120 p_1_6 + 120 p_1_7 + 120 p_1_8 + 120 p_1_9 + 120 p_2_1 + 120 p_2_10 + 120 p_2_2 + 120 p_2_3 + 120 p_2_4 + 120 p_2_5 + 120 p_2_6 + 120 p_2_7 + 120 p_2_8 + 120 p_2_9 <= 7200
 c5710: h_1_2 - r_1 + r_2 >= 0
 c5711: h_1_2 + r_1 - r_2 >= 0
 c5712: h_1_3 - r_1 + r_3 >= 0
 c5713: h_1_3 + r_1 - r_3 >= 0
 c5714: h_1_4 - r_1 + r_4 >= 0
 c5715: h_1_4 + r_1 - r_4 >= 0
 c5716: h_1_5 - r_1 + r_5 >= 0
 c5717: h_1_5 + r_1 - r_5 >= 0
 c5718: h_1_6 - r_1 + r_6 >= 0
 c5719: h_1_6 + r_1 - r_6 >= 0
 c5720: h_1_7 - r_1 + r_7 >= 0
 c5721: h_1_7 + r_1 - r_7 >= 0
 c5722: h_1_8 - r_1 + r_8 >= 0
 c5723: h_1_8 + r_1 - r_8 >= 0
 c5724: h_1_9 - r_1 + r_9 >= 0
 c5725: h_1_9 + r_1 - r_9 >= 0
 c5726: h_1_10 - r_1 + r_10 >= 0
 c5727: h_1_10 + r_1 - r_10 >= 0
 c5728: h_2_3 - r_2 + r_3 >= 0
 c5729: h_2_3 + r_2 - r_3 >= 0
 c5730: h_2_4 - r_2 + r_4 >= 0
 c5731: h_2_4 + r_2 - r_4 >= 0
 c5732: h_2_5 - r_2 + r_5 >= 0
 c5733: h_2_5 + r_2 - r_5 >= 0
 c5734: h_2_6 - r_2 + r_6 >= 0
 c5735: h_2_6 + r_2 - r_6 >= 0
 c5736: h_2_7 - r_2 + r_7 >= 0
 c5737: h_2_7 + r_2 - r_7 >= 0
 c5738: h_2_8 - r_2 + r_8 >= 0
 c5739: h_2_8 + r_2 - r_8 >= 0
 c5740: h_2_9 - r_2 + r_9 >= 0
 c5741: h_2_9 + r_2 - r_9 >= 0
 c5742: h_2_10 + r_10 - r_2 >= 0
 c5743: h_2_10 - r_10 + r_2 >= 0
 c5744: h_3_4 - r_3 + r_4 >= 0
 c5745: h_3_4 + r_3 - r_4 >= 0
 c5746: h_3_5 - r_3 + r_5 >= 0
 c5747: h_3_5 + r_3 - r_5 >= 0
 c5748: h_3_6 - r_3 + r_6 >= 0
 c5749: h_3_6 + r_3 - r_6 >= 0
 c5750: h_3_7 - r_3 + r_7 >= 0
 c5751: h_3_7 + r_3 - r_7 >= 0
 c5752: h_3_8 - r_3 + r_8 >= 0
 c5753: h_3_8 + r_3 - r_8 >= 0
 c5754: h_3_9 - r_3 + r_9 >= 0
 c5755: h_3_9 + r_3 - r_9 >= 0
 c5756: h_3_10 + r_10 - r_3 >= 0
 c5757: h_3_10 - r_10 + r_3 >= 0
 c5758: h_4_5 - r_4 + r_5 >= 0
 c5759: h_4_5 + r_4 - r_5 >= 0
 c5760: h_4_6 - r_4 + r_6 >= 0
 c5761: h_4_6 + r_4 - r_6 >= 0
 c5762: h_4_7 - r_4 + r_7 >= 0
 c5763: h_4_7 + r_4 - r_7 >= 0
 c5764: h_4_8 - r_4 + r_8 >= 0
 c5765: h_4_8 + r_4 - r_8 >= 0
 c5766: h_4_9 - r_4 + r_9 >= 0
 c5767: h_4_9 + r_4 - r_9 >= 0
 c5768: h_4_10 + r_10 - r_4 >= 0
 c5769: h_4_10 - r_10 + r_4 >= 0
 c5770: h_5_6 - r_5 + r_6 >= 0
 c5771: h_5_6 + r_5 - r_6 >= 0
 c5772: h_5_7 - r_5 + r_7 >= 0
 c5773: h_5_7 + r_5 - r_7 >= 0
 c5774: h_5_8 - r_5 + r_8 >= 0
 c5775: h_5_8 + r_5 - r_8 >= 0
 c5776: h_5_9 - r_5 + r_9 >= 0
 c5777: h_5_9 + r_5 - r_9 >= 0
 c5778: h_5_10 + r_10 - r_5 >= 0
 c5779: h_5_10 - r_10 + r_5 >= 0
 c5780: h_6_7 - r_6 + r_7 >= 0
 c5781: h_6_7 + r_6 - r_7 >= 0
 c5782: h_6_8 - r_6 + r_8 >= 0
 c5783: h_6_8 + r_6 - r_8 >= 0
 c5784: h_6_9 - r_6 + r_9 >= 0
 c5785: h_6_9 + r_6 - r_9 >= 0
 c5786: h_6_10 + r_10 - r_6 >= 0
 c5787: h_6_10 - r_10 + r_6 >= 0
 c5788: h_7_8 - r_7 + r_8 >= 0
 c5789: h_7_8 + r_7 - r_8 >= 0
 c5790: h_7_9 - r_7 + r_9 >= 0
 c5791: h_7_9 + r_7 - r_9 >= 0
 c5792: h_7_10 + r_10 - r_7 >= 0
 c5793: h_7_10 - r_10 + r_7 >= 0
 c5794: h_8_9 - r_8 + r_9 >= 0
 c5795: h_8_9 + r_8 - r_9 >= 0
 c5796: h_8_10 + r_10 - r_8 >= 0
 c5797: h_8_10 - r_10 + r_8 >= 0
 c5798: h_9_10 + r_10 - r_9 >= 0
 c5799: h_9_10 - r_10 + r_9 >= 0
 c5800: Y_1 - bit_1_0 - 2 bit_1_1 - 4 bit_1_2 - 8 bit_1_3 - 16 bit_1_4 - 32 bit_1_5 = 0
 c5801: - prod_1_0 - 2 prod_1_1 - 4 prod_1_2 - 8 prod_1_3 - 16 prod_1_4 - 32 prod_1_5 + zprod_1 = 0
 c5802: - G + prod_1_0 <= 0
 c5803: - bit_1_0 + prod_1_0 <= 0
 c5804: - G - bit_1_0 + prod_1_0 >= -1
 c5805: - G + prod_1_1 <= 0
 c5806: - bit_1_1 + prod_1_1 <= 0
 c5807: - G - bit_1_1 + prod_1_1 >= -1
 c5808: - G + prod_1_2 <= 0
 c5809: - bit_1_2 + prod_1_2 <= 0
 c5810: - G - bit_1_2 + prod_1_2 >= -1
 c5811: - G + prod_1_3 <= 0
 c5812: - bit_1_3 + prod_1_3 <= 0
 c5813: - G - bit_1_3 + prod_1_3 >= -1
 c5814: - G + prod_1_4 <= 0
 c5815: - bit_1_4 + prod_1_4 <= 0
 c5816: - G - bit_1_4 + prod_1_4 >= -1
 c5817: - G + prod_1_5 <= 0
 c5818: - bit_1_5 + prod_1_5 <= 0
 c5819: - G - bit_1_5 + prod_1_5 >= -1
 c5820: Y_2 - bit_2_0 - 2 bit_2_1 - 4 bit_2_2 - 8 bit_2_3 - 16 bit_2_4 = 0
 c5821: - prod_2_0 - 2 prod_2_1 - 4 prod_2_2 - 8 prod_2_3 - 16 prod_2_4 + zprod_2 = 0
 c5822: - G + prod_2_0 <= 0
 c5823: - bit_2_0 + prod_2_0 <= 0
 c5824: - G - bit_2_0 + prod_2_0 >= -1
 c5825: - G + prod_2_1 <= 0
 c5826: - bit_2_1 + prod_2_1 <= 0
 c5827: - G - bit_2_1 + prod_2_1 >= -1
 c5828: - G + prod_2_2 <= 0
 c5829: - bit_2_2 + prod_2_2 <= 0
 c5830: - G - bit_2_2 + prod_2_2 >= -1
 c5831: - G + prod_2_3 <= 0
 c5832: - bit_2_3 + prod_2_3 <= 0
 c5833: - G - bit_2_3 + prod_2_3 >= -1
 c5834: - G + prod_2_4 <= 0
 c5835: - bit_2_4 + prod_2_4 <= 0
 c5836: - G - bit_2_4 + prod_2_4 >= -1
 c5837: Y_3 - bit_3_0 - 2 bit_3_1 - 4 bit_3_2 - 8 bit_3_3 - 16 bit_3_4 - 32 bit_3_5 = 0
 c5838: - prod_3_0 - 2 prod_3_1 - 4 prod_3_2 - 8 prod_3_3 - 16 prod_3_4 - 32 prod_3_5 + zprod_3 = 0
 c5839: - G + prod_3_0 <= 0
 c5840: - bit_3_0 + prod_3_0 <= 0
 c5841: - G - bit_3_0 + prod_3_0 >= -1
 c5842: - G + prod_3_1 <= 0
 c5843: - bit_3_1 + prod_3_1 <= 0
 c5844: - G - bit_3_1 + prod_3_1 >= -1
 c5845: - G + prod_3_2 <= 0
 c5846: - bit_3_2 + prod_3_2 <= 0
 c5847: - G - bit_3_2 + prod_3_2 >= -1
 c5848: - G + prod_3_3 <= 0
 c5849: - bit_3_3 + prod_3_3 <= 0
 c5850: - G - bit_3_3 + prod_3_3 >= -1
 c5851: - G + prod_3_4 <= 0
 c5852: - bit_3_4 + prod_3_4 <= 0
 c5853: - G - bit_3_4 + prod_3_4 >= -1
 c5854: - G + prod_3_5 <= 0
 c5855: - bit_3_5 + prod_3_5 <= 0
 c5856: - G - bit_3_5 + prod_3_5 >= -1
 c5857: Y_4 - bit_4_0 - 2 bit_4_1 - 4 bit_4_2 - 8 bit_4_3 - 16 bit_4_4 = 0
 c5858: - prod_4_0 - 2 prod_4_1 - 4 prod_4_2 - 8 prod_4_3 - 16 prod_4_4 + zprod_4 = 0
 c5859: - G + prod_4_0 <= 0
 c5860: - bit_4_0 + prod_4_0 <= 0
 c5861: - G - bit_4_0 + prod_4_0 >= -1
 c5862: - G + prod_4_1 <= 0
 c5863: - bit_4_1 + prod_4_1 <= 0
 c5864: - G - bit_4_1 + prod_4_1 >= -1
 c5865: - G + prod_4_2 <= 0
 c5866: - bit_4_2 + prod_4_2 <= 0
 c5867: - G - bit_4_2 + prod_4_2 >= -1
 c5868: - G + prod_4_3 <= 0
 c5869: - bit_4_3 + prod_4_3 <= 0
 c5870: - G - bit_4_3 + prod_4_3 >= -1
 c5871: - G + prod_4_4 <= 0
 c5872: - bit_4_4 + prod_4_4 <= 0
 c5873: - G - bit_4_4 + prod_4_4 >= -1
 c5874: Y_5 - bit_5_0 - 2 bit_5_1 - 4 bit_5_2 - 8 bit_5_3 - 16 bit_5_4 - 32 bit_5_5 = 0
 c5875: - prod_5_0 - 2 prod_5_1 - 4 prod_5_2 - 8 prod_5_3 - 16 prod_5_4 - 32 prod_5_5 + zprod_5 = 0
 c5876: - G + prod_5_0 <= 0
 c5877: - bit_5_0 + prod_5_0 <= 0
 c5878: - G - bit_5_0 + prod_5_0 >= -1
 c5879: - G + prod_5_1 <= 0
 c5880: - bit_5_1 + prod_5_1 <= 0
 c5881: - G - bit_5_1 + prod_5_1 >= -1
 c5882: - G + prod_5_2 <= 0
 c5883: - bit_5_2 + prod_5_2 <= 0
 c5884: - G - bit_5_2 + prod_5_2 >= -1
 c5885: - G + prod_5_3 <= 0
 c5886: - bit_5_3 + prod_5_3 <= 0
 c5887: - G - bit_5_3 + prod_5_3 >= -1
 c5888: - G + prod_5_4 <= 0
 c5889: - bit_5_4 + prod_5_4 <= 0
 c5890: - G - bit_5_4 + prod_5_4 >= -1
 c5891: - G + prod_5_5 <= 0
 c5892: - bit_5_5 + prod_5_5 <= 0
 c5893: - G - bit_5_5 + prod_5_5 >= -1
 c5894: Y_6 - bit_6_0 - 2 bit_6_1 - 4 bit_6_2 - 8 bit_6_3 - 16 bit_6_4 = 0
 c5895: - prod_6_0 - 2 prod_6_1 - 4 prod_6_2 - 8 prod_6_3 - 16 prod_6_4 + zprod_6 = 0
 c5896: - G + prod_6_0 <= 0
 c5897: - bit_6_0 + prod_6_0 <= 0
 c5898: - G - bit_6_0 + prod_6_0 >= -1
 c5899: - G + prod_6_1 <= 0
 c5900: - bit_6_1 + prod_6_1 <= 0
 c5901: - G - bit_6_1 + prod_6_1 >= -1
 c5902: - G + prod_6_2 <= 0
 c5903: - bit_6_2 + prod_6_2 <= 0
 c5904: - G - bit_6_2 + prod_6_2 >= -1
 c5905: - G + prod_6_3 <= 0
 c5906: - bit_6_3 + prod_6_3 <= 0
 c5907: - G - bit_6_3 + prod_6_3 >= -1
 c5908: - G + prod_6_4 <= 0
 c5909: - bit_6_4 + prod_6_4 <= 0
 c5910: - G - bit_6_4 + prod_6_4 >= -1
 c5911: Y_7 - bit_7_0 - 2 bit_7_1 - 4 bit_7_2 - 8 bit_7_3 - 16 bit_7_4 = 0
 c5912: - prod_7_0 - 2 prod_7_1 - 4 prod_7_2 - 8 prod_7_3 - 16 prod_7_4 + zprod_7 = 0
 c5913: - G + prod_7_0 <= 0
 c5914: - bit_7_0 + prod_7_0 <= 0
 c5915: - G - bit_7_0 + prod_7_0 >= -1
 c5916: - G + prod_7_1 <= 0
 c5917: - bit_7_1 + prod_7_1 <= 0
 c5918: - G - bit_7_1 + prod_7_1 >= -1
 c5919: - G + prod_7_2 <= 0
 c5920: - bit_7_2 + prod_7_2 <= 0
 c5921: - G - bit_7_2 + prod_7_2 >= -1
 c5922: - G + prod_7_3 <= 0
 c5923: - bit_7_3 + prod_7_3 <= 0
 c5924: - G - bit_7_3 + prod_7_3 >= -1
 c5925: - G + prod_7_4 <= 0
 c5926: - bit_7_4 + prod_7_4 <= 0
 c5927: - G - bit_7_4 + prod_7_4 >= -1
 c5928: Y_8 - bit_8_0 - 2 bit_8_1 - 4 bit_8_2 - 8 bit_8_3 - 16 bit_8_4 - 32 bit_8_5 = 0
 c5929: - prod_8_0 - 2 prod_8_1 - 4 prod_8_2 - 8 prod_8_3 - 16 prod_8_4 - 32 prod_8_5 + zprod_8 = 0
 c5930: - G + prod_8_0 <= 0
 c5931: - bit_8_0 + prod_8_0 <= 0
 c5932: - G - bit_8_0 + prod_8_0 >= -1
 c5933: - G + prod_8_1 <= 0
 c5934: - bit_8_1 + prod_8_1 <= 0
 c5935: - G - bit_8_1 + prod_8_1 >= -1
 c5936: - G + prod_8_2 <= 0
 c5937: - bit_8_2 + prod_8_2 <= 0
 c5938: - G - bit_8_2 + prod_8_2 >= -1
 c5939: - G + prod_8_3 <= 0
 c5940: - bit_8_3 + prod_8_3 <= 0
 c5941: - G - bit_8_3 + prod_8_3 >= -1
 c5942: - G + prod_8_4 <= 0
 c5943: - bit_8_4 + prod_8_4 <= 0
 c5944: - G - bit_8_4 + prod_8_4 >= -1
 c5945: - G + prod_8_5 <= 0
 c5946: - bit_8_5 + prod_8_5 <= 0
 c5947: - G - bit_8_5 + prod_8_5 >= -1
 c5948: Y_9 - bit_9_0 - 2 bit_9_1 - 4 bit_9_2 - 8 bit_9_3 - 16 bit_9_4 - 32 bit_9_5 = 0
 c5949: - prod_9_0 - 2 prod_9_1 - 4 prod_9_2 - 8 prod_9_3 - 16 prod_9_4 - 32 prod_9_5 + zprod_9 = 0
 c5950: - G + prod_9_0 <= 0
 c5951: - bit_9_0 + prod_9_0 <= 0
 c5952: - G - bit_9_0 + prod_9_0 >= -1
 c5953: - G + prod_9_1 <= 0
 c5954: - bit_9_1 + prod_9_1 <= 0
 c5955: - G - bit_9_1 + prod_9_1 >= -1
 c5956: - G + prod_9_2 <= 0
 c5957: - bit_9_2 + prod_9_2 <= 0
 c5958: - G - bit_9_2 + prod_9_2 >= -1
 c5959: - G + prod_9_3 <= 0
 c5960: - bit_9_3 + prod_9_3 <= 0
 c5961: - G - bit_9_3 + prod_9_3 >= -1
 c5962: - G + prod_9_4 <= 0
 c5963: - bit_9_4 + prod_9_4 <= 0
 c5964: - G - bit_9_4 + prod_9_4 >= -1
 c5965: - G + prod_9_5 <= 0
 c5966: - bit_9_5 + prod_9_5 <= 0
 c5967: - G - bit_9_5 + prod_9_5 >= -1
 c5968: Y_10 - bit_10_0 - 2 bit_10_1 - 4 bit_10_2 - 8 bit_10_3 - 16 bit_10_4 = 0
 c5969: - prod_10_0 - 2 prod_10_1 - 4 prod_10_2 - 8 prod_10_3 - 16 prod_10_4 + zprod_10 = 0
 c5970: - G + prod_10_0 <= 0
 c5971: - bit_10_0 + prod_10_0 <= 0
 c5972: - G - bit_10_0 + prod_10_0 >= -1
 c5973: - G + prod_10_1 <= 0
 c5974: - bit_10_1 + prod_10_1 <= 0
 c5975: - G - bit_10_1 + prod_10_1 >= -1
 c5976: - G + prod_10_2 <= 0
 c5977: - bit_10_2 + prod_10_2 <= 0
 c5978: - G - bit_10_2 + prod_10_2 >= -1
 c5979: - G + prod_10_3 <= 0
 c5980: - bit_10_3 + prod_10_3 <= 0
 c5981: - G - bit_10_3 + prod_10_3 >= -1
 c5982: - G + prod_10_4 <= 0
 c5983: - bit_10_4 + prod_10_4 <= 0
 c5984: - G - bit_10_4 + prod_10_4 >= -1
 c5985: - h_1_10 - h_1_2 - h_1_3 - h_1_4 - h_1_5 - h_1_6 - h_1_7 - h_1_8 - h_1_9 - h_2_10 - h_2_3 - h_2_4 - h_2_5 - h_2_6 - h_2_7 - h_2_8 - h_2_9 - h_3_10 - h_3_4 - h_3_5 - h_3_6 - h_3_7 - h_3_8 - h_3_9 - h_4_10 - h_4_5 - h_4_6 - h_4_7 - h_4_8 - h_4_9 - h_5_10 - h_5_6 - h_5_7 - h_5_8 - h_5_9 - h_6_10 - h_6_7 - h_6_8 - h_6_9 - h_7_10 - h_7_8 - h_7_9 - h_8_10 - h_8_9 - h_9_10 + 0.52631578947368418 zprod_1 + 0.55555555555555558 zprod_10 + 0.90909090909090906 zprod_2 + 0.37037037037037035 zprod_3 + 0.90909090909090906 zprod_4 + 0.52631578947368418 zprod_5 + 0.625 zprod_6 + 1.25 zprod_7 + 0.35714285714285715 zprod_8 + 0.7142857142857143 zprod_9 >= 0
Bounds
 0.25227192608210369 <= G <= 0.50454385216420738
 3.2023356990788776 <= W_SP <= 74.753810332336073
 22 <= Y_1 <= 33
 0 <= Y_10 <= 12
 0 <= Y_2 <= 23
 5 <= Y_3 <= 23
 0 <= Y_4 <= 7
 0 <= Y_5 <= 18
 18 <= Y_6 <= 26
 8 <= Y_7 <= 20
 27 <= Y_8 <= 47
 0 <= Y_9 <= 15
 0 <= bit_10_0 <= 1
 0 <= bit_10_1 <= 1
 0 <= bit_10_2 <= 1
 0 <= bit_10_3 <= 1
 0 <= bit_10_4 <= 1
 0 <= bit_1_0 <= 1
 0 <= bit_1_1 <= 1
 0 <= bit_1_2 <= 1
 0 <= bit_1_3 <= 1
 0 <= bit_1_4 <= 1
 0 <= bit_1_5 <= 1
 0 <= bit_2_0 <= 1
 0 <= bit_2_1 <= 1
 0 <= bit_2_2 <= 1
 0 <= bit_2_3 <= 1
 0 <= bit_2_4 <= 1
 0 <= bit_3_0 <= 1
 0 <= bit_3_1 <= 1
 0 <= bit_3_2 <= 1
 0 <= bit_3_3 <= 1
 0 <= bit_3_4 <= 1
 0 <= bit_3_5 <= 1
 0 <= bit_4_0 <= 1
 0 <= bit_4_1 <= 1
 0 <= bit_4_2 <= 1
 0 <= bit_4_3 <= 1
 0 <= bit_4_4 <= 1
 0 <= bit_5_0 <= 1
 0 <= bit_5_1 <= 1
 0 <= bit_5_2 <= 1
 0 <= bit_5_3 <= 1
 0 <= bit_5_4 <= 1
 0 <= bit_5_5 <= 1
 0 <= bit_6_0 <= 1
 0 <= bit_6_1 <= 1
 0 <= bit_6_2 <= 1
 0 <= bit_6_3 <= 1
 0 <= bit_6_4 <= 1
 0 <= bit_7_0 <= 1
 0 <= bit_7_1 <= 1
 0 <= bit_7_2 <= 1
 0 <= bit_7_3 <= 1
 0 <= bit_7_4 <= 1
 0 <= bit_8_0 <= 1
 0 <= bit_8_1 <= 1
 0 <= bit_8_2 <= 1
 0 <= bit_8_3 <= 1
 0 <= bit_8_4 <= 1
 0 <= bit_8_5 <= 1
 0 <= bit_9_0 <= 1
 0 <= bit_9_1 <= 1
 0 <= bit_9_2 <= 1
 0 <= bit_9_3 <= 1
 0 <= bit_9_4 <= 1
 0 <= bit_9_5 <= 1
 0 <= conn_0_0_1 <= 10
 0 <= conn_0_0_10 <= 10
 0 <= conn_0_0_2 <= 10
 0 <= conn_0_0_3 <= 10
 0 <= conn_0_0_4 <= 10
 0 <= conn_0_0_5 <= 10
 0 <= conn_0_0_6 <= 10
 0 <= conn_0_0_7 <= 10
 0 <= conn_0_0_8 <= 10
 0 <= conn_0_0_9 <= 10
 0 <= conn_0_10_0 <= 10
 0 <= conn_0_10_1 <= 10
 0 <= conn_0_10_2 <= 10
 0 <= conn_0_10_3 <= 10
 0 <= conn_0_10_4 <= 10
 0 <= conn_0_10_5 <= 10
 0 <= conn_0_10_6 <= 10
 0 <= conn_0_10_7 <= 10
 0 <= conn_0_10_8 <= 10
 0 <= conn_0_10_9 <= 10
 0 <= conn_0_1_0 <= 10
 0 <= conn_0_1_10 <= 10
 0 <= conn_0_1_2 <= 10
 0 <= conn_0_1_3 <= 10
 0 <= conn_0_1_4 <= 10
 0 <= conn_0_1_5 <= 10
 0 <= conn_0_1_6 <= 10
 0 <= conn_0_1_7 <= 10
 0 <= conn_0_1_8 <= 10
 0 <= conn_0_1_9 <= 10
 0 <= conn_0_2_0 <= 10
 0 <= conn_0_2_1 <= 10
 0 <= conn_0_2_10 <= 10
 0 <= conn_0_2_3 <= 10
 0 <= conn_0_2_4 <= 10
 0 <= conn_0_2_5 <= 10
 0 <= conn_0_2_6 <= 10
 0 <= conn_0_2_7 <= 10
 0 <= conn_0_2_8 <= 10
 0 <= conn_0_2_9 <= 10
 0 <= conn_0_3_0 <= 10
 0 <= conn_0_3_1 <= 10
 0 <= conn_0_3_10 <= 10
 0 <= conn_0_3_2 <= 10
 0 <= conn_0_3_4 <= 10
 0 <= conn_0_3_5 <= 10
 0 <= conn_0_3_6 <= 10
 0 <= conn_0_3_7 <= 10
 0 <= conn_0_3_8 <= 10
 0 <= conn_0_3_9 <= 10
 0 <= conn_0_4_0 <= 10
 0 <= conn_0_4_1 <= 10
 0 <= conn_0_4_10 <= 10
 0 <= conn_0_4_2 <= 10
 0 <= conn_0_4_3 <= 10
 0 <= conn_0_4_5 <= 10
 0 <= conn_0_4_6 <= 10
 0 <= conn_0_4_7 <= 10
 0 <= conn_0_4_8 <= 10
 0 <= conn_0_4_9 <= 10
 0 <= conn_0_5_0 <= 10
 0 <= conn_0_5_1 <= 10
 0 <= conn_0_5_10 <= 10
 0 <= conn_0_5_2 <= 10
 0 <= conn_0_5_3 <= 10
 0 <= conn_0_5_4 <= 10
 0 <= conn_0_5_6 <= 10
 0 <= conn_0_5_7 <= 10
 0 <= conn_0_5_8 <= 10
 0 <= conn_0_5_9 <= 10
 0 <= conn_0_6_0 <= 10
 0 <= conn_0_6_1 <= 10
 0 <= conn_0_6_10 <= 10
 0 <= conn_0_6_2 <= 10
 0 <= conn_0_6_3 <= 10
 0 <= conn_0_6_4 <= 10
 0 <= conn_0_6_5 <= 10
 0 <= conn_0_6_7 <= 10
 0 <= conn_0_6_8 <= 10
 0 <= conn_0_6_9 <= 10
 0 <= conn_0_7_0 <= 10
 0 <= conn_0_7_1 <= 10
 0 <= conn_0_7_10 <= 10
 0 <= conn_0_7_2 <= 10
 0 <= conn_0_7_3 <= 10
 0 <= conn_0_7_4 <= 10
 0 <= conn_0_7_5 <= 10
 0 <= conn_0_7_6 <= 10
 0 <= conn_0_7_8 <= 10
 0 <= conn_0_7_9 <= 10
 0 <= conn_0_8_0 <= 10
 0 <= conn_0_8_1 <= 10
 0 <= conn_0_8_10 <= 10
 0 <= conn_0_8_2 <= 10
 0 <= conn_0_8_3 <= 10
 0 <= conn_0_8_4 <= 10
 0 <= conn_0_8_5 <= 10
 0 <= conn_0_8_6 <= 10
 0 <= conn_0_8_7 <= 10
 0 <= conn_0_8_9 <= 10
 0 <= conn_0_9_0 <= 10
 0 <= conn_0_9_1 <= 10
 0 <= conn_0_9_10 <= 10
 0 <= conn_0_9_2 <= 10
 0 <= conn_0_9_3 <= 10
 0 <= conn_0_9_4 <= 10
 0 <= conn_0_9_5 <= 10
 0 <= conn_0_9_6 <= 10
 0 <= conn_0_9_7 <= 10
 0 <= conn_0_9_8 <= 10
 0 <= conn_1_0_1 <= 10
 0 <= conn_1_0_10 <= 10
 0 <= conn_1_0_2 <= 10
 0 <= conn_1_0_3 <= 10
 0 <= conn_1_0_4 <= 10
 0 <= conn_1_0_5 <= 10
 0 <= conn_1_0_6 <= 10
 0 <= conn_1_0_7 <= 10
 0 <= conn_1_0_8 <= 10
 0 <= conn_1_0_9 <= 10
 0 <= conn_1_10_0 <= 10
 0 <= conn_1_10_1 <= 10
 0 <= conn_1_10_2 <= 10
 0 <= conn_1_10_3 <= 10
 0 <= conn_1_10_4 <= 10
 0 <= conn_1_10_5 <= 10
 0 <= conn_1_10_6 <= 10
 0 <= conn_1_10_7 <= 10
 0 <= conn_1_10_8 <= 10
 0 <= conn_1_10_9 <= 10
 0 <= conn_1_1_0 <= 10
 0 <= conn_1_1_10 <= 10
 0 <= conn_1_1_2 <= 10
 0 <= conn_1_1_3 <= 10
 0 <= conn_1_1_4 <= 10
 0 <= conn_1_1_5 <= 10
 0 <= conn_1_1_6 <= 10
 0 <= conn_1_1_7 <= 10
 0 <= conn_1_1_8 <= 10
 0 <= conn_1_1_9 <= 10
 0 <= conn_1_2_0 <= 10
 0 <= conn_1_2_1 <= 10
 0 <= conn_1_2_10 <= 10
 0 <= conn_1_2_3 <= 10
 0 <= conn_1_2_4 <= 10
 0 <= conn_1_2_5 <= 10
 0 <= conn_1_2_6 <= 10
 0 <= conn_1_2_7 <= 10
 0 <= conn_1_2_8 <= 10
 0 <= conn_1_2_9 <= 10
 0 <= conn_1_3_0 <= 10
 0 <= conn_1_3_1 <= 10
 0 <= conn_1_3_10 <= 10
 0 <= conn_1_3_2 <= 10
 0 <= conn_1_3_4 <= 10
 0 <= conn_1_3_5 <= 10
 0 <= conn_1_3_6 <= 10
 0 <= conn_1_3_7 <= 10
 0 <= conn_1_3_8 <= 10
 0 <= conn_1_3_9 <= 10
 0 <= conn_1_4_0 <= 10
 0 <= conn_1_4_1 <= 10
 0 <= conn_1_4_10 <= 10
 0 <= conn_1_4_2 <= 10
 0 <= conn_1_4_3 <= 10
 0 <= conn_1_4_5 <= 10
 0 <= conn_1_4_6 <= 10
 0 <= conn_1_4_7 <= 10
 0 <= conn_1_4_8 <= 10
 0 <= conn_1_4_9 <= 10
 0 <= conn_1_5_0 <= 10
 0 <= conn_1_5_1 <= 10
 0 <= conn_1_5_10 <= 10
 0 <= conn_1_5_2 <= 10
 0 <= conn_1_5_3 <= 10
 0 <= conn_1_5_4 <= 10
 0 <= conn_1_5_6 <= 10
 0 <= conn_1_5_7 <= 10
 0 <= conn_1_5_8 <= 10
 0 <= conn_1_5_9 <= 10
 0 <= conn_1_6_0 <= 10
 0 <= conn_1_6_1 <= 10
 0 <= conn_1_6_10 <= 10
 0 <= conn_1_6_2 <= 10
 0 <= conn_1_6_3 <= 10
 0 <= conn_1_6_4 <= 10
 0 <= conn_1_6_5 <= 10
 0 <= conn_1_6_7 <= 10
 0 <= conn_1_6_8 <= 10
 0 <= conn_1_6_9 <= 10
 0 <= conn_1_7_0 <= 10
 0 <= conn_1_7_1 <= 10
 0 <= conn_1_7_10 <= 10
 0 <= conn_1_7_2 <= 10
 0 <= conn_1_7_3 <= 10
 0 <= conn_1_7_4 <= 10
 0 <= conn_1_7_5 <= 10
 0 <= conn_1_7_6 <= 10
 0 <= conn_1_7_8 <= 10
 0 <= conn_1_7_9 <= 10
 0 <= conn_1_8_0 <= 10
 0 <= conn_1_8_1 <= 10
 0 <= conn_1_8_10 <= 10
 0 <= conn_1_8_2 <= 10
 0 <= conn_1_8_3 <= 10
 0 <= conn_1_8_4 <= 10
 0 <= conn_1_8_5 <= 10
 0 <= conn_1_8_6 <= 10
 0 <= conn_1_8_7 <= 10
 0 <= conn_1_8_9 <= 10
 0 <= conn_1_9_0 <= 10
 0 <= conn_1_9_1 <= 10
 0 <= conn_1_9_10 <= 10
 0 <= conn_1_9_2 <= 10
 0 <= conn_1_9_3 <= 10
 0 <= conn_1_9_4 <= 10
 0 <= conn_1_9_5 <= 10
 0 <= conn_1_9_6 <= 10
 0 <= conn_1_9_7 <= 10
 0 <= conn_1_9_8 <= 10
 0 <= conn_2_0_1 <= 10
 0 <= conn_2_0_10 <= 10
 0 <= conn_2_0_2 <= 10
 0 <= conn_2_0_3 <= 10
 0 <= conn_2_0_4 <= 10
 0 <= conn_2_0_5 <= 10
 0 <= conn_2_0_6 <= 10
 0 <= conn_2_0_7 <= 10
 0 <= conn_2_0_8 <= 10
 0 <= conn_2_0_9 <= 10
 0 <= conn_2_10_0 <= 10
 0 <= conn_2_10_1 <= 10
 0 <= conn_2_10_2 <= 10
 0 <= conn_2_10_3 <= 10
 0 <= conn_2_10_4 <= 10
 0 <= conn_2_10_5 <= 10
 0 <= conn_2_10_6 <= 10
 0 <= conn_2_10_7 <= 10
 0 <= conn_2_10_8 <= 10
 0 <= conn_2_10_9 <= 10
 0 <= conn_2_1_0 <= 10
 0 <= conn_2_1_10 <= 10
 0 <= conn_2_1_2 <= 10
 0 <= conn_2_1_3 <= 10
 0 <= conn_2_1_4 <= 10
 0 <= conn_2_1_5 <= 10
 0 <= conn_2_1_6 <= 10
 0 <= conn_2_1_7 <= 10
 0 <= conn_2_1_8 <= 10
 0 <= conn_2_1_9 <= 10
 0 <= conn_2_2_0 <= 10
 0 <= conn_2_2_1 <= 10
 0 <= conn_2_2_10 <= 10
 0 <= conn_2_2_3 <= 10
 0 <= conn_2_2_4 <= 10
 0 <= conn_2_2_5 <= 10
 0 <= conn_2_2_6 <= 10
 0 <= conn_2_2_7 <= 10
 0 <= conn_2_2_8 <= 10
 0 <= conn_2_2_9 <= 10
 0 <= conn_2_3_0 <= 10
 0 <= conn_2_3_1 <= 10
 0 <= conn_2_3_10 <= 10
 0 <= conn_2_3_2 <= 10
 0 <= conn_2_3_4 <= 10
 0 <= conn_2_3_5 <= 10
 0 <= conn_2_3_6 <= 10
 0 <= conn_2_3_7 <= 10
 0 <= conn_2_3_8 <= 10
 0 <= conn_2_3_9 <= 10
 0 <= conn_2_4_0 <= 10
 0 <= conn_2_4_1 <= 10
 0 <= conn_2_4_10 <= 10
 0 <= conn_2_4_2 <= 10
 0 <= conn_2_4_3 <= 10
 0 <= conn_2_4_5 <= 10
 0 <= conn_2_4_6 <= 10
 0 <= conn_2_4_7 <= 10
 0 <= conn_2_4_8 <= 10
 0 <= conn_2_4_9 <= 10
 0 <= conn_2_5_0 <= 10
 0 <= conn_2_5_1 <= 10
 0 <= conn_2_5_10 <= 10
 0 <= conn_2_5_2 <= 10
 0 <= conn_2_5_3 <= 10
 0 <= conn_2_5_4 <= 10
 0 <= conn_2_5_6 <= 10
 0 <= conn_2_5_7 <= 10
 0 <= conn_2_5_8 <= 10
 0 <= conn_2_5_9 <= 10
 0 <= conn_2_6_0 <= 10
 0 <= conn_2_6_1 <= 10
 0 <= conn_2_6_10 <= 10
 0 <= conn_2_6_2 <= 10
 0 <= conn_2_6_3 <= 10
 0 <= conn_2_6_4 <= 10
 0 <= conn_2_6_5 <= 10
 0 <= conn_2_6_7 <= 10
 0 <= conn_2_6_8 <= 10
 0 <= conn_2_6_9 <= 10
 0 <= conn_2_7_0 <= 10
 0 <= conn_2_7_1 <= 10
 0 <= conn_2_7_10 <= 10
 0 <= conn_2_7_2 <= 10
 0 <= conn_2_7_3 <= 10
 0 <= conn_2_7_4 <= 10
 0 <= conn_2_7_5 <= 10
 0 <= conn_2_7_6 <= 10
 0 <= conn_2_7_8 <= 10
 0 <= conn_2_7_9 <= 10
 0 <= conn_2_8_0 <= 10
 0 <= conn_2_8_1 <= 10
 0 <= conn_2_8_10 <= 10
 0 <= conn_2_8_2 <= 10
 0 <= conn_2_8_3 <= 10
 0 <= conn_2_8_4 <= 10
 0 <= conn_2_8_5 <= 10
 0 <= conn_2_8_6 <= 10
 0 <= conn_2_8_7 <= 10
 0 <= conn_2_8_9 <= 10
 0 <= conn_2_9_0 <= 10
 0 <= conn_2_9_1 <= 10
 0 <= conn_2_9_10 <= 10
 0 <= conn_2_9_2 <= 10
 0 <= conn_2_9_3 <= 10
 0 <= conn_2_9_4 <= 10
 0 <= conn_2_9_5 <= 10
 0 <= conn_2_9_6 <= 10
 0 <= conn_2_9_7 <= 10
 0 <= conn_2_9_8 <= 10
 0 <= d_0_1 <= 1
 0 <= d_0_10 <= 20
 0 <= d_0_2 <= 15
 0 <= d_0_3 <= 20
 0 <= d_0_4 <= 20
 0 <= d_0_5 <= 20
 0 <= d_0_6 <= 2
 0 <= d_0_7 <= 1
 0 <= d_0_8 <= 11
 0 <= d_0_9 <= 20
 0 <= d_1_1 <= 1
 0 <= d_1_10 <= 20
 0 <= d_1_2 <= 15
 0 <= d_1_3 <= 20
 0 <= d_1_4 <= 20
 0 <= d_1_5 <= 20
 0 <= d_1_6 <= 2
 0 <= d_1_7 <= 1
 0 <= d_1_8 <= 11
 0 <= d_1_9 <= 20
 0 <= d_2_1 <= 1
 0 <= d_2_10 <= 20
 0 <= d_2_2 <= 15
 0 <= d_2_3 <= 20
 0 <= d_2_4 <= 20
 0 <= d_2_5 <= 20
 0 <= d_2_6 <= 2
 0 <= d_2_7 <= 1
 0 <= d_2_8 <= 11
 0 <= d_2_9 <= 20
 0 <= e_1 <= 1
 0 <= e_10 <= 1
 0 <= e_2 <= 1.3636363636363638
 0 <= e_3 <= 1
 0 <= e_4 <= 1.7272727272727271
 0 <= e_5 <= 1.4736842105263159
 0 <= e_6 <= 1
 0 <= e_7 <= 1.5
 0 <= e_8 <= 1
 0 <= e_9 <= 1.7142857142857144
 0 <= h_1_10 <= 3.4590643274853803
 0 <= h_1_2 <= 4.1004784688995217
 0 <= h_1_3 <= 3.4775828460038989
 0 <= h_1_4 <= 4.464114832535885
 0 <= h_1_5 <= 4.2105263157894743
 0 <= h_1_6 <= 3.361842105263158
 0 <= h_1_7 <= 4.2368421052631575
 0 <= h_1_8 <= 3.4511278195488719
 0 <= h_1_9 <= 4.4511278195488728
 0 <= h_2_10 <= 4.0858585858585865
 0 <= h_2_3 <= 4.1043771043771047
 0 <= h_2_4 <= 5.0909090909090908
 0 <= h_2_5 <= 4.8373205741626801
 0 <= h_2_6 <= 3.9886363636363638
 0 <= h_2_7 <= 4.8636363636363633
 0 <= h_2_8 <= 4.0779220779220777
 0 <= h_2_9 <= 5.0779220779220786
 0 <= h_3_10 <= 3.4629629629629628
 0 <= h_3_4 <= 4.468013468013468
 0 <= h_3_5 <= 4.2144249512670564
 0 <= h_3_6 <= 3.3657407407407405
 0 <= h_3_7 <= 4.2407407407407405
 0 <= h_3_8 <= 3.4550264550264549
 0 <= h_3_9 <= 4.4550264550264549
 0 <= h_4_10 <= 4.4494949494949498
 0 <= h_4_5 <= 5.2009569377990434
 0 <= h_4_6 <= 4.3522727272727266
 0 <= h_4_7 <= 5.2272727272727266
 0 <= h_4_8 <= 4.441558441558441
 0 <= h_4_9 <= 5.4415584415584419
 0 <= h_5_10 <= 4.1959064327485383
 0 <= h_5_6 <= 4.0986842105263159
 0 <= h_5_7 <= 4.9736842105263159
 0 <= h_5_8 <= 4.1879699248120303
 0 <= h_5_9 <= 5.1879699248120303
 0 <= h_6_10 <= 3.3472222222222223
 0 <= h_6_7 <= 4.125
 0 <= h_6_8 <= 3.3392857142857144
 0 <= h_6_9 <= 4.3392857142857144
 0 <= h_7_10 <= 4.2222222222222223
 0 <= h_7_8 <= 4.2142857142857144
 0 <= h_7_9 <= 5.2142857142857144
 0 <= h_8_10 <= 3.4365079365079367
 0 <= h_8_9 <= 4.4285714285714288
 0 <= h_9_10 <= 4.4365079365079367
 0 <= load_0_1 <= 20
 0 <= load_0_10 <= 20
 0 <= load_0_2 <= 20
 0 <= load_0_3 <= 20
 0 <= load_0_4 <= 20
 0 <= load_0_5 <= 20
 0 <= load_0_6 <= 20
 0 <= load_0_7 <= 20
 0 <= load_0_8 <= 20
 0 <= load_0_9 <= 20
 0 <= load_1_1 <= 20
 0 <= load_1_10 <= 20
 0 <= load_1_2 <= 20
 0 <= load_1_3 <= 20
 0 <= load_1_4 <= 20
 0 <= load_1_5 <= 20
 0 <= load_1_6 <= 20
 0 <= load_1_7 <= 20
 0 <= load_1_8 <= 20
 0 <= load_1_9 <= 20
 0 <= load_2_1 <= 20
 0 <= load_2_10 <= 20
 0 <= load_2_2 <= 20
 0 <= load_2_3 <= 20
 0 <= load_2_4 <= 20
 0 <= load_2_5 <= 20
 0 <= load_2_6 <= 20
 0 <= load_2_7 <= 20
 0 <= load_2_8 <= 20
 0 <= load_2_9 <= 20
 0 <= mode_0_1 <= 1
 0 <= mode_0_10 <= 1
 0 <= mode_0_2 <= 1
 0 <= mode_0_3 <= 1
 0 <= mode_0_4 <= 1
 0 <= mode_0_5 <= 1
 0 <= mode_0_6 <= 1
 0 <= mode_0_7 <= 1
 0 <= mode_0_8 <= 1
 0 <= mode_0_9 <= 1
 0 <= mode_1_1 <= 1
 0 <= mode_1_10 <= 1
 0 <= mode_1_2 <= 1
 0 <= mode_1_3 <= 1
 0 <= mode_1_4 <= 1
 0 <= mode_1_5 <= 1
 0 <= mode_1_6 <= 1
 0 <= mode_1_7 <= 1
 0 <= mode_1_8 <= 1
 0 <= mode_1_9 <= 1
 0 <= mode_2_1 <= 1
 0 <= mode_2_10 <= 1
 0 <= mode_2_2 <= 1
 0 <= mode_2_3 <= 1
 0 <= mode_2_4 <= 1
 0 <= mode_2_5 <= 1
 0 <= mode_2_6 <= 1
 0 <= mode_2_7 <= 1
 0 <= mode_2_8 <= 1
 0 <= mode_2_9 <= 1
 0 <= ord_0_1 <= 10
 0 <= ord_0_10 <= 10
 0 <= ord_0_2 <= 10
 0 <= ord_0_3 <= 10
 0 <= ord_0_4 <= 10
 0 <= ord_0_5 <= 10
 0 <= ord_0_6 <= 10
 0 <= ord_0_7 <= 10
 0 <= ord_0_8 <= 10
 0 <= ord_0_9 <= 10
 0 <= ord_1_1 <= 10
 0 <= ord_1_10 <= 10
 0 <= ord_1_2 <= 10
 0 <= ord_1_3 <= 10
 0 <= ord_1_4 <= 10
 0 <= ord_1_5 <= 10
 0 <= ord_1_6 <= 10
 0 <= ord_1_7 <= 10
 0 <= ord_1_8 <= 10
 0 <= ord_1_9 <= 10
 0 <= ord_2_1 <= 10
 0 <= ord_2_10 <= 10
 0 <= ord_2_2 <= 10
 0 <= ord_2_3 <= 10
 0 <= ord_2_4 <= 10
 0 <= ord_2_5 <= 10
 0 <= ord_2_6 <= 10
 0 <= ord_2_7 <= 10
 0 <= ord_2_8 <= 10
 0 <= ord_2_9 <= 10
 0 <= p_0_1 <= 20
 0 <= p_0_10 <= 5
 0 <= p_0_2 <= 11
 0 <= p_0_3 <= 14
 0 <= p_0_4 <= 0
 0 <= p_0_5 <= 6
 0 <= p_0_6 <= 20
 0 <= p_0_7 <= 19
 0 <= p_0_8 <= 20
 0 <= p_0_9 <= 6
 0 <= p_1_1 <= 20
 0 <= p_1_10 <= 5
 0 <= p_1_2 <= 11
 0 <= p_1_3 <= 14
 0 <= p_1_4 <= 0
 0 <= p_1_5 <= 6
 0 <= p_1_6 <= 20
 0 <= p_1_7 <= 19
 0 <= p_1_8 <= 20
 0 <= p_1_9 <= 6
 0 <= p_2_1 <= 20
 0 <= p_2_10 <= 5
 0 <= p_2_2 <= 11
 0 <= p_2_3 <= 14
 0 <= p_2_4 <= 0
 0 <= p_2_5 <= 6
 0 <= p_2_6 <= 20
 0 <= p_2_7 <= 19
 0 <= p_2_8 <= 20
 0 <= p_2_9 <= 6
 0 <= prod_10_0 <= 0.50454385216420738
 0 <= prod_10_1 <= 0.50454385216420738
 0 <= prod_10_2 <= 0.50454385216420738
 0 <= prod_10_3 <= 0.50454385216420738
 0 <= prod_10_4 <= 0.50454385216420738
 0 <= prod_1_0 <= 0.50454385216420738
 0 <= prod_1_1 <= 0.50454385216420738
 0 <= prod_1_2 <= 0.50454385216420738
 0 <= prod_1_3 <= 0.50454385216420738
 0 <= prod_1_4 <= 0.50454385216420738
 0 <= prod_1_5 <= 0.50454385216420738
 0 <= prod_2_0 <= 0.50454385216420738
 0 <= prod_2_1 <= 0.50454385216420738
 0 <= prod_2_2 <= 0.50454385216420738
 0 <= prod_2_3 <= 0.50454385216420738
 0 <= prod_2_4 <= 0.50454385216420738
 0 <= prod_3_0 <= 0.50454385216420738
 0 <= prod_3_1 <= 0.50454385216420738
 0 <= prod_3_2 <= 0.50454385216420738
 0 <= prod_3_3 <= 0.50454385216420738
 0 <= prod_3_4 <= 0.50454385216420738
 0 <= prod_3_5 <= 0.50454385216420738
 0 <= prod_4_0 <= 0.50454385216420738
 0 <= prod_4_1 <= 0.50454385216420738
 0 <= prod_4_2 <= 0.50454385216420738
 0 <= prod_4_3 <= 0.50454385216420738
 0 <= prod_4_4 <= 0.50454385216420738
 0 <= prod_5_0 <= 0.50454385216420738
 0 <= prod_5_1 <= 0.50454385216420738
 0 <= prod_5_2 <= 0.50454385216420738
 0 <= prod_5_3 <= 0.50454385216420738
 0 <= prod_5_4 <= 0.50454385216420738
 0 <= prod_5_5 <= 0.50454385216420738
 0 <= prod_6_0 <= 0.50454385216420738
 0 <= prod_6_1 <= 0.50454385216420738
 0 <= prod_6_2 <= 0.50454385216420738
 0 <= prod_6_3 <= 0.50454385216420738
 0 <= prod_6_4 <= 0.50454385216420738
 0 <= prod_7_0 <= 0.50454385216420738
 0 <= prod_7_1 <= 0.50454385216420738
 0 <= prod_7_2 <= 0.50454385216420738
 0 <= prod_7_3 <= 0.50454385216420738
 0 <= prod_7_4 <= 0.50454385216420738
 0 <= prod_8_0 <= 0.50454385216420738
 0 <= prod_8_1 <= 0.50454385216420738
 0 <= prod_8_2 <= 0.50454385216420738
 0 <= prod_8_3 <= 0.50454385216420738
 0 <= prod_8_4 <= 0.50454385216420738
 0 <= prod_8_5 <= 0.50454385216420738
 0 <= prod_9_0 <= 0.50454385216420738
 0 <= prod_9_1 <= 0.50454385216420738
 0 <= prod_9_2 <= 0.50454385216420738
 0 <= prod_9_3 <= 0.50454385216420738
 0 <= prod_9_4 <= 0.50454385216420738
 0 <= prod_9_5 <= 0.50454385216420738
 0 <= r_1 <= 1.736842105263158
 0 <= r_10 <= 1.7222222222222223
 0 <= r_2 <= 2.3636363636363638
 0 <= r_3 <= 1.7407407407407407
 0 <= r_4 <= 2.7272727272727271
 0 <= r_5 <= 2.4736842105263159
 0 <= r_6 <= 1.625
 0 <= r_7 <= 2.5
 0 <= r_8 <= 1.7142857142857142
 0 <= r_9 <= 2.7142857142857144
 0 <= r_max <= 2.7272727272727271
 0 <= r_min <= 2.7272727272727271
 0 <= x_0_0_1 <= 1
 0 <= x_0_0_10 <= 1
 0 <= x_0_0_2 <= 1
 0 <= x_0_0_3 <= 1
 0 <= x_0_0_4 <= 1
 0 <= x_0_0_5 <= 1
 0 <= x_0_0_6 <= 1
 0 <= x_0_0_7 <= 1
 0 <= x_0_0_8 <= 1
 0 <= x_0_0_9 <= 1
 0 <= x_0_10_0 <= 1
 0 <= x_0_10_1 <= 1
 0 <= x_0_10_2 <= 1
 0 <= x_0_10_3 <= 1
 0 <= x_0_10_4 <= 1
 0 <= x_0_10_5 <= 1
 0 <= x_0_10_6 <= 1
 0 <= x_0_10_7 <= 1
 0 <= x_0_10_8 <= 1
 0 <= x_0_10_9 <= 1
 0 <= x_0_1_0 <= 1
 0 <= x_0_1_10 <= 1
 0 <= x_0_1_2 <= 1
 0 <= x_0_1_3 <= 1
 0 <= x_0_1_4 <= 1
 0 <= x_0_1_5 <= 1
 0 <= x_0_1_6 <= 1
 0 <= x_0_1_7 <= 1
 0 <= x_0_1_8 <= 1
 0 <= x_0_1_9 <= 1
 0 <= x_0_2_0 <= 1
 0 <= x_0_2_1 <= 1
 0 <= x_0_2_10 <= 1
 0 <= x_0_2_3 <= 1
 0 <= x_0_2_4 <= 1
 0 <= x_0_2_5 <= 1
 0 <= x_0_2_6 <= 1
 0 <= x_0_2_7 <= 1
 0 <= x_0_2_8 <= 1
 0 <= x_0_2_9 <= 1
 0 <= x_0_3_0 <= 1
 0 <= x_0_3_1 <= 1
 0 <= x_0_3_10 <= 1
 0 <= x_0_3_2 <= 1
 0 <= x_0_3_4 <= 1
 0 <= x_0_3_5 <= 1
 0 <= x_0_3_6 <= 1
 0 <= x_0_3_7 <= 1
 0 <= x_0_3_8 <= 1
 0 <= x_0_3_9 <= 1
 0 <= x_0_4_0 <= 1
 0 <= x_0_4_1 <= 1
 0 <= x_0_4_10 <= 1
 0 <= x_0_4_2 <= 1
 0 <= x_0_4_3 <= 1
 0 <= x_0_4_5 <= 1
 0 <= x_0_4_6 <= 1
 0 <= x_0_4_7 <= 1
 0 <= x_0_4_8 <= 1
 0 <= x_0_4_9 <= 1
 0 <= x_0_5_0 <= 1
 0 <= x_0_5_1 <= 1
 0 <= x_0_5_10 <= 1
 0 <= x_0_5_2 <= 1
 0 <= x_0_5_3 <= 1
 0 <= x_0_5_4 <= 1
 0 <= x_0_5_6 <= 1
 0 <= x_0_5_7 <= 1
 0 <= x_0_5_8 <= 1
 0 <= x_0_5_9 <= 1
 0 <= x_0_6_0 <= 1
 0 <= x_0_6_1 <= 1
 0 <= x_0_6_10 <= 1
 0 <= x_0_6_2 <= 1
 0 <= x_0_6_3 <= 1
 0 <= x_0_6_4 <= 1
 0 <= x_0_6_5 <= 1
 0 <= x_0_6_7 <= 1
 0 <= x_0_6_8 <= 1
 0 <= x_0_6_9 <= 1
 0 <= x_0_7_0 <= 1
 0 <= x_0_7_1 <= 1
 0 <= x_0_7_10 <= 1
 0 <= x_0_7_2 <= 1
 0 <= x_0_7_3 <= 1
 0 <= x_0_7_4 <= 1
 0 <= x_0_7_5 <= 1
 0 <= x_0_7_6 <= 1
 0 <= x_0_7_8 <= 1
 0 <= x_0_7_9 <= 1
 0 <= x_0_8_0 <= 1
 0 <= x_0_8_1 <= 1
 0 <= x_0_8_10 <= 1
 0 <= x_0_8_2 <= 1
 0 <= x_0_8_3 <= 1
 0 <= x_0_8_4 <= 1
 0 <= x_0_8_5 <= 1
 0 <= x_0_8_6 <= 1
 0 <= x_0_8_7 <= 1
 0 <= x_0_8_9 <= 1
 0 <= x_0_9_0 <= 1
 0 <= x_0_9_1 <= 1
 0 <= x_0_9_10 <= 1
 0 <= x_0_9_2 <= 1
 0 <= x_0_9_3 <= 1
 0 <= x_0_9_4 <= 1
 0 <= x_0_9_5 <= 1
 0 <= x_0_9_6 <= 1
 0 <= x_0_9_7 <= 1
 0 <= x_0_9_8 <= 1
 0 <= x_1_0_1 <= 1
 0 <= x_1_0_10 <= 1
 0 <= x_1_0_2 <= 1
 0 <= x_1_0_3 <= 1
 0 <= x_1_0_4 <= 1
 0 <= x_1_0_5 <= 1
 0 <= x_1_0_6 <= 1
 0 <= x_1_0_7 <= 1
 0 <= x_1_0_8 <= 1
 0 <= x_1_0_9 <= 1
 0 <= x_1_10_0 <= 1
 0 <= x_1_10_1 <= 1
 0 <= x_1_10_2 <= 1
 0 <= x_1_10_3 <= 1
 0 <= x_1_10_4 <= 1
 0 <= x_1_10_5 <= 1
 0 <= x_1_10_6 <= 1
 0 <= x_1_10_7 <= 1
 0 <= x_1_10_8 <= 1
 0 <= x_1_10_9 <= 1
 0 <= x_1_1_0 <= 1
 0 <= x_1_1_10 <= 1
 0 <= x_1_1_2 <= 1
 0 <= x_1_1_3 <= 1
 0 <= x_1_1_4 <= 1
 0 <= x_1_1_5 <= 1
 0 <= x_1_1_6 <= 1
 0 <= x_1_1_7 <= 1
 0 <= x_1_1_8 <= 1
 0 <= x_1_1_9 <= 1
 0 <= x_1_2_0 <= 1
 0 <= x_1_2_1 <= 1
 0 <= x_1_2_10 <= 1
 0 <= x_1_2_3 <= 1
 0 <= x_1_2_4 <= 1
 0 <= x_1_2_5 <= 1
 0 <= x_1_2_6 <= 1
 0 <= x_1_2_7 <= 1
 0 <= x_1_2_8 <= 1
 0 <= x_1_2_9 <= 1
 0 <= x_1_3_0 <= 1
 0 <= x_1_3_1 <= 1
 0 <= x_1_3_10 <= 1
 0 <= x_1_3_2 <= 1
 0 <= x_1_3_4 <= 1
 0 <= x_1_3_5 <= 1
 0 <= x_1_3_6 <= 1
 0 <= x_1_3_7 <= 1
 0 <= x_1_3_8 <= 1
 0 <= x_1_3_9 <= 1
 0 <= x_1_4_0 <= 1
 0 <= x_1_4_1 <= 1
 0 <= x_1_4_10 <= 1
 0 <= x_1_4_2 <= 1
 0 <= x_1_4_3 <= 1
 0 <= x_1_4_5 <= 1
 0 <= x_1_4_6 <= 1
 0 <= x_1_4_7 <= 1
 0 <= x_1_4_8 <= 1
 0 <= x_1_4_9 <= 1
 0 <= x_1_5_0 <= 1
 0 <= x_1_5_1 <= 1
 0 <= x_1_5_10 <= 1
 0 <= x_1_5_2 <= 1
 0 <= x_1_5_3 <= 1
 0 <= x_1_5_4 <= 1
 0 <= x_1_5_6 <= 1
 0 <= x_1_5_7 <= 1
 0 <= x_1_5_8 <= 1
 0 <= x_1_5_9 <= 1
 0 <= x_1_6_0 <= 1
 0 <= x_1_6_1 <= 1
 0 <= x_1_6_10 <= 1
 0 <= x_1_6_2 <= 1
 0 <= x_1_6_3 <= 1
 0 <= x_1_6_4 <= 1
 0 <= x_1_6_5 <= 1
 0 <= x_1_6_7 <= 1
 0 <= x_1_6_8 <= 1
 0 <= x_1_6_9 <= 1
 0 <= x_1_7_0 <= 1
 0 <= x_1_7_1 <= 1
 0 <= x_1_7_10 <= 1
 0 <= x_1_7_2 <= 1
 0 <= x_1_7_3 <= 1
 0 <= x_1_7_4 <= 1
 0 <= x_1_7_5 <= 1
 0 <= x_1_7_6 <= 1
 0 <= x_1_7_8 <= 1
 0 <= x_1_7_9 <= 1
 0 <= x_1_8_0 <= 1
 0 <= x_1_8_1 <= 1
 0 <= x_1_8_10 <= 1
 0 <= x_1_8_2 <= 1
 0 <= x_1_8_3 <= 1
 0 <= x_1_8_4 <= 1
 0 <= x_1_8_5 <= 1
 0 <= x_1_8_6 <= 1
 0 <= x_1_8_7 <= 1
 0 <= x_1_8_9 <= 1
 0 <= x_1_9_0 <= 1
 0 <= x_1_9_1 <= 1
 0 <= x_1_9_10 <= 1
 0 <= x_1_9_2 <= 1
 0 <= x_1_9_3 <= 1
 0 <= x_1_9_4 <= 1
 0 <= x_1_9_5 <= 1
 0 <= x_1_9_6 <= 1
 0 <= x_1_9_7 <= 1
 0 <= x_1_9_8 <= 1
 0 <= x_2_0_1 <= 1
 0 <= x_2_0_10 <= 1
 0 <= x_2_0_2 <= 1
 0 <= x_2_0_3 <= 1
 0 <= x_2_0_4 <= 1
 0 <= x_2_0_5 <= 1
 0 <= x_2_0_6 <= 1
 0 <= x_2_0_7 <= 1
 0 <= x_2_0_8 <= 1
 0 <= x_2_0_9 <= 1
 0 <= x_2_10_0 <= 1
 0 <= x_2_10_1 <= 1
 0 <= x_2_10_2 <= 1
 0 <= x_2_10_3 <= 1
 0 <= x_2_10_4 <= 1
 0 <= x_2_10_5 <= 1
 0 <= x_2_10_6 <= 1
 0 <= x_2_10_7 <= 1
 0 <= x_2_10_8 <= 1
 0 <= x_2_10_9 <= 1
 0 <= x_2_1_0 <= 1
 0 <= x_2_1_10 <= 1
 0 <= x_2_1_2 <= 1
 0 <= x_2_1_3 <= 1
 0 <= x_2_1_4 <= 1
 0 <= x_2_1_5 <= 1
 0 <= x_2_1_6 <= 1
 0 <= x_2_1_7 <= 1
 0 <= x_2_1_8 <= 1
 0 <= x_2_1_9 <= 1
 0 <= x_2_2_0 <= 1
 0 <= x_2_2_1 <= 1
 0 <= x_2_2_10 <= 1
 0 <= x_2_2_3 <= 1
 0 <= x_2_2_4 <= 1
 0 <= x_2_2_5 <= 1
 0 <= x_2_2_6 <= 1
 0 <= x_2_2_7 <= 1
 0 <= x_2_2_8 <= 1
 0 <= x_2_2_9 <= 1
 0 <= x_2_3_0 <= 1
 0 <= x_2_3_1 <= 1
 0 <= x_2_3_10 <= 1
 0 <= x_2_3_2 <= 1
 0 <= x_2_3_4 <= 1
 0 <= x_2_3_5 <= 1
 0 <= x_2_3_6 <= 1
 0 <= x_2_3_7 <= 1
 0 <= x_2_3_8 <= 1
 0 <= x_2_3_9 <= 1
 0 <= x_2_4_0 <= 1
 0 <= x_2_4_1 <= 1
 0 <= x_2_4_10 <= 1
 0 <= x_2_4_2 <= 1
 0 <= x_2_4_3 <= 1
 0 <= x_2_4_5 <= 1
 0 <= x_2_4_6 <= 1
 0 <= x_2_4_7 <= 1
 0 <= x_2_4_8 <= 1
 0 <= x_2_4_9 <= 1
 0 <= x_2_5_0 <= 1
 0 <= x_2_5_1 <= 1
 0 <= x_2_5_10 <= 1
 0 <= x_2_5_2 <= 1
 0 <= x_2_5_3 <= 1
 0 <= x_2_5_4 <= 1
 0 <= x_2_5_6 <= 1
 0 <= x_2_5_7 <= 1
 0 <= x_2_5_8 <= 1
 0 <= x_2_5_9 <= 1
 0 <= x_2_6_0 <= 1
 0 <= x_2_6_1 <= 1
 0 <= x_2_6_10 <= 1
 0 <= x_2_6_2 <= 1
 0 <= x_2_6_3 <= 1
 0 <= x_2_6_4 <= 1
 0 <= x_2_6_5 <= 1
 0 <= x_2_6_7 <= 1
 0 <= x_2_6_8 <= 1
 0 <= x_2_6_9 <= 1
 0 <= x_2_7_0 <= 1
 0 <= x_2_7_1 <= 1
 0 <= x_2_7_10 <= 1
 0 <= x_2_7_2 <= 1
 0 <= x_2_7_3 <= 1
 0 <= x_2_7_4 <= 1
 0 <= x_2_7_5 <= 1
 0 <= x_2_7_6 <= 1
 0 <= x_2_7_8 <= 1
 0 <= x_2_7_9 <= 1
 0 <= x_2_8_0 <= 1
 0 <= x_2_8_1 <= 1
 0 <= x_2_8_10 <= 1
 0 <= x_2_8_2 <= 1
 0 <= x_2_8_3 <= 1
 0 <= x_2_8_4 <= 1
 0 <= x_2_8_5 <= 1
 0 <= x_2_8_6 <= 1
 0 <= x_2_8_7 <= 1
 0 <= x_2_8_9 <= 1
 0 <= x_2_9_0 <= 1
 0 <= x_2_9_1 <= 1
 0 <= x_2_9_10 <= 1
 0 <= x_2_9_2 <= 1
 0 <= x_2_9_3 <= 1
 0 <= x_2_9_4 <= 1
 0 <= x_2_9_5 <= 1
 0 <= x_2_9_6 <= 1
 0 <= x_2_9_7 <= 1
 0 <= x_2_9_8 <= 1
 0 <= z_0_1 <= 1
 0 <= z_0_10 <= 1
 0 <= z_0_2 <= 1
 0 <= z_0_3 <= 1
 0 <= z_0_4 <= 1
 0 <= z_0_5 <= 1
 0 <= z_0_6 <= 1
 0 <= z_0_7 <= 1
 0 <= z_0_8 <= 1
 0 <= z_0_9 <= 1
 0 <= z_1_1 <= 1
 0 <= z_1_10 <= 1
 0 <= z_1_2 <= 1
 0 <= z_1_3 <= 1
 0 <= z_1_4 <= 1
 0 <= z_1_5 <= 1
 0 <= z_1_6 <= 1
 0 <= z_1_7 <= 1
 0 <= z_1_8 <= 1
 0 <= z_1_9 <= 1
 0 <= z_2_1 <= 1
 0 <= z_2_10 <= 1
 0 <= z_2_2 <= 1
 0 <= z_2_3 <= 1
 0 <= z_2_4 <= 1
 0 <= z_2_5 <= 1
 0 <= z_2_6 <= 1
 0 <= z_2_7 <= 1
 0 <= z_2_8 <= 1
 0 <= z_2_9 <= 1
 0 <= zprod_1 <= 33
 0 <= zprod_10 <= 31
 0 <= zprod_2 <= 26
 0 <= zprod_3 <= 47
 0 <= zprod_4 <= 30
 0 <= zprod_5 <= 47
 0 <= zprod_6 <= 26
 0 <= zprod_7 <= 20
 0 <= zprod_8 <= 48
 0 <= zprod_9 <= 38
Generals
 Y_1
 Y_10
 Y_2
 Y_3
 Y_4
 Y_5
 Y_6
 Y_7
 Y_8
 Y_9
 d_0_1
 d_0_10
 d_0_2
 d_0_3
 d_0_4
 d_0_5
 d_0_6
 d_0_7
 d_0_8
 d_0_9
 d_1_1
 d_1_10
 d_1_2
 d_1_3
 d_1_4
 d_1_5
 d_1_6
 d_1_7
 d_1_8
 d_1_9
 d_2_1
 d_2_10
 d_2_2
 d_2_3
 d_2_4
 d_2_5
 d_2_6
 d_2_7
 d_2_8
 d_2_9
 load_0_1
 load_0_10
 load_0_2
 load_0_3
 load_0_4
 load_0_5
 load_0_6
 load_0_7
 load_0_8
 load_0_9
 load_1_1
 load_1_10
 load_1_2
 load_1_3
 load_1_4
 load_1_5
 load_1_6
 load_1_7
 load_1_8
 load_1_9
 load_2_1
 load_2_10
 load_2_2
 load_2_3
 load_2_4
 load_2_5
 load_2_6
 load_2_7
 load_2_8
 load_2_9
 p_0_1
 p_0_10
 p_0_2
 p_0_3
 p_0_4
 p_0_5
 p_0_6
 p_0_7
 p_0_8
 p_0_9
 p_1_1
 p_1_10
 p_1_2
 p_1_3
 p_1_4
 p_1_5
 p_1_6
 p_1_7
 p_1_8
 p_1_9
 p_2_1
 p_2_10
 p_2_2
 p_2_3
 p_2_4
 p_2_5
 p_2_6
 p_2_7
 p_2_8
 p_2_9
Binaries
 bit_10_0
 bit_10_1
 bit_10_2
 bit_10_3
 bit_10_4
 bit_1_0
 bit_1_1
 bit_1_2
 bit_1_3
 bit_1_4
 bit_1_5
 bit_2_0
 bit_2_1
 bit_2_2
 bit_2_3
 bit_2_4
 bit_3_0
 bit_3_1
 bit_3_2
 bit_3_3
 bit_3_4
 bit_3_5
 bit_4_0
 bit_4_1
 bit_4_2
 bit_4_3
 bit_4_4
 bit_5_0
 bit_5_1
 bit_5_2
 bit_5_3
 bit_5_4
 bit_5_5
 bit_6_0
 bit_6_1
 bit_6_2
 bit_6_3
 bit_6_4
 bit_7_0
 bit_7_1
 bit_7_2
 bit_7_3
 bit_7_4
 bit_8_0
 bit_8_1
 bit_8_2
 bit_8_3
 bit_8_4
 bit_8_5
 bit_9_0
 bit_9_1
 bit_9_2
 bit_9_3
 bit_9_4
 bit_9_5
 mode_0_1
 mode_0_10
 mode_0_2
 mode_0_3
 mode_0_4
 mode_0_5
 mode_0_6
 mode_0_7
 mode_0_8
 mode_0_9
 mode_1_1
 mode_1_10
 mode_1_2
 mode_1_3
 mode_1_4
 mode_1_5
 mode_1_6
 mode_1_7
 mode_1_8
 mode_1_9
 mode_2_1
 mode_2_10
 mode_2_2
 mode_2_3
 mode_2_4
 mode_2_5
 mode_2_6
 mode_2_7
 mode_2_8
 mode_2_9
 x_0_0_1
 x_0_0_10
 x_0_0_2
 x_0_0_3
 x_0_0_4
 x_0_0_5
 x_0_0_6
 x_0_0_7
 x_0_0_8
 x_0_0_9
 x_0_10_0
 x_0_10_1
 x_0_10_2
 x_0_10_3
 x_0_10_4
 x_0_10_5
 x_0_10_6
 x_0_10_7
 x_0_10_8
 x_0_10_9
 x_0_1_0
 x_0_1_10
 x_0_1_2
 x_0_1_3
 x_0_1_4
 x_0_1_5
 x_0_1_6
 x_0_1_7
 x_0_1_8
 x_0_1_9
 x_0_2_0
 x_0_2_1
 x_0_2_10
 x_0_2_3
 x_0_2_4
 x_0_2_5
 x_0_2_6
 x_0_2_7
 x_0_2_8
 x_0_2_9
 x_0_3_0
 x_0_3_1
 x_0_3_10
 x_0_3_2
 x_0_3_4
 x_0_3_5
 x_0_3_6
 x_0_3_7
 x_0_3_8
 x_0_3_9
 x_0_4_0
 x_0_4_1
 x_0_4_10
 x_0_4_2
 x_0_4_3
 x_0_4_5
 x_0_4_6
 x_0_4_7
 x_0_4_8
 x_0_4_9
 x_0_5_0
 x_0_5_1
 x_0_5_10
 x_0_5_2
 x_0_5_3
 x_0_5_4
 x_0_5_6
 x_0_5_7
 x_0_5_8
 x_0_5_9
 x_0_6_0
 x_0_6_1
 x_0_6_10
 x_0_6_2
 x_0_6_3
 x_0_6_4
 x_0_6_5
 x_0_6_7
 x_0_6_8
 x_0_6_9
 x_0_7_0
 x_0_7_1
 x_0_7_10
 x_0_7_2
 x_0_7_3
 x_0_7_4
 x_0_7_5
 x_0_7_6
 x_0_7_8
 x_0_7_9
 x_0_8_0
 x_0_8_1
 x_0_8_10
 x_0_8_2
 x_0_8_3
 x_0_8_4
 x_0_8_5
 x_0_8_6
 x_0_8_7
 x_0_8_9
 x_0_9_0
 x_0_9_1
 x_0_9_10
 x_0_9_2
 x_0_9_3
 x_0_9_4
 x_0_9_5
 x_0_9_6
 x_0_9_7
 x_0_9_8
 x_1_0_1
 x_1_0_10
 x_1_0_2
 x_1_0_3
 x_1_0_4
 x_1_0_5
 x_1_0_6
 x_1_0_7
 x_1_0_8
 x_1_0_9
 x_1_10_0
 x_1_10_1
 x_1_10_2
 x_1_10_3
 x_1_10_4
 x_1_10_5
 x_1_10_6
 x_1_10_7
 x_1_10_8
 x_1_10_9
 x_1_1_0
 x_1_1_10
 x_1_1_2
 x_1_1_3
 x_1_1_4
 x_1_1_5
 x_1_1_6
 x_1_1_7
 x_1_1_8
 x_1_1_9
 x_1_2_0
 x_1_2_1
 x_1_2_10
 x_1_2_3
 x_1_2_4
 x_1_2_5
 x_1_2_6
 x_1_2_7
 x_1_2_8
 x_1_2_9
 x_1_3_0
 x_1_3_1
 x_1_3_10
 x_1_3_2
 x_1_3_4
 x_1_3_5
 x_1_3_6
 x_1_3_7
 x_1_3_8
 x_1_3_9
 x_1_4_0
 x_1_4_1
 x_1_4_10
 x_1_4_2
 x_1_4_3
 x_1_4_5
 x_1_4_6
 x_1_4_7
 x_1_4_8
 x_1_4_9
 x_1_5_0
 x_1_5_1
 x_1_5_10
 x_1_5_2
 x_1_5_3
 x_1_5_4
 x_1_5_6
 x_1_5_7
 x_1_5_8
 x_1_5_9
 x_1_6_0
 x_1_6_1
 x_1_6_10
 x_1_6_2
 x_1_6_3
 x_1_6_4
 x_1_6_5
 x_1_6_7
 x_1_6_8
 x_1_6_9
 x_1_7_0
 x_1_7_1
 x_1_7_10
 x_1_7_2
 x_1_7_3
 x_1_7_4
 x_1_7_5
 x_1_7_6
 x_1_7_8
 x_1_7_9
 x_1_8_0
 x_1_8_1
 x_1_8_10
 x_1_8_2
 x_1_8_3
 x_1_8_4
 x_1_8_5
 x_1_8_6
 x_1_8_7
 x_1_8_9
 x_1_9_0
 x_1_9_1
 x_1_9_10
 x_1_9_2
 x_1_9_3
 x_1_9_4
 x_1_9_5
 x_1_9_6
 x_1_9_7
 x_1_9_8
 x_2_0_1
 x_2_0_10
 x_2_0_2
 x_2_0_3
 x_2_0_4
 x_2_0_5
 x_2_0_6
 x_2_0_7
 x_2_0_8
 x_2_0_9
 x_2_10_0
 x_2_10_1
 x_2_10_2
 x_2_10_3
 x_2_10_4
 x_2_10_5
 x_2_10_6
 x_2_10_7
 x_2_10_8
 x_2_10_9
 x_2_1_0
 x_2_1_10
 x_2_1_2
 x_2_1_3
 x_2_1_4
 x_2_1_5
 x_2_1_6
 x_2_1_7
 x_2_1_8
 x_2_1_9
 x_2_2_0
 x_2_2_1
 x_2_2_10
 x_2_2_3
 x_2_2_4
 x_2_2_5
 x_2_2_6
 x_2_2_7
 x_2_2_8
 x_2_2_9
 x_2_3_0
 x_2_3_1
 x_2_3_10
 x_2_3_2
 x_2_3_4
 x_2_3_5
 x_2_3_6
 x_2_3_7
 x_2_3_8
 x_2_3_9
 x_2_4_0
 x_2_4_1
 x_2_4_10
 x_2_4_2
 x_2_4_3
 x_2_4_5
 x_2_4_6
 x_2_4_7
 x_2_4_8
 x_2_4_9
 x_2_5_0
 x_2_5_1
 x_2_5_10
 x_2_5_2
 x_2_5_3
 x_2_5_4
 x_2_5_6
 x_2_5_7
 x_2_5_8
 x_2_5_9
 x_2_6_0
 x_2_6_1
 x_2_6_10
 x_2_6_2
 x_2_6_3
 x_2_6_4
 x_2_6_5
 x_2_6_7
 x_2_6_8
 x_2_6_9
 x_2_7_0
 x_2_7_1
 x_2_7_10
 x_2_7_2
 x_2_7_3
 x_2_7_4
 x_2_7_5
 x_2_7_6
 x_2_7_8
 x_2_7_9
 x_2_8_0
 x_2_8_1
 x_2_8_10
 x_2_8_2
 x_2_8_3
 x_2_8_4
 x_2_8_5
 x_2_8_6
 x_2_8_7
 x_2_8_9
 x_2_9_0
 x_2_9_1
 x_2_9_10
 x_2_9_2
 x_2_9_3
 x_2_9_4
 x_2_9_5
 x_2_9_6
 x_2_9_7
 x_2_9_8
 z_0_1
 z_0_10
 z_0_2
 z_0_3
 z_0_4
 z_0_5
 z_0_6
 z_0_7
 z_0_8
 z_0_9
 z_1_1
 z_1_10
 z_1_2
 z_1_3
 z_1_4
 z_1_5
 z_1_6
 z_1_7
 z_1_8
 z_1_9
 z_2_1
 z_2_10
 z_2_2
 z_2_3
 z_2_4
 z_2_5
 z_2_6
 z_2_7
 z_2_8
 z_2_9
End
