\ ExactEBRP compact MILP generated from C++ command-line runner
Minimize
 obj: G + 0.02129025 e_1 + 0.017692799999999998 e_2 + 0.14999999999999999 e_3 + 0.017714999999999998 e_4 + 0.081967800000000007 e_5 + 0.019686749999999999 e_6 + 0.017590499999999998 e_7 + 0.02129025 e_8 + 0.018663599999999999 e_9 + 0.019838699999999997 e_10
Subject To
 c1: h_1_10 + h_1_2 + h_1_3 + h_1_4 + h_1_5 + h_1_6 + h_1_7 + h_1_8 + h_1_9 + h_2_10 + h_2_3 + h_2_4 + h_2_5 + h_2_6 + h_2_7 + h_2_8 + h_2_9 + h_3_10 + h_3_4 + h_3_5 + h_3_6 + h_3_7 + h_3_8 + h_3_9 + h_4_10 + h_4_5 + h_4_6 + h_4_7 + h_4_8 + h_4_9 + h_5_10 + h_5_6 + h_5_7 + h_5_8 + h_5_9 + h_6_10 + h_6_7 + h_6_8 + h_6_9 + h_7_10 + h_7_8 + h_7_9 + h_8_10 + h_8_9 + h_9_10 - 2.25 r_1 - 2.25 r_10 - 2.25 r_2 - 2.25 r_3 - 2.25 r_4 - 2.25 r_5 - 2.25 r_6 - 2.25 r_7 - 2.25 r_8 - 2.25 r_9 <= 0
 c2: h_1_10 + h_1_2 + h_1_3 + h_1_4 + h_1_5 + h_1_6 + h_1_7 + h_1_8 + h_1_9 + h_2_10 + h_2_3 + h_2_4 + h_2_5 + h_2_6 + h_2_7 + h_2_8 + h_2_9 + h_3_10 + h_3_4 + h_3_5 + h_3_6 + h_3_7 + h_3_8 + h_3_9 + h_4_10 + h_4_5 + h_4_6 + h_4_7 + h_4_8 + h_4_9 + h_5_10 + h_5_6 + h_5_7 + h_5_8 + h_5_9 + h_6_10 + h_6_7 + h_6_8 + h_6_9 + h_7_10 + h_7_8 + h_7_9 + h_8_10 + h_8_9 + h_9_10 >= 0
 c3: prod_1_0 >= 0
 c4: - 0.22500000000000001 bit_1_0 + prod_1_0 <= 0
 c5: - G - 0.22500000000000001 bit_1_0 + prod_1_0 >= -0.22500000000000001
 c6: - G + prod_1_0 <= -0
 c7: prod_1_1 >= 0
 c8: - 0.22500000000000001 bit_1_1 + prod_1_1 <= 0
 c9: - G - 0.22500000000000001 bit_1_1 + prod_1_1 >= -0.22500000000000001
 c10: - G + prod_1_1 <= -0
 c11: prod_1_2 >= 0
 c12: - 0.22500000000000001 bit_1_2 + prod_1_2 <= 0
 c13: - G - 0.22500000000000001 bit_1_2 + prod_1_2 >= -0.22500000000000001
 c14: - G + prod_1_2 <= -0
 c15: prod_1_3 >= 0
 c16: - 0.22500000000000001 bit_1_3 + prod_1_3 <= 0
 c17: - G - 0.22500000000000001 bit_1_3 + prod_1_3 >= -0.22500000000000001
 c18: - G + prod_1_3 <= -0
 c19: prod_1_4 >= 0
 c20: - 0.22500000000000001 bit_1_4 + prod_1_4 <= 0
 c21: - G - 0.22500000000000001 bit_1_4 + prod_1_4 >= -0.22500000000000001
 c22: - G + prod_1_4 <= -0
 c23: prod_1_5 >= 0
 c24: - 0.22500000000000001 bit_1_5 + prod_1_5 <= 0
 c25: - G - 0.22500000000000001 bit_1_5 + prod_1_5 >= -0.22500000000000001
 c26: - G + prod_1_5 <= -0
 c27: prod_2_0 >= 0
 c28: - 0.22500000000000001 bit_2_0 + prod_2_0 <= 0
 c29: - G - 0.22500000000000001 bit_2_0 + prod_2_0 >= -0.22500000000000001
 c30: - G + prod_2_0 <= -0
 c31: prod_2_1 >= 0
 c32: - 0.22500000000000001 bit_2_1 + prod_2_1 <= 0
 c33: - G - 0.22500000000000001 bit_2_1 + prod_2_1 >= -0.22500000000000001
 c34: - G + prod_2_1 <= -0
 c35: prod_2_2 >= 0
 c36: - 0.22500000000000001 bit_2_2 + prod_2_2 <= 0
 c37: - G - 0.22500000000000001 bit_2_2 + prod_2_2 >= -0.22500000000000001
 c38: - G + prod_2_2 <= -0
 c39: prod_2_3 >= 0
 c40: - 0.22500000000000001 bit_2_3 + prod_2_3 <= 0
 c41: - G - 0.22500000000000001 bit_2_3 + prod_2_3 >= -0.22500000000000001
 c42: - G + prod_2_3 <= -0
 c43: prod_2_4 >= 0
 c44: - 0.22500000000000001 bit_2_4 + prod_2_4 <= 0
 c45: - G - 0.22500000000000001 bit_2_4 + prod_2_4 >= -0.22500000000000001
 c46: - G + prod_2_4 <= -0
 c47: prod_3_0 >= 0
 c48: - 0.22500000000000001 bit_3_0 + prod_3_0 <= 0
 c49: - G - 0.22500000000000001 bit_3_0 + prod_3_0 >= -0.22500000000000001
 c50: - G + prod_3_0 <= -0
 c51: prod_3_1 >= 0
 c52: - 0.22500000000000001 bit_3_1 + prod_3_1 <= 0
 c53: - G - 0.22500000000000001 bit_3_1 + prod_3_1 >= -0.22500000000000001
 c54: - G + prod_3_1 <= -0
 c55: prod_3_2 >= 0
 c56: - 0.22500000000000001 bit_3_2 + prod_3_2 <= 0
 c57: - G - 0.22500000000000001 bit_3_2 + prod_3_2 >= -0.22500000000000001
 c58: - G + prod_3_2 <= -0
 c59: prod_3_3 >= 0
 c60: - 0.22500000000000001 bit_3_3 + prod_3_3 <= 0
 c61: - G - 0.22500000000000001 bit_3_3 + prod_3_3 >= -0.22500000000000001
 c62: - G + prod_3_3 <= -0
 c63: prod_3_4 >= 0
 c64: - 0.22500000000000001 bit_3_4 + prod_3_4 <= 0
 c65: - G - 0.22500000000000001 bit_3_4 + prod_3_4 >= -0.22500000000000001
 c66: - G + prod_3_4 <= -0
 c67: prod_3_5 >= 0
 c68: - 0.22500000000000001 bit_3_5 + prod_3_5 <= 0
 c69: - G - 0.22500000000000001 bit_3_5 + prod_3_5 >= -0.22500000000000001
 c70: - G + prod_3_5 <= -0
 c71: prod_4_0 >= 0
 c72: - 0.22500000000000001 bit_4_0 + prod_4_0 <= 0
 c73: - G - 0.22500000000000001 bit_4_0 + prod_4_0 >= -0.22500000000000001
 c74: - G + prod_4_0 <= -0
 c75: prod_4_1 >= 0
 c76: - 0.22500000000000001 bit_4_1 + prod_4_1 <= 0
 c77: - G - 0.22500000000000001 bit_4_1 + prod_4_1 >= -0.22500000000000001
 c78: - G + prod_4_1 <= -0
 c79: prod_4_2 >= 0
 c80: - 0.22500000000000001 bit_4_2 + prod_4_2 <= 0
 c81: - G - 0.22500000000000001 bit_4_2 + prod_4_2 >= -0.22500000000000001
 c82: - G + prod_4_2 <= -0
 c83: prod_4_3 >= 0
 c84: - 0.22500000000000001 bit_4_3 + prod_4_3 <= 0
 c85: - G - 0.22500000000000001 bit_4_3 + prod_4_3 >= -0.22500000000000001
 c86: - G + prod_4_3 <= -0
 c87: prod_4_4 >= 0
 c88: - 0.22500000000000001 bit_4_4 + prod_4_4 <= 0
 c89: - G - 0.22500000000000001 bit_4_4 + prod_4_4 >= -0.22500000000000001
 c90: - G + prod_4_4 <= -0
 c91: prod_5_0 >= 0
 c92: - 0.22500000000000001 bit_5_0 + prod_5_0 <= 0
 c93: - G - 0.22500000000000001 bit_5_0 + prod_5_0 >= -0.22500000000000001
 c94: - G + prod_5_0 <= -0
 c95: prod_5_1 >= 0
 c96: - 0.22500000000000001 bit_5_1 + prod_5_1 <= 0
 c97: - G - 0.22500000000000001 bit_5_1 + prod_5_1 >= -0.22500000000000001
 c98: - G + prod_5_1 <= -0
 c99: prod_5_2 >= 0
 c100: - 0.22500000000000001 bit_5_2 + prod_5_2 <= 0
 c101: - G - 0.22500000000000001 bit_5_2 + prod_5_2 >= -0.22500000000000001
 c102: - G + prod_5_2 <= -0
 c103: prod_5_3 >= 0
 c104: - 0.22500000000000001 bit_5_3 + prod_5_3 <= 0
 c105: - G - 0.22500000000000001 bit_5_3 + prod_5_3 >= -0.22500000000000001
 c106: - G + prod_5_3 <= -0
 c107: prod_5_4 >= 0
 c108: - 0.22500000000000001 bit_5_4 + prod_5_4 <= 0
 c109: - G - 0.22500000000000001 bit_5_4 + prod_5_4 >= -0.22500000000000001
 c110: - G + prod_5_4 <= -0
 c111: prod_5_5 >= 0
 c112: - 0.22500000000000001 bit_5_5 + prod_5_5 <= 0
 c113: - G - 0.22500000000000001 bit_5_5 + prod_5_5 >= -0.22500000000000001
 c114: - G + prod_5_5 <= -0
 c115: prod_6_0 >= 0
 c116: - 0.22500000000000001 bit_6_0 + prod_6_0 <= 0
 c117: - G - 0.22500000000000001 bit_6_0 + prod_6_0 >= -0.22500000000000001
 c118: - G + prod_6_0 <= -0
 c119: prod_6_1 >= 0
 c120: - 0.22500000000000001 bit_6_1 + prod_6_1 <= 0
 c121: - G - 0.22500000000000001 bit_6_1 + prod_6_1 >= -0.22500000000000001
 c122: - G + prod_6_1 <= -0
 c123: prod_6_2 >= 0
 c124: - 0.22500000000000001 bit_6_2 + prod_6_2 <= 0
 c125: - G - 0.22500000000000001 bit_6_2 + prod_6_2 >= -0.22500000000000001
 c126: - G + prod_6_2 <= -0
 c127: prod_6_3 >= 0
 c128: - 0.22500000000000001 bit_6_3 + prod_6_3 <= 0
 c129: - G - 0.22500000000000001 bit_6_3 + prod_6_3 >= -0.22500000000000001
 c130: - G + prod_6_3 <= -0
 c131: prod_6_4 >= 0
 c132: - 0.22500000000000001 bit_6_4 + prod_6_4 <= 0
 c133: - G - 0.22500000000000001 bit_6_4 + prod_6_4 >= -0.22500000000000001
 c134: - G + prod_6_4 <= -0
 c135: prod_6_5 >= 0
 c136: - 0.22500000000000001 bit_6_5 + prod_6_5 <= 0
 c137: - G - 0.22500000000000001 bit_6_5 + prod_6_5 >= -0.22500000000000001
 c138: - G + prod_6_5 <= -0
 c139: prod_7_0 >= 0
 c140: - 0.22500000000000001 bit_7_0 + prod_7_0 <= 0
 c141: - G - 0.22500000000000001 bit_7_0 + prod_7_0 >= -0.22500000000000001
 c142: - G + prod_7_0 <= -0
 c143: prod_7_1 >= 0
 c144: - 0.22500000000000001 bit_7_1 + prod_7_1 <= 0
 c145: - G - 0.22500000000000001 bit_7_1 + prod_7_1 >= -0.22500000000000001
 c146: - G + prod_7_1 <= -0
 c147: prod_7_2 >= 0
 c148: - 0.22500000000000001 bit_7_2 + prod_7_2 <= 0
 c149: - G - 0.22500000000000001 bit_7_2 + prod_7_2 >= -0.22500000000000001
 c150: - G + prod_7_2 <= -0
 c151: prod_7_3 >= 0
 c152: - 0.22500000000000001 bit_7_3 + prod_7_3 <= 0
 c153: - G - 0.22500000000000001 bit_7_3 + prod_7_3 >= -0.22500000000000001
 c154: - G + prod_7_3 <= -0
 c155: prod_7_4 >= 0
 c156: - 0.22500000000000001 bit_7_4 + prod_7_4 <= 0
 c157: - G - 0.22500000000000001 bit_7_4 + prod_7_4 >= -0.22500000000000001
 c158: - G + prod_7_4 <= -0
 c159: prod_7_5 >= 0
 c160: - 0.22500000000000001 bit_7_5 + prod_7_5 <= 0
 c161: - G - 0.22500000000000001 bit_7_5 + prod_7_5 >= -0.22500000000000001
 c162: - G + prod_7_5 <= -0
 c163: prod_8_0 >= 0
 c164: - 0.22500000000000001 bit_8_0 + prod_8_0 <= 0
 c165: - G - 0.22500000000000001 bit_8_0 + prod_8_0 >= -0.22500000000000001
 c166: - G + prod_8_0 <= -0
 c167: prod_8_1 >= 0
 c168: - 0.22500000000000001 bit_8_1 + prod_8_1 <= 0
 c169: - G - 0.22500000000000001 bit_8_1 + prod_8_1 >= -0.22500000000000001
 c170: - G + prod_8_1 <= -0
 c171: prod_8_2 >= 0
 c172: - 0.22500000000000001 bit_8_2 + prod_8_2 <= 0
 c173: - G - 0.22500000000000001 bit_8_2 + prod_8_2 >= -0.22500000000000001
 c174: - G + prod_8_2 <= -0
 c175: prod_8_3 >= 0
 c176: - 0.22500000000000001 bit_8_3 + prod_8_3 <= 0
 c177: - G - 0.22500000000000001 bit_8_3 + prod_8_3 >= -0.22500000000000001
 c178: - G + prod_8_3 <= -0
 c179: prod_8_4 >= 0
 c180: - 0.22500000000000001 bit_8_4 + prod_8_4 <= 0
 c181: - G - 0.22500000000000001 bit_8_4 + prod_8_4 >= -0.22500000000000001
 c182: - G + prod_8_4 <= -0
 c183: prod_8_5 >= 0
 c184: - 0.22500000000000001 bit_8_5 + prod_8_5 <= 0
 c185: - G - 0.22500000000000001 bit_8_5 + prod_8_5 >= -0.22500000000000001
 c186: - G + prod_8_5 <= -0
 c187: prod_9_0 >= 0
 c188: - 0.22500000000000001 bit_9_0 + prod_9_0 <= 0
 c189: - G - 0.22500000000000001 bit_9_0 + prod_9_0 >= -0.22500000000000001
 c190: - G + prod_9_0 <= -0
 c191: prod_9_1 >= 0
 c192: - 0.22500000000000001 bit_9_1 + prod_9_1 <= 0
 c193: - G - 0.22500000000000001 bit_9_1 + prod_9_1 >= -0.22500000000000001
 c194: - G + prod_9_1 <= -0
 c195: prod_9_2 >= 0
 c196: - 0.22500000000000001 bit_9_2 + prod_9_2 <= 0
 c197: - G - 0.22500000000000001 bit_9_2 + prod_9_2 >= -0.22500000000000001
 c198: - G + prod_9_2 <= -0
 c199: prod_9_3 >= 0
 c200: - 0.22500000000000001 bit_9_3 + prod_9_3 <= 0
 c201: - G - 0.22500000000000001 bit_9_3 + prod_9_3 >= -0.22500000000000001
 c202: - G + prod_9_3 <= -0
 c203: prod_9_4 >= 0
 c204: - 0.22500000000000001 bit_9_4 + prod_9_4 <= 0
 c205: - G - 0.22500000000000001 bit_9_4 + prod_9_4 >= -0.22500000000000001
 c206: - G + prod_9_4 <= -0
 c207: prod_10_0 >= 0
 c208: - 0.22500000000000001 bit_10_0 + prod_10_0 <= 0
 c209: - G - 0.22500000000000001 bit_10_0 + prod_10_0 >= -0.22500000000000001
 c210: - G + prod_10_0 <= -0
 c211: prod_10_1 >= 0
 c212: - 0.22500000000000001 bit_10_1 + prod_10_1 <= 0
 c213: - G - 0.22500000000000001 bit_10_1 + prod_10_1 >= -0.22500000000000001
 c214: - G + prod_10_1 <= -0
 c215: prod_10_2 >= 0
 c216: - 0.22500000000000001 bit_10_2 + prod_10_2 <= 0
 c217: - G - 0.22500000000000001 bit_10_2 + prod_10_2 >= -0.22500000000000001
 c218: - G + prod_10_2 <= -0
 c219: prod_10_3 >= 0
 c220: - 0.22500000000000001 bit_10_3 + prod_10_3 <= 0
 c221: - G - 0.22500000000000001 bit_10_3 + prod_10_3 >= -0.22500000000000001
 c222: - G + prod_10_3 <= -0
 c223: prod_10_4 >= 0
 c224: - 0.22500000000000001 bit_10_4 + prod_10_4 <= 0
 c225: - G - 0.22500000000000001 bit_10_4 + prod_10_4 >= -0.22500000000000001
 c226: - G + prod_10_4 <= -0
 c227: 9 h_1_2 - 2.25 r_1 - 2.25 r_10 - 2.25 r_2 - 2.25 r_3 - 2.25 r_4 - 2.25 r_5 - 2.25 r_6 - 2.25 r_7 - 2.25 r_8 - 2.25 r_9 <= 0
 c228: 9 h_1_3 - 2.25 r_1 - 2.25 r_10 - 2.25 r_2 - 2.25 r_3 - 2.25 r_4 - 2.25 r_5 - 2.25 r_6 - 2.25 r_7 - 2.25 r_8 - 2.25 r_9 <= 0
 c229: 9 h_1_4 - 2.25 r_1 - 2.25 r_10 - 2.25 r_2 - 2.25 r_3 - 2.25 r_4 - 2.25 r_5 - 2.25 r_6 - 2.25 r_7 - 2.25 r_8 - 2.25 r_9 <= 0
 c230: 9 h_1_5 - 2.25 r_1 - 2.25 r_10 - 2.25 r_2 - 2.25 r_3 - 2.25 r_4 - 2.25 r_5 - 2.25 r_6 - 2.25 r_7 - 2.25 r_8 - 2.25 r_9 <= 0
 c231: 9 h_1_6 - 2.25 r_1 - 2.25 r_10 - 2.25 r_2 - 2.25 r_3 - 2.25 r_4 - 2.25 r_5 - 2.25 r_6 - 2.25 r_7 - 2.25 r_8 - 2.25 r_9 <= 0
 c232: 9 h_1_7 - 2.25 r_1 - 2.25 r_10 - 2.25 r_2 - 2.25 r_3 - 2.25 r_4 - 2.25 r_5 - 2.25 r_6 - 2.25 r_7 - 2.25 r_8 - 2.25 r_9 <= 0
 c233: 9 h_1_8 - 2.25 r_1 - 2.25 r_10 - 2.25 r_2 - 2.25 r_3 - 2.25 r_4 - 2.25 r_5 - 2.25 r_6 - 2.25 r_7 - 2.25 r_8 - 2.25 r_9 <= 0
 c234: 9 h_1_9 - 2.25 r_1 - 2.25 r_10 - 2.25 r_2 - 2.25 r_3 - 2.25 r_4 - 2.25 r_5 - 2.25 r_6 - 2.25 r_7 - 2.25 r_8 - 2.25 r_9 <= 0
 c235: 9 h_1_10 - 2.25 r_1 - 2.25 r_10 - 2.25 r_2 - 2.25 r_3 - 2.25 r_4 - 2.25 r_5 - 2.25 r_6 - 2.25 r_7 - 2.25 r_8 - 2.25 r_9 <= 0
 c236: 9 h_2_3 - 2.25 r_1 - 2.25 r_10 - 2.25 r_2 - 2.25 r_3 - 2.25 r_4 - 2.25 r_5 - 2.25 r_6 - 2.25 r_7 - 2.25 r_8 - 2.25 r_9 <= 0
 c237: 9 h_2_4 - 2.25 r_1 - 2.25 r_10 - 2.25 r_2 - 2.25 r_3 - 2.25 r_4 - 2.25 r_5 - 2.25 r_6 - 2.25 r_7 - 2.25 r_8 - 2.25 r_9 <= 0
 c238: 9 h_2_5 - 2.25 r_1 - 2.25 r_10 - 2.25 r_2 - 2.25 r_3 - 2.25 r_4 - 2.25 r_5 - 2.25 r_6 - 2.25 r_7 - 2.25 r_8 - 2.25 r_9 <= 0
 c239: 9 h_2_6 - 2.25 r_1 - 2.25 r_10 - 2.25 r_2 - 2.25 r_3 - 2.25 r_4 - 2.25 r_5 - 2.25 r_6 - 2.25 r_7 - 2.25 r_8 - 2.25 r_9 <= 0
 c240: 9 h_2_7 - 2.25 r_1 - 2.25 r_10 - 2.25 r_2 - 2.25 r_3 - 2.25 r_4 - 2.25 r_5 - 2.25 r_6 - 2.25 r_7 - 2.25 r_8 - 2.25 r_9 <= 0
 c241: 9 h_2_8 - 2.25 r_1 - 2.25 r_10 - 2.25 r_2 - 2.25 r_3 - 2.25 r_4 - 2.25 r_5 - 2.25 r_6 - 2.25 r_7 - 2.25 r_8 - 2.25 r_9 <= 0
 c242: 9 h_2_9 - 2.25 r_1 - 2.25 r_10 - 2.25 r_2 - 2.25 r_3 - 2.25 r_4 - 2.25 r_5 - 2.25 r_6 - 2.25 r_7 - 2.25 r_8 - 2.25 r_9 <= 0
 c243: 9 h_2_10 - 2.25 r_1 - 2.25 r_10 - 2.25 r_2 - 2.25 r_3 - 2.25 r_4 - 2.25 r_5 - 2.25 r_6 - 2.25 r_7 - 2.25 r_8 - 2.25 r_9 <= 0
 c244: 9 h_3_4 - 2.25 r_1 - 2.25 r_10 - 2.25 r_2 - 2.25 r_3 - 2.25 r_4 - 2.25 r_5 - 2.25 r_6 - 2.25 r_7 - 2.25 r_8 - 2.25 r_9 <= 0
 c245: 9 h_3_5 - 2.25 r_1 - 2.25 r_10 - 2.25 r_2 - 2.25 r_3 - 2.25 r_4 - 2.25 r_5 - 2.25 r_6 - 2.25 r_7 - 2.25 r_8 - 2.25 r_9 <= 0
 c246: 9 h_3_6 - 2.25 r_1 - 2.25 r_10 - 2.25 r_2 - 2.25 r_3 - 2.25 r_4 - 2.25 r_5 - 2.25 r_6 - 2.25 r_7 - 2.25 r_8 - 2.25 r_9 <= 0
 c247: 9 h_3_7 - 2.25 r_1 - 2.25 r_10 - 2.25 r_2 - 2.25 r_3 - 2.25 r_4 - 2.25 r_5 - 2.25 r_6 - 2.25 r_7 - 2.25 r_8 - 2.25 r_9 <= 0
 c248: 9 h_3_8 - 2.25 r_1 - 2.25 r_10 - 2.25 r_2 - 2.25 r_3 - 2.25 r_4 - 2.25 r_5 - 2.25 r_6 - 2.25 r_7 - 2.25 r_8 - 2.25 r_9 <= 0
 c249: 9 h_3_9 - 2.25 r_1 - 2.25 r_10 - 2.25 r_2 - 2.25 r_3 - 2.25 r_4 - 2.25 r_5 - 2.25 r_6 - 2.25 r_7 - 2.25 r_8 - 2.25 r_9 <= 0
 c250: 9 h_3_10 - 2.25 r_1 - 2.25 r_10 - 2.25 r_2 - 2.25 r_3 - 2.25 r_4 - 2.25 r_5 - 2.25 r_6 - 2.25 r_7 - 2.25 r_8 - 2.25 r_9 <= 0
 c251: 9 h_4_5 - 2.25 r_1 - 2.25 r_10 - 2.25 r_2 - 2.25 r_3 - 2.25 r_4 - 2.25 r_5 - 2.25 r_6 - 2.25 r_7 - 2.25 r_8 - 2.25 r_9 <= 0
 c252: 9 h_4_6 - 2.25 r_1 - 2.25 r_10 - 2.25 r_2 - 2.25 r_3 - 2.25 r_4 - 2.25 r_5 - 2.25 r_6 - 2.25 r_7 - 2.25 r_8 - 2.25 r_9 <= 0
 c253: 9 h_4_7 - 2.25 r_1 - 2.25 r_10 - 2.25 r_2 - 2.25 r_3 - 2.25 r_4 - 2.25 r_5 - 2.25 r_6 - 2.25 r_7 - 2.25 r_8 - 2.25 r_9 <= 0
 c254: 9 h_4_8 - 2.25 r_1 - 2.25 r_10 - 2.25 r_2 - 2.25 r_3 - 2.25 r_4 - 2.25 r_5 - 2.25 r_6 - 2.25 r_7 - 2.25 r_8 - 2.25 r_9 <= 0
 c255: 9 h_4_9 - 2.25 r_1 - 2.25 r_10 - 2.25 r_2 - 2.25 r_3 - 2.25 r_4 - 2.25 r_5 - 2.25 r_6 - 2.25 r_7 - 2.25 r_8 - 2.25 r_9 <= 0
 c256: 9 h_4_10 - 2.25 r_1 - 2.25 r_10 - 2.25 r_2 - 2.25 r_3 - 2.25 r_4 - 2.25 r_5 - 2.25 r_6 - 2.25 r_7 - 2.25 r_8 - 2.25 r_9 <= 0
 c257: 9 h_5_6 - 2.25 r_1 - 2.25 r_10 - 2.25 r_2 - 2.25 r_3 - 2.25 r_4 - 2.25 r_5 - 2.25 r_6 - 2.25 r_7 - 2.25 r_8 - 2.25 r_9 <= 0
 c258: 9 h_5_7 - 2.25 r_1 - 2.25 r_10 - 2.25 r_2 - 2.25 r_3 - 2.25 r_4 - 2.25 r_5 - 2.25 r_6 - 2.25 r_7 - 2.25 r_8 - 2.25 r_9 <= 0
 c259: 9 h_5_8 - 2.25 r_1 - 2.25 r_10 - 2.25 r_2 - 2.25 r_3 - 2.25 r_4 - 2.25 r_5 - 2.25 r_6 - 2.25 r_7 - 2.25 r_8 - 2.25 r_9 <= 0
 c260: 9 h_5_9 - 2.25 r_1 - 2.25 r_10 - 2.25 r_2 - 2.25 r_3 - 2.25 r_4 - 2.25 r_5 - 2.25 r_6 - 2.25 r_7 - 2.25 r_8 - 2.25 r_9 <= 0
 c261: 9 h_5_10 - 2.25 r_1 - 2.25 r_10 - 2.25 r_2 - 2.25 r_3 - 2.25 r_4 - 2.25 r_5 - 2.25 r_6 - 2.25 r_7 - 2.25 r_8 - 2.25 r_9 <= 0
 c262: 9 h_6_7 - 2.25 r_1 - 2.25 r_10 - 2.25 r_2 - 2.25 r_3 - 2.25 r_4 - 2.25 r_5 - 2.25 r_6 - 2.25 r_7 - 2.25 r_8 - 2.25 r_9 <= 0
 c263: 9 h_6_8 - 2.25 r_1 - 2.25 r_10 - 2.25 r_2 - 2.25 r_3 - 2.25 r_4 - 2.25 r_5 - 2.25 r_6 - 2.25 r_7 - 2.25 r_8 - 2.25 r_9 <= 0
 c264: 9 h_6_9 - 2.25 r_1 - 2.25 r_10 - 2.25 r_2 - 2.25 r_3 - 2.25 r_4 - 2.25 r_5 - 2.25 r_6 - 2.25 r_7 - 2.25 r_8 - 2.25 r_9 <= 0
 c265: 9 h_6_10 - 2.25 r_1 - 2.25 r_10 - 2.25 r_2 - 2.25 r_3 - 2.25 r_4 - 2.25 r_5 - 2.25 r_6 - 2.25 r_7 - 2.25 r_8 - 2.25 r_9 <= 0
 c266: 9 h_7_8 - 2.25 r_1 - 2.25 r_10 - 2.25 r_2 - 2.25 r_3 - 2.25 r_4 - 2.25 r_5 - 2.25 r_6 - 2.25 r_7 - 2.25 r_8 - 2.25 r_9 <= 0
 c267: 9 h_7_9 - 2.25 r_1 - 2.25 r_10 - 2.25 r_2 - 2.25 r_3 - 2.25 r_4 - 2.25 r_5 - 2.25 r_6 - 2.25 r_7 - 2.25 r_8 - 2.25 r_9 <= 0
 c268: 9 h_7_10 - 2.25 r_1 - 2.25 r_10 - 2.25 r_2 - 2.25 r_3 - 2.25 r_4 - 2.25 r_5 - 2.25 r_6 - 2.25 r_7 - 2.25 r_8 - 2.25 r_9 <= 0
 c269: 9 h_8_9 - 2.25 r_1 - 2.25 r_10 - 2.25 r_2 - 2.25 r_3 - 2.25 r_4 - 2.25 r_5 - 2.25 r_6 - 2.25 r_7 - 2.25 r_8 - 2.25 r_9 <= 0
 c270: 9 h_8_10 - 2.25 r_1 - 2.25 r_10 - 2.25 r_2 - 2.25 r_3 - 2.25 r_4 - 2.25 r_5 - 2.25 r_6 - 2.25 r_7 - 2.25 r_8 - 2.25 r_9 <= 0
 c271: 9 h_9_10 - 2.25 r_1 - 2.25 r_10 - 2.25 r_2 - 2.25 r_3 - 2.25 r_4 - 2.25 r_5 - 2.25 r_6 - 2.25 r_7 - 2.25 r_8 - 2.25 r_9 <= 0
 c272: - d_0_3 - d_1_3 - d_2_3 + p_0_3 + p_1_3 + p_2_3 >= 11
 c273: r_1 - r_2 <= 5.5909593291661581
 c274: - r_1 + r_2 <= 5.5909593291661581
 c275: r_1 - r_3 <= 5.5909593291661581
 c276: - r_1 + r_3 <= 5.5909593291661581
 c277: r_1 - r_4 <= 5.5909593291661581
 c278: - r_1 + r_4 <= 5.5909593291661581
 c279: r_1 - r_5 <= 5.5909593291661581
 c280: - r_1 + r_5 <= 5.5909593291661581
 c281: r_1 - r_6 <= 5.5909593291661581
 c282: - r_1 + r_6 <= 5.5909593291661581
 c283: r_1 - r_7 <= 5.5909593291661581
 c284: - r_1 + r_7 <= 5.5909593291661581
 c285: r_1 - r_8 <= 5.5909593291661581
 c286: - r_1 + r_8 <= 5.5909593291661581
 c287: r_1 - r_9 <= 5.5909593291661581
 c288: - r_1 + r_9 <= 5.5909593291661581
 c289: r_1 - r_10 <= 5.5909593291661581
 c290: - r_1 + r_10 <= 5.5909593291661581
 c291: r_2 - r_3 <= 5.5909593291661581
 c292: - r_2 + r_3 <= 5.5909593291661581
 c293: r_2 - r_4 <= 5.5909593291661581
 c294: - r_2 + r_4 <= 5.5909593291661581
 c295: r_2 - r_5 <= 5.5909593291661581
 c296: - r_2 + r_5 <= 5.5909593291661581
 c297: r_2 - r_6 <= 5.5909593291661581
 c298: - r_2 + r_6 <= 5.5909593291661581
 c299: r_2 - r_7 <= 5.5909593291661581
 c300: - r_2 + r_7 <= 5.5909593291661581
 c301: r_2 - r_8 <= 5.5909593291661581
 c302: - r_2 + r_8 <= 5.5909593291661581
 c303: r_2 - r_9 <= 5.5909593291661581
 c304: - r_2 + r_9 <= 5.5909593291661581
 c305: - r_10 + r_2 <= 5.5909593291661581
 c306: r_10 - r_2 <= 5.5909593291661581
 c307: r_3 - r_4 <= 5.5909593291661581
 c308: - r_3 + r_4 <= 5.5909593291661581
 c309: r_3 - r_5 <= 5.5909593291661581
 c310: - r_3 + r_5 <= 5.5909593291661581
 c311: r_3 - r_6 <= 5.5909593291661581
 c312: - r_3 + r_6 <= 5.5909593291661581
 c313: r_3 - r_7 <= 5.5909593291661581
 c314: - r_3 + r_7 <= 5.5909593291661581
 c315: r_3 - r_8 <= 5.5909593291661581
 c316: - r_3 + r_8 <= 5.5909593291661581
 c317: r_3 - r_9 <= 5.5909593291661581
 c318: - r_3 + r_9 <= 5.5909593291661581
 c319: - r_10 + r_3 <= 5.5909593291661581
 c320: r_10 - r_3 <= 5.5909593291661581
 c321: r_4 - r_5 <= 5.5909593291661581
 c322: - r_4 + r_5 <= 5.5909593291661581
 c323: r_4 - r_6 <= 5.5909593291661581
 c324: - r_4 + r_6 <= 5.5909593291661581
 c325: r_4 - r_7 <= 5.5909593291661581
 c326: - r_4 + r_7 <= 5.5909593291661581
 c327: r_4 - r_8 <= 5.5909593291661581
 c328: - r_4 + r_8 <= 5.5909593291661581
 c329: r_4 - r_9 <= 5.5909593291661581
 c330: - r_4 + r_9 <= 5.5909593291661581
 c331: - r_10 + r_4 <= 5.5909593291661581
 c332: r_10 - r_4 <= 5.5909593291661581
 c333: r_5 - r_6 <= 5.5909593291661581
 c334: - r_5 + r_6 <= 5.5909593291661581
 c335: r_5 - r_7 <= 5.5909593291661581
 c336: - r_5 + r_7 <= 5.5909593291661581
 c337: r_5 - r_8 <= 5.5909593291661581
 c338: - r_5 + r_8 <= 5.5909593291661581
 c339: r_5 - r_9 <= 5.5909593291661581
 c340: - r_5 + r_9 <= 5.5909593291661581
 c341: - r_10 + r_5 <= 5.5909593291661581
 c342: r_10 - r_5 <= 5.5909593291661581
 c343: r_6 - r_7 <= 5.5909593291661581
 c344: - r_6 + r_7 <= 5.5909593291661581
 c345: r_6 - r_8 <= 5.5909593291661581
 c346: - r_6 + r_8 <= 5.5909593291661581
 c347: r_6 - r_9 <= 5.5909593291661581
 c348: - r_6 + r_9 <= 5.5909593291661581
 c349: - r_10 + r_6 <= 5.5909593291661581
 c350: r_10 - r_6 <= 5.5909593291661581
 c351: r_7 - r_8 <= 5.5909593291661581
 c352: - r_7 + r_8 <= 5.5909593291661581
 c353: r_7 - r_9 <= 5.5909593291661581
 c354: - r_7 + r_9 <= 5.5909593291661581
 c355: - r_10 + r_7 <= 5.5909593291661581
 c356: r_10 - r_7 <= 5.5909593291661581
 c357: r_8 - r_9 <= 5.5909593291661581
 c358: - r_8 + r_9 <= 5.5909593291661581
 c359: - r_10 + r_8 <= 5.5909593291661581
 c360: r_10 - r_8 <= 5.5909593291661581
 c361: - r_10 + r_9 <= 5.5909593291661581
 c362: r_10 - r_9 <= 5.5909593291661581
 c363: 6.75 r_1 - 2.25 r_10 - 11.25 r_2 - 2.25 r_3 - 2.25 r_4 - 2.25 r_5 - 2.25 r_6 - 2.25 r_7 - 2.25 r_8 - 2.25 r_9 <= 0
 c364: - 11.25 r_1 - 2.25 r_10 + 6.75 r_2 - 2.25 r_3 - 2.25 r_4 - 2.25 r_5 - 2.25 r_6 - 2.25 r_7 - 2.25 r_8 - 2.25 r_9 <= 0
 c365: 6.75 r_1 - 2.25 r_10 - 2.25 r_2 - 11.25 r_3 - 2.25 r_4 - 2.25 r_5 - 2.25 r_6 - 2.25 r_7 - 2.25 r_8 - 2.25 r_9 <= 0
 c366: - 11.25 r_1 - 2.25 r_10 - 2.25 r_2 + 6.75 r_3 - 2.25 r_4 - 2.25 r_5 - 2.25 r_6 - 2.25 r_7 - 2.25 r_8 - 2.25 r_9 <= 0
 c367: 6.75 r_1 - 2.25 r_10 - 2.25 r_2 - 2.25 r_3 - 11.25 r_4 - 2.25 r_5 - 2.25 r_6 - 2.25 r_7 - 2.25 r_8 - 2.25 r_9 <= 0
 c368: - 11.25 r_1 - 2.25 r_10 - 2.25 r_2 - 2.25 r_3 + 6.75 r_4 - 2.25 r_5 - 2.25 r_6 - 2.25 r_7 - 2.25 r_8 - 2.25 r_9 <= 0
 c369: 6.75 r_1 - 2.25 r_10 - 2.25 r_2 - 2.25 r_3 - 2.25 r_4 - 11.25 r_5 - 2.25 r_6 - 2.25 r_7 - 2.25 r_8 - 2.25 r_9 <= 0
 c370: - 11.25 r_1 - 2.25 r_10 - 2.25 r_2 - 2.25 r_3 - 2.25 r_4 + 6.75 r_5 - 2.25 r_6 - 2.25 r_7 - 2.25 r_8 - 2.25 r_9 <= 0
 c371: 6.75 r_1 - 2.25 r_10 - 2.25 r_2 - 2.25 r_3 - 2.25 r_4 - 2.25 r_5 - 11.25 r_6 - 2.25 r_7 - 2.25 r_8 - 2.25 r_9 <= 0
 c372: - 11.25 r_1 - 2.25 r_10 - 2.25 r_2 - 2.25 r_3 - 2.25 r_4 - 2.25 r_5 + 6.75 r_6 - 2.25 r_7 - 2.25 r_8 - 2.25 r_9 <= 0
 c373: 6.75 r_1 - 2.25 r_10 - 2.25 r_2 - 2.25 r_3 - 2.25 r_4 - 2.25 r_5 - 2.25 r_6 - 11.25 r_7 - 2.25 r_8 - 2.25 r_9 <= 0
 c374: - 11.25 r_1 - 2.25 r_10 - 2.25 r_2 - 2.25 r_3 - 2.25 r_4 - 2.25 r_5 - 2.25 r_6 + 6.75 r_7 - 2.25 r_8 - 2.25 r_9 <= 0
 c375: 6.75 r_1 - 2.25 r_10 - 2.25 r_2 - 2.25 r_3 - 2.25 r_4 - 2.25 r_5 - 2.25 r_6 - 2.25 r_7 - 11.25 r_8 - 2.25 r_9 <= 0
 c376: - 11.25 r_1 - 2.25 r_10 - 2.25 r_2 - 2.25 r_3 - 2.25 r_4 - 2.25 r_5 - 2.25 r_6 - 2.25 r_7 + 6.75 r_8 - 2.25 r_9 <= 0
 c377: 6.75 r_1 - 2.25 r_10 - 2.25 r_2 - 2.25 r_3 - 2.25 r_4 - 2.25 r_5 - 2.25 r_6 - 2.25 r_7 - 2.25 r_8 - 11.25 r_9 <= 0
 c378: - 11.25 r_1 - 2.25 r_10 - 2.25 r_2 - 2.25 r_3 - 2.25 r_4 - 2.25 r_5 - 2.25 r_6 - 2.25 r_7 - 2.25 r_8 + 6.75 r_9 <= 0
 c379: 6.75 r_1 - 11.25 r_10 - 2.25 r_2 - 2.25 r_3 - 2.25 r_4 - 2.25 r_5 - 2.25 r_6 - 2.25 r_7 - 2.25 r_8 - 2.25 r_9 <= 0
 c380: - 11.25 r_1 + 6.75 r_10 - 2.25 r_2 - 2.25 r_3 - 2.25 r_4 - 2.25 r_5 - 2.25 r_6 - 2.25 r_7 - 2.25 r_8 - 2.25 r_9 <= 0
 c381: - 2.25 r_1 - 2.25 r_10 + 6.75 r_2 - 11.25 r_3 - 2.25 r_4 - 2.25 r_5 - 2.25 r_6 - 2.25 r_7 - 2.25 r_8 - 2.25 r_9 <= 0
 c382: - 2.25 r_1 - 2.25 r_10 - 11.25 r_2 + 6.75 r_3 - 2.25 r_4 - 2.25 r_5 - 2.25 r_6 - 2.25 r_7 - 2.25 r_8 - 2.25 r_9 <= 0
 c383: - 2.25 r_1 - 2.25 r_10 + 6.75 r_2 - 2.25 r_3 - 11.25 r_4 - 2.25 r_5 - 2.25 r_6 - 2.25 r_7 - 2.25 r_8 - 2.25 r_9 <= 0
 c384: - 2.25 r_1 - 2.25 r_10 - 11.25 r_2 - 2.25 r_3 + 6.75 r_4 - 2.25 r_5 - 2.25 r_6 - 2.25 r_7 - 2.25 r_8 - 2.25 r_9 <= 0
 c385: - 2.25 r_1 - 2.25 r_10 + 6.75 r_2 - 2.25 r_3 - 2.25 r_4 - 11.25 r_5 - 2.25 r_6 - 2.25 r_7 - 2.25 r_8 - 2.25 r_9 <= 0
 c386: - 2.25 r_1 - 2.25 r_10 - 11.25 r_2 - 2.25 r_3 - 2.25 r_4 + 6.75 r_5 - 2.25 r_6 - 2.25 r_7 - 2.25 r_8 - 2.25 r_9 <= 0
 c387: - 2.25 r_1 - 2.25 r_10 + 6.75 r_2 - 2.25 r_3 - 2.25 r_4 - 2.25 r_5 - 11.25 r_6 - 2.25 r_7 - 2.25 r_8 - 2.25 r_9 <= 0
 c388: - 2.25 r_1 - 2.25 r_10 - 11.25 r_2 - 2.25 r_3 - 2.25 r_4 - 2.25 r_5 + 6.75 r_6 - 2.25 r_7 - 2.25 r_8 - 2.25 r_9 <= 0
 c389: - 2.25 r_1 - 2.25 r_10 + 6.75 r_2 - 2.25 r_3 - 2.25 r_4 - 2.25 r_5 - 2.25 r_6 - 11.25 r_7 - 2.25 r_8 - 2.25 r_9 <= 0
 c390: - 2.25 r_1 - 2.25 r_10 - 11.25 r_2 - 2.25 r_3 - 2.25 r_4 - 2.25 r_5 - 2.25 r_6 + 6.75 r_7 - 2.25 r_8 - 2.25 r_9 <= 0
 c391: - 2.25 r_1 - 2.25 r_10 + 6.75 r_2 - 2.25 r_3 - 2.25 r_4 - 2.25 r_5 - 2.25 r_6 - 2.25 r_7 - 11.25 r_8 - 2.25 r_9 <= 0
 c392: - 2.25 r_1 - 2.25 r_10 - 11.25 r_2 - 2.25 r_3 - 2.25 r_4 - 2.25 r_5 - 2.25 r_6 - 2.25 r_7 + 6.75 r_8 - 2.25 r_9 <= 0
 c393: - 2.25 r_1 - 2.25 r_10 + 6.75 r_2 - 2.25 r_3 - 2.25 r_4 - 2.25 r_5 - 2.25 r_6 - 2.25 r_7 - 2.25 r_8 - 11.25 r_9 <= 0
 c394: - 2.25 r_1 - 2.25 r_10 - 11.25 r_2 - 2.25 r_3 - 2.25 r_4 - 2.25 r_5 - 2.25 r_6 - 2.25 r_7 - 2.25 r_8 + 6.75 r_9 <= 0
 c395: - 2.25 r_1 - 11.25 r_10 + 6.75 r_2 - 2.25 r_3 - 2.25 r_4 - 2.25 r_5 - 2.25 r_6 - 2.25 r_7 - 2.25 r_8 - 2.25 r_9 <= 0
 c396: - 2.25 r_1 + 6.75 r_10 - 11.25 r_2 - 2.25 r_3 - 2.25 r_4 - 2.25 r_5 - 2.25 r_6 - 2.25 r_7 - 2.25 r_8 - 2.25 r_9 <= 0
 c397: - 2.25 r_1 - 2.25 r_10 - 2.25 r_2 + 6.75 r_3 - 11.25 r_4 - 2.25 r_5 - 2.25 r_6 - 2.25 r_7 - 2.25 r_8 - 2.25 r_9 <= 0
 c398: - 2.25 r_1 - 2.25 r_10 - 2.25 r_2 - 11.25 r_3 + 6.75 r_4 - 2.25 r_5 - 2.25 r_6 - 2.25 r_7 - 2.25 r_8 - 2.25 r_9 <= 0
 c399: - 2.25 r_1 - 2.25 r_10 - 2.25 r_2 + 6.75 r_3 - 2.25 r_4 - 11.25 r_5 - 2.25 r_6 - 2.25 r_7 - 2.25 r_8 - 2.25 r_9 <= 0
 c400: - 2.25 r_1 - 2.25 r_10 - 2.25 r_2 - 11.25 r_3 - 2.25 r_4 + 6.75 r_5 - 2.25 r_6 - 2.25 r_7 - 2.25 r_8 - 2.25 r_9 <= 0
 c401: - 2.25 r_1 - 2.25 r_10 - 2.25 r_2 + 6.75 r_3 - 2.25 r_4 - 2.25 r_5 - 11.25 r_6 - 2.25 r_7 - 2.25 r_8 - 2.25 r_9 <= 0
 c402: - 2.25 r_1 - 2.25 r_10 - 2.25 r_2 - 11.25 r_3 - 2.25 r_4 - 2.25 r_5 + 6.75 r_6 - 2.25 r_7 - 2.25 r_8 - 2.25 r_9 <= 0
 c403: - 2.25 r_1 - 2.25 r_10 - 2.25 r_2 + 6.75 r_3 - 2.25 r_4 - 2.25 r_5 - 2.25 r_6 - 11.25 r_7 - 2.25 r_8 - 2.25 r_9 <= 0
 c404: - 2.25 r_1 - 2.25 r_10 - 2.25 r_2 - 11.25 r_3 - 2.25 r_4 - 2.25 r_5 - 2.25 r_6 + 6.75 r_7 - 2.25 r_8 - 2.25 r_9 <= 0
 c405: - 2.25 r_1 - 2.25 r_10 - 2.25 r_2 + 6.75 r_3 - 2.25 r_4 - 2.25 r_5 - 2.25 r_6 - 2.25 r_7 - 11.25 r_8 - 2.25 r_9 <= 0
 c406: - 2.25 r_1 - 2.25 r_10 - 2.25 r_2 - 11.25 r_3 - 2.25 r_4 - 2.25 r_5 - 2.25 r_6 - 2.25 r_7 + 6.75 r_8 - 2.25 r_9 <= 0
 c407: - 2.25 r_1 - 2.25 r_10 - 2.25 r_2 + 6.75 r_3 - 2.25 r_4 - 2.25 r_5 - 2.25 r_6 - 2.25 r_7 - 2.25 r_8 - 11.25 r_9 <= 0
 c408: - 2.25 r_1 - 2.25 r_10 - 2.25 r_2 - 11.25 r_3 - 2.25 r_4 - 2.25 r_5 - 2.25 r_6 - 2.25 r_7 - 2.25 r_8 + 6.75 r_9 <= 0
 c409: - 2.25 r_1 - 11.25 r_10 - 2.25 r_2 + 6.75 r_3 - 2.25 r_4 - 2.25 r_5 - 2.25 r_6 - 2.25 r_7 - 2.25 r_8 - 2.25 r_9 <= 0
 c410: - 2.25 r_1 + 6.75 r_10 - 2.25 r_2 - 11.25 r_3 - 2.25 r_4 - 2.25 r_5 - 2.25 r_6 - 2.25 r_7 - 2.25 r_8 - 2.25 r_9 <= 0
 c411: - 2.25 r_1 - 2.25 r_10 - 2.25 r_2 - 2.25 r_3 + 6.75 r_4 - 11.25 r_5 - 2.25 r_6 - 2.25 r_7 - 2.25 r_8 - 2.25 r_9 <= 0
 c412: - 2.25 r_1 - 2.25 r_10 - 2.25 r_2 - 2.25 r_3 - 11.25 r_4 + 6.75 r_5 - 2.25 r_6 - 2.25 r_7 - 2.25 r_8 - 2.25 r_9 <= 0
 c413: - 2.25 r_1 - 2.25 r_10 - 2.25 r_2 - 2.25 r_3 + 6.75 r_4 - 2.25 r_5 - 11.25 r_6 - 2.25 r_7 - 2.25 r_8 - 2.25 r_9 <= 0
 c414: - 2.25 r_1 - 2.25 r_10 - 2.25 r_2 - 2.25 r_3 - 11.25 r_4 - 2.25 r_5 + 6.75 r_6 - 2.25 r_7 - 2.25 r_8 - 2.25 r_9 <= 0
 c415: - 2.25 r_1 - 2.25 r_10 - 2.25 r_2 - 2.25 r_3 + 6.75 r_4 - 2.25 r_5 - 2.25 r_6 - 11.25 r_7 - 2.25 r_8 - 2.25 r_9 <= 0
 c416: - 2.25 r_1 - 2.25 r_10 - 2.25 r_2 - 2.25 r_3 - 11.25 r_4 - 2.25 r_5 - 2.25 r_6 + 6.75 r_7 - 2.25 r_8 - 2.25 r_9 <= 0
 c417: - 2.25 r_1 - 2.25 r_10 - 2.25 r_2 - 2.25 r_3 + 6.75 r_4 - 2.25 r_5 - 2.25 r_6 - 2.25 r_7 - 11.25 r_8 - 2.25 r_9 <= 0
 c418: - 2.25 r_1 - 2.25 r_10 - 2.25 r_2 - 2.25 r_3 - 11.25 r_4 - 2.25 r_5 - 2.25 r_6 - 2.25 r_7 + 6.75 r_8 - 2.25 r_9 <= 0
 c419: - 2.25 r_1 - 2.25 r_10 - 2.25 r_2 - 2.25 r_3 + 6.75 r_4 - 2.25 r_5 - 2.25 r_6 - 2.25 r_7 - 2.25 r_8 - 11.25 r_9 <= 0
 c420: - 2.25 r_1 - 2.25 r_10 - 2.25 r_2 - 2.25 r_3 - 11.25 r_4 - 2.25 r_5 - 2.25 r_6 - 2.25 r_7 - 2.25 r_8 + 6.75 r_9 <= 0
 c421: - 2.25 r_1 - 11.25 r_10 - 2.25 r_2 - 2.25 r_3 + 6.75 r_4 - 2.25 r_5 - 2.25 r_6 - 2.25 r_7 - 2.25 r_8 - 2.25 r_9 <= 0
 c422: - 2.25 r_1 + 6.75 r_10 - 2.25 r_2 - 2.25 r_3 - 11.25 r_4 - 2.25 r_5 - 2.25 r_6 - 2.25 r_7 - 2.25 r_8 - 2.25 r_9 <= 0
 c423: - 2.25 r_1 - 2.25 r_10 - 2.25 r_2 - 2.25 r_3 - 2.25 r_4 + 6.75 r_5 - 11.25 r_6 - 2.25 r_7 - 2.25 r_8 - 2.25 r_9 <= 0
 c424: - 2.25 r_1 - 2.25 r_10 - 2.25 r_2 - 2.25 r_3 - 2.25 r_4 - 11.25 r_5 + 6.75 r_6 - 2.25 r_7 - 2.25 r_8 - 2.25 r_9 <= 0
 c425: - 2.25 r_1 - 2.25 r_10 - 2.25 r_2 - 2.25 r_3 - 2.25 r_4 + 6.75 r_5 - 2.25 r_6 - 11.25 r_7 - 2.25 r_8 - 2.25 r_9 <= 0
 c426: - 2.25 r_1 - 2.25 r_10 - 2.25 r_2 - 2.25 r_3 - 2.25 r_4 - 11.25 r_5 - 2.25 r_6 + 6.75 r_7 - 2.25 r_8 - 2.25 r_9 <= 0
 c427: - 2.25 r_1 - 2.25 r_10 - 2.25 r_2 - 2.25 r_3 - 2.25 r_4 + 6.75 r_5 - 2.25 r_6 - 2.25 r_7 - 11.25 r_8 - 2.25 r_9 <= 0
 c428: - 2.25 r_1 - 2.25 r_10 - 2.25 r_2 - 2.25 r_3 - 2.25 r_4 - 11.25 r_5 - 2.25 r_6 - 2.25 r_7 + 6.75 r_8 - 2.25 r_9 <= 0
 c429: - 2.25 r_1 - 2.25 r_10 - 2.25 r_2 - 2.25 r_3 - 2.25 r_4 + 6.75 r_5 - 2.25 r_6 - 2.25 r_7 - 2.25 r_8 - 11.25 r_9 <= 0
 c430: - 2.25 r_1 - 2.25 r_10 - 2.25 r_2 - 2.25 r_3 - 2.25 r_4 - 11.25 r_5 - 2.25 r_6 - 2.25 r_7 - 2.25 r_8 + 6.75 r_9 <= 0
 c431: - 2.25 r_1 - 11.25 r_10 - 2.25 r_2 - 2.25 r_3 - 2.25 r_4 + 6.75 r_5 - 2.25 r_6 - 2.25 r_7 - 2.25 r_8 - 2.25 r_9 <= 0
 c432: - 2.25 r_1 + 6.75 r_10 - 2.25 r_2 - 2.25 r_3 - 2.25 r_4 - 11.25 r_5 - 2.25 r_6 - 2.25 r_7 - 2.25 r_8 - 2.25 r_9 <= 0
 c433: - 2.25 r_1 - 2.25 r_10 - 2.25 r_2 - 2.25 r_3 - 2.25 r_4 - 2.25 r_5 + 6.75 r_6 - 11.25 r_7 - 2.25 r_8 - 2.25 r_9 <= 0
 c434: - 2.25 r_1 - 2.25 r_10 - 2.25 r_2 - 2.25 r_3 - 2.25 r_4 - 2.25 r_5 - 11.25 r_6 + 6.75 r_7 - 2.25 r_8 - 2.25 r_9 <= 0
 c435: - 2.25 r_1 - 2.25 r_10 - 2.25 r_2 - 2.25 r_3 - 2.25 r_4 - 2.25 r_5 + 6.75 r_6 - 2.25 r_7 - 11.25 r_8 - 2.25 r_9 <= 0
 c436: - 2.25 r_1 - 2.25 r_10 - 2.25 r_2 - 2.25 r_3 - 2.25 r_4 - 2.25 r_5 - 11.25 r_6 - 2.25 r_7 + 6.75 r_8 - 2.25 r_9 <= 0
 c437: - 2.25 r_1 - 2.25 r_10 - 2.25 r_2 - 2.25 r_3 - 2.25 r_4 - 2.25 r_5 + 6.75 r_6 - 2.25 r_7 - 2.25 r_8 - 11.25 r_9 <= 0
 c438: - 2.25 r_1 - 2.25 r_10 - 2.25 r_2 - 2.25 r_3 - 2.25 r_4 - 2.25 r_5 - 11.25 r_6 - 2.25 r_7 - 2.25 r_8 + 6.75 r_9 <= 0
 c439: - 2.25 r_1 - 11.25 r_10 - 2.25 r_2 - 2.25 r_3 - 2.25 r_4 - 2.25 r_5 + 6.75 r_6 - 2.25 r_7 - 2.25 r_8 - 2.25 r_9 <= 0
 c440: - 2.25 r_1 + 6.75 r_10 - 2.25 r_2 - 2.25 r_3 - 2.25 r_4 - 2.25 r_5 - 11.25 r_6 - 2.25 r_7 - 2.25 r_8 - 2.25 r_9 <= 0
 c441: - 2.25 r_1 - 2.25 r_10 - 2.25 r_2 - 2.25 r_3 - 2.25 r_4 - 2.25 r_5 - 2.25 r_6 + 6.75 r_7 - 11.25 r_8 - 2.25 r_9 <= 0
 c442: - 2.25 r_1 - 2.25 r_10 - 2.25 r_2 - 2.25 r_3 - 2.25 r_4 - 2.25 r_5 - 2.25 r_6 - 11.25 r_7 + 6.75 r_8 - 2.25 r_9 <= 0
 c443: - 2.25 r_1 - 2.25 r_10 - 2.25 r_2 - 2.25 r_3 - 2.25 r_4 - 2.25 r_5 - 2.25 r_6 + 6.75 r_7 - 2.25 r_8 - 11.25 r_9 <= 0
 c444: - 2.25 r_1 - 2.25 r_10 - 2.25 r_2 - 2.25 r_3 - 2.25 r_4 - 2.25 r_5 - 2.25 r_6 - 11.25 r_7 - 2.25 r_8 + 6.75 r_9 <= 0
 c445: - 2.25 r_1 - 11.25 r_10 - 2.25 r_2 - 2.25 r_3 - 2.25 r_4 - 2.25 r_5 - 2.25 r_6 + 6.75 r_7 - 2.25 r_8 - 2.25 r_9 <= 0
 c446: - 2.25 r_1 + 6.75 r_10 - 2.25 r_2 - 2.25 r_3 - 2.25 r_4 - 2.25 r_5 - 2.25 r_6 - 11.25 r_7 - 2.25 r_8 - 2.25 r_9 <= 0
 c447: - 2.25 r_1 - 2.25 r_10 - 2.25 r_2 - 2.25 r_3 - 2.25 r_4 - 2.25 r_5 - 2.25 r_6 - 2.25 r_7 + 6.75 r_8 - 11.25 r_9 <= 0
 c448: - 2.25 r_1 - 2.25 r_10 - 2.25 r_2 - 2.25 r_3 - 2.25 r_4 - 2.25 r_5 - 2.25 r_6 - 2.25 r_7 - 11.25 r_8 + 6.75 r_9 <= 0
 c449: - 2.25 r_1 - 11.25 r_10 - 2.25 r_2 - 2.25 r_3 - 2.25 r_4 - 2.25 r_5 - 2.25 r_6 - 2.25 r_7 + 6.75 r_8 - 2.25 r_9 <= 0
 c450: - 2.25 r_1 + 6.75 r_10 - 2.25 r_2 - 2.25 r_3 - 2.25 r_4 - 2.25 r_5 - 2.25 r_6 - 2.25 r_7 - 11.25 r_8 - 2.25 r_9 <= 0
 c451: - 2.25 r_1 - 11.25 r_10 - 2.25 r_2 - 2.25 r_3 - 2.25 r_4 - 2.25 r_5 - 2.25 r_6 - 2.25 r_7 - 2.25 r_8 + 6.75 r_9 <= 0
 c452: - 2.25 r_1 + 6.75 r_10 - 2.25 r_2 - 2.25 r_3 - 2.25 r_4 - 2.25 r_5 - 2.25 r_6 - 2.25 r_7 - 2.25 r_8 - 11.25 r_9 <= 0
 c453: G + 0.02129025 e_1 + 0.019838699999999997 e_10 + 0.017692799999999998 e_2 + 0.14999999999999999 e_3 + 0.017714999999999998 e_4 + 0.081967800000000007 e_5 + 0.019686749999999999 e_6 + 0.017590499999999998 e_7 + 0.02129025 e_8 + 0.018663599999999999 e_9 <= 1.0059157404995958
 c454: 4.7613168743111913 e_1 + 4.4366945937411453 e_10 + 3.9567890087628395 e_2 + 33.545755974996943 e_3 + 3.9617537806471388 e_4 + 18.331145444049032 e_5 + 4.4027127429384736 e_6 + 3.9339108031878913 e_7 + 4.7613168743111913 e_8 + 4.1738971414330202 e_9 + h_1_10 + h_1_2 + h_1_3 + h_1_4 + h_1_5 + h_1_6 + h_1_7 + h_1_8 + h_1_9 + h_2_10 + h_2_3 + h_2_4 + h_2_5 + h_2_6 + h_2_7 + h_2_8 + h_2_9 + h_3_10 + h_3_4 + h_3_5 + h_3_6 + h_3_7 + h_3_8 + h_3_9 + h_4_10 + h_4_5 + h_4_6 + h_4_7 + h_4_8 + h_4_9 + h_5_10 + h_5_6 + h_5_7 + h_5_8 + h_5_9 + h_6_10 + h_6_7 + h_6_8 + h_6_9 + h_7_10 + h_7_8 + h_7_9 + h_8_10 + h_8_9 + h_9_10 <= 224.96135974805196
 c455: 0.14193500000000001 e_1 + 0.13225799999999999 e_10 + 0.117952 e_2 + e_3 + 0.1181 e_4 + 0.54645200000000005 e_5 + 0.131245 e_6 + 0.11727 e_7 + 0.14193500000000001 e_8 + 0.12442400000000001 e_9 >= 2.2356643974761798
 c456: e_1 <= 47.247718580082235
 c457: e_2 <= 56.854525032758851
 c458: e_3 <= 6.706104936663972
 c459: e_4 <= 56.783276347705097
 c460: e_5 <= 12.272084165972439
 c461: e_6 <= 51.096079368082378
 c462: e_7 <= 57.185170432881144
 c463: e_8 <= 47.247718580082235
 c464: e_9 <= 53.897197780685168
 c465: e_10 <= 50.704720596591301
 c466: W_SP - 0.59612700000000007 e_1 - 0.55548359999999997 e_10 - 0.49539840000000002 e_2 - 4.2000000000000002 e_3 - 0.49602000000000002 e_4 - 2.2950984000000001 e_5 - 0.55122900000000008 e_6 - 0.49253400000000003 e_7 - 0.59612700000000007 e_8 - 0.52258080000000007 e_9 - 2.2356643974761798 r_1 - 2.2356643974761798 r_10 - 2.2356643974761798 r_2 - 2.2356643974761798 r_3 - 2.2356643974761798 r_4 - 2.2356643974761798 r_5 - 2.2356643974761798 r_6 - 2.2356643974761798 r_7 - 2.2356643974761798 r_8 - 2.2356643974761798 r_9 >= -9.389790469399955
 c467: W_SP - 3.1742112495407948 e_1 - 2.9577963958274305 e_10 - 2.6378593391752267 e_2 - 22.363837316664632 e_3 - 2.6411691870980931 e_4 - 12.220763629366022 e_5 - 2.9351418286256497 e_6 - 2.6226072021252613 e_7 - 3.1742112495407948 e_8 - 2.7825980942886805 e_9 - 10.861207266666666 r_1 - 10.861207266666666 r_10 - 10.861207266666666 r_2 - 10.861207266666666 r_3 - 10.861207266666666 r_4 - 10.861207266666666 r_5 - 10.861207266666666 r_6 - 10.861207266666666 r_7 - 10.861207266666666 r_8 - 10.861207266666666 r_9 >= -242.89827237430904
 c468: W_SP - 3.1742112495407948 e_1 - 2.9577963958274305 e_10 - 2.6378593391752267 e_2 - 22.363837316664632 e_3 - 2.6411691870980931 e_4 - 12.220763629366022 e_5 - 2.9351418286256497 e_6 - 2.6226072021252613 e_7 - 3.1742112495407948 e_8 - 2.7825980942886805 e_9 - 2.2356643974761798 r_1 - 2.2356643974761798 r_10 - 2.2356643974761798 r_2 - 2.2356643974761798 r_3 - 2.2356643974761798 r_4 - 2.2356643974761798 r_5 - 2.2356643974761798 r_6 - 2.2356643974761798 r_7 - 2.2356643974761798 r_8 - 2.2356643974761798 r_9 <= -49.998034879816345
 c469: W_SP - 0.59612700000000007 e_1 - 0.55548359999999997 e_10 - 0.49539840000000002 e_2 - 4.2000000000000002 e_3 - 0.49602000000000002 e_4 - 2.2950984000000001 e_5 - 0.55122900000000008 e_6 - 0.49253400000000003 e_7 - 0.59612700000000007 e_8 - 0.52258080000000007 e_9 - 10.861207266666666 r_1 - 10.861207266666666 r_10 - 10.861207266666666 r_2 - 10.861207266666666 r_3 - 10.861207266666666 r_4 - 10.861207266666666 r_5 - 10.861207266666666 r_6 - 10.861207266666666 r_7 - 10.861207266666666 r_8 - 10.861207266666666 r_9 <= -45.617070519999999
 c470: 1.5 W_SP + h_1_10 + h_1_2 + h_1_3 + h_1_4 + h_1_5 + h_1_6 + h_1_7 + h_1_8 + h_1_9 + h_2_10 + h_2_3 + h_2_4 + h_2_5 + h_2_6 + h_2_7 + h_2_8 + h_2_9 + h_3_10 + h_3_4 + h_3_5 + h_3_6 + h_3_7 + h_3_8 + h_3_9 + h_4_10 + h_4_5 + h_4_6 + h_4_7 + h_4_8 + h_4_9 + h_5_10 + h_5_6 + h_5_7 + h_5_8 + h_5_9 + h_6_10 + h_6_7 + h_6_8 + h_6_9 + h_7_10 + h_7_8 + h_7_9 + h_8_10 + h_8_9 + h_9_10 - 10.059157404995958 r_1 - 10.059157404995958 r_10 - 10.059157404995958 r_2 - 10.059157404995958 r_3 - 10.059157404995958 r_4 - 10.059157404995958 r_5 - 10.059157404995958 r_6 - 10.059157404995958 r_7 - 10.059157404995958 r_8 - 10.059157404995958 r_9 <= 0
 c471: x_0_0_1 + x_0_0_10 + x_0_0_2 + x_0_0_3 + x_0_0_4 + x_0_0_5 + x_0_0_6 + x_0_0_7 + x_0_0_8 + x_0_0_9 - x_0_10_0 - x_0_1_0 - x_0_2_0 - x_0_3_0 - x_0_4_0 - x_0_5_0 - x_0_6_0 - x_0_7_0 - x_0_8_0 - x_0_9_0 = 0
 c472: x_0_0_1 + x_0_0_10 + x_0_0_2 + x_0_0_3 + x_0_0_4 + x_0_0_5 + x_0_0_6 + x_0_0_7 + x_0_0_8 + x_0_0_9 <= 1
 c473: x_0_0_1 + x_0_10_1 + x_0_2_1 + x_0_3_1 + x_0_4_1 + x_0_5_1 + x_0_6_1 + x_0_7_1 + x_0_8_1 + x_0_9_1 - z_0_1 = 0
 c474: x_0_1_0 + x_0_1_10 + x_0_1_2 + x_0_1_3 + x_0_1_4 + x_0_1_5 + x_0_1_6 + x_0_1_7 + x_0_1_8 + x_0_1_9 - z_0_1 = 0
 c475: x_0_0_2 + x_0_10_2 + x_0_1_2 + x_0_3_2 + x_0_4_2 + x_0_5_2 + x_0_6_2 + x_0_7_2 + x_0_8_2 + x_0_9_2 - z_0_2 = 0
 c476: x_0_2_0 + x_0_2_1 + x_0_2_10 + x_0_2_3 + x_0_2_4 + x_0_2_5 + x_0_2_6 + x_0_2_7 + x_0_2_8 + x_0_2_9 - z_0_2 = 0
 c477: x_0_0_3 + x_0_10_3 + x_0_1_3 + x_0_2_3 + x_0_4_3 + x_0_5_3 + x_0_6_3 + x_0_7_3 + x_0_8_3 + x_0_9_3 - z_0_3 = 0
 c478: x_0_3_0 + x_0_3_1 + x_0_3_10 + x_0_3_2 + x_0_3_4 + x_0_3_5 + x_0_3_6 + x_0_3_7 + x_0_3_8 + x_0_3_9 - z_0_3 = 0
 c479: x_0_0_4 + x_0_10_4 + x_0_1_4 + x_0_2_4 + x_0_3_4 + x_0_5_4 + x_0_6_4 + x_0_7_4 + x_0_8_4 + x_0_9_4 - z_0_4 = 0
 c480: x_0_4_0 + x_0_4_1 + x_0_4_10 + x_0_4_2 + x_0_4_3 + x_0_4_5 + x_0_4_6 + x_0_4_7 + x_0_4_8 + x_0_4_9 - z_0_4 = 0
 c481: x_0_0_5 + x_0_10_5 + x_0_1_5 + x_0_2_5 + x_0_3_5 + x_0_4_5 + x_0_6_5 + x_0_7_5 + x_0_8_5 + x_0_9_5 - z_0_5 = 0
 c482: x_0_5_0 + x_0_5_1 + x_0_5_10 + x_0_5_2 + x_0_5_3 + x_0_5_4 + x_0_5_6 + x_0_5_7 + x_0_5_8 + x_0_5_9 - z_0_5 = 0
 c483: x_0_0_6 + x_0_10_6 + x_0_1_6 + x_0_2_6 + x_0_3_6 + x_0_4_6 + x_0_5_6 + x_0_7_6 + x_0_8_6 + x_0_9_6 - z_0_6 = 0
 c484: x_0_6_0 + x_0_6_1 + x_0_6_10 + x_0_6_2 + x_0_6_3 + x_0_6_4 + x_0_6_5 + x_0_6_7 + x_0_6_8 + x_0_6_9 - z_0_6 = 0
 c485: x_0_0_7 + x_0_10_7 + x_0_1_7 + x_0_2_7 + x_0_3_7 + x_0_4_7 + x_0_5_7 + x_0_6_7 + x_0_8_7 + x_0_9_7 - z_0_7 = 0
 c486: x_0_7_0 + x_0_7_1 + x_0_7_10 + x_0_7_2 + x_0_7_3 + x_0_7_4 + x_0_7_5 + x_0_7_6 + x_0_7_8 + x_0_7_9 - z_0_7 = 0
 c487: x_0_0_8 + x_0_10_8 + x_0_1_8 + x_0_2_8 + x_0_3_8 + x_0_4_8 + x_0_5_8 + x_0_6_8 + x_0_7_8 + x_0_9_8 - z_0_8 = 0
 c488: x_0_8_0 + x_0_8_1 + x_0_8_10 + x_0_8_2 + x_0_8_3 + x_0_8_4 + x_0_8_5 + x_0_8_6 + x_0_8_7 + x_0_8_9 - z_0_8 = 0
 c489: x_0_0_9 + x_0_10_9 + x_0_1_9 + x_0_2_9 + x_0_3_9 + x_0_4_9 + x_0_5_9 + x_0_6_9 + x_0_7_9 + x_0_8_9 - z_0_9 = 0
 c490: x_0_9_0 + x_0_9_1 + x_0_9_10 + x_0_9_2 + x_0_9_3 + x_0_9_4 + x_0_9_5 + x_0_9_6 + x_0_9_7 + x_0_9_8 - z_0_9 = 0
 c491: x_0_0_10 + x_0_1_10 + x_0_2_10 + x_0_3_10 + x_0_4_10 + x_0_5_10 + x_0_6_10 + x_0_7_10 + x_0_8_10 + x_0_9_10 - z_0_10 = 0
 c492: x_0_10_0 + x_0_10_1 + x_0_10_2 + x_0_10_3 + x_0_10_4 + x_0_10_5 + x_0_10_6 + x_0_10_7 + x_0_10_8 + x_0_10_9 - z_0_10 = 0
 c493: x_1_0_1 + x_1_0_10 + x_1_0_2 + x_1_0_3 + x_1_0_4 + x_1_0_5 + x_1_0_6 + x_1_0_7 + x_1_0_8 + x_1_0_9 - x_1_10_0 - x_1_1_0 - x_1_2_0 - x_1_3_0 - x_1_4_0 - x_1_5_0 - x_1_6_0 - x_1_7_0 - x_1_8_0 - x_1_9_0 = 0
 c494: x_1_0_1 + x_1_0_10 + x_1_0_2 + x_1_0_3 + x_1_0_4 + x_1_0_5 + x_1_0_6 + x_1_0_7 + x_1_0_8 + x_1_0_9 <= 1
 c495: x_1_0_1 + x_1_10_1 + x_1_2_1 + x_1_3_1 + x_1_4_1 + x_1_5_1 + x_1_6_1 + x_1_7_1 + x_1_8_1 + x_1_9_1 - z_1_1 = 0
 c496: x_1_1_0 + x_1_1_10 + x_1_1_2 + x_1_1_3 + x_1_1_4 + x_1_1_5 + x_1_1_6 + x_1_1_7 + x_1_1_8 + x_1_1_9 - z_1_1 = 0
 c497: x_1_0_2 + x_1_10_2 + x_1_1_2 + x_1_3_2 + x_1_4_2 + x_1_5_2 + x_1_6_2 + x_1_7_2 + x_1_8_2 + x_1_9_2 - z_1_2 = 0
 c498: x_1_2_0 + x_1_2_1 + x_1_2_10 + x_1_2_3 + x_1_2_4 + x_1_2_5 + x_1_2_6 + x_1_2_7 + x_1_2_8 + x_1_2_9 - z_1_2 = 0
 c499: x_1_0_3 + x_1_10_3 + x_1_1_3 + x_1_2_3 + x_1_4_3 + x_1_5_3 + x_1_6_3 + x_1_7_3 + x_1_8_3 + x_1_9_3 - z_1_3 = 0
 c500: x_1_3_0 + x_1_3_1 + x_1_3_10 + x_1_3_2 + x_1_3_4 + x_1_3_5 + x_1_3_6 + x_1_3_7 + x_1_3_8 + x_1_3_9 - z_1_3 = 0
 c501: x_1_0_4 + x_1_10_4 + x_1_1_4 + x_1_2_4 + x_1_3_4 + x_1_5_4 + x_1_6_4 + x_1_7_4 + x_1_8_4 + x_1_9_4 - z_1_4 = 0
 c502: x_1_4_0 + x_1_4_1 + x_1_4_10 + x_1_4_2 + x_1_4_3 + x_1_4_5 + x_1_4_6 + x_1_4_7 + x_1_4_8 + x_1_4_9 - z_1_4 = 0
 c503: x_1_0_5 + x_1_10_5 + x_1_1_5 + x_1_2_5 + x_1_3_5 + x_1_4_5 + x_1_6_5 + x_1_7_5 + x_1_8_5 + x_1_9_5 - z_1_5 = 0
 c504: x_1_5_0 + x_1_5_1 + x_1_5_10 + x_1_5_2 + x_1_5_3 + x_1_5_4 + x_1_5_6 + x_1_5_7 + x_1_5_8 + x_1_5_9 - z_1_5 = 0
 c505: x_1_0_6 + x_1_10_6 + x_1_1_6 + x_1_2_6 + x_1_3_6 + x_1_4_6 + x_1_5_6 + x_1_7_6 + x_1_8_6 + x_1_9_6 - z_1_6 = 0
 c506: x_1_6_0 + x_1_6_1 + x_1_6_10 + x_1_6_2 + x_1_6_3 + x_1_6_4 + x_1_6_5 + x_1_6_7 + x_1_6_8 + x_1_6_9 - z_1_6 = 0
 c507: x_1_0_7 + x_1_10_7 + x_1_1_7 + x_1_2_7 + x_1_3_7 + x_1_4_7 + x_1_5_7 + x_1_6_7 + x_1_8_7 + x_1_9_7 - z_1_7 = 0
 c508: x_1_7_0 + x_1_7_1 + x_1_7_10 + x_1_7_2 + x_1_7_3 + x_1_7_4 + x_1_7_5 + x_1_7_6 + x_1_7_8 + x_1_7_9 - z_1_7 = 0
 c509: x_1_0_8 + x_1_10_8 + x_1_1_8 + x_1_2_8 + x_1_3_8 + x_1_4_8 + x_1_5_8 + x_1_6_8 + x_1_7_8 + x_1_9_8 - z_1_8 = 0
 c510: x_1_8_0 + x_1_8_1 + x_1_8_10 + x_1_8_2 + x_1_8_3 + x_1_8_4 + x_1_8_5 + x_1_8_6 + x_1_8_7 + x_1_8_9 - z_1_8 = 0
 c511: x_1_0_9 + x_1_10_9 + x_1_1_9 + x_1_2_9 + x_1_3_9 + x_1_4_9 + x_1_5_9 + x_1_6_9 + x_1_7_9 + x_1_8_9 - z_1_9 = 0
 c512: x_1_9_0 + x_1_9_1 + x_1_9_10 + x_1_9_2 + x_1_9_3 + x_1_9_4 + x_1_9_5 + x_1_9_6 + x_1_9_7 + x_1_9_8 - z_1_9 = 0
 c513: x_1_0_10 + x_1_1_10 + x_1_2_10 + x_1_3_10 + x_1_4_10 + x_1_5_10 + x_1_6_10 + x_1_7_10 + x_1_8_10 + x_1_9_10 - z_1_10 = 0
 c514: x_1_10_0 + x_1_10_1 + x_1_10_2 + x_1_10_3 + x_1_10_4 + x_1_10_5 + x_1_10_6 + x_1_10_7 + x_1_10_8 + x_1_10_9 - z_1_10 = 0
 c515: x_2_0_1 + x_2_0_10 + x_2_0_2 + x_2_0_3 + x_2_0_4 + x_2_0_5 + x_2_0_6 + x_2_0_7 + x_2_0_8 + x_2_0_9 - x_2_10_0 - x_2_1_0 - x_2_2_0 - x_2_3_0 - x_2_4_0 - x_2_5_0 - x_2_6_0 - x_2_7_0 - x_2_8_0 - x_2_9_0 = 0
 c516: x_2_0_1 + x_2_0_10 + x_2_0_2 + x_2_0_3 + x_2_0_4 + x_2_0_5 + x_2_0_6 + x_2_0_7 + x_2_0_8 + x_2_0_9 <= 1
 c517: x_2_0_1 + x_2_10_1 + x_2_2_1 + x_2_3_1 + x_2_4_1 + x_2_5_1 + x_2_6_1 + x_2_7_1 + x_2_8_1 + x_2_9_1 - z_2_1 = 0
 c518: x_2_1_0 + x_2_1_10 + x_2_1_2 + x_2_1_3 + x_2_1_4 + x_2_1_5 + x_2_1_6 + x_2_1_7 + x_2_1_8 + x_2_1_9 - z_2_1 = 0
 c519: x_2_0_2 + x_2_10_2 + x_2_1_2 + x_2_3_2 + x_2_4_2 + x_2_5_2 + x_2_6_2 + x_2_7_2 + x_2_8_2 + x_2_9_2 - z_2_2 = 0
 c520: x_2_2_0 + x_2_2_1 + x_2_2_10 + x_2_2_3 + x_2_2_4 + x_2_2_5 + x_2_2_6 + x_2_2_7 + x_2_2_8 + x_2_2_9 - z_2_2 = 0
 c521: x_2_0_3 + x_2_10_3 + x_2_1_3 + x_2_2_3 + x_2_4_3 + x_2_5_3 + x_2_6_3 + x_2_7_3 + x_2_8_3 + x_2_9_3 - z_2_3 = 0
 c522: x_2_3_0 + x_2_3_1 + x_2_3_10 + x_2_3_2 + x_2_3_4 + x_2_3_5 + x_2_3_6 + x_2_3_7 + x_2_3_8 + x_2_3_9 - z_2_3 = 0
 c523: x_2_0_4 + x_2_10_4 + x_2_1_4 + x_2_2_4 + x_2_3_4 + x_2_5_4 + x_2_6_4 + x_2_7_4 + x_2_8_4 + x_2_9_4 - z_2_4 = 0
 c524: x_2_4_0 + x_2_4_1 + x_2_4_10 + x_2_4_2 + x_2_4_3 + x_2_4_5 + x_2_4_6 + x_2_4_7 + x_2_4_8 + x_2_4_9 - z_2_4 = 0
 c525: x_2_0_5 + x_2_10_5 + x_2_1_5 + x_2_2_5 + x_2_3_5 + x_2_4_5 + x_2_6_5 + x_2_7_5 + x_2_8_5 + x_2_9_5 - z_2_5 = 0
 c526: x_2_5_0 + x_2_5_1 + x_2_5_10 + x_2_5_2 + x_2_5_3 + x_2_5_4 + x_2_5_6 + x_2_5_7 + x_2_5_8 + x_2_5_9 - z_2_5 = 0
 c527: x_2_0_6 + x_2_10_6 + x_2_1_6 + x_2_2_6 + x_2_3_6 + x_2_4_6 + x_2_5_6 + x_2_7_6 + x_2_8_6 + x_2_9_6 - z_2_6 = 0
 c528: x_2_6_0 + x_2_6_1 + x_2_6_10 + x_2_6_2 + x_2_6_3 + x_2_6_4 + x_2_6_5 + x_2_6_7 + x_2_6_8 + x_2_6_9 - z_2_6 = 0
 c529: x_2_0_7 + x_2_10_7 + x_2_1_7 + x_2_2_7 + x_2_3_7 + x_2_4_7 + x_2_5_7 + x_2_6_7 + x_2_8_7 + x_2_9_7 - z_2_7 = 0
 c530: x_2_7_0 + x_2_7_1 + x_2_7_10 + x_2_7_2 + x_2_7_3 + x_2_7_4 + x_2_7_5 + x_2_7_6 + x_2_7_8 + x_2_7_9 - z_2_7 = 0
 c531: x_2_0_8 + x_2_10_8 + x_2_1_8 + x_2_2_8 + x_2_3_8 + x_2_4_8 + x_2_5_8 + x_2_6_8 + x_2_7_8 + x_2_9_8 - z_2_8 = 0
 c532: x_2_8_0 + x_2_8_1 + x_2_8_10 + x_2_8_2 + x_2_8_3 + x_2_8_4 + x_2_8_5 + x_2_8_6 + x_2_8_7 + x_2_8_9 - z_2_8 = 0
 c533: x_2_0_9 + x_2_10_9 + x_2_1_9 + x_2_2_9 + x_2_3_9 + x_2_4_9 + x_2_5_9 + x_2_6_9 + x_2_7_9 + x_2_8_9 - z_2_9 = 0
 c534: x_2_9_0 + x_2_9_1 + x_2_9_10 + x_2_9_2 + x_2_9_3 + x_2_9_4 + x_2_9_5 + x_2_9_6 + x_2_9_7 + x_2_9_8 - z_2_9 = 0
 c535: x_2_0_10 + x_2_1_10 + x_2_2_10 + x_2_3_10 + x_2_4_10 + x_2_5_10 + x_2_6_10 + x_2_7_10 + x_2_8_10 + x_2_9_10 - z_2_10 = 0
 c536: x_2_10_0 + x_2_10_1 + x_2_10_2 + x_2_10_3 + x_2_10_4 + x_2_10_5 + x_2_10_6 + x_2_10_7 + x_2_10_8 + x_2_10_9 - z_2_10 = 0
 c537: conn_0_0_1 - 10 x_0_0_1 <= 0
 c538: conn_0_0_2 - 10 x_0_0_2 <= 0
 c539: conn_0_0_3 - 10 x_0_0_3 <= 0
 c540: conn_0_0_4 - 10 x_0_0_4 <= 0
 c541: conn_0_0_5 - 10 x_0_0_5 <= 0
 c542: conn_0_0_6 - 10 x_0_0_6 <= 0
 c543: conn_0_0_7 - 10 x_0_0_7 <= 0
 c544: conn_0_0_8 - 10 x_0_0_8 <= 0
 c545: conn_0_0_9 - 10 x_0_0_9 <= 0
 c546: conn_0_0_10 - 10 x_0_0_10 <= 0
 c547: conn_0_1_0 - 10 x_0_1_0 <= 0
 c548: conn_0_1_2 - 10 x_0_1_2 <= 0
 c549: conn_0_1_3 - 10 x_0_1_3 <= 0
 c550: conn_0_1_4 - 10 x_0_1_4 <= 0
 c551: conn_0_1_5 - 10 x_0_1_5 <= 0
 c552: conn_0_1_6 - 10 x_0_1_6 <= 0
 c553: conn_0_1_7 - 10 x_0_1_7 <= 0
 c554: conn_0_1_8 - 10 x_0_1_8 <= 0
 c555: conn_0_1_9 - 10 x_0_1_9 <= 0
 c556: conn_0_1_10 - 10 x_0_1_10 <= 0
 c557: conn_0_2_0 - 10 x_0_2_0 <= 0
 c558: conn_0_2_1 - 10 x_0_2_1 <= 0
 c559: conn_0_2_3 - 10 x_0_2_3 <= 0
 c560: conn_0_2_4 - 10 x_0_2_4 <= 0
 c561: conn_0_2_5 - 10 x_0_2_5 <= 0
 c562: conn_0_2_6 - 10 x_0_2_6 <= 0
 c563: conn_0_2_7 - 10 x_0_2_7 <= 0
 c564: conn_0_2_8 - 10 x_0_2_8 <= 0
 c565: conn_0_2_9 - 10 x_0_2_9 <= 0
 c566: conn_0_2_10 - 10 x_0_2_10 <= 0
 c567: conn_0_3_0 - 10 x_0_3_0 <= 0
 c568: conn_0_3_1 - 10 x_0_3_1 <= 0
 c569: conn_0_3_2 - 10 x_0_3_2 <= 0
 c570: conn_0_3_4 - 10 x_0_3_4 <= 0
 c571: conn_0_3_5 - 10 x_0_3_5 <= 0
 c572: conn_0_3_6 - 10 x_0_3_6 <= 0
 c573: conn_0_3_7 - 10 x_0_3_7 <= 0
 c574: conn_0_3_8 - 10 x_0_3_8 <= 0
 c575: conn_0_3_9 - 10 x_0_3_9 <= 0
 c576: conn_0_3_10 - 10 x_0_3_10 <= 0
 c577: conn_0_4_0 - 10 x_0_4_0 <= 0
 c578: conn_0_4_1 - 10 x_0_4_1 <= 0
 c579: conn_0_4_2 - 10 x_0_4_2 <= 0
 c580: conn_0_4_3 - 10 x_0_4_3 <= 0
 c581: conn_0_4_5 - 10 x_0_4_5 <= 0
 c582: conn_0_4_6 - 10 x_0_4_6 <= 0
 c583: conn_0_4_7 - 10 x_0_4_7 <= 0
 c584: conn_0_4_8 - 10 x_0_4_8 <= 0
 c585: conn_0_4_9 - 10 x_0_4_9 <= 0
 c586: conn_0_4_10 - 10 x_0_4_10 <= 0
 c587: conn_0_5_0 - 10 x_0_5_0 <= 0
 c588: conn_0_5_1 - 10 x_0_5_1 <= 0
 c589: conn_0_5_2 - 10 x_0_5_2 <= 0
 c590: conn_0_5_3 - 10 x_0_5_3 <= 0
 c591: conn_0_5_4 - 10 x_0_5_4 <= 0
 c592: conn_0_5_6 - 10 x_0_5_6 <= 0
 c593: conn_0_5_7 - 10 x_0_5_7 <= 0
 c594: conn_0_5_8 - 10 x_0_5_8 <= 0
 c595: conn_0_5_9 - 10 x_0_5_9 <= 0
 c596: conn_0_5_10 - 10 x_0_5_10 <= 0
 c597: conn_0_6_0 - 10 x_0_6_0 <= 0
 c598: conn_0_6_1 - 10 x_0_6_1 <= 0
 c599: conn_0_6_2 - 10 x_0_6_2 <= 0
 c600: conn_0_6_3 - 10 x_0_6_3 <= 0
 c601: conn_0_6_4 - 10 x_0_6_4 <= 0
 c602: conn_0_6_5 - 10 x_0_6_5 <= 0
 c603: conn_0_6_7 - 10 x_0_6_7 <= 0
 c604: conn_0_6_8 - 10 x_0_6_8 <= 0
 c605: conn_0_6_9 - 10 x_0_6_9 <= 0
 c606: conn_0_6_10 - 10 x_0_6_10 <= 0
 c607: conn_0_7_0 - 10 x_0_7_0 <= 0
 c608: conn_0_7_1 - 10 x_0_7_1 <= 0
 c609: conn_0_7_2 - 10 x_0_7_2 <= 0
 c610: conn_0_7_3 - 10 x_0_7_3 <= 0
 c611: conn_0_7_4 - 10 x_0_7_4 <= 0
 c612: conn_0_7_5 - 10 x_0_7_5 <= 0
 c613: conn_0_7_6 - 10 x_0_7_6 <= 0
 c614: conn_0_7_8 - 10 x_0_7_8 <= 0
 c615: conn_0_7_9 - 10 x_0_7_9 <= 0
 c616: conn_0_7_10 - 10 x_0_7_10 <= 0
 c617: conn_0_8_0 - 10 x_0_8_0 <= 0
 c618: conn_0_8_1 - 10 x_0_8_1 <= 0
 c619: conn_0_8_2 - 10 x_0_8_2 <= 0
 c620: conn_0_8_3 - 10 x_0_8_3 <= 0
 c621: conn_0_8_4 - 10 x_0_8_4 <= 0
 c622: conn_0_8_5 - 10 x_0_8_5 <= 0
 c623: conn_0_8_6 - 10 x_0_8_6 <= 0
 c624: conn_0_8_7 - 10 x_0_8_7 <= 0
 c625: conn_0_8_9 - 10 x_0_8_9 <= 0
 c626: conn_0_8_10 - 10 x_0_8_10 <= 0
 c627: conn_0_9_0 - 10 x_0_9_0 <= 0
 c628: conn_0_9_1 - 10 x_0_9_1 <= 0
 c629: conn_0_9_2 - 10 x_0_9_2 <= 0
 c630: conn_0_9_3 - 10 x_0_9_3 <= 0
 c631: conn_0_9_4 - 10 x_0_9_4 <= 0
 c632: conn_0_9_5 - 10 x_0_9_5 <= 0
 c633: conn_0_9_6 - 10 x_0_9_6 <= 0
 c634: conn_0_9_7 - 10 x_0_9_7 <= 0
 c635: conn_0_9_8 - 10 x_0_9_8 <= 0
 c636: conn_0_9_10 - 10 x_0_9_10 <= 0
 c637: conn_0_10_0 - 10 x_0_10_0 <= 0
 c638: conn_0_10_1 - 10 x_0_10_1 <= 0
 c639: conn_0_10_2 - 10 x_0_10_2 <= 0
 c640: conn_0_10_3 - 10 x_0_10_3 <= 0
 c641: conn_0_10_4 - 10 x_0_10_4 <= 0
 c642: conn_0_10_5 - 10 x_0_10_5 <= 0
 c643: conn_0_10_6 - 10 x_0_10_6 <= 0
 c644: conn_0_10_7 - 10 x_0_10_7 <= 0
 c645: conn_0_10_8 - 10 x_0_10_8 <= 0
 c646: conn_0_10_9 - 10 x_0_10_9 <= 0
 c647: conn_0_0_1 + conn_0_10_1 - conn_0_1_0 - conn_0_1_10 - conn_0_1_2 - conn_0_1_3 - conn_0_1_4 - conn_0_1_5 - conn_0_1_6 - conn_0_1_7 - conn_0_1_8 - conn_0_1_9 + conn_0_2_1 + conn_0_3_1 + conn_0_4_1 + conn_0_5_1 + conn_0_6_1 + conn_0_7_1 + conn_0_8_1 + conn_0_9_1 - z_0_1 = 0
 c648: conn_0_0_2 + conn_0_10_2 + conn_0_1_2 - conn_0_2_0 - conn_0_2_1 - conn_0_2_10 - conn_0_2_3 - conn_0_2_4 - conn_0_2_5 - conn_0_2_6 - conn_0_2_7 - conn_0_2_8 - conn_0_2_9 + conn_0_3_2 + conn_0_4_2 + conn_0_5_2 + conn_0_6_2 + conn_0_7_2 + conn_0_8_2 + conn_0_9_2 - z_0_2 = 0
 c649: conn_0_0_3 + conn_0_10_3 + conn_0_1_3 + conn_0_2_3 - conn_0_3_0 - conn_0_3_1 - conn_0_3_10 - conn_0_3_2 - conn_0_3_4 - conn_0_3_5 - conn_0_3_6 - conn_0_3_7 - conn_0_3_8 - conn_0_3_9 + conn_0_4_3 + conn_0_5_3 + conn_0_6_3 + conn_0_7_3 + conn_0_8_3 + conn_0_9_3 - z_0_3 = 0
 c650: conn_0_0_4 + conn_0_10_4 + conn_0_1_4 + conn_0_2_4 + conn_0_3_4 - conn_0_4_0 - conn_0_4_1 - conn_0_4_10 - conn_0_4_2 - conn_0_4_3 - conn_0_4_5 - conn_0_4_6 - conn_0_4_7 - conn_0_4_8 - conn_0_4_9 + conn_0_5_4 + conn_0_6_4 + conn_0_7_4 + conn_0_8_4 + conn_0_9_4 - z_0_4 = 0
 c651: conn_0_0_5 + conn_0_10_5 + conn_0_1_5 + conn_0_2_5 + conn_0_3_5 + conn_0_4_5 - conn_0_5_0 - conn_0_5_1 - conn_0_5_10 - conn_0_5_2 - conn_0_5_3 - conn_0_5_4 - conn_0_5_6 - conn_0_5_7 - conn_0_5_8 - conn_0_5_9 + conn_0_6_5 + conn_0_7_5 + conn_0_8_5 + conn_0_9_5 - z_0_5 = 0
 c652: conn_0_0_6 + conn_0_10_6 + conn_0_1_6 + conn_0_2_6 + conn_0_3_6 + conn_0_4_6 + conn_0_5_6 - conn_0_6_0 - conn_0_6_1 - conn_0_6_10 - conn_0_6_2 - conn_0_6_3 - conn_0_6_4 - conn_0_6_5 - conn_0_6_7 - conn_0_6_8 - conn_0_6_9 + conn_0_7_6 + conn_0_8_6 + conn_0_9_6 - z_0_6 = 0
 c653: conn_0_0_7 + conn_0_10_7 + conn_0_1_7 + conn_0_2_7 + conn_0_3_7 + conn_0_4_7 + conn_0_5_7 + conn_0_6_7 - conn_0_7_0 - conn_0_7_1 - conn_0_7_10 - conn_0_7_2 - conn_0_7_3 - conn_0_7_4 - conn_0_7_5 - conn_0_7_6 - conn_0_7_8 - conn_0_7_9 + conn_0_8_7 + conn_0_9_7 - z_0_7 = 0
 c654: conn_0_0_8 + conn_0_10_8 + conn_0_1_8 + conn_0_2_8 + conn_0_3_8 + conn_0_4_8 + conn_0_5_8 + conn_0_6_8 + conn_0_7_8 - conn_0_8_0 - conn_0_8_1 - conn_0_8_10 - conn_0_8_2 - conn_0_8_3 - conn_0_8_4 - conn_0_8_5 - conn_0_8_6 - conn_0_8_7 - conn_0_8_9 + conn_0_9_8 - z_0_8 = 0
 c655: conn_0_0_9 + conn_0_10_9 + conn_0_1_9 + conn_0_2_9 + conn_0_3_9 + conn_0_4_9 + conn_0_5_9 + conn_0_6_9 + conn_0_7_9 + conn_0_8_9 - conn_0_9_0 - conn_0_9_1 - conn_0_9_10 - conn_0_9_2 - conn_0_9_3 - conn_0_9_4 - conn_0_9_5 - conn_0_9_6 - conn_0_9_7 - conn_0_9_8 - z_0_9 = 0
 c656: conn_0_0_10 - conn_0_10_0 - conn_0_10_1 - conn_0_10_2 - conn_0_10_3 - conn_0_10_4 - conn_0_10_5 - conn_0_10_6 - conn_0_10_7 - conn_0_10_8 - conn_0_10_9 + conn_0_1_10 + conn_0_2_10 + conn_0_3_10 + conn_0_4_10 + conn_0_5_10 + conn_0_6_10 + conn_0_7_10 + conn_0_8_10 + conn_0_9_10 - z_0_10 = 0
 c657: conn_0_0_1 + conn_0_0_10 + conn_0_0_2 + conn_0_0_3 + conn_0_0_4 + conn_0_0_5 + conn_0_0_6 + conn_0_0_7 + conn_0_0_8 + conn_0_0_9 - conn_0_10_0 - conn_0_1_0 - conn_0_2_0 - conn_0_3_0 - conn_0_4_0 - conn_0_5_0 - conn_0_6_0 - conn_0_7_0 - conn_0_8_0 - conn_0_9_0 - z_0_1 - z_0_10 - z_0_2 - z_0_3 - z_0_4 - z_0_5 - z_0_6 - z_0_7 - z_0_8 - z_0_9 = 0
 c658: conn_1_0_1 - 10 x_1_0_1 <= 0
 c659: conn_1_0_2 - 10 x_1_0_2 <= 0
 c660: conn_1_0_3 - 10 x_1_0_3 <= 0
 c661: conn_1_0_4 - 10 x_1_0_4 <= 0
 c662: conn_1_0_5 - 10 x_1_0_5 <= 0
 c663: conn_1_0_6 - 10 x_1_0_6 <= 0
 c664: conn_1_0_7 - 10 x_1_0_7 <= 0
 c665: conn_1_0_8 - 10 x_1_0_8 <= 0
 c666: conn_1_0_9 - 10 x_1_0_9 <= 0
 c667: conn_1_0_10 - 10 x_1_0_10 <= 0
 c668: conn_1_1_0 - 10 x_1_1_0 <= 0
 c669: conn_1_1_2 - 10 x_1_1_2 <= 0
 c670: conn_1_1_3 - 10 x_1_1_3 <= 0
 c671: conn_1_1_4 - 10 x_1_1_4 <= 0
 c672: conn_1_1_5 - 10 x_1_1_5 <= 0
 c673: conn_1_1_6 - 10 x_1_1_6 <= 0
 c674: conn_1_1_7 - 10 x_1_1_7 <= 0
 c675: conn_1_1_8 - 10 x_1_1_8 <= 0
 c676: conn_1_1_9 - 10 x_1_1_9 <= 0
 c677: conn_1_1_10 - 10 x_1_1_10 <= 0
 c678: conn_1_2_0 - 10 x_1_2_0 <= 0
 c679: conn_1_2_1 - 10 x_1_2_1 <= 0
 c680: conn_1_2_3 - 10 x_1_2_3 <= 0
 c681: conn_1_2_4 - 10 x_1_2_4 <= 0
 c682: conn_1_2_5 - 10 x_1_2_5 <= 0
 c683: conn_1_2_6 - 10 x_1_2_6 <= 0
 c684: conn_1_2_7 - 10 x_1_2_7 <= 0
 c685: conn_1_2_8 - 10 x_1_2_8 <= 0
 c686: conn_1_2_9 - 10 x_1_2_9 <= 0
 c687: conn_1_2_10 - 10 x_1_2_10 <= 0
 c688: conn_1_3_0 - 10 x_1_3_0 <= 0
 c689: conn_1_3_1 - 10 x_1_3_1 <= 0
 c690: conn_1_3_2 - 10 x_1_3_2 <= 0
 c691: conn_1_3_4 - 10 x_1_3_4 <= 0
 c692: conn_1_3_5 - 10 x_1_3_5 <= 0
 c693: conn_1_3_6 - 10 x_1_3_6 <= 0
 c694: conn_1_3_7 - 10 x_1_3_7 <= 0
 c695: conn_1_3_8 - 10 x_1_3_8 <= 0
 c696: conn_1_3_9 - 10 x_1_3_9 <= 0
 c697: conn_1_3_10 - 10 x_1_3_10 <= 0
 c698: conn_1_4_0 - 10 x_1_4_0 <= 0
 c699: conn_1_4_1 - 10 x_1_4_1 <= 0
 c700: conn_1_4_2 - 10 x_1_4_2 <= 0
 c701: conn_1_4_3 - 10 x_1_4_3 <= 0
 c702: conn_1_4_5 - 10 x_1_4_5 <= 0
 c703: conn_1_4_6 - 10 x_1_4_6 <= 0
 c704: conn_1_4_7 - 10 x_1_4_7 <= 0
 c705: conn_1_4_8 - 10 x_1_4_8 <= 0
 c706: conn_1_4_9 - 10 x_1_4_9 <= 0
 c707: conn_1_4_10 - 10 x_1_4_10 <= 0
 c708: conn_1_5_0 - 10 x_1_5_0 <= 0
 c709: conn_1_5_1 - 10 x_1_5_1 <= 0
 c710: conn_1_5_2 - 10 x_1_5_2 <= 0
 c711: conn_1_5_3 - 10 x_1_5_3 <= 0
 c712: conn_1_5_4 - 10 x_1_5_4 <= 0
 c713: conn_1_5_6 - 10 x_1_5_6 <= 0
 c714: conn_1_5_7 - 10 x_1_5_7 <= 0
 c715: conn_1_5_8 - 10 x_1_5_8 <= 0
 c716: conn_1_5_9 - 10 x_1_5_9 <= 0
 c717: conn_1_5_10 - 10 x_1_5_10 <= 0
 c718: conn_1_6_0 - 10 x_1_6_0 <= 0
 c719: conn_1_6_1 - 10 x_1_6_1 <= 0
 c720: conn_1_6_2 - 10 x_1_6_2 <= 0
 c721: conn_1_6_3 - 10 x_1_6_3 <= 0
 c722: conn_1_6_4 - 10 x_1_6_4 <= 0
 c723: conn_1_6_5 - 10 x_1_6_5 <= 0
 c724: conn_1_6_7 - 10 x_1_6_7 <= 0
 c725: conn_1_6_8 - 10 x_1_6_8 <= 0
 c726: conn_1_6_9 - 10 x_1_6_9 <= 0
 c727: conn_1_6_10 - 10 x_1_6_10 <= 0
 c728: conn_1_7_0 - 10 x_1_7_0 <= 0
 c729: conn_1_7_1 - 10 x_1_7_1 <= 0
 c730: conn_1_7_2 - 10 x_1_7_2 <= 0
 c731: conn_1_7_3 - 10 x_1_7_3 <= 0
 c732: conn_1_7_4 - 10 x_1_7_4 <= 0
 c733: conn_1_7_5 - 10 x_1_7_5 <= 0
 c734: conn_1_7_6 - 10 x_1_7_6 <= 0
 c735: conn_1_7_8 - 10 x_1_7_8 <= 0
 c736: conn_1_7_9 - 10 x_1_7_9 <= 0
 c737: conn_1_7_10 - 10 x_1_7_10 <= 0
 c738: conn_1_8_0 - 10 x_1_8_0 <= 0
 c739: conn_1_8_1 - 10 x_1_8_1 <= 0
 c740: conn_1_8_2 - 10 x_1_8_2 <= 0
 c741: conn_1_8_3 - 10 x_1_8_3 <= 0
 c742: conn_1_8_4 - 10 x_1_8_4 <= 0
 c743: conn_1_8_5 - 10 x_1_8_5 <= 0
 c744: conn_1_8_6 - 10 x_1_8_6 <= 0
 c745: conn_1_8_7 - 10 x_1_8_7 <= 0
 c746: conn_1_8_9 - 10 x_1_8_9 <= 0
 c747: conn_1_8_10 - 10 x_1_8_10 <= 0
 c748: conn_1_9_0 - 10 x_1_9_0 <= 0
 c749: conn_1_9_1 - 10 x_1_9_1 <= 0
 c750: conn_1_9_2 - 10 x_1_9_2 <= 0
 c751: conn_1_9_3 - 10 x_1_9_3 <= 0
 c752: conn_1_9_4 - 10 x_1_9_4 <= 0
 c753: conn_1_9_5 - 10 x_1_9_5 <= 0
 c754: conn_1_9_6 - 10 x_1_9_6 <= 0
 c755: conn_1_9_7 - 10 x_1_9_7 <= 0
 c756: conn_1_9_8 - 10 x_1_9_8 <= 0
 c757: conn_1_9_10 - 10 x_1_9_10 <= 0
 c758: conn_1_10_0 - 10 x_1_10_0 <= 0
 c759: conn_1_10_1 - 10 x_1_10_1 <= 0
 c760: conn_1_10_2 - 10 x_1_10_2 <= 0
 c761: conn_1_10_3 - 10 x_1_10_3 <= 0
 c762: conn_1_10_4 - 10 x_1_10_4 <= 0
 c763: conn_1_10_5 - 10 x_1_10_5 <= 0
 c764: conn_1_10_6 - 10 x_1_10_6 <= 0
 c765: conn_1_10_7 - 10 x_1_10_7 <= 0
 c766: conn_1_10_8 - 10 x_1_10_8 <= 0
 c767: conn_1_10_9 - 10 x_1_10_9 <= 0
 c768: conn_1_0_1 + conn_1_10_1 - conn_1_1_0 - conn_1_1_10 - conn_1_1_2 - conn_1_1_3 - conn_1_1_4 - conn_1_1_5 - conn_1_1_6 - conn_1_1_7 - conn_1_1_8 - conn_1_1_9 + conn_1_2_1 + conn_1_3_1 + conn_1_4_1 + conn_1_5_1 + conn_1_6_1 + conn_1_7_1 + conn_1_8_1 + conn_1_9_1 - z_1_1 = 0
 c769: conn_1_0_2 + conn_1_10_2 + conn_1_1_2 - conn_1_2_0 - conn_1_2_1 - conn_1_2_10 - conn_1_2_3 - conn_1_2_4 - conn_1_2_5 - conn_1_2_6 - conn_1_2_7 - conn_1_2_8 - conn_1_2_9 + conn_1_3_2 + conn_1_4_2 + conn_1_5_2 + conn_1_6_2 + conn_1_7_2 + conn_1_8_2 + conn_1_9_2 - z_1_2 = 0
 c770: conn_1_0_3 + conn_1_10_3 + conn_1_1_3 + conn_1_2_3 - conn_1_3_0 - conn_1_3_1 - conn_1_3_10 - conn_1_3_2 - conn_1_3_4 - conn_1_3_5 - conn_1_3_6 - conn_1_3_7 - conn_1_3_8 - conn_1_3_9 + conn_1_4_3 + conn_1_5_3 + conn_1_6_3 + conn_1_7_3 + conn_1_8_3 + conn_1_9_3 - z_1_3 = 0
 c771: conn_1_0_4 + conn_1_10_4 + conn_1_1_4 + conn_1_2_4 + conn_1_3_4 - conn_1_4_0 - conn_1_4_1 - conn_1_4_10 - conn_1_4_2 - conn_1_4_3 - conn_1_4_5 - conn_1_4_6 - conn_1_4_7 - conn_1_4_8 - conn_1_4_9 + conn_1_5_4 + conn_1_6_4 + conn_1_7_4 + conn_1_8_4 + conn_1_9_4 - z_1_4 = 0
 c772: conn_1_0_5 + conn_1_10_5 + conn_1_1_5 + conn_1_2_5 + conn_1_3_5 + conn_1_4_5 - conn_1_5_0 - conn_1_5_1 - conn_1_5_10 - conn_1_5_2 - conn_1_5_3 - conn_1_5_4 - conn_1_5_6 - conn_1_5_7 - conn_1_5_8 - conn_1_5_9 + conn_1_6_5 + conn_1_7_5 + conn_1_8_5 + conn_1_9_5 - z_1_5 = 0
 c773: conn_1_0_6 + conn_1_10_6 + conn_1_1_6 + conn_1_2_6 + conn_1_3_6 + conn_1_4_6 + conn_1_5_6 - conn_1_6_0 - conn_1_6_1 - conn_1_6_10 - conn_1_6_2 - conn_1_6_3 - conn_1_6_4 - conn_1_6_5 - conn_1_6_7 - conn_1_6_8 - conn_1_6_9 + conn_1_7_6 + conn_1_8_6 + conn_1_9_6 - z_1_6 = 0
 c774: conn_1_0_7 + conn_1_10_7 + conn_1_1_7 + conn_1_2_7 + conn_1_3_7 + conn_1_4_7 + conn_1_5_7 + conn_1_6_7 - conn_1_7_0 - conn_1_7_1 - conn_1_7_10 - conn_1_7_2 - conn_1_7_3 - conn_1_7_4 - conn_1_7_5 - conn_1_7_6 - conn_1_7_8 - conn_1_7_9 + conn_1_8_7 + conn_1_9_7 - z_1_7 = 0
 c775: conn_1_0_8 + conn_1_10_8 + conn_1_1_8 + conn_1_2_8 + conn_1_3_8 + conn_1_4_8 + conn_1_5_8 + conn_1_6_8 + conn_1_7_8 - conn_1_8_0 - conn_1_8_1 - conn_1_8_10 - conn_1_8_2 - conn_1_8_3 - conn_1_8_4 - conn_1_8_5 - conn_1_8_6 - conn_1_8_7 - conn_1_8_9 + conn_1_9_8 - z_1_8 = 0
 c776: conn_1_0_9 + conn_1_10_9 + conn_1_1_9 + conn_1_2_9 + conn_1_3_9 + conn_1_4_9 + conn_1_5_9 + conn_1_6_9 + conn_1_7_9 + conn_1_8_9 - conn_1_9_0 - conn_1_9_1 - conn_1_9_10 - conn_1_9_2 - conn_1_9_3 - conn_1_9_4 - conn_1_9_5 - conn_1_9_6 - conn_1_9_7 - conn_1_9_8 - z_1_9 = 0
 c777: conn_1_0_10 - conn_1_10_0 - conn_1_10_1 - conn_1_10_2 - conn_1_10_3 - conn_1_10_4 - conn_1_10_5 - conn_1_10_6 - conn_1_10_7 - conn_1_10_8 - conn_1_10_9 + conn_1_1_10 + conn_1_2_10 + conn_1_3_10 + conn_1_4_10 + conn_1_5_10 + conn_1_6_10 + conn_1_7_10 + conn_1_8_10 + conn_1_9_10 - z_1_10 = 0
 c778: conn_1_0_1 + conn_1_0_10 + conn_1_0_2 + conn_1_0_3 + conn_1_0_4 + conn_1_0_5 + conn_1_0_6 + conn_1_0_7 + conn_1_0_8 + conn_1_0_9 - conn_1_10_0 - conn_1_1_0 - conn_1_2_0 - conn_1_3_0 - conn_1_4_0 - conn_1_5_0 - conn_1_6_0 - conn_1_7_0 - conn_1_8_0 - conn_1_9_0 - z_1_1 - z_1_10 - z_1_2 - z_1_3 - z_1_4 - z_1_5 - z_1_6 - z_1_7 - z_1_8 - z_1_9 = 0
 c779: conn_2_0_1 - 10 x_2_0_1 <= 0
 c780: conn_2_0_2 - 10 x_2_0_2 <= 0
 c781: conn_2_0_3 - 10 x_2_0_3 <= 0
 c782: conn_2_0_4 - 10 x_2_0_4 <= 0
 c783: conn_2_0_5 - 10 x_2_0_5 <= 0
 c784: conn_2_0_6 - 10 x_2_0_6 <= 0
 c785: conn_2_0_7 - 10 x_2_0_7 <= 0
 c786: conn_2_0_8 - 10 x_2_0_8 <= 0
 c787: conn_2_0_9 - 10 x_2_0_9 <= 0
 c788: conn_2_0_10 - 10 x_2_0_10 <= 0
 c789: conn_2_1_0 - 10 x_2_1_0 <= 0
 c790: conn_2_1_2 - 10 x_2_1_2 <= 0
 c791: conn_2_1_3 - 10 x_2_1_3 <= 0
 c792: conn_2_1_4 - 10 x_2_1_4 <= 0
 c793: conn_2_1_5 - 10 x_2_1_5 <= 0
 c794: conn_2_1_6 - 10 x_2_1_6 <= 0
 c795: conn_2_1_7 - 10 x_2_1_7 <= 0
 c796: conn_2_1_8 - 10 x_2_1_8 <= 0
 c797: conn_2_1_9 - 10 x_2_1_9 <= 0
 c798: conn_2_1_10 - 10 x_2_1_10 <= 0
 c799: conn_2_2_0 - 10 x_2_2_0 <= 0
 c800: conn_2_2_1 - 10 x_2_2_1 <= 0
 c801: conn_2_2_3 - 10 x_2_2_3 <= 0
 c802: conn_2_2_4 - 10 x_2_2_4 <= 0
 c803: conn_2_2_5 - 10 x_2_2_5 <= 0
 c804: conn_2_2_6 - 10 x_2_2_6 <= 0
 c805: conn_2_2_7 - 10 x_2_2_7 <= 0
 c806: conn_2_2_8 - 10 x_2_2_8 <= 0
 c807: conn_2_2_9 - 10 x_2_2_9 <= 0
 c808: conn_2_2_10 - 10 x_2_2_10 <= 0
 c809: conn_2_3_0 - 10 x_2_3_0 <= 0
 c810: conn_2_3_1 - 10 x_2_3_1 <= 0
 c811: conn_2_3_2 - 10 x_2_3_2 <= 0
 c812: conn_2_3_4 - 10 x_2_3_4 <= 0
 c813: conn_2_3_5 - 10 x_2_3_5 <= 0
 c814: conn_2_3_6 - 10 x_2_3_6 <= 0
 c815: conn_2_3_7 - 10 x_2_3_7 <= 0
 c816: conn_2_3_8 - 10 x_2_3_8 <= 0
 c817: conn_2_3_9 - 10 x_2_3_9 <= 0
 c818: conn_2_3_10 - 10 x_2_3_10 <= 0
 c819: conn_2_4_0 - 10 x_2_4_0 <= 0
 c820: conn_2_4_1 - 10 x_2_4_1 <= 0
 c821: conn_2_4_2 - 10 x_2_4_2 <= 0
 c822: conn_2_4_3 - 10 x_2_4_3 <= 0
 c823: conn_2_4_5 - 10 x_2_4_5 <= 0
 c824: conn_2_4_6 - 10 x_2_4_6 <= 0
 c825: conn_2_4_7 - 10 x_2_4_7 <= 0
 c826: conn_2_4_8 - 10 x_2_4_8 <= 0
 c827: conn_2_4_9 - 10 x_2_4_9 <= 0
 c828: conn_2_4_10 - 10 x_2_4_10 <= 0
 c829: conn_2_5_0 - 10 x_2_5_0 <= 0
 c830: conn_2_5_1 - 10 x_2_5_1 <= 0
 c831: conn_2_5_2 - 10 x_2_5_2 <= 0
 c832: conn_2_5_3 - 10 x_2_5_3 <= 0
 c833: conn_2_5_4 - 10 x_2_5_4 <= 0
 c834: conn_2_5_6 - 10 x_2_5_6 <= 0
 c835: conn_2_5_7 - 10 x_2_5_7 <= 0
 c836: conn_2_5_8 - 10 x_2_5_8 <= 0
 c837: conn_2_5_9 - 10 x_2_5_9 <= 0
 c838: conn_2_5_10 - 10 x_2_5_10 <= 0
 c839: conn_2_6_0 - 10 x_2_6_0 <= 0
 c840: conn_2_6_1 - 10 x_2_6_1 <= 0
 c841: conn_2_6_2 - 10 x_2_6_2 <= 0
 c842: conn_2_6_3 - 10 x_2_6_3 <= 0
 c843: conn_2_6_4 - 10 x_2_6_4 <= 0
 c844: conn_2_6_5 - 10 x_2_6_5 <= 0
 c845: conn_2_6_7 - 10 x_2_6_7 <= 0
 c846: conn_2_6_8 - 10 x_2_6_8 <= 0
 c847: conn_2_6_9 - 10 x_2_6_9 <= 0
 c848: conn_2_6_10 - 10 x_2_6_10 <= 0
 c849: conn_2_7_0 - 10 x_2_7_0 <= 0
 c850: conn_2_7_1 - 10 x_2_7_1 <= 0
 c851: conn_2_7_2 - 10 x_2_7_2 <= 0
 c852: conn_2_7_3 - 10 x_2_7_3 <= 0
 c853: conn_2_7_4 - 10 x_2_7_4 <= 0
 c854: conn_2_7_5 - 10 x_2_7_5 <= 0
 c855: conn_2_7_6 - 10 x_2_7_6 <= 0
 c856: conn_2_7_8 - 10 x_2_7_8 <= 0
 c857: conn_2_7_9 - 10 x_2_7_9 <= 0
 c858: conn_2_7_10 - 10 x_2_7_10 <= 0
 c859: conn_2_8_0 - 10 x_2_8_0 <= 0
 c860: conn_2_8_1 - 10 x_2_8_1 <= 0
 c861: conn_2_8_2 - 10 x_2_8_2 <= 0
 c862: conn_2_8_3 - 10 x_2_8_3 <= 0
 c863: conn_2_8_4 - 10 x_2_8_4 <= 0
 c864: conn_2_8_5 - 10 x_2_8_5 <= 0
 c865: conn_2_8_6 - 10 x_2_8_6 <= 0
 c866: conn_2_8_7 - 10 x_2_8_7 <= 0
 c867: conn_2_8_9 - 10 x_2_8_9 <= 0
 c868: conn_2_8_10 - 10 x_2_8_10 <= 0
 c869: conn_2_9_0 - 10 x_2_9_0 <= 0
 c870: conn_2_9_1 - 10 x_2_9_1 <= 0
 c871: conn_2_9_2 - 10 x_2_9_2 <= 0
 c872: conn_2_9_3 - 10 x_2_9_3 <= 0
 c873: conn_2_9_4 - 10 x_2_9_4 <= 0
 c874: conn_2_9_5 - 10 x_2_9_5 <= 0
 c875: conn_2_9_6 - 10 x_2_9_6 <= 0
 c876: conn_2_9_7 - 10 x_2_9_7 <= 0
 c877: conn_2_9_8 - 10 x_2_9_8 <= 0
 c878: conn_2_9_10 - 10 x_2_9_10 <= 0
 c879: conn_2_10_0 - 10 x_2_10_0 <= 0
 c880: conn_2_10_1 - 10 x_2_10_1 <= 0
 c881: conn_2_10_2 - 10 x_2_10_2 <= 0
 c882: conn_2_10_3 - 10 x_2_10_3 <= 0
 c883: conn_2_10_4 - 10 x_2_10_4 <= 0
 c884: conn_2_10_5 - 10 x_2_10_5 <= 0
 c885: conn_2_10_6 - 10 x_2_10_6 <= 0
 c886: conn_2_10_7 - 10 x_2_10_7 <= 0
 c887: conn_2_10_8 - 10 x_2_10_8 <= 0
 c888: conn_2_10_9 - 10 x_2_10_9 <= 0
 c889: conn_2_0_1 + conn_2_10_1 - conn_2_1_0 - conn_2_1_10 - conn_2_1_2 - conn_2_1_3 - conn_2_1_4 - conn_2_1_5 - conn_2_1_6 - conn_2_1_7 - conn_2_1_8 - conn_2_1_9 + conn_2_2_1 + conn_2_3_1 + conn_2_4_1 + conn_2_5_1 + conn_2_6_1 + conn_2_7_1 + conn_2_8_1 + conn_2_9_1 - z_2_1 = 0
 c890: conn_2_0_2 + conn_2_10_2 + conn_2_1_2 - conn_2_2_0 - conn_2_2_1 - conn_2_2_10 - conn_2_2_3 - conn_2_2_4 - conn_2_2_5 - conn_2_2_6 - conn_2_2_7 - conn_2_2_8 - conn_2_2_9 + conn_2_3_2 + conn_2_4_2 + conn_2_5_2 + conn_2_6_2 + conn_2_7_2 + conn_2_8_2 + conn_2_9_2 - z_2_2 = 0
 c891: conn_2_0_3 + conn_2_10_3 + conn_2_1_3 + conn_2_2_3 - conn_2_3_0 - conn_2_3_1 - conn_2_3_10 - conn_2_3_2 - conn_2_3_4 - conn_2_3_5 - conn_2_3_6 - conn_2_3_7 - conn_2_3_8 - conn_2_3_9 + conn_2_4_3 + conn_2_5_3 + conn_2_6_3 + conn_2_7_3 + conn_2_8_3 + conn_2_9_3 - z_2_3 = 0
 c892: conn_2_0_4 + conn_2_10_4 + conn_2_1_4 + conn_2_2_4 + conn_2_3_4 - conn_2_4_0 - conn_2_4_1 - conn_2_4_10 - conn_2_4_2 - conn_2_4_3 - conn_2_4_5 - conn_2_4_6 - conn_2_4_7 - conn_2_4_8 - conn_2_4_9 + conn_2_5_4 + conn_2_6_4 + conn_2_7_4 + conn_2_8_4 + conn_2_9_4 - z_2_4 = 0
 c893: conn_2_0_5 + conn_2_10_5 + conn_2_1_5 + conn_2_2_5 + conn_2_3_5 + conn_2_4_5 - conn_2_5_0 - conn_2_5_1 - conn_2_5_10 - conn_2_5_2 - conn_2_5_3 - conn_2_5_4 - conn_2_5_6 - conn_2_5_7 - conn_2_5_8 - conn_2_5_9 + conn_2_6_5 + conn_2_7_5 + conn_2_8_5 + conn_2_9_5 - z_2_5 = 0
 c894: conn_2_0_6 + conn_2_10_6 + conn_2_1_6 + conn_2_2_6 + conn_2_3_6 + conn_2_4_6 + conn_2_5_6 - conn_2_6_0 - conn_2_6_1 - conn_2_6_10 - conn_2_6_2 - conn_2_6_3 - conn_2_6_4 - conn_2_6_5 - conn_2_6_7 - conn_2_6_8 - conn_2_6_9 + conn_2_7_6 + conn_2_8_6 + conn_2_9_6 - z_2_6 = 0
 c895: conn_2_0_7 + conn_2_10_7 + conn_2_1_7 + conn_2_2_7 + conn_2_3_7 + conn_2_4_7 + conn_2_5_7 + conn_2_6_7 - conn_2_7_0 - conn_2_7_1 - conn_2_7_10 - conn_2_7_2 - conn_2_7_3 - conn_2_7_4 - conn_2_7_5 - conn_2_7_6 - conn_2_7_8 - conn_2_7_9 + conn_2_8_7 + conn_2_9_7 - z_2_7 = 0
 c896: conn_2_0_8 + conn_2_10_8 + conn_2_1_8 + conn_2_2_8 + conn_2_3_8 + conn_2_4_8 + conn_2_5_8 + conn_2_6_8 + conn_2_7_8 - conn_2_8_0 - conn_2_8_1 - conn_2_8_10 - conn_2_8_2 - conn_2_8_3 - conn_2_8_4 - conn_2_8_5 - conn_2_8_6 - conn_2_8_7 - conn_2_8_9 + conn_2_9_8 - z_2_8 = 0
 c897: conn_2_0_9 + conn_2_10_9 + conn_2_1_9 + conn_2_2_9 + conn_2_3_9 + conn_2_4_9 + conn_2_5_9 + conn_2_6_9 + conn_2_7_9 + conn_2_8_9 - conn_2_9_0 - conn_2_9_1 - conn_2_9_10 - conn_2_9_2 - conn_2_9_3 - conn_2_9_4 - conn_2_9_5 - conn_2_9_6 - conn_2_9_7 - conn_2_9_8 - z_2_9 = 0
 c898: conn_2_0_10 - conn_2_10_0 - conn_2_10_1 - conn_2_10_2 - conn_2_10_3 - conn_2_10_4 - conn_2_10_5 - conn_2_10_6 - conn_2_10_7 - conn_2_10_8 - conn_2_10_9 + conn_2_1_10 + conn_2_2_10 + conn_2_3_10 + conn_2_4_10 + conn_2_5_10 + conn_2_6_10 + conn_2_7_10 + conn_2_8_10 + conn_2_9_10 - z_2_10 = 0
 c899: conn_2_0_1 + conn_2_0_10 + conn_2_0_2 + conn_2_0_3 + conn_2_0_4 + conn_2_0_5 + conn_2_0_6 + conn_2_0_7 + conn_2_0_8 + conn_2_0_9 - conn_2_10_0 - conn_2_1_0 - conn_2_2_0 - conn_2_3_0 - conn_2_4_0 - conn_2_5_0 - conn_2_6_0 - conn_2_7_0 - conn_2_8_0 - conn_2_9_0 - z_2_1 - z_2_10 - z_2_2 - z_2_3 - z_2_4 - z_2_5 - z_2_6 - z_2_7 - z_2_8 - z_2_9 = 0
 c900: z_0_1 + z_1_1 + z_2_1 <= 1
 c901: z_0_2 + z_1_2 + z_2_2 <= 1
 c902: z_0_3 + z_1_3 + z_2_3 <= 1
 c903: z_0_4 + z_1_4 + z_2_4 <= 1
 c904: z_0_5 + z_1_5 + z_2_5 <= 1
 c905: z_0_6 + z_1_6 + z_2_6 <= 1
 c906: z_0_7 + z_1_7 + z_2_7 <= 1
 c907: z_0_8 + z_1_8 + z_2_8 <= 1
 c908: z_0_9 + z_1_9 + z_2_9 <= 1
 c909: z_0_10 + z_1_10 + z_2_10 <= 1
 c910: Y_1 + Y_10 + Y_2 + Y_3 + Y_4 + Y_5 + Y_6 + Y_7 + Y_8 + Y_9 <= 101
 c911: Y_1 + Y_10 + Y_2 + Y_3 + Y_4 + Y_5 + Y_6 + Y_7 + Y_8 + Y_9 >= 11
 c912: d_0_1 - p_0_10 - p_0_2 - p_0_3 - p_0_4 - p_0_5 - p_0_6 - p_0_7 - p_0_8 - p_0_9 <= 0
 c913: d_0_2 - p_0_1 - p_0_10 - p_0_3 - p_0_4 - p_0_5 - p_0_6 - p_0_7 - p_0_8 - p_0_9 <= 0
 c914: d_0_3 - p_0_1 - p_0_10 - p_0_2 - p_0_4 - p_0_5 - p_0_6 - p_0_7 - p_0_8 - p_0_9 <= 0
 c915: d_0_4 - p_0_1 - p_0_10 - p_0_2 - p_0_3 - p_0_5 - p_0_6 - p_0_7 - p_0_8 - p_0_9 <= 0
 c916: d_0_5 - p_0_1 - p_0_10 - p_0_2 - p_0_3 - p_0_4 - p_0_6 - p_0_7 - p_0_8 - p_0_9 <= 0
 c917: d_0_6 - p_0_1 - p_0_10 - p_0_2 - p_0_3 - p_0_4 - p_0_5 - p_0_7 - p_0_8 - p_0_9 <= 0
 c918: d_0_7 - p_0_1 - p_0_10 - p_0_2 - p_0_3 - p_0_4 - p_0_5 - p_0_6 - p_0_8 - p_0_9 <= 0
 c919: d_0_8 - p_0_1 - p_0_10 - p_0_2 - p_0_3 - p_0_4 - p_0_5 - p_0_6 - p_0_7 - p_0_9 <= 0
 c920: d_0_9 - p_0_1 - p_0_10 - p_0_2 - p_0_3 - p_0_4 - p_0_5 - p_0_6 - p_0_7 - p_0_8 <= 0
 c921: d_0_10 - p_0_1 - p_0_2 - p_0_3 - p_0_4 - p_0_5 - p_0_6 - p_0_7 - p_0_8 - p_0_9 <= 0
 c922: d_1_1 - p_1_10 - p_1_2 - p_1_3 - p_1_4 - p_1_5 - p_1_6 - p_1_7 - p_1_8 - p_1_9 <= 0
 c923: d_1_2 - p_1_1 - p_1_10 - p_1_3 - p_1_4 - p_1_5 - p_1_6 - p_1_7 - p_1_8 - p_1_9 <= 0
 c924: d_1_3 - p_1_1 - p_1_10 - p_1_2 - p_1_4 - p_1_5 - p_1_6 - p_1_7 - p_1_8 - p_1_9 <= 0
 c925: d_1_4 - p_1_1 - p_1_10 - p_1_2 - p_1_3 - p_1_5 - p_1_6 - p_1_7 - p_1_8 - p_1_9 <= 0
 c926: d_1_5 - p_1_1 - p_1_10 - p_1_2 - p_1_3 - p_1_4 - p_1_6 - p_1_7 - p_1_8 - p_1_9 <= 0
 c927: d_1_6 - p_1_1 - p_1_10 - p_1_2 - p_1_3 - p_1_4 - p_1_5 - p_1_7 - p_1_8 - p_1_9 <= 0
 c928: d_1_7 - p_1_1 - p_1_10 - p_1_2 - p_1_3 - p_1_4 - p_1_5 - p_1_6 - p_1_8 - p_1_9 <= 0
 c929: d_1_8 - p_1_1 - p_1_10 - p_1_2 - p_1_3 - p_1_4 - p_1_5 - p_1_6 - p_1_7 - p_1_9 <= 0
 c930: d_1_9 - p_1_1 - p_1_10 - p_1_2 - p_1_3 - p_1_4 - p_1_5 - p_1_6 - p_1_7 - p_1_8 <= 0
 c931: d_1_10 - p_1_1 - p_1_2 - p_1_3 - p_1_4 - p_1_5 - p_1_6 - p_1_7 - p_1_8 - p_1_9 <= 0
 c932: d_2_1 - p_2_10 - p_2_2 - p_2_3 - p_2_4 - p_2_5 - p_2_6 - p_2_7 - p_2_8 - p_2_9 <= 0
 c933: d_2_2 - p_2_1 - p_2_10 - p_2_3 - p_2_4 - p_2_5 - p_2_6 - p_2_7 - p_2_8 - p_2_9 <= 0
 c934: d_2_3 - p_2_1 - p_2_10 - p_2_2 - p_2_4 - p_2_5 - p_2_6 - p_2_7 - p_2_8 - p_2_9 <= 0
 c935: d_2_4 - p_2_1 - p_2_10 - p_2_2 - p_2_3 - p_2_5 - p_2_6 - p_2_7 - p_2_8 - p_2_9 <= 0
 c936: d_2_5 - p_2_1 - p_2_10 - p_2_2 - p_2_3 - p_2_4 - p_2_6 - p_2_7 - p_2_8 - p_2_9 <= 0
 c937: d_2_6 - p_2_1 - p_2_10 - p_2_2 - p_2_3 - p_2_4 - p_2_5 - p_2_7 - p_2_8 - p_2_9 <= 0
 c938: d_2_7 - p_2_1 - p_2_10 - p_2_2 - p_2_3 - p_2_4 - p_2_5 - p_2_6 - p_2_8 - p_2_9 <= 0
 c939: d_2_8 - p_2_1 - p_2_10 - p_2_2 - p_2_3 - p_2_4 - p_2_5 - p_2_6 - p_2_7 - p_2_9 <= 0
 c940: d_2_9 - p_2_1 - p_2_10 - p_2_2 - p_2_3 - p_2_4 - p_2_5 - p_2_6 - p_2_7 - p_2_8 <= 0
 c941: d_2_10 - p_2_1 - p_2_2 - p_2_3 - p_2_4 - p_2_5 - p_2_6 - p_2_7 - p_2_8 - p_2_9 <= 0
 c942: ord_0_1 - z_0_1 >= 0
 c943: ord_0_1 - 10 z_0_1 <= 0
 c944: ord_0_2 - z_0_2 >= 0
 c945: ord_0_2 - 10 z_0_2 <= 0
 c946: ord_0_3 - z_0_3 >= 0
 c947: ord_0_3 - 10 z_0_3 <= 0
 c948: ord_0_4 - z_0_4 >= 0
 c949: ord_0_4 - 10 z_0_4 <= 0
 c950: ord_0_5 - z_0_5 >= 0
 c951: ord_0_5 - 10 z_0_5 <= 0
 c952: ord_0_6 - z_0_6 >= 0
 c953: ord_0_6 - 10 z_0_6 <= 0
 c954: ord_0_7 - z_0_7 >= 0
 c955: ord_0_7 - 10 z_0_7 <= 0
 c956: ord_0_8 - z_0_8 >= 0
 c957: ord_0_8 - 10 z_0_8 <= 0
 c958: ord_0_9 - z_0_9 >= 0
 c959: ord_0_9 - 10 z_0_9 <= 0
 c960: ord_0_10 - z_0_10 >= 0
 c961: ord_0_10 - 10 z_0_10 <= 0
 c962: ord_0_1 - ord_0_2 + 10 x_0_1_2 <= 9
 c963: ord_0_1 - ord_0_3 + 10 x_0_1_3 <= 9
 c964: ord_0_1 - ord_0_4 + 10 x_0_1_4 <= 9
 c965: ord_0_1 - ord_0_5 + 10 x_0_1_5 <= 9
 c966: ord_0_1 - ord_0_6 + 10 x_0_1_6 <= 9
 c967: ord_0_1 - ord_0_7 + 10 x_0_1_7 <= 9
 c968: ord_0_1 - ord_0_8 + 10 x_0_1_8 <= 9
 c969: ord_0_1 - ord_0_9 + 10 x_0_1_9 <= 9
 c970: ord_0_1 - ord_0_10 + 10 x_0_1_10 <= 9
 c971: - ord_0_1 + ord_0_2 + 10 x_0_2_1 <= 9
 c972: ord_0_2 - ord_0_3 + 10 x_0_2_3 <= 9
 c973: ord_0_2 - ord_0_4 + 10 x_0_2_4 <= 9
 c974: ord_0_2 - ord_0_5 + 10 x_0_2_5 <= 9
 c975: ord_0_2 - ord_0_6 + 10 x_0_2_6 <= 9
 c976: ord_0_2 - ord_0_7 + 10 x_0_2_7 <= 9
 c977: ord_0_2 - ord_0_8 + 10 x_0_2_8 <= 9
 c978: ord_0_2 - ord_0_9 + 10 x_0_2_9 <= 9
 c979: - ord_0_10 + ord_0_2 + 10 x_0_2_10 <= 9
 c980: - ord_0_1 + ord_0_3 + 10 x_0_3_1 <= 9
 c981: - ord_0_2 + ord_0_3 + 10 x_0_3_2 <= 9
 c982: ord_0_3 - ord_0_4 + 10 x_0_3_4 <= 9
 c983: ord_0_3 - ord_0_5 + 10 x_0_3_5 <= 9
 c984: ord_0_3 - ord_0_6 + 10 x_0_3_6 <= 9
 c985: ord_0_3 - ord_0_7 + 10 x_0_3_7 <= 9
 c986: ord_0_3 - ord_0_8 + 10 x_0_3_8 <= 9
 c987: ord_0_3 - ord_0_9 + 10 x_0_3_9 <= 9
 c988: - ord_0_10 + ord_0_3 + 10 x_0_3_10 <= 9
 c989: - ord_0_1 + ord_0_4 + 10 x_0_4_1 <= 9
 c990: - ord_0_2 + ord_0_4 + 10 x_0_4_2 <= 9
 c991: - ord_0_3 + ord_0_4 + 10 x_0_4_3 <= 9
 c992: ord_0_4 - ord_0_5 + 10 x_0_4_5 <= 9
 c993: ord_0_4 - ord_0_6 + 10 x_0_4_6 <= 9
 c994: ord_0_4 - ord_0_7 + 10 x_0_4_7 <= 9
 c995: ord_0_4 - ord_0_8 + 10 x_0_4_8 <= 9
 c996: ord_0_4 - ord_0_9 + 10 x_0_4_9 <= 9
 c997: - ord_0_10 + ord_0_4 + 10 x_0_4_10 <= 9
 c998: - ord_0_1 + ord_0_5 + 10 x_0_5_1 <= 9
 c999: - ord_0_2 + ord_0_5 + 10 x_0_5_2 <= 9
 c1000: - ord_0_3 + ord_0_5 + 10 x_0_5_3 <= 9
 c1001: - ord_0_4 + ord_0_5 + 10 x_0_5_4 <= 9
 c1002: ord_0_5 - ord_0_6 + 10 x_0_5_6 <= 9
 c1003: ord_0_5 - ord_0_7 + 10 x_0_5_7 <= 9
 c1004: ord_0_5 - ord_0_8 + 10 x_0_5_8 <= 9
 c1005: ord_0_5 - ord_0_9 + 10 x_0_5_9 <= 9
 c1006: - ord_0_10 + ord_0_5 + 10 x_0_5_10 <= 9
 c1007: - ord_0_1 + ord_0_6 + 10 x_0_6_1 <= 9
 c1008: - ord_0_2 + ord_0_6 + 10 x_0_6_2 <= 9
 c1009: - ord_0_3 + ord_0_6 + 10 x_0_6_3 <= 9
 c1010: - ord_0_4 + ord_0_6 + 10 x_0_6_4 <= 9
 c1011: - ord_0_5 + ord_0_6 + 10 x_0_6_5 <= 9
 c1012: ord_0_6 - ord_0_7 + 10 x_0_6_7 <= 9
 c1013: ord_0_6 - ord_0_8 + 10 x_0_6_8 <= 9
 c1014: ord_0_6 - ord_0_9 + 10 x_0_6_9 <= 9
 c1015: - ord_0_10 + ord_0_6 + 10 x_0_6_10 <= 9
 c1016: - ord_0_1 + ord_0_7 + 10 x_0_7_1 <= 9
 c1017: - ord_0_2 + ord_0_7 + 10 x_0_7_2 <= 9
 c1018: - ord_0_3 + ord_0_7 + 10 x_0_7_3 <= 9
 c1019: - ord_0_4 + ord_0_7 + 10 x_0_7_4 <= 9
 c1020: - ord_0_5 + ord_0_7 + 10 x_0_7_5 <= 9
 c1021: - ord_0_6 + ord_0_7 + 10 x_0_7_6 <= 9
 c1022: ord_0_7 - ord_0_8 + 10 x_0_7_8 <= 9
 c1023: ord_0_7 - ord_0_9 + 10 x_0_7_9 <= 9
 c1024: - ord_0_10 + ord_0_7 + 10 x_0_7_10 <= 9
 c1025: - ord_0_1 + ord_0_8 + 10 x_0_8_1 <= 9
 c1026: - ord_0_2 + ord_0_8 + 10 x_0_8_2 <= 9
 c1027: - ord_0_3 + ord_0_8 + 10 x_0_8_3 <= 9
 c1028: - ord_0_4 + ord_0_8 + 10 x_0_8_4 <= 9
 c1029: - ord_0_5 + ord_0_8 + 10 x_0_8_5 <= 9
 c1030: - ord_0_6 + ord_0_8 + 10 x_0_8_6 <= 9
 c1031: - ord_0_7 + ord_0_8 + 10 x_0_8_7 <= 9
 c1032: ord_0_8 - ord_0_9 + 10 x_0_8_9 <= 9
 c1033: - ord_0_10 + ord_0_8 + 10 x_0_8_10 <= 9
 c1034: - ord_0_1 + ord_0_9 + 10 x_0_9_1 <= 9
 c1035: - ord_0_2 + ord_0_9 + 10 x_0_9_2 <= 9
 c1036: - ord_0_3 + ord_0_9 + 10 x_0_9_3 <= 9
 c1037: - ord_0_4 + ord_0_9 + 10 x_0_9_4 <= 9
 c1038: - ord_0_5 + ord_0_9 + 10 x_0_9_5 <= 9
 c1039: - ord_0_6 + ord_0_9 + 10 x_0_9_6 <= 9
 c1040: - ord_0_7 + ord_0_9 + 10 x_0_9_7 <= 9
 c1041: - ord_0_8 + ord_0_9 + 10 x_0_9_8 <= 9
 c1042: - ord_0_10 + ord_0_9 + 10 x_0_9_10 <= 9
 c1043: - ord_0_1 + ord_0_10 + 10 x_0_10_1 <= 9
 c1044: ord_0_10 - ord_0_2 + 10 x_0_10_2 <= 9
 c1045: ord_0_10 - ord_0_3 + 10 x_0_10_3 <= 9
 c1046: ord_0_10 - ord_0_4 + 10 x_0_10_4 <= 9
 c1047: ord_0_10 - ord_0_5 + 10 x_0_10_5 <= 9
 c1048: ord_0_10 - ord_0_6 + 10 x_0_10_6 <= 9
 c1049: ord_0_10 - ord_0_7 + 10 x_0_10_7 <= 9
 c1050: ord_0_10 - ord_0_8 + 10 x_0_10_8 <= 9
 c1051: ord_0_10 - ord_0_9 + 10 x_0_10_9 <= 9
 c1052: ord_1_1 - z_1_1 >= 0
 c1053: ord_1_1 - 10 z_1_1 <= 0
 c1054: ord_1_2 - z_1_2 >= 0
 c1055: ord_1_2 - 10 z_1_2 <= 0
 c1056: ord_1_3 - z_1_3 >= 0
 c1057: ord_1_3 - 10 z_1_3 <= 0
 c1058: ord_1_4 - z_1_4 >= 0
 c1059: ord_1_4 - 10 z_1_4 <= 0
 c1060: ord_1_5 - z_1_5 >= 0
 c1061: ord_1_5 - 10 z_1_5 <= 0
 c1062: ord_1_6 - z_1_6 >= 0
 c1063: ord_1_6 - 10 z_1_6 <= 0
 c1064: ord_1_7 - z_1_7 >= 0
 c1065: ord_1_7 - 10 z_1_7 <= 0
 c1066: ord_1_8 - z_1_8 >= 0
 c1067: ord_1_8 - 10 z_1_8 <= 0
 c1068: ord_1_9 - z_1_9 >= 0
 c1069: ord_1_9 - 10 z_1_9 <= 0
 c1070: ord_1_10 - z_1_10 >= 0
 c1071: ord_1_10 - 10 z_1_10 <= 0
 c1072: ord_1_1 - ord_1_2 + 10 x_1_1_2 <= 9
 c1073: ord_1_1 - ord_1_3 + 10 x_1_1_3 <= 9
 c1074: ord_1_1 - ord_1_4 + 10 x_1_1_4 <= 9
 c1075: ord_1_1 - ord_1_5 + 10 x_1_1_5 <= 9
 c1076: ord_1_1 - ord_1_6 + 10 x_1_1_6 <= 9
 c1077: ord_1_1 - ord_1_7 + 10 x_1_1_7 <= 9
 c1078: ord_1_1 - ord_1_8 + 10 x_1_1_8 <= 9
 c1079: ord_1_1 - ord_1_9 + 10 x_1_1_9 <= 9
 c1080: ord_1_1 - ord_1_10 + 10 x_1_1_10 <= 9
 c1081: - ord_1_1 + ord_1_2 + 10 x_1_2_1 <= 9
 c1082: ord_1_2 - ord_1_3 + 10 x_1_2_3 <= 9
 c1083: ord_1_2 - ord_1_4 + 10 x_1_2_4 <= 9
 c1084: ord_1_2 - ord_1_5 + 10 x_1_2_5 <= 9
 c1085: ord_1_2 - ord_1_6 + 10 x_1_2_6 <= 9
 c1086: ord_1_2 - ord_1_7 + 10 x_1_2_7 <= 9
 c1087: ord_1_2 - ord_1_8 + 10 x_1_2_8 <= 9
 c1088: ord_1_2 - ord_1_9 + 10 x_1_2_9 <= 9
 c1089: - ord_1_10 + ord_1_2 + 10 x_1_2_10 <= 9
 c1090: - ord_1_1 + ord_1_3 + 10 x_1_3_1 <= 9
 c1091: - ord_1_2 + ord_1_3 + 10 x_1_3_2 <= 9
 c1092: ord_1_3 - ord_1_4 + 10 x_1_3_4 <= 9
 c1093: ord_1_3 - ord_1_5 + 10 x_1_3_5 <= 9
 c1094: ord_1_3 - ord_1_6 + 10 x_1_3_6 <= 9
 c1095: ord_1_3 - ord_1_7 + 10 x_1_3_7 <= 9
 c1096: ord_1_3 - ord_1_8 + 10 x_1_3_8 <= 9
 c1097: ord_1_3 - ord_1_9 + 10 x_1_3_9 <= 9
 c1098: - ord_1_10 + ord_1_3 + 10 x_1_3_10 <= 9
 c1099: - ord_1_1 + ord_1_4 + 10 x_1_4_1 <= 9
 c1100: - ord_1_2 + ord_1_4 + 10 x_1_4_2 <= 9
 c1101: - ord_1_3 + ord_1_4 + 10 x_1_4_3 <= 9
 c1102: ord_1_4 - ord_1_5 + 10 x_1_4_5 <= 9
 c1103: ord_1_4 - ord_1_6 + 10 x_1_4_6 <= 9
 c1104: ord_1_4 - ord_1_7 + 10 x_1_4_7 <= 9
 c1105: ord_1_4 - ord_1_8 + 10 x_1_4_8 <= 9
 c1106: ord_1_4 - ord_1_9 + 10 x_1_4_9 <= 9
 c1107: - ord_1_10 + ord_1_4 + 10 x_1_4_10 <= 9
 c1108: - ord_1_1 + ord_1_5 + 10 x_1_5_1 <= 9
 c1109: - ord_1_2 + ord_1_5 + 10 x_1_5_2 <= 9
 c1110: - ord_1_3 + ord_1_5 + 10 x_1_5_3 <= 9
 c1111: - ord_1_4 + ord_1_5 + 10 x_1_5_4 <= 9
 c1112: ord_1_5 - ord_1_6 + 10 x_1_5_6 <= 9
 c1113: ord_1_5 - ord_1_7 + 10 x_1_5_7 <= 9
 c1114: ord_1_5 - ord_1_8 + 10 x_1_5_8 <= 9
 c1115: ord_1_5 - ord_1_9 + 10 x_1_5_9 <= 9
 c1116: - ord_1_10 + ord_1_5 + 10 x_1_5_10 <= 9
 c1117: - ord_1_1 + ord_1_6 + 10 x_1_6_1 <= 9
 c1118: - ord_1_2 + ord_1_6 + 10 x_1_6_2 <= 9
 c1119: - ord_1_3 + ord_1_6 + 10 x_1_6_3 <= 9
 c1120: - ord_1_4 + ord_1_6 + 10 x_1_6_4 <= 9
 c1121: - ord_1_5 + ord_1_6 + 10 x_1_6_5 <= 9
 c1122: ord_1_6 - ord_1_7 + 10 x_1_6_7 <= 9
 c1123: ord_1_6 - ord_1_8 + 10 x_1_6_8 <= 9
 c1124: ord_1_6 - ord_1_9 + 10 x_1_6_9 <= 9
 c1125: - ord_1_10 + ord_1_6 + 10 x_1_6_10 <= 9
 c1126: - ord_1_1 + ord_1_7 + 10 x_1_7_1 <= 9
 c1127: - ord_1_2 + ord_1_7 + 10 x_1_7_2 <= 9
 c1128: - ord_1_3 + ord_1_7 + 10 x_1_7_3 <= 9
 c1129: - ord_1_4 + ord_1_7 + 10 x_1_7_4 <= 9
 c1130: - ord_1_5 + ord_1_7 + 10 x_1_7_5 <= 9
 c1131: - ord_1_6 + ord_1_7 + 10 x_1_7_6 <= 9
 c1132: ord_1_7 - ord_1_8 + 10 x_1_7_8 <= 9
 c1133: ord_1_7 - ord_1_9 + 10 x_1_7_9 <= 9
 c1134: - ord_1_10 + ord_1_7 + 10 x_1_7_10 <= 9
 c1135: - ord_1_1 + ord_1_8 + 10 x_1_8_1 <= 9
 c1136: - ord_1_2 + ord_1_8 + 10 x_1_8_2 <= 9
 c1137: - ord_1_3 + ord_1_8 + 10 x_1_8_3 <= 9
 c1138: - ord_1_4 + ord_1_8 + 10 x_1_8_4 <= 9
 c1139: - ord_1_5 + ord_1_8 + 10 x_1_8_5 <= 9
 c1140: - ord_1_6 + ord_1_8 + 10 x_1_8_6 <= 9
 c1141: - ord_1_7 + ord_1_8 + 10 x_1_8_7 <= 9
 c1142: ord_1_8 - ord_1_9 + 10 x_1_8_9 <= 9
 c1143: - ord_1_10 + ord_1_8 + 10 x_1_8_10 <= 9
 c1144: - ord_1_1 + ord_1_9 + 10 x_1_9_1 <= 9
 c1145: - ord_1_2 + ord_1_9 + 10 x_1_9_2 <= 9
 c1146: - ord_1_3 + ord_1_9 + 10 x_1_9_3 <= 9
 c1147: - ord_1_4 + ord_1_9 + 10 x_1_9_4 <= 9
 c1148: - ord_1_5 + ord_1_9 + 10 x_1_9_5 <= 9
 c1149: - ord_1_6 + ord_1_9 + 10 x_1_9_6 <= 9
 c1150: - ord_1_7 + ord_1_9 + 10 x_1_9_7 <= 9
 c1151: - ord_1_8 + ord_1_9 + 10 x_1_9_8 <= 9
 c1152: - ord_1_10 + ord_1_9 + 10 x_1_9_10 <= 9
 c1153: - ord_1_1 + ord_1_10 + 10 x_1_10_1 <= 9
 c1154: ord_1_10 - ord_1_2 + 10 x_1_10_2 <= 9
 c1155: ord_1_10 - ord_1_3 + 10 x_1_10_3 <= 9
 c1156: ord_1_10 - ord_1_4 + 10 x_1_10_4 <= 9
 c1157: ord_1_10 - ord_1_5 + 10 x_1_10_5 <= 9
 c1158: ord_1_10 - ord_1_6 + 10 x_1_10_6 <= 9
 c1159: ord_1_10 - ord_1_7 + 10 x_1_10_7 <= 9
 c1160: ord_1_10 - ord_1_8 + 10 x_1_10_8 <= 9
 c1161: ord_1_10 - ord_1_9 + 10 x_1_10_9 <= 9
 c1162: ord_2_1 - z_2_1 >= 0
 c1163: ord_2_1 - 10 z_2_1 <= 0
 c1164: ord_2_2 - z_2_2 >= 0
 c1165: ord_2_2 - 10 z_2_2 <= 0
 c1166: ord_2_3 - z_2_3 >= 0
 c1167: ord_2_3 - 10 z_2_3 <= 0
 c1168: ord_2_4 - z_2_4 >= 0
 c1169: ord_2_4 - 10 z_2_4 <= 0
 c1170: ord_2_5 - z_2_5 >= 0
 c1171: ord_2_5 - 10 z_2_5 <= 0
 c1172: ord_2_6 - z_2_6 >= 0
 c1173: ord_2_6 - 10 z_2_6 <= 0
 c1174: ord_2_7 - z_2_7 >= 0
 c1175: ord_2_7 - 10 z_2_7 <= 0
 c1176: ord_2_8 - z_2_8 >= 0
 c1177: ord_2_8 - 10 z_2_8 <= 0
 c1178: ord_2_9 - z_2_9 >= 0
 c1179: ord_2_9 - 10 z_2_9 <= 0
 c1180: ord_2_10 - z_2_10 >= 0
 c1181: ord_2_10 - 10 z_2_10 <= 0
 c1182: ord_2_1 - ord_2_2 + 10 x_2_1_2 <= 9
 c1183: ord_2_1 - ord_2_3 + 10 x_2_1_3 <= 9
 c1184: ord_2_1 - ord_2_4 + 10 x_2_1_4 <= 9
 c1185: ord_2_1 - ord_2_5 + 10 x_2_1_5 <= 9
 c1186: ord_2_1 - ord_2_6 + 10 x_2_1_6 <= 9
 c1187: ord_2_1 - ord_2_7 + 10 x_2_1_7 <= 9
 c1188: ord_2_1 - ord_2_8 + 10 x_2_1_8 <= 9
 c1189: ord_2_1 - ord_2_9 + 10 x_2_1_9 <= 9
 c1190: ord_2_1 - ord_2_10 + 10 x_2_1_10 <= 9
 c1191: - ord_2_1 + ord_2_2 + 10 x_2_2_1 <= 9
 c1192: ord_2_2 - ord_2_3 + 10 x_2_2_3 <= 9
 c1193: ord_2_2 - ord_2_4 + 10 x_2_2_4 <= 9
 c1194: ord_2_2 - ord_2_5 + 10 x_2_2_5 <= 9
 c1195: ord_2_2 - ord_2_6 + 10 x_2_2_6 <= 9
 c1196: ord_2_2 - ord_2_7 + 10 x_2_2_7 <= 9
 c1197: ord_2_2 - ord_2_8 + 10 x_2_2_8 <= 9
 c1198: ord_2_2 - ord_2_9 + 10 x_2_2_9 <= 9
 c1199: - ord_2_10 + ord_2_2 + 10 x_2_2_10 <= 9
 c1200: - ord_2_1 + ord_2_3 + 10 x_2_3_1 <= 9
 c1201: - ord_2_2 + ord_2_3 + 10 x_2_3_2 <= 9
 c1202: ord_2_3 - ord_2_4 + 10 x_2_3_4 <= 9
 c1203: ord_2_3 - ord_2_5 + 10 x_2_3_5 <= 9
 c1204: ord_2_3 - ord_2_6 + 10 x_2_3_6 <= 9
 c1205: ord_2_3 - ord_2_7 + 10 x_2_3_7 <= 9
 c1206: ord_2_3 - ord_2_8 + 10 x_2_3_8 <= 9
 c1207: ord_2_3 - ord_2_9 + 10 x_2_3_9 <= 9
 c1208: - ord_2_10 + ord_2_3 + 10 x_2_3_10 <= 9
 c1209: - ord_2_1 + ord_2_4 + 10 x_2_4_1 <= 9
 c1210: - ord_2_2 + ord_2_4 + 10 x_2_4_2 <= 9
 c1211: - ord_2_3 + ord_2_4 + 10 x_2_4_3 <= 9
 c1212: ord_2_4 - ord_2_5 + 10 x_2_4_5 <= 9
 c1213: ord_2_4 - ord_2_6 + 10 x_2_4_6 <= 9
 c1214: ord_2_4 - ord_2_7 + 10 x_2_4_7 <= 9
 c1215: ord_2_4 - ord_2_8 + 10 x_2_4_8 <= 9
 c1216: ord_2_4 - ord_2_9 + 10 x_2_4_9 <= 9
 c1217: - ord_2_10 + ord_2_4 + 10 x_2_4_10 <= 9
 c1218: - ord_2_1 + ord_2_5 + 10 x_2_5_1 <= 9
 c1219: - ord_2_2 + ord_2_5 + 10 x_2_5_2 <= 9
 c1220: - ord_2_3 + ord_2_5 + 10 x_2_5_3 <= 9
 c1221: - ord_2_4 + ord_2_5 + 10 x_2_5_4 <= 9
 c1222: ord_2_5 - ord_2_6 + 10 x_2_5_6 <= 9
 c1223: ord_2_5 - ord_2_7 + 10 x_2_5_7 <= 9
 c1224: ord_2_5 - ord_2_8 + 10 x_2_5_8 <= 9
 c1225: ord_2_5 - ord_2_9 + 10 x_2_5_9 <= 9
 c1226: - ord_2_10 + ord_2_5 + 10 x_2_5_10 <= 9
 c1227: - ord_2_1 + ord_2_6 + 10 x_2_6_1 <= 9
 c1228: - ord_2_2 + ord_2_6 + 10 x_2_6_2 <= 9
 c1229: - ord_2_3 + ord_2_6 + 10 x_2_6_3 <= 9
 c1230: - ord_2_4 + ord_2_6 + 10 x_2_6_4 <= 9
 c1231: - ord_2_5 + ord_2_6 + 10 x_2_6_5 <= 9
 c1232: ord_2_6 - ord_2_7 + 10 x_2_6_7 <= 9
 c1233: ord_2_6 - ord_2_8 + 10 x_2_6_8 <= 9
 c1234: ord_2_6 - ord_2_9 + 10 x_2_6_9 <= 9
 c1235: - ord_2_10 + ord_2_6 + 10 x_2_6_10 <= 9
 c1236: - ord_2_1 + ord_2_7 + 10 x_2_7_1 <= 9
 c1237: - ord_2_2 + ord_2_7 + 10 x_2_7_2 <= 9
 c1238: - ord_2_3 + ord_2_7 + 10 x_2_7_3 <= 9
 c1239: - ord_2_4 + ord_2_7 + 10 x_2_7_4 <= 9
 c1240: - ord_2_5 + ord_2_7 + 10 x_2_7_5 <= 9
 c1241: - ord_2_6 + ord_2_7 + 10 x_2_7_6 <= 9
 c1242: ord_2_7 - ord_2_8 + 10 x_2_7_8 <= 9
 c1243: ord_2_7 - ord_2_9 + 10 x_2_7_9 <= 9
 c1244: - ord_2_10 + ord_2_7 + 10 x_2_7_10 <= 9
 c1245: - ord_2_1 + ord_2_8 + 10 x_2_8_1 <= 9
 c1246: - ord_2_2 + ord_2_8 + 10 x_2_8_2 <= 9
 c1247: - ord_2_3 + ord_2_8 + 10 x_2_8_3 <= 9
 c1248: - ord_2_4 + ord_2_8 + 10 x_2_8_4 <= 9
 c1249: - ord_2_5 + ord_2_8 + 10 x_2_8_5 <= 9
 c1250: - ord_2_6 + ord_2_8 + 10 x_2_8_6 <= 9
 c1251: - ord_2_7 + ord_2_8 + 10 x_2_8_7 <= 9
 c1252: ord_2_8 - ord_2_9 + 10 x_2_8_9 <= 9
 c1253: - ord_2_10 + ord_2_8 + 10 x_2_8_10 <= 9
 c1254: - ord_2_1 + ord_2_9 + 10 x_2_9_1 <= 9
 c1255: - ord_2_2 + ord_2_9 + 10 x_2_9_2 <= 9
 c1256: - ord_2_3 + ord_2_9 + 10 x_2_9_3 <= 9
 c1257: - ord_2_4 + ord_2_9 + 10 x_2_9_4 <= 9
 c1258: - ord_2_5 + ord_2_9 + 10 x_2_9_5 <= 9
 c1259: - ord_2_6 + ord_2_9 + 10 x_2_9_6 <= 9
 c1260: - ord_2_7 + ord_2_9 + 10 x_2_9_7 <= 9
 c1261: - ord_2_8 + ord_2_9 + 10 x_2_9_8 <= 9
 c1262: - ord_2_10 + ord_2_9 + 10 x_2_9_10 <= 9
 c1263: - ord_2_1 + ord_2_10 + 10 x_2_10_1 <= 9
 c1264: ord_2_10 - ord_2_2 + 10 x_2_10_2 <= 9
 c1265: ord_2_10 - ord_2_3 + 10 x_2_10_3 <= 9
 c1266: ord_2_10 - ord_2_4 + 10 x_2_10_4 <= 9
 c1267: ord_2_10 - ord_2_5 + 10 x_2_10_5 <= 9
 c1268: ord_2_10 - ord_2_6 + 10 x_2_10_6 <= 9
 c1269: ord_2_10 - ord_2_7 + 10 x_2_10_7 <= 9
 c1270: ord_2_10 - ord_2_8 + 10 x_2_10_8 <= 9
 c1271: ord_2_10 - ord_2_9 + 10 x_2_10_9 <= 9
 c1272: p_0_1 <= 0
 c1273: d_0_1 - 30 z_0_1 <= 0
 c1274: mode_0_1 - z_0_1 <= 0
 c1275: p_0_1 <= 0
 c1276: d_0_1 + 30 mode_0_1 - 30 z_0_1 <= 0
 c1277: d_0_1 + p_0_1 - z_0_1 >= 0
 c1278: load_0_1 - 30 z_0_1 <= 0
 c1279: p_0_2 - 6 z_0_2 <= 0
 c1280: d_0_2 - 18 z_0_2 <= 0
 c1281: mode_0_2 - z_0_2 <= 0
 c1282: - 6 mode_0_2 + p_0_2 <= 0
 c1283: d_0_2 + 18 mode_0_2 - 18 z_0_2 <= 0
 c1284: d_0_2 + p_0_2 - z_0_2 >= 0
 c1285: load_0_2 - 30 z_0_2 <= 0
 c1286: p_0_3 - 30 z_0_3 <= 0
 c1287: d_0_3 - 3 z_0_3 <= 0
 c1288: mode_0_3 - z_0_3 <= 0
 c1289: - 30 mode_0_3 + p_0_3 <= 0
 c1290: d_0_3 + 3 mode_0_3 - 3 z_0_3 <= 0
 c1291: d_0_3 + p_0_3 - z_0_3 >= 0
 c1292: load_0_3 - 30 z_0_3 <= 0
 c1293: p_0_4 - 7 z_0_4 <= 0
 c1294: d_0_4 - 24 z_0_4 <= 0
 c1295: mode_0_4 - z_0_4 <= 0
 c1296: - 7 mode_0_4 + p_0_4 <= 0
 c1297: d_0_4 + 24 mode_0_4 - 24 z_0_4 <= 0
 c1298: d_0_4 + p_0_4 - z_0_4 >= 0
 c1299: load_0_4 - 30 z_0_4 <= 0
 c1300: p_0_5 - 30 z_0_5 <= 0
 c1301: d_0_5 - 2 z_0_5 <= 0
 c1302: mode_0_5 - z_0_5 <= 0
 c1303: - 30 mode_0_5 + p_0_5 <= 0
 c1304: d_0_5 + 2 mode_0_5 - 2 z_0_5 <= 0
 c1305: d_0_5 + p_0_5 - z_0_5 >= 0
 c1306: load_0_5 - 30 z_0_5 <= 0
 c1307: p_0_6 - 5 z_0_6 <= 0
 c1308: d_0_6 - 30 z_0_6 <= 0
 c1309: mode_0_6 - z_0_6 <= 0
 c1310: - 5 mode_0_6 + p_0_6 <= 0
 c1311: d_0_6 + 30 mode_0_6 - 30 z_0_6 <= 0
 c1312: d_0_6 + p_0_6 - z_0_6 >= 0
 c1313: load_0_6 - 30 z_0_6 <= 0
 c1314: p_0_7 - 11 z_0_7 <= 0
 c1315: d_0_7 - 30 z_0_7 <= 0
 c1316: mode_0_7 - z_0_7 <= 0
 c1317: - 11 mode_0_7 + p_0_7 <= 0
 c1318: d_0_7 + 30 mode_0_7 - 30 z_0_7 <= 0
 c1319: d_0_7 + p_0_7 - z_0_7 >= 0
 c1320: load_0_7 - 30 z_0_7 <= 0
 c1321: p_0_8 <= 0
 c1322: d_0_8 - 30 z_0_8 <= 0
 c1323: mode_0_8 - z_0_8 <= 0
 c1324: p_0_8 <= 0
 c1325: d_0_8 + 30 mode_0_8 - 30 z_0_8 <= 0
 c1326: d_0_8 + p_0_8 - z_0_8 >= 0
 c1327: load_0_8 - 30 z_0_8 <= 0
 c1328: p_0_9 - 4 z_0_9 <= 0
 c1329: d_0_9 - 25 z_0_9 <= 0
 c1330: mode_0_9 - z_0_9 <= 0
 c1331: - 4 mode_0_9 + p_0_9 <= 0
 c1332: d_0_9 + 25 mode_0_9 - 25 z_0_9 <= 0
 c1333: d_0_9 + p_0_9 - z_0_9 >= 0
 c1334: load_0_9 - 30 z_0_9 <= 0
 c1335: p_0_10 - 2 z_0_10 <= 0
 c1336: d_0_10 - 22 z_0_10 <= 0
 c1337: mode_0_10 - z_0_10 <= 0
 c1338: - 2 mode_0_10 + p_0_10 <= 0
 c1339: d_0_10 + 22 mode_0_10 - 22 z_0_10 <= 0
 c1340: d_0_10 + p_0_10 - z_0_10 >= 0
 c1341: load_0_10 - 30 z_0_10 <= 0
 c1342: d_0_1 + load_0_1 - p_0_1 + 30 x_0_0_1 <= 30
 c1343: d_0_1 + load_0_1 - p_0_1 - 30 x_0_0_1 >= -30
 c1344: d_0_2 + load_0_2 - p_0_2 + 30 x_0_0_2 <= 30
 c1345: d_0_2 + load_0_2 - p_0_2 - 30 x_0_0_2 >= -30
 c1346: d_0_3 + load_0_3 - p_0_3 + 30 x_0_0_3 <= 30
 c1347: d_0_3 + load_0_3 - p_0_3 - 30 x_0_0_3 >= -30
 c1348: d_0_4 + load_0_4 - p_0_4 + 30 x_0_0_4 <= 30
 c1349: d_0_4 + load_0_4 - p_0_4 - 30 x_0_0_4 >= -30
 c1350: d_0_5 + load_0_5 - p_0_5 + 30 x_0_0_5 <= 30
 c1351: d_0_5 + load_0_5 - p_0_5 - 30 x_0_0_5 >= -30
 c1352: d_0_6 + load_0_6 - p_0_6 + 30 x_0_0_6 <= 30
 c1353: d_0_6 + load_0_6 - p_0_6 - 30 x_0_0_6 >= -30
 c1354: d_0_7 + load_0_7 - p_0_7 + 30 x_0_0_7 <= 30
 c1355: d_0_7 + load_0_7 - p_0_7 - 30 x_0_0_7 >= -30
 c1356: d_0_8 + load_0_8 - p_0_8 + 30 x_0_0_8 <= 30
 c1357: d_0_8 + load_0_8 - p_0_8 - 30 x_0_0_8 >= -30
 c1358: d_0_9 + load_0_9 - p_0_9 + 30 x_0_0_9 <= 30
 c1359: d_0_9 + load_0_9 - p_0_9 - 30 x_0_0_9 >= -30
 c1360: d_0_10 + load_0_10 - p_0_10 + 30 x_0_0_10 <= 30
 c1361: d_0_10 + load_0_10 - p_0_10 - 30 x_0_0_10 >= -30
 c1362: d_0_2 - load_0_1 + load_0_2 - p_0_2 + 30 x_0_1_2 <= 30
 c1363: d_0_2 - load_0_1 + load_0_2 - p_0_2 - 30 x_0_1_2 >= -30
 c1364: d_0_3 - load_0_1 + load_0_3 - p_0_3 + 30 x_0_1_3 <= 30
 c1365: d_0_3 - load_0_1 + load_0_3 - p_0_3 - 30 x_0_1_3 >= -30
 c1366: d_0_4 - load_0_1 + load_0_4 - p_0_4 + 30 x_0_1_4 <= 30
 c1367: d_0_4 - load_0_1 + load_0_4 - p_0_4 - 30 x_0_1_4 >= -30
 c1368: d_0_5 - load_0_1 + load_0_5 - p_0_5 + 30 x_0_1_5 <= 30
 c1369: d_0_5 - load_0_1 + load_0_5 - p_0_5 - 30 x_0_1_5 >= -30
 c1370: d_0_6 - load_0_1 + load_0_6 - p_0_6 + 30 x_0_1_6 <= 30
 c1371: d_0_6 - load_0_1 + load_0_6 - p_0_6 - 30 x_0_1_6 >= -30
 c1372: d_0_7 - load_0_1 + load_0_7 - p_0_7 + 30 x_0_1_7 <= 30
 c1373: d_0_7 - load_0_1 + load_0_7 - p_0_7 - 30 x_0_1_7 >= -30
 c1374: d_0_8 - load_0_1 + load_0_8 - p_0_8 + 30 x_0_1_8 <= 30
 c1375: d_0_8 - load_0_1 + load_0_8 - p_0_8 - 30 x_0_1_8 >= -30
 c1376: d_0_9 - load_0_1 + load_0_9 - p_0_9 + 30 x_0_1_9 <= 30
 c1377: d_0_9 - load_0_1 + load_0_9 - p_0_9 - 30 x_0_1_9 >= -30
 c1378: d_0_10 - load_0_1 + load_0_10 - p_0_10 + 30 x_0_1_10 <= 30
 c1379: d_0_10 - load_0_1 + load_0_10 - p_0_10 - 30 x_0_1_10 >= -30
 c1380: d_0_1 + load_0_1 - load_0_2 - p_0_1 + 30 x_0_2_1 <= 30
 c1381: d_0_1 + load_0_1 - load_0_2 - p_0_1 - 30 x_0_2_1 >= -30
 c1382: d_0_3 - load_0_2 + load_0_3 - p_0_3 + 30 x_0_2_3 <= 30
 c1383: d_0_3 - load_0_2 + load_0_3 - p_0_3 - 30 x_0_2_3 >= -30
 c1384: d_0_4 - load_0_2 + load_0_4 - p_0_4 + 30 x_0_2_4 <= 30
 c1385: d_0_4 - load_0_2 + load_0_4 - p_0_4 - 30 x_0_2_4 >= -30
 c1386: d_0_5 - load_0_2 + load_0_5 - p_0_5 + 30 x_0_2_5 <= 30
 c1387: d_0_5 - load_0_2 + load_0_5 - p_0_5 - 30 x_0_2_5 >= -30
 c1388: d_0_6 - load_0_2 + load_0_6 - p_0_6 + 30 x_0_2_6 <= 30
 c1389: d_0_6 - load_0_2 + load_0_6 - p_0_6 - 30 x_0_2_6 >= -30
 c1390: d_0_7 - load_0_2 + load_0_7 - p_0_7 + 30 x_0_2_7 <= 30
 c1391: d_0_7 - load_0_2 + load_0_7 - p_0_7 - 30 x_0_2_7 >= -30
 c1392: d_0_8 - load_0_2 + load_0_8 - p_0_8 + 30 x_0_2_8 <= 30
 c1393: d_0_8 - load_0_2 + load_0_8 - p_0_8 - 30 x_0_2_8 >= -30
 c1394: d_0_9 - load_0_2 + load_0_9 - p_0_9 + 30 x_0_2_9 <= 30
 c1395: d_0_9 - load_0_2 + load_0_9 - p_0_9 - 30 x_0_2_9 >= -30
 c1396: d_0_10 + load_0_10 - load_0_2 - p_0_10 + 30 x_0_2_10 <= 30
 c1397: d_0_10 + load_0_10 - load_0_2 - p_0_10 - 30 x_0_2_10 >= -30
 c1398: d_0_1 + load_0_1 - load_0_3 - p_0_1 + 30 x_0_3_1 <= 30
 c1399: d_0_1 + load_0_1 - load_0_3 - p_0_1 - 30 x_0_3_1 >= -30
 c1400: d_0_2 + load_0_2 - load_0_3 - p_0_2 + 30 x_0_3_2 <= 30
 c1401: d_0_2 + load_0_2 - load_0_3 - p_0_2 - 30 x_0_3_2 >= -30
 c1402: d_0_4 - load_0_3 + load_0_4 - p_0_4 + 30 x_0_3_4 <= 30
 c1403: d_0_4 - load_0_3 + load_0_4 - p_0_4 - 30 x_0_3_4 >= -30
 c1404: d_0_5 - load_0_3 + load_0_5 - p_0_5 + 30 x_0_3_5 <= 30
 c1405: d_0_5 - load_0_3 + load_0_5 - p_0_5 - 30 x_0_3_5 >= -30
 c1406: d_0_6 - load_0_3 + load_0_6 - p_0_6 + 30 x_0_3_6 <= 30
 c1407: d_0_6 - load_0_3 + load_0_6 - p_0_6 - 30 x_0_3_6 >= -30
 c1408: d_0_7 - load_0_3 + load_0_7 - p_0_7 + 30 x_0_3_7 <= 30
 c1409: d_0_7 - load_0_3 + load_0_7 - p_0_7 - 30 x_0_3_7 >= -30
 c1410: d_0_8 - load_0_3 + load_0_8 - p_0_8 + 30 x_0_3_8 <= 30
 c1411: d_0_8 - load_0_3 + load_0_8 - p_0_8 - 30 x_0_3_8 >= -30
 c1412: d_0_9 - load_0_3 + load_0_9 - p_0_9 + 30 x_0_3_9 <= 30
 c1413: d_0_9 - load_0_3 + load_0_9 - p_0_9 - 30 x_0_3_9 >= -30
 c1414: d_0_10 + load_0_10 - load_0_3 - p_0_10 + 30 x_0_3_10 <= 30
 c1415: d_0_10 + load_0_10 - load_0_3 - p_0_10 - 30 x_0_3_10 >= -30
 c1416: d_0_1 + load_0_1 - load_0_4 - p_0_1 + 30 x_0_4_1 <= 30
 c1417: d_0_1 + load_0_1 - load_0_4 - p_0_1 - 30 x_0_4_1 >= -30
 c1418: d_0_2 + load_0_2 - load_0_4 - p_0_2 + 30 x_0_4_2 <= 30
 c1419: d_0_2 + load_0_2 - load_0_4 - p_0_2 - 30 x_0_4_2 >= -30
 c1420: d_0_3 + load_0_3 - load_0_4 - p_0_3 + 30 x_0_4_3 <= 30
 c1421: d_0_3 + load_0_3 - load_0_4 - p_0_3 - 30 x_0_4_3 >= -30
 c1422: d_0_5 - load_0_4 + load_0_5 - p_0_5 + 30 x_0_4_5 <= 30
 c1423: d_0_5 - load_0_4 + load_0_5 - p_0_5 - 30 x_0_4_5 >= -30
 c1424: d_0_6 - load_0_4 + load_0_6 - p_0_6 + 30 x_0_4_6 <= 30
 c1425: d_0_6 - load_0_4 + load_0_6 - p_0_6 - 30 x_0_4_6 >= -30
 c1426: d_0_7 - load_0_4 + load_0_7 - p_0_7 + 30 x_0_4_7 <= 30
 c1427: d_0_7 - load_0_4 + load_0_7 - p_0_7 - 30 x_0_4_7 >= -30
 c1428: d_0_8 - load_0_4 + load_0_8 - p_0_8 + 30 x_0_4_8 <= 30
 c1429: d_0_8 - load_0_4 + load_0_8 - p_0_8 - 30 x_0_4_8 >= -30
 c1430: d_0_9 - load_0_4 + load_0_9 - p_0_9 + 30 x_0_4_9 <= 30
 c1431: d_0_9 - load_0_4 + load_0_9 - p_0_9 - 30 x_0_4_9 >= -30
 c1432: d_0_10 + load_0_10 - load_0_4 - p_0_10 + 30 x_0_4_10 <= 30
 c1433: d_0_10 + load_0_10 - load_0_4 - p_0_10 - 30 x_0_4_10 >= -30
 c1434: d_0_1 + load_0_1 - load_0_5 - p_0_1 + 30 x_0_5_1 <= 30
 c1435: d_0_1 + load_0_1 - load_0_5 - p_0_1 - 30 x_0_5_1 >= -30
 c1436: d_0_2 + load_0_2 - load_0_5 - p_0_2 + 30 x_0_5_2 <= 30
 c1437: d_0_2 + load_0_2 - load_0_5 - p_0_2 - 30 x_0_5_2 >= -30
 c1438: d_0_3 + load_0_3 - load_0_5 - p_0_3 + 30 x_0_5_3 <= 30
 c1439: d_0_3 + load_0_3 - load_0_5 - p_0_3 - 30 x_0_5_3 >= -30
 c1440: d_0_4 + load_0_4 - load_0_5 - p_0_4 + 30 x_0_5_4 <= 30
 c1441: d_0_4 + load_0_4 - load_0_5 - p_0_4 - 30 x_0_5_4 >= -30
 c1442: d_0_6 - load_0_5 + load_0_6 - p_0_6 + 30 x_0_5_6 <= 30
 c1443: d_0_6 - load_0_5 + load_0_6 - p_0_6 - 30 x_0_5_6 >= -30
 c1444: d_0_7 - load_0_5 + load_0_7 - p_0_7 + 30 x_0_5_7 <= 30
 c1445: d_0_7 - load_0_5 + load_0_7 - p_0_7 - 30 x_0_5_7 >= -30
 c1446: d_0_8 - load_0_5 + load_0_8 - p_0_8 + 30 x_0_5_8 <= 30
 c1447: d_0_8 - load_0_5 + load_0_8 - p_0_8 - 30 x_0_5_8 >= -30
 c1448: d_0_9 - load_0_5 + load_0_9 - p_0_9 + 30 x_0_5_9 <= 30
 c1449: d_0_9 - load_0_5 + load_0_9 - p_0_9 - 30 x_0_5_9 >= -30
 c1450: d_0_10 + load_0_10 - load_0_5 - p_0_10 + 30 x_0_5_10 <= 30
 c1451: d_0_10 + load_0_10 - load_0_5 - p_0_10 - 30 x_0_5_10 >= -30
 c1452: d_0_1 + load_0_1 - load_0_6 - p_0_1 + 30 x_0_6_1 <= 30
 c1453: d_0_1 + load_0_1 - load_0_6 - p_0_1 - 30 x_0_6_1 >= -30
 c1454: d_0_2 + load_0_2 - load_0_6 - p_0_2 + 30 x_0_6_2 <= 30
 c1455: d_0_2 + load_0_2 - load_0_6 - p_0_2 - 30 x_0_6_2 >= -30
 c1456: d_0_3 + load_0_3 - load_0_6 - p_0_3 + 30 x_0_6_3 <= 30
 c1457: d_0_3 + load_0_3 - load_0_6 - p_0_3 - 30 x_0_6_3 >= -30
 c1458: d_0_4 + load_0_4 - load_0_6 - p_0_4 + 30 x_0_6_4 <= 30
 c1459: d_0_4 + load_0_4 - load_0_6 - p_0_4 - 30 x_0_6_4 >= -30
 c1460: d_0_5 + load_0_5 - load_0_6 - p_0_5 + 30 x_0_6_5 <= 30
 c1461: d_0_5 + load_0_5 - load_0_6 - p_0_5 - 30 x_0_6_5 >= -30
 c1462: d_0_7 - load_0_6 + load_0_7 - p_0_7 + 30 x_0_6_7 <= 30
 c1463: d_0_7 - load_0_6 + load_0_7 - p_0_7 - 30 x_0_6_7 >= -30
 c1464: d_0_8 - load_0_6 + load_0_8 - p_0_8 + 30 x_0_6_8 <= 30
 c1465: d_0_8 - load_0_6 + load_0_8 - p_0_8 - 30 x_0_6_8 >= -30
 c1466: d_0_9 - load_0_6 + load_0_9 - p_0_9 + 30 x_0_6_9 <= 30
 c1467: d_0_9 - load_0_6 + load_0_9 - p_0_9 - 30 x_0_6_9 >= -30
 c1468: d_0_10 + load_0_10 - load_0_6 - p_0_10 + 30 x_0_6_10 <= 30
 c1469: d_0_10 + load_0_10 - load_0_6 - p_0_10 - 30 x_0_6_10 >= -30
 c1470: d_0_1 + load_0_1 - load_0_7 - p_0_1 + 30 x_0_7_1 <= 30
 c1471: d_0_1 + load_0_1 - load_0_7 - p_0_1 - 30 x_0_7_1 >= -30
 c1472: d_0_2 + load_0_2 - load_0_7 - p_0_2 + 30 x_0_7_2 <= 30
 c1473: d_0_2 + load_0_2 - load_0_7 - p_0_2 - 30 x_0_7_2 >= -30
 c1474: d_0_3 + load_0_3 - load_0_7 - p_0_3 + 30 x_0_7_3 <= 30
 c1475: d_0_3 + load_0_3 - load_0_7 - p_0_3 - 30 x_0_7_3 >= -30
 c1476: d_0_4 + load_0_4 - load_0_7 - p_0_4 + 30 x_0_7_4 <= 30
 c1477: d_0_4 + load_0_4 - load_0_7 - p_0_4 - 30 x_0_7_4 >= -30
 c1478: d_0_5 + load_0_5 - load_0_7 - p_0_5 + 30 x_0_7_5 <= 30
 c1479: d_0_5 + load_0_5 - load_0_7 - p_0_5 - 30 x_0_7_5 >= -30
 c1480: d_0_6 + load_0_6 - load_0_7 - p_0_6 + 30 x_0_7_6 <= 30
 c1481: d_0_6 + load_0_6 - load_0_7 - p_0_6 - 30 x_0_7_6 >= -30
 c1482: d_0_8 - load_0_7 + load_0_8 - p_0_8 + 30 x_0_7_8 <= 30
 c1483: d_0_8 - load_0_7 + load_0_8 - p_0_8 - 30 x_0_7_8 >= -30
 c1484: d_0_9 - load_0_7 + load_0_9 - p_0_9 + 30 x_0_7_9 <= 30
 c1485: d_0_9 - load_0_7 + load_0_9 - p_0_9 - 30 x_0_7_9 >= -30
 c1486: d_0_10 + load_0_10 - load_0_7 - p_0_10 + 30 x_0_7_10 <= 30
 c1487: d_0_10 + load_0_10 - load_0_7 - p_0_10 - 30 x_0_7_10 >= -30
 c1488: d_0_1 + load_0_1 - load_0_8 - p_0_1 + 30 x_0_8_1 <= 30
 c1489: d_0_1 + load_0_1 - load_0_8 - p_0_1 - 30 x_0_8_1 >= -30
 c1490: d_0_2 + load_0_2 - load_0_8 - p_0_2 + 30 x_0_8_2 <= 30
 c1491: d_0_2 + load_0_2 - load_0_8 - p_0_2 - 30 x_0_8_2 >= -30
 c1492: d_0_3 + load_0_3 - load_0_8 - p_0_3 + 30 x_0_8_3 <= 30
 c1493: d_0_3 + load_0_3 - load_0_8 - p_0_3 - 30 x_0_8_3 >= -30
 c1494: d_0_4 + load_0_4 - load_0_8 - p_0_4 + 30 x_0_8_4 <= 30
 c1495: d_0_4 + load_0_4 - load_0_8 - p_0_4 - 30 x_0_8_4 >= -30
 c1496: d_0_5 + load_0_5 - load_0_8 - p_0_5 + 30 x_0_8_5 <= 30
 c1497: d_0_5 + load_0_5 - load_0_8 - p_0_5 - 30 x_0_8_5 >= -30
 c1498: d_0_6 + load_0_6 - load_0_8 - p_0_6 + 30 x_0_8_6 <= 30
 c1499: d_0_6 + load_0_6 - load_0_8 - p_0_6 - 30 x_0_8_6 >= -30
 c1500: d_0_7 + load_0_7 - load_0_8 - p_0_7 + 30 x_0_8_7 <= 30
 c1501: d_0_7 + load_0_7 - load_0_8 - p_0_7 - 30 x_0_8_7 >= -30
 c1502: d_0_9 - load_0_8 + load_0_9 - p_0_9 + 30 x_0_8_9 <= 30
 c1503: d_0_9 - load_0_8 + load_0_9 - p_0_9 - 30 x_0_8_9 >= -30
 c1504: d_0_10 + load_0_10 - load_0_8 - p_0_10 + 30 x_0_8_10 <= 30
 c1505: d_0_10 + load_0_10 - load_0_8 - p_0_10 - 30 x_0_8_10 >= -30
 c1506: d_0_1 + load_0_1 - load_0_9 - p_0_1 + 30 x_0_9_1 <= 30
 c1507: d_0_1 + load_0_1 - load_0_9 - p_0_1 - 30 x_0_9_1 >= -30
 c1508: d_0_2 + load_0_2 - load_0_9 - p_0_2 + 30 x_0_9_2 <= 30
 c1509: d_0_2 + load_0_2 - load_0_9 - p_0_2 - 30 x_0_9_2 >= -30
 c1510: d_0_3 + load_0_3 - load_0_9 - p_0_3 + 30 x_0_9_3 <= 30
 c1511: d_0_3 + load_0_3 - load_0_9 - p_0_3 - 30 x_0_9_3 >= -30
 c1512: d_0_4 + load_0_4 - load_0_9 - p_0_4 + 30 x_0_9_4 <= 30
 c1513: d_0_4 + load_0_4 - load_0_9 - p_0_4 - 30 x_0_9_4 >= -30
 c1514: d_0_5 + load_0_5 - load_0_9 - p_0_5 + 30 x_0_9_5 <= 30
 c1515: d_0_5 + load_0_5 - load_0_9 - p_0_5 - 30 x_0_9_5 >= -30
 c1516: d_0_6 + load_0_6 - load_0_9 - p_0_6 + 30 x_0_9_6 <= 30
 c1517: d_0_6 + load_0_6 - load_0_9 - p_0_6 - 30 x_0_9_6 >= -30
 c1518: d_0_7 + load_0_7 - load_0_9 - p_0_7 + 30 x_0_9_7 <= 30
 c1519: d_0_7 + load_0_7 - load_0_9 - p_0_7 - 30 x_0_9_7 >= -30
 c1520: d_0_8 + load_0_8 - load_0_9 - p_0_8 + 30 x_0_9_8 <= 30
 c1521: d_0_8 + load_0_8 - load_0_9 - p_0_8 - 30 x_0_9_8 >= -30
 c1522: d_0_10 + load_0_10 - load_0_9 - p_0_10 + 30 x_0_9_10 <= 30
 c1523: d_0_10 + load_0_10 - load_0_9 - p_0_10 - 30 x_0_9_10 >= -30
 c1524: d_0_1 + load_0_1 - load_0_10 - p_0_1 + 30 x_0_10_1 <= 30
 c1525: d_0_1 + load_0_1 - load_0_10 - p_0_1 - 30 x_0_10_1 >= -30
 c1526: d_0_2 - load_0_10 + load_0_2 - p_0_2 + 30 x_0_10_2 <= 30
 c1527: d_0_2 - load_0_10 + load_0_2 - p_0_2 - 30 x_0_10_2 >= -30
 c1528: d_0_3 - load_0_10 + load_0_3 - p_0_3 + 30 x_0_10_3 <= 30
 c1529: d_0_3 - load_0_10 + load_0_3 - p_0_3 - 30 x_0_10_3 >= -30
 c1530: d_0_4 - load_0_10 + load_0_4 - p_0_4 + 30 x_0_10_4 <= 30
 c1531: d_0_4 - load_0_10 + load_0_4 - p_0_4 - 30 x_0_10_4 >= -30
 c1532: d_0_5 - load_0_10 + load_0_5 - p_0_5 + 30 x_0_10_5 <= 30
 c1533: d_0_5 - load_0_10 + load_0_5 - p_0_5 - 30 x_0_10_5 >= -30
 c1534: d_0_6 - load_0_10 + load_0_6 - p_0_6 + 30 x_0_10_6 <= 30
 c1535: d_0_6 - load_0_10 + load_0_6 - p_0_6 - 30 x_0_10_6 >= -30
 c1536: d_0_7 - load_0_10 + load_0_7 - p_0_7 + 30 x_0_10_7 <= 30
 c1537: d_0_7 - load_0_10 + load_0_7 - p_0_7 - 30 x_0_10_7 >= -30
 c1538: d_0_8 - load_0_10 + load_0_8 - p_0_8 + 30 x_0_10_8 <= 30
 c1539: d_0_8 - load_0_10 + load_0_8 - p_0_8 - 30 x_0_10_8 >= -30
 c1540: d_0_9 - load_0_10 + load_0_9 - p_0_9 + 30 x_0_10_9 <= 30
 c1541: d_0_9 - load_0_10 + load_0_9 - p_0_9 - 30 x_0_10_9 >= -30
 c1542: - d_0_1 - d_0_10 - d_0_2 - d_0_3 - d_0_4 - d_0_5 - d_0_6 - d_0_7 - d_0_8 - d_0_9 + p_0_1 + p_0_10 + p_0_2 + p_0_3 + p_0_4 + p_0_5 + p_0_6 + p_0_7 + p_0_8 + p_0_9 >= 0
 c1543: 120 p_0_1 + 120 p_0_10 + 120 p_0_2 + 120 p_0_3 + 120 p_0_4 + 120 p_0_5 + 120 p_0_6 + 120 p_0_7 + 120 p_0_8 + 120 p_0_9 + 233.65943093685806 x_0_0_1 + 242.10416513907467 x_0_0_10 + 156.99363730917386 x_0_0_2 + 293.66738792027093 x_0_0_3 + 262.20168918599217 x_0_0_4 + 200.43317684341673 x_0_0_5 + 258.05435028652198 x_0_0_6 + 329.47046629728891 x_0_0_7 + 236.90120207279253 x_0_0_8 + 256.20035990009137 x_0_0_9 + 242.10416513907467 x_0_10_0 + 28.625133773723391 x_0_10_1 + 357.30370803788855 x_0_10_2 + 448.5707541202728 x_0_10_3 + 20.278419147423612 x_0_10_4 + 400.88891198542814 x_0_10_5 + 437.57229587733406 x_0_10_6 + 87.869879266104405 x_0_10_7 + 417.04024217918641 x_0_10_8 + 456.2315027403726 x_0_10_9 + 233.65943093685806 x_0_1_0 + 28.625133773723391 x_0_1_10 + 339.08636412682404 x_0_1_2 + 457.53418914167884 x_0_1_3 + 38.483205485622427 x_0_1_4 + 381.91500746747414 x_0_1_5 + 443.23289915243623 x_0_1_6 + 98.460881818325547 x_0_1_7 + 395.6959107760344 x_0_1_8 + 459.1224691173893 x_0_1_9 + 156.99363730917386 x_0_2_0 + 339.08636412682404 x_0_2_1 + 357.30370803788855 x_0_2_10 + 397.80678198126935 x_0_2_3 + 375.19038009272305 x_0_2_4 + 45.089947162497452 x_0_2_5 + 349.13557152191737 x_0_2_6 + 436.80705147165605 x_0_2_7 + 81.444565558945115 x_0_2_8 + 326.50563942002276 x_0_2_9 + 293.66738792027093 x_0_3_0 + 457.53418914167884 x_0_3_1 + 448.5707541202728 x_0_3_10 + 397.80678198126935 x_0_3_2 + 466.41470713067019 x_0_3_4 + 424.10226248950244 x_0_3_5 + 54.794220477847212 x_0_3_6 + 526.64645156996028 x_0_3_7 + 472.58278620861438 x_0_3_8 + 98.87118206144244 x_0_3_9 + 262.20168918599217 x_0_4_0 + 38.483205485622427 x_0_4_1 + 20.278419147423612 x_0_4_10 + 375.19038009272305 x_0_4_2 + 466.41470713067019 x_0_4_3 + 418.46826614164638 x_0_4_5 + 456.43391673178417 x_0_4_6 + 67.594087637487959 x_0_4_7 + 433.3887861811736 x_0_4_8 + 475.71321332739461 x_0_4_9 + 200.43317684341673 x_0_5_0 + 381.91500746747414 x_0_5_1 + 400.88891198542814 x_0_5_10 + 45.089947162497452 x_0_5_2 + 424.10226248950244 x_0_5_3 + 418.46826614164638 x_0_5_4 + 373.21931069774536 x_0_5_6 + 479.13014052874945 x_0_5_7 + 48.928029635379438 x_0_5_8 + 346.05055785591895 x_0_5_9 + 258.05435028652198 x_0_6_0 + 443.23289915243623 x_0_6_1 + 437.57229587733406 x_0_6_10 + 349.13557152191737 x_0_6_2 + 54.794220477847212 x_0_6_3 + 456.43391673178417 x_0_6_4 + 373.21931069774536 x_0_6_5 + 519.67507828207101 x_0_6_7 + 421.96508339161733 x_0_6_8 + 47.209861013243447 x_0_6_9 + 329.47046629728891 x_0_7_0 + 98.460881818325547 x_0_7_1 + 87.869879266104405 x_0_7_10 + 436.80705147165605 x_0_7_2 + 526.64645156996028 x_0_7_3 + 67.594087637487959 x_0_7_4 + 479.13014052874945 x_0_7_5 + 519.67507828207101 x_0_7_6 + 490.63764791452587 x_0_7_8 + 540.76843188926011 x_0_7_9 + 236.90120207279253 x_0_8_0 + 395.6959107760344 x_0_8_1 + 417.04024217918641 x_0_8_10 + 81.444565558945115 x_0_8_2 + 472.58278620861438 x_0_8_3 + 433.3887861811736 x_0_8_4 + 48.928029635379438 x_0_8_5 + 421.96508339161733 x_0_8_6 + 490.63764791452587 x_0_8_7 + 394.97332840128587 x_0_8_9 + 256.20035990009137 x_0_9_0 + 459.1224691173893 x_0_9_1 + 456.2315027403726 x_0_9_10 + 326.50563942002276 x_0_9_2 + 98.87118206144244 x_0_9_3 + 475.71321332739461 x_0_9_4 + 346.05055785591895 x_0_9_5 + 47.209861013243447 x_0_9_6 + 540.76843188926011 x_0_9_7 + 394.97332840128587 x_0_9_8 <= 3600
 c1544: p_1_1 <= 0
 c1545: d_1_1 - 30 z_1_1 <= 0
 c1546: mode_1_1 - z_1_1 <= 0
 c1547: p_1_1 <= 0
 c1548: d_1_1 + 30 mode_1_1 - 30 z_1_1 <= 0
 c1549: d_1_1 + p_1_1 - z_1_1 >= 0
 c1550: load_1_1 - 30 z_1_1 <= 0
 c1551: p_1_2 - 6 z_1_2 <= 0
 c1552: d_1_2 - 18 z_1_2 <= 0
 c1553: mode_1_2 - z_1_2 <= 0
 c1554: - 6 mode_1_2 + p_1_2 <= 0
 c1555: d_1_2 + 18 mode_1_2 - 18 z_1_2 <= 0
 c1556: d_1_2 + p_1_2 - z_1_2 >= 0
 c1557: load_1_2 - 30 z_1_2 <= 0
 c1558: p_1_3 - 30 z_1_3 <= 0
 c1559: d_1_3 - 3 z_1_3 <= 0
 c1560: mode_1_3 - z_1_3 <= 0
 c1561: - 30 mode_1_3 + p_1_3 <= 0
 c1562: d_1_3 + 3 mode_1_3 - 3 z_1_3 <= 0
 c1563: d_1_3 + p_1_3 - z_1_3 >= 0
 c1564: load_1_3 - 30 z_1_3 <= 0
 c1565: p_1_4 - 7 z_1_4 <= 0
 c1566: d_1_4 - 24 z_1_4 <= 0
 c1567: mode_1_4 - z_1_4 <= 0
 c1568: - 7 mode_1_4 + p_1_4 <= 0
 c1569: d_1_4 + 24 mode_1_4 - 24 z_1_4 <= 0
 c1570: d_1_4 + p_1_4 - z_1_4 >= 0
 c1571: load_1_4 - 30 z_1_4 <= 0
 c1572: p_1_5 - 30 z_1_5 <= 0
 c1573: d_1_5 - 2 z_1_5 <= 0
 c1574: mode_1_5 - z_1_5 <= 0
 c1575: - 30 mode_1_5 + p_1_5 <= 0
 c1576: d_1_5 + 2 mode_1_5 - 2 z_1_5 <= 0
 c1577: d_1_5 + p_1_5 - z_1_5 >= 0
 c1578: load_1_5 - 30 z_1_5 <= 0
 c1579: p_1_6 - 5 z_1_6 <= 0
 c1580: d_1_6 - 30 z_1_6 <= 0
 c1581: mode_1_6 - z_1_6 <= 0
 c1582: - 5 mode_1_6 + p_1_6 <= 0
 c1583: d_1_6 + 30 mode_1_6 - 30 z_1_6 <= 0
 c1584: d_1_6 + p_1_6 - z_1_6 >= 0
 c1585: load_1_6 - 30 z_1_6 <= 0
 c1586: p_1_7 - 11 z_1_7 <= 0
 c1587: d_1_7 - 30 z_1_7 <= 0
 c1588: mode_1_7 - z_1_7 <= 0
 c1589: - 11 mode_1_7 + p_1_7 <= 0
 c1590: d_1_7 + 30 mode_1_7 - 30 z_1_7 <= 0
 c1591: d_1_7 + p_1_7 - z_1_7 >= 0
 c1592: load_1_7 - 30 z_1_7 <= 0
 c1593: p_1_8 <= 0
 c1594: d_1_8 - 30 z_1_8 <= 0
 c1595: mode_1_8 - z_1_8 <= 0
 c1596: p_1_8 <= 0
 c1597: d_1_8 + 30 mode_1_8 - 30 z_1_8 <= 0
 c1598: d_1_8 + p_1_8 - z_1_8 >= 0
 c1599: load_1_8 - 30 z_1_8 <= 0
 c1600: p_1_9 - 4 z_1_9 <= 0
 c1601: d_1_9 - 25 z_1_9 <= 0
 c1602: mode_1_9 - z_1_9 <= 0
 c1603: - 4 mode_1_9 + p_1_9 <= 0
 c1604: d_1_9 + 25 mode_1_9 - 25 z_1_9 <= 0
 c1605: d_1_9 + p_1_9 - z_1_9 >= 0
 c1606: load_1_9 - 30 z_1_9 <= 0
 c1607: p_1_10 - 2 z_1_10 <= 0
 c1608: d_1_10 - 22 z_1_10 <= 0
 c1609: mode_1_10 - z_1_10 <= 0
 c1610: - 2 mode_1_10 + p_1_10 <= 0
 c1611: d_1_10 + 22 mode_1_10 - 22 z_1_10 <= 0
 c1612: d_1_10 + p_1_10 - z_1_10 >= 0
 c1613: load_1_10 - 30 z_1_10 <= 0
 c1614: d_1_1 + load_1_1 - p_1_1 + 30 x_1_0_1 <= 30
 c1615: d_1_1 + load_1_1 - p_1_1 - 30 x_1_0_1 >= -30
 c1616: d_1_2 + load_1_2 - p_1_2 + 30 x_1_0_2 <= 30
 c1617: d_1_2 + load_1_2 - p_1_2 - 30 x_1_0_2 >= -30
 c1618: d_1_3 + load_1_3 - p_1_3 + 30 x_1_0_3 <= 30
 c1619: d_1_3 + load_1_3 - p_1_3 - 30 x_1_0_3 >= -30
 c1620: d_1_4 + load_1_4 - p_1_4 + 30 x_1_0_4 <= 30
 c1621: d_1_4 + load_1_4 - p_1_4 - 30 x_1_0_4 >= -30
 c1622: d_1_5 + load_1_5 - p_1_5 + 30 x_1_0_5 <= 30
 c1623: d_1_5 + load_1_5 - p_1_5 - 30 x_1_0_5 >= -30
 c1624: d_1_6 + load_1_6 - p_1_6 + 30 x_1_0_6 <= 30
 c1625: d_1_6 + load_1_6 - p_1_6 - 30 x_1_0_6 >= -30
 c1626: d_1_7 + load_1_7 - p_1_7 + 30 x_1_0_7 <= 30
 c1627: d_1_7 + load_1_7 - p_1_7 - 30 x_1_0_7 >= -30
 c1628: d_1_8 + load_1_8 - p_1_8 + 30 x_1_0_8 <= 30
 c1629: d_1_8 + load_1_8 - p_1_8 - 30 x_1_0_8 >= -30
 c1630: d_1_9 + load_1_9 - p_1_9 + 30 x_1_0_9 <= 30
 c1631: d_1_9 + load_1_9 - p_1_9 - 30 x_1_0_9 >= -30
 c1632: d_1_10 + load_1_10 - p_1_10 + 30 x_1_0_10 <= 30
 c1633: d_1_10 + load_1_10 - p_1_10 - 30 x_1_0_10 >= -30
 c1634: d_1_2 - load_1_1 + load_1_2 - p_1_2 + 30 x_1_1_2 <= 30
 c1635: d_1_2 - load_1_1 + load_1_2 - p_1_2 - 30 x_1_1_2 >= -30
 c1636: d_1_3 - load_1_1 + load_1_3 - p_1_3 + 30 x_1_1_3 <= 30
 c1637: d_1_3 - load_1_1 + load_1_3 - p_1_3 - 30 x_1_1_3 >= -30
 c1638: d_1_4 - load_1_1 + load_1_4 - p_1_4 + 30 x_1_1_4 <= 30
 c1639: d_1_4 - load_1_1 + load_1_4 - p_1_4 - 30 x_1_1_4 >= -30
 c1640: d_1_5 - load_1_1 + load_1_5 - p_1_5 + 30 x_1_1_5 <= 30
 c1641: d_1_5 - load_1_1 + load_1_5 - p_1_5 - 30 x_1_1_5 >= -30
 c1642: d_1_6 - load_1_1 + load_1_6 - p_1_6 + 30 x_1_1_6 <= 30
 c1643: d_1_6 - load_1_1 + load_1_6 - p_1_6 - 30 x_1_1_6 >= -30
 c1644: d_1_7 - load_1_1 + load_1_7 - p_1_7 + 30 x_1_1_7 <= 30
 c1645: d_1_7 - load_1_1 + load_1_7 - p_1_7 - 30 x_1_1_7 >= -30
 c1646: d_1_8 - load_1_1 + load_1_8 - p_1_8 + 30 x_1_1_8 <= 30
 c1647: d_1_8 - load_1_1 + load_1_8 - p_1_8 - 30 x_1_1_8 >= -30
 c1648: d_1_9 - load_1_1 + load_1_9 - p_1_9 + 30 x_1_1_9 <= 30
 c1649: d_1_9 - load_1_1 + load_1_9 - p_1_9 - 30 x_1_1_9 >= -30
 c1650: d_1_10 - load_1_1 + load_1_10 - p_1_10 + 30 x_1_1_10 <= 30
 c1651: d_1_10 - load_1_1 + load_1_10 - p_1_10 - 30 x_1_1_10 >= -30
 c1652: d_1_1 + load_1_1 - load_1_2 - p_1_1 + 30 x_1_2_1 <= 30
 c1653: d_1_1 + load_1_1 - load_1_2 - p_1_1 - 30 x_1_2_1 >= -30
 c1654: d_1_3 - load_1_2 + load_1_3 - p_1_3 + 30 x_1_2_3 <= 30
 c1655: d_1_3 - load_1_2 + load_1_3 - p_1_3 - 30 x_1_2_3 >= -30
 c1656: d_1_4 - load_1_2 + load_1_4 - p_1_4 + 30 x_1_2_4 <= 30
 c1657: d_1_4 - load_1_2 + load_1_4 - p_1_4 - 30 x_1_2_4 >= -30
 c1658: d_1_5 - load_1_2 + load_1_5 - p_1_5 + 30 x_1_2_5 <= 30
 c1659: d_1_5 - load_1_2 + load_1_5 - p_1_5 - 30 x_1_2_5 >= -30
 c1660: d_1_6 - load_1_2 + load_1_6 - p_1_6 + 30 x_1_2_6 <= 30
 c1661: d_1_6 - load_1_2 + load_1_6 - p_1_6 - 30 x_1_2_6 >= -30
 c1662: d_1_7 - load_1_2 + load_1_7 - p_1_7 + 30 x_1_2_7 <= 30
 c1663: d_1_7 - load_1_2 + load_1_7 - p_1_7 - 30 x_1_2_7 >= -30
 c1664: d_1_8 - load_1_2 + load_1_8 - p_1_8 + 30 x_1_2_8 <= 30
 c1665: d_1_8 - load_1_2 + load_1_8 - p_1_8 - 30 x_1_2_8 >= -30
 c1666: d_1_9 - load_1_2 + load_1_9 - p_1_9 + 30 x_1_2_9 <= 30
 c1667: d_1_9 - load_1_2 + load_1_9 - p_1_9 - 30 x_1_2_9 >= -30
 c1668: d_1_10 + load_1_10 - load_1_2 - p_1_10 + 30 x_1_2_10 <= 30
 c1669: d_1_10 + load_1_10 - load_1_2 - p_1_10 - 30 x_1_2_10 >= -30
 c1670: d_1_1 + load_1_1 - load_1_3 - p_1_1 + 30 x_1_3_1 <= 30
 c1671: d_1_1 + load_1_1 - load_1_3 - p_1_1 - 30 x_1_3_1 >= -30
 c1672: d_1_2 + load_1_2 - load_1_3 - p_1_2 + 30 x_1_3_2 <= 30
 c1673: d_1_2 + load_1_2 - load_1_3 - p_1_2 - 30 x_1_3_2 >= -30
 c1674: d_1_4 - load_1_3 + load_1_4 - p_1_4 + 30 x_1_3_4 <= 30
 c1675: d_1_4 - load_1_3 + load_1_4 - p_1_4 - 30 x_1_3_4 >= -30
 c1676: d_1_5 - load_1_3 + load_1_5 - p_1_5 + 30 x_1_3_5 <= 30
 c1677: d_1_5 - load_1_3 + load_1_5 - p_1_5 - 30 x_1_3_5 >= -30
 c1678: d_1_6 - load_1_3 + load_1_6 - p_1_6 + 30 x_1_3_6 <= 30
 c1679: d_1_6 - load_1_3 + load_1_6 - p_1_6 - 30 x_1_3_6 >= -30
 c1680: d_1_7 - load_1_3 + load_1_7 - p_1_7 + 30 x_1_3_7 <= 30
 c1681: d_1_7 - load_1_3 + load_1_7 - p_1_7 - 30 x_1_3_7 >= -30
 c1682: d_1_8 - load_1_3 + load_1_8 - p_1_8 + 30 x_1_3_8 <= 30
 c1683: d_1_8 - load_1_3 + load_1_8 - p_1_8 - 30 x_1_3_8 >= -30
 c1684: d_1_9 - load_1_3 + load_1_9 - p_1_9 + 30 x_1_3_9 <= 30
 c1685: d_1_9 - load_1_3 + load_1_9 - p_1_9 - 30 x_1_3_9 >= -30
 c1686: d_1_10 + load_1_10 - load_1_3 - p_1_10 + 30 x_1_3_10 <= 30
 c1687: d_1_10 + load_1_10 - load_1_3 - p_1_10 - 30 x_1_3_10 >= -30
 c1688: d_1_1 + load_1_1 - load_1_4 - p_1_1 + 30 x_1_4_1 <= 30
 c1689: d_1_1 + load_1_1 - load_1_4 - p_1_1 - 30 x_1_4_1 >= -30
 c1690: d_1_2 + load_1_2 - load_1_4 - p_1_2 + 30 x_1_4_2 <= 30
 c1691: d_1_2 + load_1_2 - load_1_4 - p_1_2 - 30 x_1_4_2 >= -30
 c1692: d_1_3 + load_1_3 - load_1_4 - p_1_3 + 30 x_1_4_3 <= 30
 c1693: d_1_3 + load_1_3 - load_1_4 - p_1_3 - 30 x_1_4_3 >= -30
 c1694: d_1_5 - load_1_4 + load_1_5 - p_1_5 + 30 x_1_4_5 <= 30
 c1695: d_1_5 - load_1_4 + load_1_5 - p_1_5 - 30 x_1_4_5 >= -30
 c1696: d_1_6 - load_1_4 + load_1_6 - p_1_6 + 30 x_1_4_6 <= 30
 c1697: d_1_6 - load_1_4 + load_1_6 - p_1_6 - 30 x_1_4_6 >= -30
 c1698: d_1_7 - load_1_4 + load_1_7 - p_1_7 + 30 x_1_4_7 <= 30
 c1699: d_1_7 - load_1_4 + load_1_7 - p_1_7 - 30 x_1_4_7 >= -30
 c1700: d_1_8 - load_1_4 + load_1_8 - p_1_8 + 30 x_1_4_8 <= 30
 c1701: d_1_8 - load_1_4 + load_1_8 - p_1_8 - 30 x_1_4_8 >= -30
 c1702: d_1_9 - load_1_4 + load_1_9 - p_1_9 + 30 x_1_4_9 <= 30
 c1703: d_1_9 - load_1_4 + load_1_9 - p_1_9 - 30 x_1_4_9 >= -30
 c1704: d_1_10 + load_1_10 - load_1_4 - p_1_10 + 30 x_1_4_10 <= 30
 c1705: d_1_10 + load_1_10 - load_1_4 - p_1_10 - 30 x_1_4_10 >= -30
 c1706: d_1_1 + load_1_1 - load_1_5 - p_1_1 + 30 x_1_5_1 <= 30
 c1707: d_1_1 + load_1_1 - load_1_5 - p_1_1 - 30 x_1_5_1 >= -30
 c1708: d_1_2 + load_1_2 - load_1_5 - p_1_2 + 30 x_1_5_2 <= 30
 c1709: d_1_2 + load_1_2 - load_1_5 - p_1_2 - 30 x_1_5_2 >= -30
 c1710: d_1_3 + load_1_3 - load_1_5 - p_1_3 + 30 x_1_5_3 <= 30
 c1711: d_1_3 + load_1_3 - load_1_5 - p_1_3 - 30 x_1_5_3 >= -30
 c1712: d_1_4 + load_1_4 - load_1_5 - p_1_4 + 30 x_1_5_4 <= 30
 c1713: d_1_4 + load_1_4 - load_1_5 - p_1_4 - 30 x_1_5_4 >= -30
 c1714: d_1_6 - load_1_5 + load_1_6 - p_1_6 + 30 x_1_5_6 <= 30
 c1715: d_1_6 - load_1_5 + load_1_6 - p_1_6 - 30 x_1_5_6 >= -30
 c1716: d_1_7 - load_1_5 + load_1_7 - p_1_7 + 30 x_1_5_7 <= 30
 c1717: d_1_7 - load_1_5 + load_1_7 - p_1_7 - 30 x_1_5_7 >= -30
 c1718: d_1_8 - load_1_5 + load_1_8 - p_1_8 + 30 x_1_5_8 <= 30
 c1719: d_1_8 - load_1_5 + load_1_8 - p_1_8 - 30 x_1_5_8 >= -30
 c1720: d_1_9 - load_1_5 + load_1_9 - p_1_9 + 30 x_1_5_9 <= 30
 c1721: d_1_9 - load_1_5 + load_1_9 - p_1_9 - 30 x_1_5_9 >= -30
 c1722: d_1_10 + load_1_10 - load_1_5 - p_1_10 + 30 x_1_5_10 <= 30
 c1723: d_1_10 + load_1_10 - load_1_5 - p_1_10 - 30 x_1_5_10 >= -30
 c1724: d_1_1 + load_1_1 - load_1_6 - p_1_1 + 30 x_1_6_1 <= 30
 c1725: d_1_1 + load_1_1 - load_1_6 - p_1_1 - 30 x_1_6_1 >= -30
 c1726: d_1_2 + load_1_2 - load_1_6 - p_1_2 + 30 x_1_6_2 <= 30
 c1727: d_1_2 + load_1_2 - load_1_6 - p_1_2 - 30 x_1_6_2 >= -30
 c1728: d_1_3 + load_1_3 - load_1_6 - p_1_3 + 30 x_1_6_3 <= 30
 c1729: d_1_3 + load_1_3 - load_1_6 - p_1_3 - 30 x_1_6_3 >= -30
 c1730: d_1_4 + load_1_4 - load_1_6 - p_1_4 + 30 x_1_6_4 <= 30
 c1731: d_1_4 + load_1_4 - load_1_6 - p_1_4 - 30 x_1_6_4 >= -30
 c1732: d_1_5 + load_1_5 - load_1_6 - p_1_5 + 30 x_1_6_5 <= 30
 c1733: d_1_5 + load_1_5 - load_1_6 - p_1_5 - 30 x_1_6_5 >= -30
 c1734: d_1_7 - load_1_6 + load_1_7 - p_1_7 + 30 x_1_6_7 <= 30
 c1735: d_1_7 - load_1_6 + load_1_7 - p_1_7 - 30 x_1_6_7 >= -30
 c1736: d_1_8 - load_1_6 + load_1_8 - p_1_8 + 30 x_1_6_8 <= 30
 c1737: d_1_8 - load_1_6 + load_1_8 - p_1_8 - 30 x_1_6_8 >= -30
 c1738: d_1_9 - load_1_6 + load_1_9 - p_1_9 + 30 x_1_6_9 <= 30
 c1739: d_1_9 - load_1_6 + load_1_9 - p_1_9 - 30 x_1_6_9 >= -30
 c1740: d_1_10 + load_1_10 - load_1_6 - p_1_10 + 30 x_1_6_10 <= 30
 c1741: d_1_10 + load_1_10 - load_1_6 - p_1_10 - 30 x_1_6_10 >= -30
 c1742: d_1_1 + load_1_1 - load_1_7 - p_1_1 + 30 x_1_7_1 <= 30
 c1743: d_1_1 + load_1_1 - load_1_7 - p_1_1 - 30 x_1_7_1 >= -30
 c1744: d_1_2 + load_1_2 - load_1_7 - p_1_2 + 30 x_1_7_2 <= 30
 c1745: d_1_2 + load_1_2 - load_1_7 - p_1_2 - 30 x_1_7_2 >= -30
 c1746: d_1_3 + load_1_3 - load_1_7 - p_1_3 + 30 x_1_7_3 <= 30
 c1747: d_1_3 + load_1_3 - load_1_7 - p_1_3 - 30 x_1_7_3 >= -30
 c1748: d_1_4 + load_1_4 - load_1_7 - p_1_4 + 30 x_1_7_4 <= 30
 c1749: d_1_4 + load_1_4 - load_1_7 - p_1_4 - 30 x_1_7_4 >= -30
 c1750: d_1_5 + load_1_5 - load_1_7 - p_1_5 + 30 x_1_7_5 <= 30
 c1751: d_1_5 + load_1_5 - load_1_7 - p_1_5 - 30 x_1_7_5 >= -30
 c1752: d_1_6 + load_1_6 - load_1_7 - p_1_6 + 30 x_1_7_6 <= 30
 c1753: d_1_6 + load_1_6 - load_1_7 - p_1_6 - 30 x_1_7_6 >= -30
 c1754: d_1_8 - load_1_7 + load_1_8 - p_1_8 + 30 x_1_7_8 <= 30
 c1755: d_1_8 - load_1_7 + load_1_8 - p_1_8 - 30 x_1_7_8 >= -30
 c1756: d_1_9 - load_1_7 + load_1_9 - p_1_9 + 30 x_1_7_9 <= 30
 c1757: d_1_9 - load_1_7 + load_1_9 - p_1_9 - 30 x_1_7_9 >= -30
 c1758: d_1_10 + load_1_10 - load_1_7 - p_1_10 + 30 x_1_7_10 <= 30
 c1759: d_1_10 + load_1_10 - load_1_7 - p_1_10 - 30 x_1_7_10 >= -30
 c1760: d_1_1 + load_1_1 - load_1_8 - p_1_1 + 30 x_1_8_1 <= 30
 c1761: d_1_1 + load_1_1 - load_1_8 - p_1_1 - 30 x_1_8_1 >= -30
 c1762: d_1_2 + load_1_2 - load_1_8 - p_1_2 + 30 x_1_8_2 <= 30
 c1763: d_1_2 + load_1_2 - load_1_8 - p_1_2 - 30 x_1_8_2 >= -30
 c1764: d_1_3 + load_1_3 - load_1_8 - p_1_3 + 30 x_1_8_3 <= 30
 c1765: d_1_3 + load_1_3 - load_1_8 - p_1_3 - 30 x_1_8_3 >= -30
 c1766: d_1_4 + load_1_4 - load_1_8 - p_1_4 + 30 x_1_8_4 <= 30
 c1767: d_1_4 + load_1_4 - load_1_8 - p_1_4 - 30 x_1_8_4 >= -30
 c1768: d_1_5 + load_1_5 - load_1_8 - p_1_5 + 30 x_1_8_5 <= 30
 c1769: d_1_5 + load_1_5 - load_1_8 - p_1_5 - 30 x_1_8_5 >= -30
 c1770: d_1_6 + load_1_6 - load_1_8 - p_1_6 + 30 x_1_8_6 <= 30
 c1771: d_1_6 + load_1_6 - load_1_8 - p_1_6 - 30 x_1_8_6 >= -30
 c1772: d_1_7 + load_1_7 - load_1_8 - p_1_7 + 30 x_1_8_7 <= 30
 c1773: d_1_7 + load_1_7 - load_1_8 - p_1_7 - 30 x_1_8_7 >= -30
 c1774: d_1_9 - load_1_8 + load_1_9 - p_1_9 + 30 x_1_8_9 <= 30
 c1775: d_1_9 - load_1_8 + load_1_9 - p_1_9 - 30 x_1_8_9 >= -30
 c1776: d_1_10 + load_1_10 - load_1_8 - p_1_10 + 30 x_1_8_10 <= 30
 c1777: d_1_10 + load_1_10 - load_1_8 - p_1_10 - 30 x_1_8_10 >= -30
 c1778: d_1_1 + load_1_1 - load_1_9 - p_1_1 + 30 x_1_9_1 <= 30
 c1779: d_1_1 + load_1_1 - load_1_9 - p_1_1 - 30 x_1_9_1 >= -30
 c1780: d_1_2 + load_1_2 - load_1_9 - p_1_2 + 30 x_1_9_2 <= 30
 c1781: d_1_2 + load_1_2 - load_1_9 - p_1_2 - 30 x_1_9_2 >= -30
 c1782: d_1_3 + load_1_3 - load_1_9 - p_1_3 + 30 x_1_9_3 <= 30
 c1783: d_1_3 + load_1_3 - load_1_9 - p_1_3 - 30 x_1_9_3 >= -30
 c1784: d_1_4 + load_1_4 - load_1_9 - p_1_4 + 30 x_1_9_4 <= 30
 c1785: d_1_4 + load_1_4 - load_1_9 - p_1_4 - 30 x_1_9_4 >= -30
 c1786: d_1_5 + load_1_5 - load_1_9 - p_1_5 + 30 x_1_9_5 <= 30
 c1787: d_1_5 + load_1_5 - load_1_9 - p_1_5 - 30 x_1_9_5 >= -30
 c1788: d_1_6 + load_1_6 - load_1_9 - p_1_6 + 30 x_1_9_6 <= 30
 c1789: d_1_6 + load_1_6 - load_1_9 - p_1_6 - 30 x_1_9_6 >= -30
 c1790: d_1_7 + load_1_7 - load_1_9 - p_1_7 + 30 x_1_9_7 <= 30
 c1791: d_1_7 + load_1_7 - load_1_9 - p_1_7 - 30 x_1_9_7 >= -30
 c1792: d_1_8 + load_1_8 - load_1_9 - p_1_8 + 30 x_1_9_8 <= 30
 c1793: d_1_8 + load_1_8 - load_1_9 - p_1_8 - 30 x_1_9_8 >= -30
 c1794: d_1_10 + load_1_10 - load_1_9 - p_1_10 + 30 x_1_9_10 <= 30
 c1795: d_1_10 + load_1_10 - load_1_9 - p_1_10 - 30 x_1_9_10 >= -30
 c1796: d_1_1 + load_1_1 - load_1_10 - p_1_1 + 30 x_1_10_1 <= 30
 c1797: d_1_1 + load_1_1 - load_1_10 - p_1_1 - 30 x_1_10_1 >= -30
 c1798: d_1_2 - load_1_10 + load_1_2 - p_1_2 + 30 x_1_10_2 <= 30
 c1799: d_1_2 - load_1_10 + load_1_2 - p_1_2 - 30 x_1_10_2 >= -30
 c1800: d_1_3 - load_1_10 + load_1_3 - p_1_3 + 30 x_1_10_3 <= 30
 c1801: d_1_3 - load_1_10 + load_1_3 - p_1_3 - 30 x_1_10_3 >= -30
 c1802: d_1_4 - load_1_10 + load_1_4 - p_1_4 + 30 x_1_10_4 <= 30
 c1803: d_1_4 - load_1_10 + load_1_4 - p_1_4 - 30 x_1_10_4 >= -30
 c1804: d_1_5 - load_1_10 + load_1_5 - p_1_5 + 30 x_1_10_5 <= 30
 c1805: d_1_5 - load_1_10 + load_1_5 - p_1_5 - 30 x_1_10_5 >= -30
 c1806: d_1_6 - load_1_10 + load_1_6 - p_1_6 + 30 x_1_10_6 <= 30
 c1807: d_1_6 - load_1_10 + load_1_6 - p_1_6 - 30 x_1_10_6 >= -30
 c1808: d_1_7 - load_1_10 + load_1_7 - p_1_7 + 30 x_1_10_7 <= 30
 c1809: d_1_7 - load_1_10 + load_1_7 - p_1_7 - 30 x_1_10_7 >= -30
 c1810: d_1_8 - load_1_10 + load_1_8 - p_1_8 + 30 x_1_10_8 <= 30
 c1811: d_1_8 - load_1_10 + load_1_8 - p_1_8 - 30 x_1_10_8 >= -30
 c1812: d_1_9 - load_1_10 + load_1_9 - p_1_9 + 30 x_1_10_9 <= 30
 c1813: d_1_9 - load_1_10 + load_1_9 - p_1_9 - 30 x_1_10_9 >= -30
 c1814: - d_1_1 - d_1_10 - d_1_2 - d_1_3 - d_1_4 - d_1_5 - d_1_6 - d_1_7 - d_1_8 - d_1_9 + p_1_1 + p_1_10 + p_1_2 + p_1_3 + p_1_4 + p_1_5 + p_1_6 + p_1_7 + p_1_8 + p_1_9 >= 0
 c1815: 120 p_1_1 + 120 p_1_10 + 120 p_1_2 + 120 p_1_3 + 120 p_1_4 + 120 p_1_5 + 120 p_1_6 + 120 p_1_7 + 120 p_1_8 + 120 p_1_9 + 233.65943093685806 x_1_0_1 + 242.10416513907467 x_1_0_10 + 156.99363730917386 x_1_0_2 + 293.66738792027093 x_1_0_3 + 262.20168918599217 x_1_0_4 + 200.43317684341673 x_1_0_5 + 258.05435028652198 x_1_0_6 + 329.47046629728891 x_1_0_7 + 236.90120207279253 x_1_0_8 + 256.20035990009137 x_1_0_9 + 242.10416513907467 x_1_10_0 + 28.625133773723391 x_1_10_1 + 357.30370803788855 x_1_10_2 + 448.5707541202728 x_1_10_3 + 20.278419147423612 x_1_10_4 + 400.88891198542814 x_1_10_5 + 437.57229587733406 x_1_10_6 + 87.869879266104405 x_1_10_7 + 417.04024217918641 x_1_10_8 + 456.2315027403726 x_1_10_9 + 233.65943093685806 x_1_1_0 + 28.625133773723391 x_1_1_10 + 339.08636412682404 x_1_1_2 + 457.53418914167884 x_1_1_3 + 38.483205485622427 x_1_1_4 + 381.91500746747414 x_1_1_5 + 443.23289915243623 x_1_1_6 + 98.460881818325547 x_1_1_7 + 395.6959107760344 x_1_1_8 + 459.1224691173893 x_1_1_9 + 156.99363730917386 x_1_2_0 + 339.08636412682404 x_1_2_1 + 357.30370803788855 x_1_2_10 + 397.80678198126935 x_1_2_3 + 375.19038009272305 x_1_2_4 + 45.089947162497452 x_1_2_5 + 349.13557152191737 x_1_2_6 + 436.80705147165605 x_1_2_7 + 81.444565558945115 x_1_2_8 + 326.50563942002276 x_1_2_9 + 293.66738792027093 x_1_3_0 + 457.53418914167884 x_1_3_1 + 448.5707541202728 x_1_3_10 + 397.80678198126935 x_1_3_2 + 466.41470713067019 x_1_3_4 + 424.10226248950244 x_1_3_5 + 54.794220477847212 x_1_3_6 + 526.64645156996028 x_1_3_7 + 472.58278620861438 x_1_3_8 + 98.87118206144244 x_1_3_9 + 262.20168918599217 x_1_4_0 + 38.483205485622427 x_1_4_1 + 20.278419147423612 x_1_4_10 + 375.19038009272305 x_1_4_2 + 466.41470713067019 x_1_4_3 + 418.46826614164638 x_1_4_5 + 456.43391673178417 x_1_4_6 + 67.594087637487959 x_1_4_7 + 433.3887861811736 x_1_4_8 + 475.71321332739461 x_1_4_9 + 200.43317684341673 x_1_5_0 + 381.91500746747414 x_1_5_1 + 400.88891198542814 x_1_5_10 + 45.089947162497452 x_1_5_2 + 424.10226248950244 x_1_5_3 + 418.46826614164638 x_1_5_4 + 373.21931069774536 x_1_5_6 + 479.13014052874945 x_1_5_7 + 48.928029635379438 x_1_5_8 + 346.05055785591895 x_1_5_9 + 258.05435028652198 x_1_6_0 + 443.23289915243623 x_1_6_1 + 437.57229587733406 x_1_6_10 + 349.13557152191737 x_1_6_2 + 54.794220477847212 x_1_6_3 + 456.43391673178417 x_1_6_4 + 373.21931069774536 x_1_6_5 + 519.67507828207101 x_1_6_7 + 421.96508339161733 x_1_6_8 + 47.209861013243447 x_1_6_9 + 329.47046629728891 x_1_7_0 + 98.460881818325547 x_1_7_1 + 87.869879266104405 x_1_7_10 + 436.80705147165605 x_1_7_2 + 526.64645156996028 x_1_7_3 + 67.594087637487959 x_1_7_4 + 479.13014052874945 x_1_7_5 + 519.67507828207101 x_1_7_6 + 490.63764791452587 x_1_7_8 + 540.76843188926011 x_1_7_9 + 236.90120207279253 x_1_8_0 + 395.6959107760344 x_1_8_1 + 417.04024217918641 x_1_8_10 + 81.444565558945115 x_1_8_2 + 472.58278620861438 x_1_8_3 + 433.3887861811736 x_1_8_4 + 48.928029635379438 x_1_8_5 + 421.96508339161733 x_1_8_6 + 490.63764791452587 x_1_8_7 + 394.97332840128587 x_1_8_9 + 256.20035990009137 x_1_9_0 + 459.1224691173893 x_1_9_1 + 456.2315027403726 x_1_9_10 + 326.50563942002276 x_1_9_2 + 98.87118206144244 x_1_9_3 + 475.71321332739461 x_1_9_4 + 346.05055785591895 x_1_9_5 + 47.209861013243447 x_1_9_6 + 540.76843188926011 x_1_9_7 + 394.97332840128587 x_1_9_8 <= 3600
 c1816: p_2_1 <= 0
 c1817: d_2_1 - 30 z_2_1 <= 0
 c1818: mode_2_1 - z_2_1 <= 0
 c1819: p_2_1 <= 0
 c1820: d_2_1 + 30 mode_2_1 - 30 z_2_1 <= 0
 c1821: d_2_1 + p_2_1 - z_2_1 >= 0
 c1822: load_2_1 - 30 z_2_1 <= 0
 c1823: p_2_2 - 6 z_2_2 <= 0
 c1824: d_2_2 - 18 z_2_2 <= 0
 c1825: mode_2_2 - z_2_2 <= 0
 c1826: - 6 mode_2_2 + p_2_2 <= 0
 c1827: d_2_2 + 18 mode_2_2 - 18 z_2_2 <= 0
 c1828: d_2_2 + p_2_2 - z_2_2 >= 0
 c1829: load_2_2 - 30 z_2_2 <= 0
 c1830: p_2_3 - 30 z_2_3 <= 0
 c1831: d_2_3 - 3 z_2_3 <= 0
 c1832: mode_2_3 - z_2_3 <= 0
 c1833: - 30 mode_2_3 + p_2_3 <= 0
 c1834: d_2_3 + 3 mode_2_3 - 3 z_2_3 <= 0
 c1835: d_2_3 + p_2_3 - z_2_3 >= 0
 c1836: load_2_3 - 30 z_2_3 <= 0
 c1837: p_2_4 - 7 z_2_4 <= 0
 c1838: d_2_4 - 24 z_2_4 <= 0
 c1839: mode_2_4 - z_2_4 <= 0
 c1840: - 7 mode_2_4 + p_2_4 <= 0
 c1841: d_2_4 + 24 mode_2_4 - 24 z_2_4 <= 0
 c1842: d_2_4 + p_2_4 - z_2_4 >= 0
 c1843: load_2_4 - 30 z_2_4 <= 0
 c1844: p_2_5 - 30 z_2_5 <= 0
 c1845: d_2_5 - 2 z_2_5 <= 0
 c1846: mode_2_5 - z_2_5 <= 0
 c1847: - 30 mode_2_5 + p_2_5 <= 0
 c1848: d_2_5 + 2 mode_2_5 - 2 z_2_5 <= 0
 c1849: d_2_5 + p_2_5 - z_2_5 >= 0
 c1850: load_2_5 - 30 z_2_5 <= 0
 c1851: p_2_6 - 5 z_2_6 <= 0
 c1852: d_2_6 - 30 z_2_6 <= 0
 c1853: mode_2_6 - z_2_6 <= 0
 c1854: - 5 mode_2_6 + p_2_6 <= 0
 c1855: d_2_6 + 30 mode_2_6 - 30 z_2_6 <= 0
 c1856: d_2_6 + p_2_6 - z_2_6 >= 0
 c1857: load_2_6 - 30 z_2_6 <= 0
 c1858: p_2_7 - 11 z_2_7 <= 0
 c1859: d_2_7 - 30 z_2_7 <= 0
 c1860: mode_2_7 - z_2_7 <= 0
 c1861: - 11 mode_2_7 + p_2_7 <= 0
 c1862: d_2_7 + 30 mode_2_7 - 30 z_2_7 <= 0
 c1863: d_2_7 + p_2_7 - z_2_7 >= 0
 c1864: load_2_7 - 30 z_2_7 <= 0
 c1865: p_2_8 <= 0
 c1866: d_2_8 - 30 z_2_8 <= 0
 c1867: mode_2_8 - z_2_8 <= 0
 c1868: p_2_8 <= 0
 c1869: d_2_8 + 30 mode_2_8 - 30 z_2_8 <= 0
 c1870: d_2_8 + p_2_8 - z_2_8 >= 0
 c1871: load_2_8 - 30 z_2_8 <= 0
 c1872: p_2_9 - 4 z_2_9 <= 0
 c1873: d_2_9 - 25 z_2_9 <= 0
 c1874: mode_2_9 - z_2_9 <= 0
 c1875: - 4 mode_2_9 + p_2_9 <= 0
 c1876: d_2_9 + 25 mode_2_9 - 25 z_2_9 <= 0
 c1877: d_2_9 + p_2_9 - z_2_9 >= 0
 c1878: load_2_9 - 30 z_2_9 <= 0
 c1879: p_2_10 - 2 z_2_10 <= 0
 c1880: d_2_10 - 22 z_2_10 <= 0
 c1881: mode_2_10 - z_2_10 <= 0
 c1882: - 2 mode_2_10 + p_2_10 <= 0
 c1883: d_2_10 + 22 mode_2_10 - 22 z_2_10 <= 0
 c1884: d_2_10 + p_2_10 - z_2_10 >= 0
 c1885: load_2_10 - 30 z_2_10 <= 0
 c1886: d_2_1 + load_2_1 - p_2_1 + 30 x_2_0_1 <= 30
 c1887: d_2_1 + load_2_1 - p_2_1 - 30 x_2_0_1 >= -30
 c1888: d_2_2 + load_2_2 - p_2_2 + 30 x_2_0_2 <= 30
 c1889: d_2_2 + load_2_2 - p_2_2 - 30 x_2_0_2 >= -30
 c1890: d_2_3 + load_2_3 - p_2_3 + 30 x_2_0_3 <= 30
 c1891: d_2_3 + load_2_3 - p_2_3 - 30 x_2_0_3 >= -30
 c1892: d_2_4 + load_2_4 - p_2_4 + 30 x_2_0_4 <= 30
 c1893: d_2_4 + load_2_4 - p_2_4 - 30 x_2_0_4 >= -30
 c1894: d_2_5 + load_2_5 - p_2_5 + 30 x_2_0_5 <= 30
 c1895: d_2_5 + load_2_5 - p_2_5 - 30 x_2_0_5 >= -30
 c1896: d_2_6 + load_2_6 - p_2_6 + 30 x_2_0_6 <= 30
 c1897: d_2_6 + load_2_6 - p_2_6 - 30 x_2_0_6 >= -30
 c1898: d_2_7 + load_2_7 - p_2_7 + 30 x_2_0_7 <= 30
 c1899: d_2_7 + load_2_7 - p_2_7 - 30 x_2_0_7 >= -30
 c1900: d_2_8 + load_2_8 - p_2_8 + 30 x_2_0_8 <= 30
 c1901: d_2_8 + load_2_8 - p_2_8 - 30 x_2_0_8 >= -30
 c1902: d_2_9 + load_2_9 - p_2_9 + 30 x_2_0_9 <= 30
 c1903: d_2_9 + load_2_9 - p_2_9 - 30 x_2_0_9 >= -30
 c1904: d_2_10 + load_2_10 - p_2_10 + 30 x_2_0_10 <= 30
 c1905: d_2_10 + load_2_10 - p_2_10 - 30 x_2_0_10 >= -30
 c1906: d_2_2 - load_2_1 + load_2_2 - p_2_2 + 30 x_2_1_2 <= 30
 c1907: d_2_2 - load_2_1 + load_2_2 - p_2_2 - 30 x_2_1_2 >= -30
 c1908: d_2_3 - load_2_1 + load_2_3 - p_2_3 + 30 x_2_1_3 <= 30
 c1909: d_2_3 - load_2_1 + load_2_3 - p_2_3 - 30 x_2_1_3 >= -30
 c1910: d_2_4 - load_2_1 + load_2_4 - p_2_4 + 30 x_2_1_4 <= 30
 c1911: d_2_4 - load_2_1 + load_2_4 - p_2_4 - 30 x_2_1_4 >= -30
 c1912: d_2_5 - load_2_1 + load_2_5 - p_2_5 + 30 x_2_1_5 <= 30
 c1913: d_2_5 - load_2_1 + load_2_5 - p_2_5 - 30 x_2_1_5 >= -30
 c1914: d_2_6 - load_2_1 + load_2_6 - p_2_6 + 30 x_2_1_6 <= 30
 c1915: d_2_6 - load_2_1 + load_2_6 - p_2_6 - 30 x_2_1_6 >= -30
 c1916: d_2_7 - load_2_1 + load_2_7 - p_2_7 + 30 x_2_1_7 <= 30
 c1917: d_2_7 - load_2_1 + load_2_7 - p_2_7 - 30 x_2_1_7 >= -30
 c1918: d_2_8 - load_2_1 + load_2_8 - p_2_8 + 30 x_2_1_8 <= 30
 c1919: d_2_8 - load_2_1 + load_2_8 - p_2_8 - 30 x_2_1_8 >= -30
 c1920: d_2_9 - load_2_1 + load_2_9 - p_2_9 + 30 x_2_1_9 <= 30
 c1921: d_2_9 - load_2_1 + load_2_9 - p_2_9 - 30 x_2_1_9 >= -30
 c1922: d_2_10 - load_2_1 + load_2_10 - p_2_10 + 30 x_2_1_10 <= 30
 c1923: d_2_10 - load_2_1 + load_2_10 - p_2_10 - 30 x_2_1_10 >= -30
 c1924: d_2_1 + load_2_1 - load_2_2 - p_2_1 + 30 x_2_2_1 <= 30
 c1925: d_2_1 + load_2_1 - load_2_2 - p_2_1 - 30 x_2_2_1 >= -30
 c1926: d_2_3 - load_2_2 + load_2_3 - p_2_3 + 30 x_2_2_3 <= 30
 c1927: d_2_3 - load_2_2 + load_2_3 - p_2_3 - 30 x_2_2_3 >= -30
 c1928: d_2_4 - load_2_2 + load_2_4 - p_2_4 + 30 x_2_2_4 <= 30
 c1929: d_2_4 - load_2_2 + load_2_4 - p_2_4 - 30 x_2_2_4 >= -30
 c1930: d_2_5 - load_2_2 + load_2_5 - p_2_5 + 30 x_2_2_5 <= 30
 c1931: d_2_5 - load_2_2 + load_2_5 - p_2_5 - 30 x_2_2_5 >= -30
 c1932: d_2_6 - load_2_2 + load_2_6 - p_2_6 + 30 x_2_2_6 <= 30
 c1933: d_2_6 - load_2_2 + load_2_6 - p_2_6 - 30 x_2_2_6 >= -30
 c1934: d_2_7 - load_2_2 + load_2_7 - p_2_7 + 30 x_2_2_7 <= 30
 c1935: d_2_7 - load_2_2 + load_2_7 - p_2_7 - 30 x_2_2_7 >= -30
 c1936: d_2_8 - load_2_2 + load_2_8 - p_2_8 + 30 x_2_2_8 <= 30
 c1937: d_2_8 - load_2_2 + load_2_8 - p_2_8 - 30 x_2_2_8 >= -30
 c1938: d_2_9 - load_2_2 + load_2_9 - p_2_9 + 30 x_2_2_9 <= 30
 c1939: d_2_9 - load_2_2 + load_2_9 - p_2_9 - 30 x_2_2_9 >= -30
 c1940: d_2_10 + load_2_10 - load_2_2 - p_2_10 + 30 x_2_2_10 <= 30
 c1941: d_2_10 + load_2_10 - load_2_2 - p_2_10 - 30 x_2_2_10 >= -30
 c1942: d_2_1 + load_2_1 - load_2_3 - p_2_1 + 30 x_2_3_1 <= 30
 c1943: d_2_1 + load_2_1 - load_2_3 - p_2_1 - 30 x_2_3_1 >= -30
 c1944: d_2_2 + load_2_2 - load_2_3 - p_2_2 + 30 x_2_3_2 <= 30
 c1945: d_2_2 + load_2_2 - load_2_3 - p_2_2 - 30 x_2_3_2 >= -30
 c1946: d_2_4 - load_2_3 + load_2_4 - p_2_4 + 30 x_2_3_4 <= 30
 c1947: d_2_4 - load_2_3 + load_2_4 - p_2_4 - 30 x_2_3_4 >= -30
 c1948: d_2_5 - load_2_3 + load_2_5 - p_2_5 + 30 x_2_3_5 <= 30
 c1949: d_2_5 - load_2_3 + load_2_5 - p_2_5 - 30 x_2_3_5 >= -30
 c1950: d_2_6 - load_2_3 + load_2_6 - p_2_6 + 30 x_2_3_6 <= 30
 c1951: d_2_6 - load_2_3 + load_2_6 - p_2_6 - 30 x_2_3_6 >= -30
 c1952: d_2_7 - load_2_3 + load_2_7 - p_2_7 + 30 x_2_3_7 <= 30
 c1953: d_2_7 - load_2_3 + load_2_7 - p_2_7 - 30 x_2_3_7 >= -30
 c1954: d_2_8 - load_2_3 + load_2_8 - p_2_8 + 30 x_2_3_8 <= 30
 c1955: d_2_8 - load_2_3 + load_2_8 - p_2_8 - 30 x_2_3_8 >= -30
 c1956: d_2_9 - load_2_3 + load_2_9 - p_2_9 + 30 x_2_3_9 <= 30
 c1957: d_2_9 - load_2_3 + load_2_9 - p_2_9 - 30 x_2_3_9 >= -30
 c1958: d_2_10 + load_2_10 - load_2_3 - p_2_10 + 30 x_2_3_10 <= 30
 c1959: d_2_10 + load_2_10 - load_2_3 - p_2_10 - 30 x_2_3_10 >= -30
 c1960: d_2_1 + load_2_1 - load_2_4 - p_2_1 + 30 x_2_4_1 <= 30
 c1961: d_2_1 + load_2_1 - load_2_4 - p_2_1 - 30 x_2_4_1 >= -30
 c1962: d_2_2 + load_2_2 - load_2_4 - p_2_2 + 30 x_2_4_2 <= 30
 c1963: d_2_2 + load_2_2 - load_2_4 - p_2_2 - 30 x_2_4_2 >= -30
 c1964: d_2_3 + load_2_3 - load_2_4 - p_2_3 + 30 x_2_4_3 <= 30
 c1965: d_2_3 + load_2_3 - load_2_4 - p_2_3 - 30 x_2_4_3 >= -30
 c1966: d_2_5 - load_2_4 + load_2_5 - p_2_5 + 30 x_2_4_5 <= 30
 c1967: d_2_5 - load_2_4 + load_2_5 - p_2_5 - 30 x_2_4_5 >= -30
 c1968: d_2_6 - load_2_4 + load_2_6 - p_2_6 + 30 x_2_4_6 <= 30
 c1969: d_2_6 - load_2_4 + load_2_6 - p_2_6 - 30 x_2_4_6 >= -30
 c1970: d_2_7 - load_2_4 + load_2_7 - p_2_7 + 30 x_2_4_7 <= 30
 c1971: d_2_7 - load_2_4 + load_2_7 - p_2_7 - 30 x_2_4_7 >= -30
 c1972: d_2_8 - load_2_4 + load_2_8 - p_2_8 + 30 x_2_4_8 <= 30
 c1973: d_2_8 - load_2_4 + load_2_8 - p_2_8 - 30 x_2_4_8 >= -30
 c1974: d_2_9 - load_2_4 + load_2_9 - p_2_9 + 30 x_2_4_9 <= 30
 c1975: d_2_9 - load_2_4 + load_2_9 - p_2_9 - 30 x_2_4_9 >= -30
 c1976: d_2_10 + load_2_10 - load_2_4 - p_2_10 + 30 x_2_4_10 <= 30
 c1977: d_2_10 + load_2_10 - load_2_4 - p_2_10 - 30 x_2_4_10 >= -30
 c1978: d_2_1 + load_2_1 - load_2_5 - p_2_1 + 30 x_2_5_1 <= 30
 c1979: d_2_1 + load_2_1 - load_2_5 - p_2_1 - 30 x_2_5_1 >= -30
 c1980: d_2_2 + load_2_2 - load_2_5 - p_2_2 + 30 x_2_5_2 <= 30
 c1981: d_2_2 + load_2_2 - load_2_5 - p_2_2 - 30 x_2_5_2 >= -30
 c1982: d_2_3 + load_2_3 - load_2_5 - p_2_3 + 30 x_2_5_3 <= 30
 c1983: d_2_3 + load_2_3 - load_2_5 - p_2_3 - 30 x_2_5_3 >= -30
 c1984: d_2_4 + load_2_4 - load_2_5 - p_2_4 + 30 x_2_5_4 <= 30
 c1985: d_2_4 + load_2_4 - load_2_5 - p_2_4 - 30 x_2_5_4 >= -30
 c1986: d_2_6 - load_2_5 + load_2_6 - p_2_6 + 30 x_2_5_6 <= 30
 c1987: d_2_6 - load_2_5 + load_2_6 - p_2_6 - 30 x_2_5_6 >= -30
 c1988: d_2_7 - load_2_5 + load_2_7 - p_2_7 + 30 x_2_5_7 <= 30
 c1989: d_2_7 - load_2_5 + load_2_7 - p_2_7 - 30 x_2_5_7 >= -30
 c1990: d_2_8 - load_2_5 + load_2_8 - p_2_8 + 30 x_2_5_8 <= 30
 c1991: d_2_8 - load_2_5 + load_2_8 - p_2_8 - 30 x_2_5_8 >= -30
 c1992: d_2_9 - load_2_5 + load_2_9 - p_2_9 + 30 x_2_5_9 <= 30
 c1993: d_2_9 - load_2_5 + load_2_9 - p_2_9 - 30 x_2_5_9 >= -30
 c1994: d_2_10 + load_2_10 - load_2_5 - p_2_10 + 30 x_2_5_10 <= 30
 c1995: d_2_10 + load_2_10 - load_2_5 - p_2_10 - 30 x_2_5_10 >= -30
 c1996: d_2_1 + load_2_1 - load_2_6 - p_2_1 + 30 x_2_6_1 <= 30
 c1997: d_2_1 + load_2_1 - load_2_6 - p_2_1 - 30 x_2_6_1 >= -30
 c1998: d_2_2 + load_2_2 - load_2_6 - p_2_2 + 30 x_2_6_2 <= 30
 c1999: d_2_2 + load_2_2 - load_2_6 - p_2_2 - 30 x_2_6_2 >= -30
 c2000: d_2_3 + load_2_3 - load_2_6 - p_2_3 + 30 x_2_6_3 <= 30
 c2001: d_2_3 + load_2_3 - load_2_6 - p_2_3 - 30 x_2_6_3 >= -30
 c2002: d_2_4 + load_2_4 - load_2_6 - p_2_4 + 30 x_2_6_4 <= 30
 c2003: d_2_4 + load_2_4 - load_2_6 - p_2_4 - 30 x_2_6_4 >= -30
 c2004: d_2_5 + load_2_5 - load_2_6 - p_2_5 + 30 x_2_6_5 <= 30
 c2005: d_2_5 + load_2_5 - load_2_6 - p_2_5 - 30 x_2_6_5 >= -30
 c2006: d_2_7 - load_2_6 + load_2_7 - p_2_7 + 30 x_2_6_7 <= 30
 c2007: d_2_7 - load_2_6 + load_2_7 - p_2_7 - 30 x_2_6_7 >= -30
 c2008: d_2_8 - load_2_6 + load_2_8 - p_2_8 + 30 x_2_6_8 <= 30
 c2009: d_2_8 - load_2_6 + load_2_8 - p_2_8 - 30 x_2_6_8 >= -30
 c2010: d_2_9 - load_2_6 + load_2_9 - p_2_9 + 30 x_2_6_9 <= 30
 c2011: d_2_9 - load_2_6 + load_2_9 - p_2_9 - 30 x_2_6_9 >= -30
 c2012: d_2_10 + load_2_10 - load_2_6 - p_2_10 + 30 x_2_6_10 <= 30
 c2013: d_2_10 + load_2_10 - load_2_6 - p_2_10 - 30 x_2_6_10 >= -30
 c2014: d_2_1 + load_2_1 - load_2_7 - p_2_1 + 30 x_2_7_1 <= 30
 c2015: d_2_1 + load_2_1 - load_2_7 - p_2_1 - 30 x_2_7_1 >= -30
 c2016: d_2_2 + load_2_2 - load_2_7 - p_2_2 + 30 x_2_7_2 <= 30
 c2017: d_2_2 + load_2_2 - load_2_7 - p_2_2 - 30 x_2_7_2 >= -30
 c2018: d_2_3 + load_2_3 - load_2_7 - p_2_3 + 30 x_2_7_3 <= 30
 c2019: d_2_3 + load_2_3 - load_2_7 - p_2_3 - 30 x_2_7_3 >= -30
 c2020: d_2_4 + load_2_4 - load_2_7 - p_2_4 + 30 x_2_7_4 <= 30
 c2021: d_2_4 + load_2_4 - load_2_7 - p_2_4 - 30 x_2_7_4 >= -30
 c2022: d_2_5 + load_2_5 - load_2_7 - p_2_5 + 30 x_2_7_5 <= 30
 c2023: d_2_5 + load_2_5 - load_2_7 - p_2_5 - 30 x_2_7_5 >= -30
 c2024: d_2_6 + load_2_6 - load_2_7 - p_2_6 + 30 x_2_7_6 <= 30
 c2025: d_2_6 + load_2_6 - load_2_7 - p_2_6 - 30 x_2_7_6 >= -30
 c2026: d_2_8 - load_2_7 + load_2_8 - p_2_8 + 30 x_2_7_8 <= 30
 c2027: d_2_8 - load_2_7 + load_2_8 - p_2_8 - 30 x_2_7_8 >= -30
 c2028: d_2_9 - load_2_7 + load_2_9 - p_2_9 + 30 x_2_7_9 <= 30
 c2029: d_2_9 - load_2_7 + load_2_9 - p_2_9 - 30 x_2_7_9 >= -30
 c2030: d_2_10 + load_2_10 - load_2_7 - p_2_10 + 30 x_2_7_10 <= 30
 c2031: d_2_10 + load_2_10 - load_2_7 - p_2_10 - 30 x_2_7_10 >= -30
 c2032: d_2_1 + load_2_1 - load_2_8 - p_2_1 + 30 x_2_8_1 <= 30
 c2033: d_2_1 + load_2_1 - load_2_8 - p_2_1 - 30 x_2_8_1 >= -30
 c2034: d_2_2 + load_2_2 - load_2_8 - p_2_2 + 30 x_2_8_2 <= 30
 c2035: d_2_2 + load_2_2 - load_2_8 - p_2_2 - 30 x_2_8_2 >= -30
 c2036: d_2_3 + load_2_3 - load_2_8 - p_2_3 + 30 x_2_8_3 <= 30
 c2037: d_2_3 + load_2_3 - load_2_8 - p_2_3 - 30 x_2_8_3 >= -30
 c2038: d_2_4 + load_2_4 - load_2_8 - p_2_4 + 30 x_2_8_4 <= 30
 c2039: d_2_4 + load_2_4 - load_2_8 - p_2_4 - 30 x_2_8_4 >= -30
 c2040: d_2_5 + load_2_5 - load_2_8 - p_2_5 + 30 x_2_8_5 <= 30
 c2041: d_2_5 + load_2_5 - load_2_8 - p_2_5 - 30 x_2_8_5 >= -30
 c2042: d_2_6 + load_2_6 - load_2_8 - p_2_6 + 30 x_2_8_6 <= 30
 c2043: d_2_6 + load_2_6 - load_2_8 - p_2_6 - 30 x_2_8_6 >= -30
 c2044: d_2_7 + load_2_7 - load_2_8 - p_2_7 + 30 x_2_8_7 <= 30
 c2045: d_2_7 + load_2_7 - load_2_8 - p_2_7 - 30 x_2_8_7 >= -30
 c2046: d_2_9 - load_2_8 + load_2_9 - p_2_9 + 30 x_2_8_9 <= 30
 c2047: d_2_9 - load_2_8 + load_2_9 - p_2_9 - 30 x_2_8_9 >= -30
 c2048: d_2_10 + load_2_10 - load_2_8 - p_2_10 + 30 x_2_8_10 <= 30
 c2049: d_2_10 + load_2_10 - load_2_8 - p_2_10 - 30 x_2_8_10 >= -30
 c2050: d_2_1 + load_2_1 - load_2_9 - p_2_1 + 30 x_2_9_1 <= 30
 c2051: d_2_1 + load_2_1 - load_2_9 - p_2_1 - 30 x_2_9_1 >= -30
 c2052: d_2_2 + load_2_2 - load_2_9 - p_2_2 + 30 x_2_9_2 <= 30
 c2053: d_2_2 + load_2_2 - load_2_9 - p_2_2 - 30 x_2_9_2 >= -30
 c2054: d_2_3 + load_2_3 - load_2_9 - p_2_3 + 30 x_2_9_3 <= 30
 c2055: d_2_3 + load_2_3 - load_2_9 - p_2_3 - 30 x_2_9_3 >= -30
 c2056: d_2_4 + load_2_4 - load_2_9 - p_2_4 + 30 x_2_9_4 <= 30
 c2057: d_2_4 + load_2_4 - load_2_9 - p_2_4 - 30 x_2_9_4 >= -30
 c2058: d_2_5 + load_2_5 - load_2_9 - p_2_5 + 30 x_2_9_5 <= 30
 c2059: d_2_5 + load_2_5 - load_2_9 - p_2_5 - 30 x_2_9_5 >= -30
 c2060: d_2_6 + load_2_6 - load_2_9 - p_2_6 + 30 x_2_9_6 <= 30
 c2061: d_2_6 + load_2_6 - load_2_9 - p_2_6 - 30 x_2_9_6 >= -30
 c2062: d_2_7 + load_2_7 - load_2_9 - p_2_7 + 30 x_2_9_7 <= 30
 c2063: d_2_7 + load_2_7 - load_2_9 - p_2_7 - 30 x_2_9_7 >= -30
 c2064: d_2_8 + load_2_8 - load_2_9 - p_2_8 + 30 x_2_9_8 <= 30
 c2065: d_2_8 + load_2_8 - load_2_9 - p_2_8 - 30 x_2_9_8 >= -30
 c2066: d_2_10 + load_2_10 - load_2_9 - p_2_10 + 30 x_2_9_10 <= 30
 c2067: d_2_10 + load_2_10 - load_2_9 - p_2_10 - 30 x_2_9_10 >= -30
 c2068: d_2_1 + load_2_1 - load_2_10 - p_2_1 + 30 x_2_10_1 <= 30
 c2069: d_2_1 + load_2_1 - load_2_10 - p_2_1 - 30 x_2_10_1 >= -30
 c2070: d_2_2 - load_2_10 + load_2_2 - p_2_2 + 30 x_2_10_2 <= 30
 c2071: d_2_2 - load_2_10 + load_2_2 - p_2_2 - 30 x_2_10_2 >= -30
 c2072: d_2_3 - load_2_10 + load_2_3 - p_2_3 + 30 x_2_10_3 <= 30
 c2073: d_2_3 - load_2_10 + load_2_3 - p_2_3 - 30 x_2_10_3 >= -30
 c2074: d_2_4 - load_2_10 + load_2_4 - p_2_4 + 30 x_2_10_4 <= 30
 c2075: d_2_4 - load_2_10 + load_2_4 - p_2_4 - 30 x_2_10_4 >= -30
 c2076: d_2_5 - load_2_10 + load_2_5 - p_2_5 + 30 x_2_10_5 <= 30
 c2077: d_2_5 - load_2_10 + load_2_5 - p_2_5 - 30 x_2_10_5 >= -30
 c2078: d_2_6 - load_2_10 + load_2_6 - p_2_6 + 30 x_2_10_6 <= 30
 c2079: d_2_6 - load_2_10 + load_2_6 - p_2_6 - 30 x_2_10_6 >= -30
 c2080: d_2_7 - load_2_10 + load_2_7 - p_2_7 + 30 x_2_10_7 <= 30
 c2081: d_2_7 - load_2_10 + load_2_7 - p_2_7 - 30 x_2_10_7 >= -30
 c2082: d_2_8 - load_2_10 + load_2_8 - p_2_8 + 30 x_2_10_8 <= 30
 c2083: d_2_8 - load_2_10 + load_2_8 - p_2_8 - 30 x_2_10_8 >= -30
 c2084: d_2_9 - load_2_10 + load_2_9 - p_2_9 + 30 x_2_10_9 <= 30
 c2085: d_2_9 - load_2_10 + load_2_9 - p_2_9 - 30 x_2_10_9 >= -30
 c2086: - d_2_1 - d_2_10 - d_2_2 - d_2_3 - d_2_4 - d_2_5 - d_2_6 - d_2_7 - d_2_8 - d_2_9 + p_2_1 + p_2_10 + p_2_2 + p_2_3 + p_2_4 + p_2_5 + p_2_6 + p_2_7 + p_2_8 + p_2_9 >= 0
 c2087: 120 p_2_1 + 120 p_2_10 + 120 p_2_2 + 120 p_2_3 + 120 p_2_4 + 120 p_2_5 + 120 p_2_6 + 120 p_2_7 + 120 p_2_8 + 120 p_2_9 + 233.65943093685806 x_2_0_1 + 242.10416513907467 x_2_0_10 + 156.99363730917386 x_2_0_2 + 293.66738792027093 x_2_0_3 + 262.20168918599217 x_2_0_4 + 200.43317684341673 x_2_0_5 + 258.05435028652198 x_2_0_6 + 329.47046629728891 x_2_0_7 + 236.90120207279253 x_2_0_8 + 256.20035990009137 x_2_0_9 + 242.10416513907467 x_2_10_0 + 28.625133773723391 x_2_10_1 + 357.30370803788855 x_2_10_2 + 448.5707541202728 x_2_10_3 + 20.278419147423612 x_2_10_4 + 400.88891198542814 x_2_10_5 + 437.57229587733406 x_2_10_6 + 87.869879266104405 x_2_10_7 + 417.04024217918641 x_2_10_8 + 456.2315027403726 x_2_10_9 + 233.65943093685806 x_2_1_0 + 28.625133773723391 x_2_1_10 + 339.08636412682404 x_2_1_2 + 457.53418914167884 x_2_1_3 + 38.483205485622427 x_2_1_4 + 381.91500746747414 x_2_1_5 + 443.23289915243623 x_2_1_6 + 98.460881818325547 x_2_1_7 + 395.6959107760344 x_2_1_8 + 459.1224691173893 x_2_1_9 + 156.99363730917386 x_2_2_0 + 339.08636412682404 x_2_2_1 + 357.30370803788855 x_2_2_10 + 397.80678198126935 x_2_2_3 + 375.19038009272305 x_2_2_4 + 45.089947162497452 x_2_2_5 + 349.13557152191737 x_2_2_6 + 436.80705147165605 x_2_2_7 + 81.444565558945115 x_2_2_8 + 326.50563942002276 x_2_2_9 + 293.66738792027093 x_2_3_0 + 457.53418914167884 x_2_3_1 + 448.5707541202728 x_2_3_10 + 397.80678198126935 x_2_3_2 + 466.41470713067019 x_2_3_4 + 424.10226248950244 x_2_3_5 + 54.794220477847212 x_2_3_6 + 526.64645156996028 x_2_3_7 + 472.58278620861438 x_2_3_8 + 98.87118206144244 x_2_3_9 + 262.20168918599217 x_2_4_0 + 38.483205485622427 x_2_4_1 + 20.278419147423612 x_2_4_10 + 375.19038009272305 x_2_4_2 + 466.41470713067019 x_2_4_3 + 418.46826614164638 x_2_4_5 + 456.43391673178417 x_2_4_6 + 67.594087637487959 x_2_4_7 + 433.3887861811736 x_2_4_8 + 475.71321332739461 x_2_4_9 + 200.43317684341673 x_2_5_0 + 381.91500746747414 x_2_5_1 + 400.88891198542814 x_2_5_10 + 45.089947162497452 x_2_5_2 + 424.10226248950244 x_2_5_3 + 418.46826614164638 x_2_5_4 + 373.21931069774536 x_2_5_6 + 479.13014052874945 x_2_5_7 + 48.928029635379438 x_2_5_8 + 346.05055785591895 x_2_5_9 + 258.05435028652198 x_2_6_0 + 443.23289915243623 x_2_6_1 + 437.57229587733406 x_2_6_10 + 349.13557152191737 x_2_6_2 + 54.794220477847212 x_2_6_3 + 456.43391673178417 x_2_6_4 + 373.21931069774536 x_2_6_5 + 519.67507828207101 x_2_6_7 + 421.96508339161733 x_2_6_8 + 47.209861013243447 x_2_6_9 + 329.47046629728891 x_2_7_0 + 98.460881818325547 x_2_7_1 + 87.869879266104405 x_2_7_10 + 436.80705147165605 x_2_7_2 + 526.64645156996028 x_2_7_3 + 67.594087637487959 x_2_7_4 + 479.13014052874945 x_2_7_5 + 519.67507828207101 x_2_7_6 + 490.63764791452587 x_2_7_8 + 540.76843188926011 x_2_7_9 + 236.90120207279253 x_2_8_0 + 395.6959107760344 x_2_8_1 + 417.04024217918641 x_2_8_10 + 81.444565558945115 x_2_8_2 + 472.58278620861438 x_2_8_3 + 433.3887861811736 x_2_8_4 + 48.928029635379438 x_2_8_5 + 421.96508339161733 x_2_8_6 + 490.63764791452587 x_2_8_7 + 394.97332840128587 x_2_8_9 + 256.20035990009137 x_2_9_0 + 459.1224691173893 x_2_9_1 + 456.2315027403726 x_2_9_10 + 326.50563942002276 x_2_9_2 + 98.87118206144244 x_2_9_3 + 475.71321332739461 x_2_9_4 + 346.05055785591895 x_2_9_5 + 47.209861013243447 x_2_9_6 + 540.76843188926011 x_2_9_7 + 394.97332840128587 x_2_9_8 <= 3600
 c2088: 120 p_0_1 + 100000 z_0_1 <= 103132.68113812628
 c2089: 120 p_0_2 + 100000 z_0_2 <= 103286.01272538165
 c2090: 120 p_0_1 + 120 p_0_2 + 100000 z_0_1 + 100000 z_0_2 <= 202870.26056762715
 c2091: 120 p_0_3 + 100000 z_0_3 <= 103012.66522415946
 c2092: 120 p_0_1 + 120 p_0_3 + 100000 z_0_1 + 100000 z_0_3 <= 202615.13899200119
 c2093: 120 p_0_2 + 120 p_0_3 + 100000 z_0_2 + 100000 z_0_3 <= 202751.53219278928
 c2094: 120 p_0_1 + 120 p_0_2 + 120 p_0_3 + 100000 z_0_1 + 100000 z_0_2 + 100000 z_0_3 <= 302354.00596063101
 c2095: 120 p_0_4 + 100000 z_0_4 <= 103075.59662162802
 c2096: 120 p_0_1 + 120 p_0_4 + 100000 z_0_1 + 100000 z_0_4 <= 203065.65567439151
 c2097: 120 p_0_2 + 120 p_0_4 + 100000 z_0_2 + 100000 z_0_4 <= 202805.6142934121
 c2098: 120 p_0_1 + 120 p_0_2 + 120 p_0_4 + 100000 z_0_1 + 100000 z_0_2 + 100000 z_0_4 <= 302803.2351038924
 c2099: 120 p_0_3 + 120 p_0_4 + 100000 z_0_3 + 100000 z_0_4 <= 202577.71621576307
 c2100: 120 p_0_1 + 120 p_0_3 + 120 p_0_4 + 100000 z_0_1 + 100000 z_0_3 + 100000 z_0_4 <= 302567.77526852657
 c2101: 120 p_0_2 + 120 p_0_3 + 120 p_0_4 + 100000 z_0_2 + 100000 z_0_3 + 100000 z_0_4 <= 302316.58318439289
 c2102: 120 p_0_1 + 120 p_0_2 + 120 p_0_3 + 120 p_0_4 + 100000 z_0_1 + 100000 z_0_2 + 100000 z_0_3 + 100000 z_0_4 <= 402306.6422371564
 c2103: 120 p_0_5 + 100000 z_0_5 <= 103199.13364631316
 c2104: 120 p_0_1 + 120 p_0_5 + 100000 z_0_1 + 100000 z_0_5 <= 202783.99238475226
 c2105: 120 p_0_2 + 120 p_0_5 + 100000 z_0_2 + 100000 z_0_5 <= 203197.48323868492
 c2106: 120 p_0_1 + 120 p_0_2 + 120 p_0_5 + 100000 z_0_1 + 100000 z_0_2 + 100000 z_0_5 <= 302782.34197712399
 c2107: 120 p_0_3 + 120 p_0_5 + 100000 z_0_3 + 100000 z_0_5 <= 202681.7971727468
 c2108: 120 p_0_1 + 120 p_0_3 + 120 p_0_5 + 100000 z_0_1 + 100000 z_0_3 + 100000 z_0_5 <= 302284.27094058855
 c2109: 120 p_0_2 + 120 p_0_3 + 120 p_0_5 + 100000 z_0_2 + 100000 z_0_3 + 100000 z_0_5 <= 302680.14676511858
 c2110: 120 p_0_1 + 120 p_0_2 + 120 p_0_3 + 120 p_0_5 + 100000 z_0_1 + 100000 z_0_2 + 100000 z_0_3 + 100000 z_0_5 <= 402282.62053296028
 c2111: 120 p_0_4 + 120 p_0_5 + 100000 z_0_4 + 100000 z_0_5 <= 202718.89686782894
 c2112: 120 p_0_1 + 120 p_0_4 + 120 p_0_5 + 100000 z_0_1 + 100000 z_0_4 + 100000 z_0_5 <= 302716.96692101751
 c2113: 120 p_0_2 + 120 p_0_4 + 120 p_0_5 + 100000 z_0_2 + 100000 z_0_4 + 100000 z_0_5 <= 302717.24646020069
 c2114: 120 p_0_1 + 120 p_0_2 + 120 p_0_4 + 120 p_0_5 + 100000 z_0_1 + 100000 z_0_2 + 100000 z_0_4 + 100000 z_0_5 <= 402715.31651338923
 c2115: 120 p_0_3 + 120 p_0_4 + 120 p_0_5 + 100000 z_0_3 + 100000 z_0_4 + 100000 z_0_5 <= 302246.84816435043
 c2116: 120 p_0_1 + 120 p_0_3 + 120 p_0_4 + 120 p_0_5 + 100000 z_0_1 + 100000 z_0_3 + 100000 z_0_4 + 100000 z_0_5 <= 402236.90721711394
 c2117: 120 p_0_2 + 120 p_0_3 + 120 p_0_4 + 120 p_0_5 + 100000 z_0_2 + 100000 z_0_3 + 100000 z_0_4 + 100000 z_0_5 <= 402245.19775672216
 c2118: 120 p_0_1 + 120 p_0_2 + 120 p_0_3 + 120 p_0_4 + 120 p_0_5 + 100000 z_0_1 + 100000 z_0_2 + 100000 z_0_3 + 100000 z_0_4 + 100000 z_0_5 <= 502235.25680948567
 c2119: 120 p_0_6 + 100000 z_0_6 <= 103083.89129942696
 c2120: 120 p_0_1 + 120 p_0_6 + 100000 z_0_1 + 100000 z_0_6 <= 202665.05331962419
 c2121: 120 p_0_2 + 120 p_0_6 + 100000 z_0_2 + 100000 z_0_6 <= 202835.81644088239
 c2122: 120 p_0_1 + 120 p_0_2 + 120 p_0_6 + 100000 z_0_1 + 100000 z_0_2 + 100000 z_0_6 <= 302420.0642831279
 c2123: 120 p_0_3 + 120 p_0_6 + 100000 z_0_3 + 100000 z_0_6 <= 202993.48404131536
 c2124: 120 p_0_1 + 120 p_0_3 + 120 p_0_6 + 100000 z_0_1 + 100000 z_0_3 + 100000 z_0_6 <= 302595.95780915709
 c2125: 120 p_0_2 + 120 p_0_3 + 120 p_0_6 + 100000 z_0_2 + 100000 z_0_3 + 100000 z_0_6 <= 302745.40918277082
 c2126: 120 p_0_1 + 120 p_0_2 + 120 p_0_3 + 120 p_0_6 + 100000 z_0_1 + 100000 z_0_2 + 100000 z_0_3 + 100000 z_0_6 <= 402347.88295061252
 c2127: 120 p_0_4 + 120 p_0_6 + 100000 z_0_4 + 100000 z_0_6 <= 202623.3100437957
 c2128: 120 p_0_1 + 120 p_0_4 + 120 p_0_6 + 100000 z_0_1 + 100000 z_0_4 + 100000 z_0_6 <= 302613.36909655924
 c2129: 120 p_0_2 + 120 p_0_4 + 120 p_0_6 + 100000 z_0_2 + 100000 z_0_4 + 100000 z_0_6 <= 302375.23518525111
 c2130: 120 p_0_1 + 120 p_0_2 + 120 p_0_4 + 120 p_0_6 + 100000 z_0_1 + 100000 z_0_2 + 100000 z_0_4 + 100000 z_0_6 <= 402365.29423801467
 c2131: 120 p_0_3 + 120 p_0_4 + 120 p_0_6 + 100000 z_0_3 + 100000 z_0_4 + 100000 z_0_6 <= 302558.53503291897
 c2132: 120 p_0_1 + 120 p_0_3 + 120 p_0_4 + 120 p_0_6 + 100000 z_0_1 + 100000 z_0_3 + 100000 z_0_4 + 100000 z_0_6 <= 402548.59408568247
 c2133: 120 p_0_2 + 120 p_0_3 + 120 p_0_4 + 120 p_0_6 + 100000 z_0_2 + 100000 z_0_3 + 100000 z_0_4 + 100000 z_0_6 <= 402310.4601743744
 c2134: 120 p_0_1 + 120 p_0_2 + 120 p_0_3 + 120 p_0_4 + 120 p_0_6 + 100000 z_0_1 + 100000 z_0_2 + 100000 z_0_3 + 100000 z_0_4 + 100000 z_0_6 <= 502300.51922713791
 c2135: 120 p_0_5 + 120 p_0_6 + 100000 z_0_5 + 100000 z_0_6 <= 202768.29316217231
 c2136: 120 p_0_1 + 120 p_0_5 + 120 p_0_6 + 100000 z_0_1 + 100000 z_0_5 + 100000 z_0_6 <= 302353.15190061141
 c2137: 120 p_0_2 + 120 p_0_5 + 120 p_0_6 + 100000 z_0_2 + 100000 z_0_5 + 100000 z_0_6 <= 302766.64275454404
 c2138: 120 p_0_1 + 120 p_0_2 + 120 p_0_5 + 120 p_0_6 + 100000 z_0_1 + 100000 z_0_2 + 100000 z_0_5 + 100000 z_0_6 <= 402350.89059678954
 c2139: 120 p_0_3 + 120 p_0_5 + 120 p_0_6 + 100000 z_0_3 + 100000 z_0_5 + 100000 z_0_6 <= 302677.88590406073
 c2140: 120 p_0_1 + 120 p_0_3 + 120 p_0_5 + 120 p_0_6 + 100000 z_0_1 + 100000 z_0_3 + 100000 z_0_5 + 100000 z_0_6 <= 402280.35967190244
 c2141: 120 p_0_2 + 120 p_0_3 + 120 p_0_5 + 120 p_0_6 + 100000 z_0_2 + 100000 z_0_3 + 100000 z_0_5 + 100000 z_0_6 <= 402676.23549643246
 c2142: 120 p_0_1 + 120 p_0_2 + 120 p_0_3 + 120 p_0_5 + 120 p_0_6 + 100000 z_0_1 + 100000 z_0_2 + 100000 z_0_3 + 100000 z_0_5 + 100000 z_0_6 <= 502278.70926427422
 c2143: 120 p_0_4 + 120 p_0_5 + 120 p_0_6 + 100000 z_0_4 + 100000 z_0_5 + 100000 z_0_6 <= 302307.71190654108
 c2144: 120 p_0_1 + 120 p_0_4 + 120 p_0_5 + 120 p_0_6 + 100000 z_0_1 + 100000 z_0_4 + 100000 z_0_5 + 100000 z_0_6 <= 402297.77095930459
 c2145: 120 p_0_2 + 120 p_0_4 + 120 p_0_5 + 120 p_0_6 + 100000 z_0_2 + 100000 z_0_4 + 100000 z_0_5 + 100000 z_0_6 <= 402306.06149891281
 c2146: 120 p_0_1 + 120 p_0_2 + 120 p_0_4 + 120 p_0_5 + 120 p_0_6 + 100000 z_0_1 + 100000 z_0_2 + 100000 z_0_4 + 100000 z_0_5 + 100000 z_0_6 <= 502296.12055167631
 c2147: 120 p_0_3 + 120 p_0_4 + 120 p_0_5 + 120 p_0_6 + 100000 z_0_3 + 100000 z_0_4 + 100000 z_0_5 + 100000 z_0_6 <= 402242.93689566432
 c2148: 120 p_0_1 + 120 p_0_3 + 120 p_0_4 + 120 p_0_5 + 120 p_0_6 + 100000 z_0_1 + 100000 z_0_3 + 100000 z_0_4 + 100000 z_0_5 + 100000 z_0_6 <= 502232.99594842782
 c2149: 120 p_0_2 + 120 p_0_3 + 120 p_0_4 + 120 p_0_5 + 120 p_0_6 + 100000 z_0_2 + 100000 z_0_3 + 100000 z_0_4 + 100000 z_0_5 + 100000 z_0_6 <= 502241.2864880361
 c2150: 120 p_0_1 + 120 p_0_2 + 120 p_0_3 + 120 p_0_4 + 120 p_0_5 + 120 p_0_6 + 100000 z_0_1 + 100000 z_0_2 + 100000 z_0_3 + 100000 z_0_4 + 100000 z_0_5 + 100000 z_0_6 <= 602231.34554079955
 c2151: 120 p_0_7 + 100000 z_0_7 <= 102941.05906740543
 c2152: 120 p_0_1 + 120 p_0_7 + 100000 z_0_1 + 100000 z_0_7 <= 202938.40922094753
 c2153: 120 p_0_2 + 120 p_0_7 + 100000 z_0_2 + 100000 z_0_7 <= 202676.72884492189
 c2154: 120 p_0_1 + 120 p_0_2 + 120 p_0_7 + 100000 z_0_1 + 100000 z_0_2 + 100000 z_0_7 <= 302675.98865044839
 c2155: 120 p_0_3 + 120 p_0_7 + 100000 z_0_3 + 100000 z_0_7 <= 202450.21569421247
 c2156: 120 p_0_1 + 120 p_0_3 + 120 p_0_7 + 100000 z_0_1 + 100000 z_0_3 + 100000 z_0_7 <= 302447.56584775459
 c2157: 120 p_0_2 + 120 p_0_3 + 120 p_0_7 + 100000 z_0_2 + 100000 z_0_3 + 100000 z_0_7 <= 302189.08266284229
 c2158: 120 p_0_1 + 120 p_0_2 + 120 p_0_3 + 120 p_0_7 + 100000 z_0_1 + 100000 z_0_2 + 100000 z_0_3 + 100000 z_0_7 <= 402186.43281638442
 c2159: 120 p_0_4 + 120 p_0_7 + 100000 z_0_4 + 100000 z_0_7 <= 202940.73375687923
 c2160: 120 p_0_1 + 120 p_0_4 + 120 p_0_7 + 100000 z_0_1 + 100000 z_0_4 + 100000 z_0_7 <= 302938.08391042135
 c2161: 120 p_0_2 + 120 p_0_4 + 120 p_0_7 + 100000 z_0_2 + 100000 z_0_4 + 100000 z_0_7 <= 302676.40353439568
 c2162: 120 p_0_1 + 120 p_0_2 + 120 p_0_4 + 120 p_0_7 + 100000 z_0_1 + 100000 z_0_2 + 100000 z_0_4 + 100000 z_0_7 <= 402675.6633399222
 c2163: 120 p_0_3 + 120 p_0_4 + 120 p_0_7 + 100000 z_0_3 + 100000 z_0_4 + 100000 z_0_7 <= 302449.89038368629
 c2164: 120 p_0_1 + 120 p_0_3 + 120 p_0_4 + 120 p_0_7 + 100000 z_0_1 + 100000 z_0_3 + 100000 z_0_4 + 100000 z_0_7 <= 402440.20350455638
 c2165: 120 p_0_2 + 120 p_0_3 + 120 p_0_4 + 120 p_0_7 + 100000 z_0_2 + 100000 z_0_3 + 100000 z_0_4 + 100000 z_0_7 <= 402188.75735231611
 c2166: 120 p_0_1 + 120 p_0_2 + 120 p_0_3 + 120 p_0_4 + 120 p_0_7 + 100000 z_0_1 + 100000 z_0_2 + 100000 z_0_3 + 100000 z_0_4 + 100000 z_0_7 <= 502179.07047318621
 c2167: 120 p_0_5 + 120 p_0_7 + 100000 z_0_5 + 100000 z_0_7 <= 202590.96621633053
 c2168: 120 p_0_1 + 120 p_0_5 + 120 p_0_7 + 100000 z_0_1 + 100000 z_0_5 + 100000 z_0_7 <= 302589.7204675735
 c2169: 120 p_0_2 + 120 p_0_5 + 120 p_0_7 + 100000 z_0_2 + 100000 z_0_5 + 100000 z_0_7 <= 302589.31580870232
 c2170: 120 p_0_1 + 120 p_0_2 + 120 p_0_5 + 120 p_0_7 + 100000 z_0_1 + 100000 z_0_2 + 100000 z_0_5 + 100000 z_0_7 <= 402588.07005994522
 c2171: 120 p_0_3 + 120 p_0_5 + 120 p_0_7 + 100000 z_0_3 + 100000 z_0_5 + 100000 z_0_7 <= 302119.34764279984
 c2172: 120 p_0_1 + 120 p_0_3 + 120 p_0_5 + 120 p_0_7 + 100000 z_0_1 + 100000 z_0_3 + 100000 z_0_5 + 100000 z_0_7 <= 402116.69779634196
 c2173: 120 p_0_2 + 120 p_0_3 + 120 p_0_5 + 120 p_0_7 + 100000 z_0_2 + 100000 z_0_3 + 100000 z_0_5 + 100000 z_0_7 <= 402117.69723517157
 c2174: 120 p_0_1 + 120 p_0_2 + 120 p_0_3 + 120 p_0_5 + 120 p_0_7 + 100000 z_0_1 + 100000 z_0_2 + 100000 z_0_3 + 100000 z_0_5 + 100000 z_0_7 <= 502115.04738871369
 c2175: 120 p_0_4 + 120 p_0_5 + 120 p_0_7 + 100000 z_0_4 + 100000 z_0_5 + 100000 z_0_7 <= 302590.64090580435
 c2176: 120 p_0_1 + 120 p_0_4 + 120 p_0_5 + 120 p_0_7 + 100000 z_0_1 + 100000 z_0_4 + 100000 z_0_5 + 100000 z_0_7 <= 402589.39515704731
 c2177: 120 p_0_2 + 120 p_0_4 + 120 p_0_5 + 120 p_0_7 + 100000 z_0_2 + 100000 z_0_4 + 100000 z_0_5 + 100000 z_0_7 <= 402588.99049817608
 c2178: 120 p_0_1 + 120 p_0_2 + 120 p_0_4 + 120 p_0_5 + 120 p_0_7 + 100000 z_0_1 + 100000 z_0_2 + 100000 z_0_4 + 100000 z_0_5 + 100000 z_0_7 <= 502587.74474941904
 c2179: 120 p_0_3 + 120 p_0_4 + 120 p_0_5 + 120 p_0_7 + 100000 z_0_3 + 100000 z_0_4 + 100000 z_0_5 + 100000 z_0_7 <= 402119.02233227366
 c2180: 120 p_0_1 + 120 p_0_3 + 120 p_0_4 + 120 p_0_5 + 120 p_0_7 + 100000 z_0_1 + 100000 z_0_3 + 100000 z_0_4 + 100000 z_0_5 + 100000 z_0_7 <= 502109.33545314375
 c2181: 120 p_0_2 + 120 p_0_3 + 120 p_0_4 + 120 p_0_5 + 120 p_0_7 + 100000 z_0_2 + 100000 z_0_3 + 100000 z_0_4 + 100000 z_0_5 + 100000 z_0_7 <= 502117.37192464538
 c2182: 120 p_0_1 + 120 p_0_2 + 120 p_0_3 + 120 p_0_4 + 120 p_0_5 + 120 p_0_7 + 100000 z_0_1 + 100000 z_0_2 + 100000 z_0_3 + 100000 z_0_4 + 100000 z_0_5 + 100000 z_0_7 <= 602107.68504551554
 c2183: 120 p_0_6 + 120 p_0_7 + 100000 z_0_6 + 100000 z_0_7 <= 202492.80010513411
 c2184: 120 p_0_1 + 120 p_0_6 + 120 p_0_7 + 100000 z_0_1 + 100000 z_0_6 + 100000 z_0_7 <= 302490.15025867621
 c2185: 120 p_0_2 + 120 p_0_6 + 120 p_0_7 + 100000 z_0_2 + 100000 z_0_6 + 100000 z_0_7 <= 302244.72524658957
 c2186: 120 p_0_1 + 120 p_0_2 + 120 p_0_6 + 120 p_0_7 + 100000 z_0_1 + 100000 z_0_2 + 100000 z_0_6 + 100000 z_0_7 <= 402242.07540013164
 c2187: 120 p_0_3 + 120 p_0_6 + 120 p_0_7 + 100000 z_0_3 + 100000 z_0_6 + 100000 z_0_7 <= 302431.03451136837
 c2188: 120 p_0_1 + 120 p_0_3 + 120 p_0_6 + 120 p_0_7 + 100000 z_0_1 + 100000 z_0_3 + 100000 z_0_6 + 100000 z_0_7 <= 402428.3846649105
 c2189: 120 p_0_2 + 120 p_0_3 + 120 p_0_6 + 120 p_0_7 + 100000 z_0_2 + 100000 z_0_3 + 100000 z_0_6 + 100000 z_0_7 <= 402182.9596528238
 c2190: 120 p_0_1 + 120 p_0_2 + 120 p_0_3 + 120 p_0_6 + 120 p_0_7 + 100000 z_0_1 + 100000 z_0_2 + 100000 z_0_3 + 100000 z_0_6 + 100000 z_0_7 <= 502180.30980636593
 c2191: 120 p_0_4 + 120 p_0_6 + 120 p_0_7 + 100000 z_0_4 + 100000 z_0_6 + 100000 z_0_7 <= 302492.4747946079
 c2192: 120 p_0_1 + 120 p_0_4 + 120 p_0_6 + 120 p_0_7 + 100000 z_0_1 + 100000 z_0_4 + 100000 z_0_6 + 100000 z_0_7 <= 402485.79733258905
 c2193: 120 p_0_2 + 120 p_0_4 + 120 p_0_6 + 120 p_0_7 + 100000 z_0_2 + 100000 z_0_4 + 100000 z_0_6 + 100000 z_0_7 <= 402244.39993606333
 c2194: 120 p_0_1 + 120 p_0_2 + 120 p_0_4 + 120 p_0_6 + 120 p_0_7 + 100000 z_0_1 + 100000 z_0_2 + 100000 z_0_4 + 100000 z_0_6 + 100000 z_0_7 <= 502237.72247404448
 c2195: 120 p_0_3 + 120 p_0_4 + 120 p_0_6 + 120 p_0_7 + 100000 z_0_3 + 100000 z_0_4 + 100000 z_0_6 + 100000 z_0_7 <= 402430.70920084219
 c2196: 120 p_0_1 + 120 p_0_3 + 120 p_0_4 + 120 p_0_6 + 120 p_0_7 + 100000 z_0_1 + 100000 z_0_3 + 100000 z_0_4 + 100000 z_0_6 + 100000 z_0_7 <= 502421.02232171228
 c2197: 120 p_0_2 + 120 p_0_3 + 120 p_0_4 + 120 p_0_6 + 120 p_0_7 + 100000 z_0_2 + 100000 z_0_3 + 100000 z_0_4 + 100000 z_0_6 + 100000 z_0_7 <= 502182.63434229762
 c2198: 120 p_0_1 + 120 p_0_2 + 120 p_0_3 + 120 p_0_4 + 120 p_0_6 + 120 p_0_7 + 100000 z_0_1 + 100000 z_0_2 + 100000 z_0_3 + 100000 z_0_4 + 100000 z_0_6 + 100000 z_0_7 <= 602172.94746316771
 c2199: 120 p_0_5 + 120 p_0_6 + 120 p_0_7 + 100000 z_0_5 + 100000 z_0_6 + 100000 z_0_7 <= 302177.20196787949
 c2200: 120 p_0_1 + 120 p_0_5 + 120 p_0_6 + 120 p_0_7 + 100000 z_0_1 + 100000 z_0_5 + 100000 z_0_6 + 100000 z_0_7 <= 402174.55212142156
 c2201: 120 p_0_2 + 120 p_0_5 + 120 p_0_6 + 120 p_0_7 + 100000 z_0_2 + 100000 z_0_5 + 100000 z_0_6 + 100000 z_0_7 <= 402175.55156025122
 c2202: 120 p_0_1 + 120 p_0_2 + 120 p_0_5 + 120 p_0_6 + 120 p_0_7 + 100000 z_0_1 + 100000 z_0_2 + 100000 z_0_5 + 100000 z_0_6 + 100000 z_0_7 <= 502172.90171379334
 c2203: 120 p_0_3 + 120 p_0_5 + 120 p_0_6 + 120 p_0_7 + 100000 z_0_3 + 100000 z_0_5 + 100000 z_0_6 + 100000 z_0_7 <= 402115.43637411372
 c2204: 120 p_0_1 + 120 p_0_3 + 120 p_0_5 + 120 p_0_6 + 120 p_0_7 + 100000 z_0_1 + 100000 z_0_3 + 100000 z_0_5 + 100000 z_0_6 + 100000 z_0_7 <= 502112.78652765584
 c2205: 120 p_0_2 + 120 p_0_3 + 120 p_0_5 + 120 p_0_6 + 120 p_0_7 + 100000 z_0_2 + 100000 z_0_3 + 100000 z_0_5 + 100000 z_0_6 + 100000 z_0_7 <= 502113.78596648551
 c2206: 120 p_0_1 + 120 p_0_2 + 120 p_0_3 + 120 p_0_5 + 120 p_0_6 + 120 p_0_7 + 100000 z_0_1 + 100000 z_0_2 + 100000 z_0_3 + 100000 z_0_5 + 100000 z_0_6 + 100000 z_0_7 <= 602111.13612002763
 c2207: 120 p_0_4 + 120 p_0_5 + 120 p_0_6 + 120 p_0_7 + 100000 z_0_4 + 100000 z_0_5 + 100000 z_0_6 + 100000 z_0_7 <= 402176.87665735331
 c2208: 120 p_0_1 + 120 p_0_4 + 120 p_0_5 + 120 p_0_6 + 120 p_0_7 + 100000 z_0_1 + 100000 z_0_4 + 100000 z_0_5 + 100000 z_0_6 + 100000 z_0_7 <= 502170.1991953344
 c2209: 120 p_0_2 + 120 p_0_4 + 120 p_0_5 + 120 p_0_6 + 120 p_0_7 + 100000 z_0_2 + 100000 z_0_4 + 100000 z_0_5 + 100000 z_0_6 + 100000 z_0_7 <= 502175.22624972503
 c2210: 120 p_0_1 + 120 p_0_2 + 120 p_0_4 + 120 p_0_5 + 120 p_0_6 + 120 p_0_7 + 100000 z_0_1 + 100000 z_0_2 + 100000 z_0_4 + 100000 z_0_5 + 100000 z_0_6 + 100000 z_0_7 <= 602168.54878770618
 c2211: 120 p_0_3 + 120 p_0_4 + 120 p_0_5 + 120 p_0_6 + 120 p_0_7 + 100000 z_0_3 + 100000 z_0_4 + 100000 z_0_5 + 100000 z_0_6 + 100000 z_0_7 <= 502115.11106358754
 c2212: 120 p_0_1 + 120 p_0_3 + 120 p_0_4 + 120 p_0_5 + 120 p_0_6 + 120 p_0_7 + 100000 z_0_1 + 100000 z_0_3 + 100000 z_0_4 + 100000 z_0_5 + 100000 z_0_6 + 100000 z_0_7 <= 602105.42418445763
 c2213: 120 p_0_2 + 120 p_0_3 + 120 p_0_4 + 120 p_0_5 + 120 p_0_6 + 120 p_0_7 + 100000 z_0_2 + 100000 z_0_3 + 100000 z_0_4 + 100000 z_0_5 + 100000 z_0_6 + 100000 z_0_7 <= 602113.46065595932
 c2214: 120 p_0_1 + 120 p_0_2 + 120 p_0_3 + 120 p_0_4 + 120 p_0_5 + 120 p_0_6 + 120 p_0_7 + 100000 z_0_1 + 100000 z_0_2 + 100000 z_0_3 + 100000 z_0_4 + 100000 z_0_5 + 100000 z_0_6 + 100000 z_0_7 <= 702103.77377682936
 c2215: 120 p_0_8 + 100000 z_0_8 <= 103126.19759585442
 c2216: 120 p_0_1 + 120 p_0_8 + 100000 z_0_1 + 100000 z_0_8 <= 202733.74345621432
 c2217: 120 p_0_2 + 120 p_0_8 + 100000 z_0_2 + 100000 z_0_8 <= 203124.66059505907
 c2218: 120 p_0_1 + 120 p_0_2 + 120 p_0_8 + 100000 z_0_1 + 100000 z_0_2 + 100000 z_0_8 <= 302732.20645541901
 c2219: 120 p_0_3 + 120 p_0_8 + 100000 z_0_3 + 100000 z_0_8 <= 202596.84862379832
 c2220: 120 p_0_1 + 120 p_0_3 + 120 p_0_8 + 100000 z_0_1 + 100000 z_0_3 + 100000 z_0_8 <= 302216.20131008921
 c2221: 120 p_0_2 + 120 p_0_3 + 120 p_0_8 + 100000 z_0_2 + 100000 z_0_3 + 100000 z_0_8 <= 302595.31162300298
 c2222: 120 p_0_1 + 120 p_0_2 + 120 p_0_3 + 120 p_0_8 + 100000 z_0_1 + 100000 z_0_2 + 100000 z_0_3 + 100000 z_0_8 <= 402214.6643092939
 c2223: 120 p_0_4 + 120 p_0_8 + 100000 z_0_4 + 100000 z_0_8 <= 202667.50832256005
 c2224: 120 p_0_1 + 120 p_0_4 + 120 p_0_8 + 100000 z_0_1 + 100000 z_0_4 + 100000 z_0_8 <= 302666.71799247956
 c2225: 120 p_0_2 + 120 p_0_4 + 120 p_0_8 + 100000 z_0_2 + 100000 z_0_4 + 100000 z_0_8 <= 302665.97132176469
 c2226: 120 p_0_1 + 120 p_0_2 + 120 p_0_4 + 120 p_0_8 + 100000 z_0_1 + 100000 z_0_2 + 100000 z_0_4 + 100000 z_0_8 <= 402665.1809916842
 c2227: 120 p_0_3 + 120 p_0_4 + 120 p_0_8 + 100000 z_0_3 + 100000 z_0_4 + 100000 z_0_8 <= 302169.62791669508
 c2228: 120 p_0_1 + 120 p_0_3 + 120 p_0_4 + 120 p_0_8 + 100000 z_0_1 + 100000 z_0_3 + 100000 z_0_4 + 100000 z_0_8 <= 402168.83758661459
 c2229: 120 p_0_2 + 120 p_0_3 + 120 p_0_4 + 120 p_0_8 + 100000 z_0_2 + 100000 z_0_3 + 100000 z_0_4 + 100000 z_0_8 <= 402168.09091589978
 c2230: 120 p_0_1 + 120 p_0_2 + 120 p_0_3 + 120 p_0_4 + 120 p_0_8 + 100000 z_0_1 + 100000 z_0_2 + 100000 z_0_3 + 100000 z_0_4 + 100000 z_0_8 <= 502167.30058581929
 c2231: 120 p_0_5 + 120 p_0_8 + 100000 z_0_5 + 100000 z_0_8 <= 203113.73759144841
 c2232: 120 p_0_1 + 120 p_0_5 + 120 p_0_8 + 100000 z_0_1 + 100000 z_0_5 + 100000 z_0_8 <= 302721.28345180833
 c2233: 120 p_0_2 + 120 p_0_5 + 120 p_0_8 + 100000 z_0_2 + 100000 z_0_5 + 100000 z_0_8 <= 303112.20059065311
 c2234: 120 p_0_1 + 120 p_0_2 + 120 p_0_5 + 120 p_0_8 + 100000 z_0_1 + 100000 z_0_2 + 100000 z_0_5 + 100000 z_0_8 <= 402719.63304418005
 c2235: 120 p_0_3 + 120 p_0_5 + 120 p_0_8 + 100000 z_0_3 + 100000 z_0_5 + 100000 z_0_8 <= 302596.40111788205
 c2236: 120 p_0_1 + 120 p_0_3 + 120 p_0_5 + 120 p_0_8 + 100000 z_0_1 + 100000 z_0_3 + 100000 z_0_5 + 100000 z_0_8 <= 402203.94697824196
 c2237: 120 p_0_2 + 120 p_0_3 + 120 p_0_5 + 120 p_0_8 + 100000 z_0_2 + 100000 z_0_3 + 100000 z_0_5 + 100000 z_0_8 <= 402594.86411708675
 c2238: 120 p_0_1 + 120 p_0_2 + 120 p_0_3 + 120 p_0_5 + 120 p_0_8 + 100000 z_0_1 + 100000 z_0_2 + 100000 z_0_3 + 100000 z_0_5 + 100000 z_0_8 <= 502202.09089805494
 c2239: 120 p_0_4 + 120 p_0_5 + 120 p_0_8 + 100000 z_0_4 + 100000 z_0_5 + 100000 z_0_8 <= 302655.04831815406
 c2240: 120 p_0_1 + 120 p_0_4 + 120 p_0_5 + 120 p_0_8 + 100000 z_0_1 + 100000 z_0_4 + 100000 z_0_5 + 100000 z_0_8 <= 402654.25798807357
 c2241: 120 p_0_2 + 120 p_0_4 + 120 p_0_5 + 120 p_0_8 + 100000 z_0_2 + 100000 z_0_4 + 100000 z_0_5 + 100000 z_0_8 <= 402653.39791052579
 c2242: 120 p_0_1 + 120 p_0_2 + 120 p_0_4 + 120 p_0_5 + 120 p_0_8 + 100000 z_0_1 + 100000 z_0_2 + 100000 z_0_4 + 100000 z_0_5 + 100000 z_0_8 <= 502652.6075804453
 c2243: 120 p_0_3 + 120 p_0_4 + 120 p_0_5 + 120 p_0_8 + 100000 z_0_3 + 100000 z_0_4 + 100000 z_0_5 + 100000 z_0_8 <= 402161.45210948569
 c2244: 120 p_0_1 + 120 p_0_3 + 120 p_0_4 + 120 p_0_5 + 120 p_0_8 + 100000 z_0_1 + 100000 z_0_3 + 100000 z_0_4 + 100000 z_0_5 + 100000 z_0_8 <= 502156.3775822086
 c2245: 120 p_0_2 + 120 p_0_3 + 120 p_0_4 + 120 p_0_5 + 120 p_0_8 + 100000 z_0_2 + 100000 z_0_3 + 100000 z_0_4 + 100000 z_0_5 + 100000 z_0_8 <= 502159.91510869033
 c2246: 120 p_0_1 + 120 p_0_2 + 120 p_0_3 + 120 p_0_4 + 120 p_0_5 + 120 p_0_8 + 100000 z_0_1 + 100000 z_0_2 + 100000 z_0_3 + 100000 z_0_4 + 100000 z_0_5 + 100000 z_0_8 <= 602154.72717458033
 c2247: 120 p_0_6 + 120 p_0_8 + 100000 z_0_6 + 100000 z_0_8 <= 202683.07936424908
 c2248: 120 p_0_1 + 120 p_0_6 + 120 p_0_8 + 100000 z_0_1 + 100000 z_0_6 + 100000 z_0_8 <= 302290.62522460899
 c2249: 120 p_0_2 + 120 p_0_6 + 120 p_0_8 + 100000 z_0_2 + 100000 z_0_6 + 100000 z_0_8 <= 302681.54236345371
 c2250: 120 p_0_1 + 120 p_0_2 + 120 p_0_6 + 120 p_0_8 + 100000 z_0_1 + 100000 z_0_2 + 100000 z_0_6 + 100000 z_0_8 <= 402282.0101709197
 c2251: 120 p_0_3 + 120 p_0_6 + 120 p_0_8 + 100000 z_0_3 + 100000 z_0_6 + 100000 z_0_8 <= 302592.6721061375
 c2252: 120 p_0_1 + 120 p_0_3 + 120 p_0_6 + 120 p_0_8 + 100000 z_0_1 + 100000 z_0_3 + 100000 z_0_6 + 100000 z_0_8 <= 402200.21796649735
 c2253: 120 p_0_2 + 120 p_0_3 + 120 p_0_6 + 120 p_0_8 + 100000 z_0_2 + 100000 z_0_3 + 100000 z_0_6 + 100000 z_0_8 <= 402591.13510534214
 c2254: 120 p_0_1 + 120 p_0_2 + 120 p_0_3 + 120 p_0_6 + 120 p_0_8 + 100000 z_0_1 + 100000 z_0_2 + 100000 z_0_3 + 100000 z_0_6 + 100000 z_0_8 <= 502195.48312644981
 c2255: 120 p_0_4 + 120 p_0_6 + 120 p_0_8 + 100000 z_0_4 + 100000 z_0_6 + 100000 z_0_8 <= 302224.39009095472
 c2256: 120 p_0_1 + 120 p_0_4 + 120 p_0_6 + 120 p_0_8 + 100000 z_0_1 + 100000 z_0_4 + 100000 z_0_6 + 100000 z_0_8 <= 402223.59976087423
 c2257: 120 p_0_2 + 120 p_0_4 + 120 p_0_6 + 120 p_0_8 + 100000 z_0_2 + 100000 z_0_4 + 100000 z_0_6 + 100000 z_0_8 <= 402220.96110782248
 c2258: 120 p_0_1 + 120 p_0_2 + 120 p_0_4 + 120 p_0_6 + 120 p_0_8 + 100000 z_0_1 + 100000 z_0_2 + 100000 z_0_4 + 100000 z_0_6 + 100000 z_0_8 <= 502214.98470718495
 c2259: 120 p_0_3 + 120 p_0_4 + 120 p_0_6 + 120 p_0_8 + 100000 z_0_3 + 100000 z_0_4 + 100000 z_0_6 + 100000 z_0_8 <= 402157.72309774108
 c2260: 120 p_0_1 + 120 p_0_3 + 120 p_0_4 + 120 p_0_6 + 120 p_0_8 + 100000 z_0_1 + 100000 z_0_3 + 100000 z_0_4 + 100000 z_0_6 + 100000 z_0_8 <= 502149.6564037705
 c2261: 120 p_0_2 + 120 p_0_3 + 120 p_0_4 + 120 p_0_6 + 120 p_0_8 + 100000 z_0_2 + 100000 z_0_3 + 100000 z_0_4 + 100000 z_0_6 + 100000 z_0_8 <= 502156.18609694578
 c2262: 120 p_0_1 + 120 p_0_2 + 120 p_0_3 + 120 p_0_4 + 120 p_0_6 + 120 p_0_8 + 100000 z_0_1 + 100000 z_0_2 + 100000 z_0_3 + 100000 z_0_4 + 100000 z_0_6 + 100000 z_0_8 <= 602148.11940297519
 c2263: 120 p_0_5 + 120 p_0_6 + 120 p_0_8 + 100000 z_0_5 + 100000 z_0_6 + 100000 z_0_8 <= 302682.89710730757
 c2264: 120 p_0_1 + 120 p_0_5 + 120 p_0_6 + 120 p_0_8 + 100000 z_0_1 + 100000 z_0_5 + 100000 z_0_6 + 100000 z_0_8 <= 402290.44296766748
 c2265: 120 p_0_2 + 120 p_0_5 + 120 p_0_6 + 120 p_0_8 + 100000 z_0_2 + 100000 z_0_5 + 100000 z_0_6 + 100000 z_0_8 <= 402681.36010651221
 c2266: 120 p_0_1 + 120 p_0_2 + 120 p_0_5 + 120 p_0_6 + 120 p_0_8 + 100000 z_0_1 + 100000 z_0_2 + 100000 z_0_5 + 100000 z_0_6 + 100000 z_0_8 <= 502269.4367596808
 c2267: 120 p_0_3 + 120 p_0_5 + 120 p_0_6 + 120 p_0_8 + 100000 z_0_3 + 100000 z_0_5 + 100000 z_0_6 + 100000 z_0_8 <= 402592.48984919599
 c2268: 120 p_0_1 + 120 p_0_3 + 120 p_0_5 + 120 p_0_6 + 120 p_0_8 + 100000 z_0_1 + 100000 z_0_3 + 100000 z_0_5 + 100000 z_0_6 + 100000 z_0_8 <= 502200.03570955584
 c2269: 120 p_0_2 + 120 p_0_3 + 120 p_0_5 + 120 p_0_6 + 120 p_0_8 + 100000 z_0_2 + 100000 z_0_3 + 100000 z_0_5 + 100000 z_0_6 + 100000 z_0_8 <= 502590.95284840063
 c2270: 120 p_0_1 + 120 p_0_2 + 120 p_0_3 + 120 p_0_5 + 120 p_0_6 + 120 p_0_8 + 100000 z_0_1 + 100000 z_0_2 + 100000 z_0_3 + 100000 z_0_5 + 100000 z_0_6 + 100000 z_0_8 <= 602193.42661624239
 c2271: 120 p_0_4 + 120 p_0_5 + 120 p_0_6 + 120 p_0_8 + 100000 z_0_4 + 100000 z_0_5 + 100000 z_0_6 + 100000 z_0_8 <= 402224.20783401321
 c2272: 120 p_0_1 + 120 p_0_4 + 120 p_0_5 + 120 p_0_6 + 120 p_0_8 + 100000 z_0_1 + 100000 z_0_4 + 100000 z_0_5 + 100000 z_0_6 + 100000 z_0_8 <= 502223.41750393272
 c2273: 120 p_0_2 + 120 p_0_4 + 120 p_0_5 + 120 p_0_6 + 120 p_0_8 + 100000 z_0_2 + 100000 z_0_4 + 100000 z_0_5 + 100000 z_0_6 + 100000 z_0_8 <= 502220.77885088098
 c2274: 120 p_0_1 + 120 p_0_2 + 120 p_0_4 + 120 p_0_5 + 120 p_0_6 + 120 p_0_8 + 100000 z_0_1 + 100000 z_0_2 + 100000 z_0_4 + 100000 z_0_5 + 100000 z_0_6 + 100000 z_0_8 <= 602210.83790364454
 c2275: 120 p_0_3 + 120 p_0_4 + 120 p_0_5 + 120 p_0_6 + 120 p_0_8 + 100000 z_0_3 + 100000 z_0_4 + 100000 z_0_5 + 100000 z_0_6 + 100000 z_0_8 <= 502157.54084079957
 c2276: 120 p_0_1 + 120 p_0_3 + 120 p_0_4 + 120 p_0_5 + 120 p_0_6 + 120 p_0_8 + 100000 z_0_1 + 100000 z_0_3 + 100000 z_0_4 + 100000 z_0_5 + 100000 z_0_6 + 100000 z_0_8 <= 602147.59989356308
 c2277: 120 p_0_2 + 120 p_0_3 + 120 p_0_4 + 120 p_0_5 + 120 p_0_6 + 120 p_0_8 + 100000 z_0_2 + 100000 z_0_3 + 100000 z_0_4 + 100000 z_0_5 + 100000 z_0_6 + 100000 z_0_8 <= 602156.00384000421
 c2278: 120 p_0_1 + 120 p_0_2 + 120 p_0_3 + 120 p_0_4 + 120 p_0_5 + 120 p_0_6 + 120 p_0_8 + 100000 z_0_1 + 100000 z_0_2 + 100000 z_0_3 + 100000 z_0_4 + 100000 z_0_5 + 100000 z_0_6 + 100000 z_0_8 <= 702146.06289276772
 c2279: 120 p_0_7 + 120 p_0_8 + 100000 z_0_7 + 100000 z_0_8 <= 202542.99068371538
 c2280: 120 p_0_1 + 120 p_0_7 + 120 p_0_8 + 100000 z_0_1 + 100000 z_0_7 + 100000 z_0_8 <= 302540.34083725751
 c2281: 120 p_0_2 + 120 p_0_7 + 120 p_0_8 + 100000 z_0_2 + 100000 z_0_7 + 100000 z_0_8 <= 302541.45368292008
 c2282: 120 p_0_1 + 120 p_0_2 + 120 p_0_7 + 120 p_0_8 + 100000 z_0_1 + 100000 z_0_2 + 100000 z_0_7 + 100000 z_0_8 <= 402538.80383646215
 c2283: 120 p_0_3 + 120 p_0_7 + 120 p_0_8 + 100000 z_0_3 + 100000 z_0_7 + 100000 z_0_8 <= 302052.14731052244
 c2284: 120 p_0_1 + 120 p_0_3 + 120 p_0_7 + 120 p_0_8 + 100000 z_0_1 + 100000 z_0_3 + 100000 z_0_7 + 100000 z_0_8 <= 402048.62816584262
 c2285: 120 p_0_2 + 120 p_0_3 + 120 p_0_7 + 120 p_0_8 + 100000 z_0_2 + 100000 z_0_3 + 100000 z_0_7 + 100000 z_0_8 <= 402050.61030972714
 c2286: 120 p_0_1 + 120 p_0_2 + 120 p_0_3 + 120 p_0_7 + 120 p_0_8 + 100000 z_0_1 + 100000 z_0_2 + 100000 z_0_3 + 100000 z_0_7 + 100000 z_0_8 <= 502047.09116504731
 c2287: 120 p_0_4 + 120 p_0_7 + 120 p_0_8 + 100000 z_0_4 + 100000 z_0_7 + 100000 z_0_8 <= 302542.6653731892
 c2288: 120 p_0_1 + 120 p_0_4 + 120 p_0_7 + 120 p_0_8 + 100000 z_0_1 + 100000 z_0_4 + 100000 z_0_7 + 100000 z_0_8 <= 402539.14622850937
 c2289: 120 p_0_2 + 120 p_0_4 + 120 p_0_7 + 120 p_0_8 + 100000 z_0_2 + 100000 z_0_4 + 100000 z_0_7 + 100000 z_0_8 <= 402541.1283723939
 c2290: 120 p_0_1 + 120 p_0_2 + 120 p_0_4 + 120 p_0_7 + 120 p_0_8 + 100000 z_0_1 + 100000 z_0_2 + 100000 z_0_4 + 100000 z_0_7 + 100000 z_0_8 <= 502537.60922771401
 c2291: 120 p_0_3 + 120 p_0_4 + 120 p_0_7 + 120 p_0_8 + 100000 z_0_3 + 100000 z_0_4 + 100000 z_0_7 + 100000 z_0_8 <= 402044.78496732423
 c2292: 120 p_0_1 + 120 p_0_3 + 120 p_0_4 + 120 p_0_7 + 120 p_0_8 + 100000 z_0_1 + 100000 z_0_3 + 100000 z_0_4 + 100000 z_0_7 + 100000 z_0_8 <= 502041.2658226444
 c2293: 120 p_0_2 + 120 p_0_3 + 120 p_0_4 + 120 p_0_7 + 120 p_0_8 + 100000 z_0_2 + 100000 z_0_3 + 100000 z_0_4 + 100000 z_0_7 + 100000 z_0_8 <= 502043.24796652893
 c2294: 120 p_0_1 + 120 p_0_2 + 120 p_0_3 + 120 p_0_4 + 120 p_0_7 + 120 p_0_8 + 100000 z_0_1 + 100000 z_0_2 + 100000 z_0_3 + 100000 z_0_4 + 100000 z_0_7 + 100000 z_0_8 <= 602039.7288218491
 c2295: 120 p_0_5 + 120 p_0_7 + 120 p_0_8 + 100000 z_0_5 + 100000 z_0_7 + 100000 z_0_8 <= 302530.53067930939
 c2296: 120 p_0_1 + 120 p_0_5 + 120 p_0_7 + 120 p_0_8 + 100000 z_0_1 + 100000 z_0_5 + 100000 z_0_7 + 100000 z_0_8 <= 402527.88083285152
 c2297: 120 p_0_2 + 120 p_0_5 + 120 p_0_7 + 120 p_0_8 + 100000 z_0_2 + 100000 z_0_5 + 100000 z_0_7 + 100000 z_0_8 <= 402528.88027168112
 c2298: 120 p_0_1 + 120 p_0_2 + 120 p_0_5 + 120 p_0_7 + 120 p_0_8 + 100000 z_0_1 + 100000 z_0_2 + 100000 z_0_5 + 100000 z_0_7 + 100000 z_0_8 <= 502526.23042522324
 c2299: 120 p_0_3 + 120 p_0_5 + 120 p_0_7 + 120 p_0_8 + 100000 z_0_3 + 100000 z_0_5 + 100000 z_0_7 + 100000 z_0_8 <= 402039.68730611645
 c2300: 120 p_0_1 + 120 p_0_3 + 120 p_0_5 + 120 p_0_7 + 120 p_0_8 + 100000 z_0_1 + 100000 z_0_3 + 100000 z_0_5 + 100000 z_0_7 + 100000 z_0_8 <= 502036.16816143662
 c2301: 120 p_0_2 + 120 p_0_3 + 120 p_0_5 + 120 p_0_7 + 120 p_0_8 + 100000 z_0_2 + 100000 z_0_3 + 100000 z_0_5 + 100000 z_0_7 + 100000 z_0_8 <= 502038.03689848818
 c2302: 120 p_0_1 + 120 p_0_2 + 120 p_0_3 + 120 p_0_5 + 120 p_0_7 + 120 p_0_8 + 100000 z_0_1 + 100000 z_0_2 + 100000 z_0_3 + 100000 z_0_5 + 100000 z_0_7 + 100000 z_0_8 <= 602034.51775380841
 c2303: 120 p_0_4 + 120 p_0_5 + 120 p_0_7 + 120 p_0_8 + 100000 z_0_4 + 100000 z_0_5 + 100000 z_0_7 + 100000 z_0_8 <= 402530.20536878321
 c2304: 120 p_0_1 + 120 p_0_4 + 120 p_0_5 + 120 p_0_7 + 120 p_0_8 + 100000 z_0_1 + 100000 z_0_4 + 100000 z_0_5 + 100000 z_0_7 + 100000 z_0_8 <= 502526.68622410338
 c2305: 120 p_0_2 + 120 p_0_4 + 120 p_0_5 + 120 p_0_7 + 120 p_0_8 + 100000 z_0_2 + 100000 z_0_4 + 100000 z_0_5 + 100000 z_0_7 + 100000 z_0_8 <= 502528.55496115494
 c2306: 120 p_0_1 + 120 p_0_2 + 120 p_0_4 + 120 p_0_5 + 120 p_0_7 + 120 p_0_8 + 100000 z_0_1 + 100000 z_0_2 + 100000 z_0_4 + 100000 z_0_5 + 100000 z_0_7 + 100000 z_0_8 <= 602525.03581647517
 c2307: 120 p_0_3 + 120 p_0_4 + 120 p_0_5 + 120 p_0_7 + 120 p_0_8 + 100000 z_0_3 + 100000 z_0_4 + 100000 z_0_5 + 100000 z_0_7 + 100000 z_0_8 <= 502033.62627740891
 c2308: 120 p_0_1 + 120 p_0_3 + 120 p_0_4 + 120 p_0_5 + 120 p_0_7 + 120 p_0_8 + 100000 z_0_1 + 100000 z_0_3 + 100000 z_0_4 + 100000 z_0_5 + 100000 z_0_7 + 100000 z_0_8 <= 602028.80581823841
 c2309: 120 p_0_2 + 120 p_0_3 + 120 p_0_4 + 120 p_0_5 + 120 p_0_7 + 120 p_0_8 + 100000 z_0_2 + 100000 z_0_3 + 100000 z_0_4 + 100000 z_0_5 + 100000 z_0_7 + 100000 z_0_8 <= 602032.08927661355
 c2310: 120 p_0_1 + 120 p_0_2 + 120 p_0_3 + 120 p_0_4 + 120 p_0_5 + 120 p_0_7 + 120 p_0_8 + 100000 z_0_1 + 100000 z_0_2 + 100000 z_0_3 + 100000 z_0_4 + 100000 z_0_5 + 100000 z_0_7 + 100000 z_0_8 <= 702027.15541061014
 c2311: 120 p_0_6 + 120 p_0_7 + 120 p_0_8 + 100000 z_0_6 + 100000 z_0_7 + 100000 z_0_8 <= 302099.87245211005
 c2312: 120 p_0_1 + 120 p_0_6 + 120 p_0_7 + 120 p_0_8 + 100000 z_0_1 + 100000 z_0_6 + 100000 z_0_7 + 100000 z_0_8 <= 402097.22260565218
 c2313: 120 p_0_2 + 120 p_0_6 + 120 p_0_7 + 120 p_0_8 + 100000 z_0_2 + 100000 z_0_6 + 100000 z_0_7 + 100000 z_0_8 <= 402093.19472064875
 c2314: 120 p_0_1 + 120 p_0_2 + 120 p_0_6 + 120 p_0_7 + 120 p_0_8 + 100000 z_0_1 + 100000 z_0_2 + 100000 z_0_6 + 100000 z_0_7 + 100000 z_0_8 <= 502089.67557596893
 c2315: 120 p_0_3 + 120 p_0_6 + 120 p_0_7 + 120 p_0_8 + 100000 z_0_3 + 100000 z_0_6 + 100000 z_0_7 + 100000 z_0_8 <= 402032.96612767834
 c2316: 120 p_0_1 + 120 p_0_3 + 120 p_0_6 + 120 p_0_7 + 120 p_0_8 + 100000 z_0_1 + 100000 z_0_3 + 100000 z_0_6 + 100000 z_0_7 + 100000 z_0_8 <= 502029.44698299852
 c2317: 120 p_0_2 + 120 p_0_3 + 120 p_0_6 + 120 p_0_7 + 120 p_0_8 + 100000 z_0_2 + 100000 z_0_3 + 100000 z_0_6 + 100000 z_0_7 + 100000 z_0_8 <= 502031.42912688304
 c2318: 120 p_0_1 + 120 p_0_2 + 120 p_0_3 + 120 p_0_6 + 120 p_0_7 + 120 p_0_8 + 100000 z_0_1 + 100000 z_0_2 + 100000 z_0_3 + 100000 z_0_6 + 100000 z_0_7 + 100000 z_0_8 <= 602027.90998220316
 c2319: 120 p_0_4 + 120 p_0_6 + 120 p_0_7 + 120 p_0_8 + 100000 z_0_4 + 100000 z_0_6 + 100000 z_0_7 + 100000 z_0_8 <= 402099.54714158387
 c2320: 120 p_0_1 + 120 p_0_4 + 120 p_0_6 + 120 p_0_7 + 120 p_0_8 + 100000 z_0_1 + 100000 z_0_4 + 100000 z_0_6 + 100000 z_0_7 + 100000 z_0_8 <= 502096.02799690404
 c2321: 120 p_0_2 + 120 p_0_4 + 120 p_0_6 + 120 p_0_7 + 120 p_0_8 + 100000 z_0_2 + 100000 z_0_4 + 100000 z_0_6 + 100000 z_0_7 + 100000 z_0_8 <= 502090.93208789459
 c2322: 120 p_0_1 + 120 p_0_2 + 120 p_0_4 + 120 p_0_6 + 120 p_0_7 + 120 p_0_8 + 100000 z_0_1 + 100000 z_0_2 + 100000 z_0_4 + 100000 z_0_6 + 100000 z_0_7 + 100000 z_0_8 <= 602087.41294321476
 c2323: 120 p_0_3 + 120 p_0_4 + 120 p_0_6 + 120 p_0_7 + 120 p_0_8 + 100000 z_0_3 + 100000 z_0_4 + 100000 z_0_6 + 100000 z_0_7 + 100000 z_0_8 <= 502029.8972656643
 c2324: 120 p_0_1 + 120 p_0_3 + 120 p_0_4 + 120 p_0_6 + 120 p_0_7 + 120 p_0_8 + 100000 z_0_1 + 100000 z_0_3 + 100000 z_0_4 + 100000 z_0_6 + 100000 z_0_7 + 100000 z_0_8 <= 602022.08463980036
 c2325: 120 p_0_2 + 120 p_0_3 + 120 p_0_4 + 120 p_0_6 + 120 p_0_7 + 120 p_0_8 + 100000 z_0_2 + 100000 z_0_3 + 100000 z_0_4 + 100000 z_0_6 + 100000 z_0_7 + 100000 z_0_8 <= 602028.36026486894
 c2326: 120 p_0_1 + 120 p_0_2 + 120 p_0_3 + 120 p_0_4 + 120 p_0_6 + 120 p_0_7 + 120 p_0_8 + 100000 z_0_1 + 100000 z_0_2 + 100000 z_0_3 + 100000 z_0_4 + 100000 z_0_6 + 100000 z_0_7 + 100000 z_0_8 <= 702020.547639005
 c2327: 120 p_0_5 + 120 p_0_6 + 120 p_0_7 + 120 p_0_8 + 100000 z_0_5 + 100000 z_0_6 + 100000 z_0_7 + 100000 z_0_8 <= 402099.69019516854
 c2328: 120 p_0_1 + 120 p_0_5 + 120 p_0_6 + 120 p_0_7 + 120 p_0_8 + 100000 z_0_1 + 100000 z_0_5 + 100000 z_0_6 + 100000 z_0_7 + 100000 z_0_8 <= 502097.04034871067
 c2329: 120 p_0_2 + 120 p_0_5 + 120 p_0_6 + 120 p_0_7 + 120 p_0_8 + 100000 z_0_2 + 100000 z_0_5 + 100000 z_0_6 + 100000 z_0_7 + 100000 z_0_8 <= 502090.26891221938
 c2330: 120 p_0_1 + 120 p_0_2 + 120 p_0_5 + 120 p_0_6 + 120 p_0_7 + 120 p_0_8 + 100000 z_0_1 + 100000 z_0_2 + 100000 z_0_5 + 100000 z_0_6 + 100000 z_0_7 + 100000 z_0_8 <= 602087.61906576145
 c2331: 120 p_0_3 + 120 p_0_5 + 120 p_0_6 + 120 p_0_7 + 120 p_0_8 + 100000 z_0_3 + 100000 z_0_5 + 100000 z_0_6 + 100000 z_0_7 + 100000 z_0_8 <= 502030.04031924898
 c2332: 120 p_0_1 + 120 p_0_3 + 120 p_0_5 + 120 p_0_6 + 120 p_0_7 + 120 p_0_8 + 100000 z_0_1 + 100000 z_0_3 + 100000 z_0_5 + 100000 z_0_6 + 100000 z_0_7 + 100000 z_0_8 <= 602027.39047279104
 c2333: 120 p_0_2 + 120 p_0_3 + 120 p_0_5 + 120 p_0_6 + 120 p_0_7 + 120 p_0_8 + 100000 z_0_2 + 100000 z_0_3 + 100000 z_0_5 + 100000 z_0_6 + 100000 z_0_7 + 100000 z_0_8 <= 602028.50331845367
 c2334: 120 p_0_1 + 120 p_0_2 + 120 p_0_3 + 120 p_0_5 + 120 p_0_6 + 120 p_0_7 + 120 p_0_8 + 100000 z_0_1 + 100000 z_0_2 + 100000 z_0_3 + 100000 z_0_5 + 100000 z_0_6 + 100000 z_0_7 + 100000 z_0_8 <= 702025.8534719958
 c2335: 120 p_0_4 + 120 p_0_5 + 120 p_0_6 + 120 p_0_7 + 120 p_0_8 + 100000 z_0_4 + 100000 z_0_5 + 100000 z_0_6 + 100000 z_0_7 + 100000 z_0_8 <= 502099.36488464236
 c2336: 120 p_0_1 + 120 p_0_4 + 120 p_0_5 + 120 p_0_6 + 120 p_0_7 + 120 p_0_8 + 100000 z_0_1 + 100000 z_0_4 + 100000 z_0_5 + 100000 z_0_6 + 100000 z_0_7 + 100000 z_0_8 <= 602095.84573996253
 c2337: 120 p_0_2 + 120 p_0_4 + 120 p_0_5 + 120 p_0_6 + 120 p_0_7 + 120 p_0_8 + 100000 z_0_2 + 100000 z_0_4 + 100000 z_0_5 + 100000 z_0_6 + 100000 z_0_7 + 100000 z_0_8 <= 602089.94360169326
 c2338: 120 p_0_1 + 120 p_0_2 + 120 p_0_4 + 120 p_0_5 + 120 p_0_6 + 120 p_0_7 + 120 p_0_8 + 100000 z_0_1 + 100000 z_0_2 + 100000 z_0_4 + 100000 z_0_5 + 100000 z_0_6 + 100000 z_0_7 + 100000 z_0_8 <= 702083.26613967435
 c2339: 120 p_0_3 + 120 p_0_4 + 120 p_0_5 + 120 p_0_6 + 120 p_0_7 + 120 p_0_8 + 100000 z_0_3 + 100000 z_0_4 + 100000 z_0_5 + 100000 z_0_6 + 100000 z_0_7 + 100000 z_0_8 <= 602029.71500872285
 c2340: 120 p_0_1 + 120 p_0_3 + 120 p_0_4 + 120 p_0_5 + 120 p_0_6 + 120 p_0_7 + 120 p_0_8 + 100000 z_0_1 + 100000 z_0_3 + 100000 z_0_4 + 100000 z_0_5 + 100000 z_0_6 + 100000 z_0_7 + 100000 z_0_8 <= 702020.02812959289
 c2341: 120 p_0_2 + 120 p_0_3 + 120 p_0_4 + 120 p_0_5 + 120 p_0_6 + 120 p_0_7 + 120 p_0_8 + 100000 z_0_2 + 100000 z_0_3 + 100000 z_0_4 + 100000 z_0_5 + 100000 z_0_6 + 100000 z_0_7 + 100000 z_0_8 <= 702028.17800792749
 c2342: 120 p_0_1 + 120 p_0_2 + 120 p_0_3 + 120 p_0_4 + 120 p_0_5 + 120 p_0_6 + 120 p_0_7 + 120 p_0_8 + 100000 z_0_1 + 100000 z_0_2 + 100000 z_0_3 + 100000 z_0_4 + 100000 z_0_5 + 100000 z_0_6 + 100000 z_0_7 + 100000 z_0_8 <= 802018.49112879753
 c2343: 120 p_0_9 + 100000 z_0_9 <= 103087.59928019982
 c2344: 120 p_0_1 + 120 p_0_9 + 100000 z_0_1 + 100000 z_0_9 <= 202651.01774004567
 c2345: 120 p_0_2 + 120 p_0_9 + 100000 z_0_2 + 100000 z_0_9 <= 202860.30036337071
 c2346: 120 p_0_1 + 120 p_0_2 + 120 p_0_9 + 100000 z_0_1 + 100000 z_0_2 + 100000 z_0_9 <= 302444.54820561619
 c2347: 120 p_0_3 + 120 p_0_9 + 100000 z_0_3 + 100000 z_0_9 <= 202951.2610701182
 c2348: 120 p_0_1 + 120 p_0_3 + 120 p_0_9 + 100000 z_0_1 + 100000 z_0_3 + 100000 z_0_9 <= 302553.73483795993
 c2349: 120 p_0_2 + 120 p_0_3 + 120 p_0_9 + 100000 z_0_2 + 100000 z_0_3 + 100000 z_0_9 <= 302723.96215328912
 c2350: 120 p_0_1 + 120 p_0_2 + 120 p_0_3 + 120 p_0_9 + 100000 z_0_1 + 100000 z_0_2 + 100000 z_0_3 + 100000 z_0_9 <= 402326.43592113082
 c2351: 120 p_0_4 + 120 p_0_9 + 100000 z_0_4 + 100000 z_0_9 <= 202605.88473758652
 c2352: 120 p_0_1 + 120 p_0_4 + 120 p_0_9 + 100000 z_0_1 + 100000 z_0_4 + 100000 z_0_9 <= 302595.94379035005
 c2353: 120 p_0_2 + 120 p_0_4 + 120 p_0_9 + 100000 z_0_2 + 100000 z_0_4 + 100000 z_0_9 <= 302379.90193140117
 c2354: 120 p_0_1 + 120 p_0_2 + 120 p_0_4 + 120 p_0_9 + 100000 z_0_1 + 100000 z_0_2 + 100000 z_0_4 + 100000 z_0_9 <= 402377.52274188143
 c2355: 120 p_0_3 + 120 p_0_4 + 120 p_0_9 + 100000 z_0_3 + 100000 z_0_4 + 100000 z_0_9 <= 302516.31206172181
 c2356: 120 p_0_1 + 120 p_0_3 + 120 p_0_4 + 120 p_0_9 + 100000 z_0_1 + 100000 z_0_3 + 100000 z_0_4 + 100000 z_0_9 <= 402506.37111448532
 c2357: 120 p_0_2 + 120 p_0_3 + 120 p_0_4 + 120 p_0_9 + 100000 z_0_2 + 100000 z_0_3 + 100000 z_0_4 + 100000 z_0_9 <= 402289.0131448927
 c2358: 120 p_0_1 + 120 p_0_2 + 120 p_0_3 + 120 p_0_4 + 120 p_0_9 + 100000 z_0_1 + 100000 z_0_2 + 100000 z_0_3 + 100000 z_0_4 + 100000 z_0_9 <= 502279.07219765621
 c2359: 120 p_0_5 + 120 p_0_9 + 100000 z_0_5 + 100000 z_0_9 <= 202797.31590540058
 c2360: 120 p_0_1 + 120 p_0_5 + 120 p_0_9 + 100000 z_0_1 + 100000 z_0_5 + 100000 z_0_9 <= 302382.17464383965
 c2361: 120 p_0_2 + 120 p_0_5 + 120 p_0_9 + 100000 z_0_2 + 100000 z_0_5 + 100000 z_0_9 <= 302795.66549777234
 c2362: 120 p_0_1 + 120 p_0_2 + 120 p_0_5 + 120 p_0_9 + 100000 z_0_1 + 100000 z_0_2 + 100000 z_0_5 + 100000 z_0_9 <= 402379.91334001778
 c2363: 120 p_0_3 + 120 p_0_5 + 120 p_0_9 + 100000 z_0_3 + 100000 z_0_5 + 100000 z_0_9 <= 302660.97769531893
 c2364: 120 p_0_1 + 120 p_0_3 + 120 p_0_5 + 120 p_0_9 + 100000 z_0_1 + 100000 z_0_3 + 100000 z_0_5 + 100000 z_0_9 <= 402263.45146316069
 c2365: 120 p_0_2 + 120 p_0_3 + 120 p_0_5 + 120 p_0_9 + 100000 z_0_2 + 100000 z_0_3 + 100000 z_0_5 + 100000 z_0_9 <= 402659.32728769071
 c2366: 120 p_0_1 + 120 p_0_2 + 120 p_0_3 + 120 p_0_5 + 120 p_0_9 + 100000 z_0_1 + 100000 z_0_2 + 100000 z_0_3 + 100000 z_0_5 + 100000 z_0_9 <= 502261.80105553241
 c2367: 120 p_0_4 + 120 p_0_5 + 120 p_0_9 + 100000 z_0_4 + 100000 z_0_5 + 100000 z_0_9 <= 302317.07912691636
 c2368: 120 p_0_1 + 120 p_0_4 + 120 p_0_5 + 120 p_0_9 + 100000 z_0_1 + 100000 z_0_4 + 100000 z_0_5 + 100000 z_0_9 <= 402315.1491801049
 c2369: 120 p_0_2 + 120 p_0_4 + 120 p_0_5 + 120 p_0_9 + 100000 z_0_2 + 100000 z_0_4 + 100000 z_0_5 + 100000 z_0_9 <= 402315.26706580276
 c2370: 120 p_0_1 + 120 p_0_2 + 120 p_0_4 + 120 p_0_5 + 120 p_0_9 + 100000 z_0_1 + 100000 z_0_2 + 100000 z_0_4 + 100000 z_0_5 + 100000 z_0_9 <= 502312.88787628303
 c2371: 120 p_0_3 + 120 p_0_4 + 120 p_0_5 + 120 p_0_9 + 100000 z_0_3 + 100000 z_0_4 + 100000 z_0_5 + 100000 z_0_9 <= 402226.02868692257
 c2372: 120 p_0_1 + 120 p_0_3 + 120 p_0_4 + 120 p_0_5 + 120 p_0_9 + 100000 z_0_1 + 100000 z_0_3 + 100000 z_0_4 + 100000 z_0_5 + 100000 z_0_9 <= 502216.08773968607
 c2373: 120 p_0_2 + 120 p_0_3 + 120 p_0_4 + 120 p_0_5 + 120 p_0_9 + 100000 z_0_2 + 100000 z_0_3 + 100000 z_0_4 + 100000 z_0_5 + 100000 z_0_9 <= 502224.37827929429
 c2374: 120 p_0_1 + 120 p_0_2 + 120 p_0_3 + 120 p_0_4 + 120 p_0_5 + 120 p_0_9 + 100000 z_0_1 + 100000 z_0_2 + 100000 z_0_3 + 100000 z_0_4 + 100000 z_0_5 + 100000 z_0_9 <= 602214.43733205786
 c2375: 120 p_0_6 + 120 p_0_9 + 100000 z_0_6 + 100000 z_0_9 <= 203038.53542880015
 c2376: 120 p_0_1 + 120 p_0_6 + 120 p_0_9 + 100000 z_0_1 + 100000 z_0_6 + 100000 z_0_9 <= 302619.69744899735
 c2377: 120 p_0_2 + 120 p_0_6 + 120 p_0_9 + 100000 z_0_2 + 100000 z_0_6 + 100000 z_0_9 <= 302811.23651197104
 c2378: 120 p_0_1 + 120 p_0_2 + 120 p_0_6 + 120 p_0_9 + 100000 z_0_1 + 100000 z_0_2 + 100000 z_0_6 + 100000 z_0_9 <= 402395.48435421655
 c2379: 120 p_0_3 + 120 p_0_6 + 120 p_0_9 + 100000 z_0_3 + 100000 z_0_6 + 100000 z_0_9 <= 302948.12817068852
 c2380: 120 p_0_1 + 120 p_0_3 + 120 p_0_6 + 120 p_0_9 + 100000 z_0_1 + 100000 z_0_3 + 100000 z_0_6 + 100000 z_0_9 <= 402550.60193853028
 c2381: 120 p_0_2 + 120 p_0_3 + 120 p_0_6 + 120 p_0_9 + 100000 z_0_2 + 100000 z_0_3 + 100000 z_0_6 + 100000 z_0_9 <= 402720.82925385947
 c2382: 120 p_0_1 + 120 p_0_2 + 120 p_0_3 + 120 p_0_6 + 120 p_0_9 + 100000 z_0_1 + 100000 z_0_2 + 100000 z_0_3 + 100000 z_0_6 + 100000 z_0_9 <= 502323.30302170117
 c2383: 120 p_0_4 + 120 p_0_6 + 120 p_0_9 + 100000 z_0_4 + 100000 z_0_6 + 100000 z_0_9 <= 302577.95417316887
 c2384: 120 p_0_1 + 120 p_0_4 + 120 p_0_6 + 120 p_0_9 + 100000 z_0_1 + 100000 z_0_4 + 100000 z_0_6 + 100000 z_0_9 <= 402568.01322593237
 c2385: 120 p_0_2 + 120 p_0_4 + 120 p_0_6 + 120 p_0_9 + 100000 z_0_2 + 100000 z_0_4 + 100000 z_0_6 + 100000 z_0_9 <= 402350.65525633976
 c2386: 120 p_0_1 + 120 p_0_2 + 120 p_0_4 + 120 p_0_6 + 120 p_0_9 + 100000 z_0_1 + 100000 z_0_2 + 100000 z_0_4 + 100000 z_0_6 + 100000 z_0_9 <= 502340.71430910332
 c2387: 120 p_0_3 + 120 p_0_4 + 120 p_0_6 + 120 p_0_9 + 100000 z_0_3 + 100000 z_0_4 + 100000 z_0_6 + 100000 z_0_9 <= 402513.17916229216
 c2388: 120 p_0_1 + 120 p_0_3 + 120 p_0_4 + 120 p_0_6 + 120 p_0_9 + 100000 z_0_1 + 100000 z_0_3 + 100000 z_0_4 + 100000 z_0_6 + 100000 z_0_9 <= 502503.23821505567
 c2389: 120 p_0_2 + 120 p_0_3 + 120 p_0_4 + 120 p_0_6 + 120 p_0_9 + 100000 z_0_2 + 100000 z_0_3 + 100000 z_0_4 + 100000 z_0_6 + 100000 z_0_9 <= 502285.88024546305
 c2390: 120 p_0_1 + 120 p_0_2 + 120 p_0_3 + 120 p_0_4 + 120 p_0_6 + 120 p_0_9 + 100000 z_0_1 + 100000 z_0_2 + 100000 z_0_3 + 100000 z_0_4 + 100000 z_0_6 + 100000 z_0_9 <= 602275.93929822661
 c2391: 120 p_0_5 + 120 p_0_6 + 120 p_0_9 + 100000 z_0_5 + 100000 z_0_6 + 100000 z_0_9 <= 302748.25205400091
 c2392: 120 p_0_1 + 120 p_0_5 + 120 p_0_6 + 120 p_0_9 + 100000 z_0_1 + 100000 z_0_5 + 100000 z_0_6 + 100000 z_0_9 <= 402333.11079243995
 c2393: 120 p_0_2 + 120 p_0_5 + 120 p_0_6 + 120 p_0_9 + 100000 z_0_2 + 100000 z_0_5 + 100000 z_0_6 + 100000 z_0_9 <= 402746.60164637264
 c2394: 120 p_0_1 + 120 p_0_2 + 120 p_0_5 + 120 p_0_6 + 120 p_0_9 + 100000 z_0_1 + 100000 z_0_2 + 100000 z_0_5 + 100000 z_0_6 + 100000 z_0_9 <= 502330.84948861814
 c2395: 120 p_0_3 + 120 p_0_5 + 120 p_0_6 + 120 p_0_9 + 100000 z_0_3 + 100000 z_0_5 + 100000 z_0_6 + 100000 z_0_9 <= 402657.84479588928
 c2396: 120 p_0_1 + 120 p_0_3 + 120 p_0_5 + 120 p_0_6 + 120 p_0_9 + 100000 z_0_1 + 100000 z_0_3 + 100000 z_0_5 + 100000 z_0_6 + 100000 z_0_9 <= 502260.31856373104
 c2397: 120 p_0_2 + 120 p_0_3 + 120 p_0_5 + 120 p_0_6 + 120 p_0_9 + 100000 z_0_2 + 100000 z_0_3 + 100000 z_0_5 + 100000 z_0_6 + 100000 z_0_9 <= 502656.19438826106
 c2398: 120 p_0_1 + 120 p_0_2 + 120 p_0_3 + 120 p_0_5 + 120 p_0_6 + 120 p_0_9 + 100000 z_0_1 + 100000 z_0_2 + 100000 z_0_3 + 100000 z_0_5 + 100000 z_0_6 + 100000 z_0_9 <= 602258.66815610277
 c2399: 120 p_0_4 + 120 p_0_5 + 120 p_0_6 + 120 p_0_9 + 100000 z_0_4 + 100000 z_0_5 + 100000 z_0_6 + 100000 z_0_9 <= 402287.67079836963
 c2400: 120 p_0_1 + 120 p_0_4 + 120 p_0_5 + 120 p_0_6 + 120 p_0_9 + 100000 z_0_1 + 100000 z_0_4 + 100000 z_0_5 + 100000 z_0_6 + 100000 z_0_9 <= 502277.72985113313
 c2401: 120 p_0_2 + 120 p_0_4 + 120 p_0_5 + 120 p_0_6 + 120 p_0_9 + 100000 z_0_2 + 100000 z_0_4 + 100000 z_0_5 + 100000 z_0_6 + 100000 z_0_9 <= 502286.02039074141
 c2402: 120 p_0_1 + 120 p_0_2 + 120 p_0_4 + 120 p_0_5 + 120 p_0_6 + 120 p_0_9 + 100000 z_0_1 + 100000 z_0_2 + 100000 z_0_4 + 100000 z_0_5 + 100000 z_0_6 + 100000 z_0_9 <= 602276.07944350492
 c2403: 120 p_0_3 + 120 p_0_4 + 120 p_0_5 + 120 p_0_6 + 120 p_0_9 + 100000 z_0_3 + 100000 z_0_4 + 100000 z_0_5 + 100000 z_0_6 + 100000 z_0_9 <= 502222.89578749292
 c2404: 120 p_0_1 + 120 p_0_3 + 120 p_0_4 + 120 p_0_5 + 120 p_0_6 + 120 p_0_9 + 100000 z_0_1 + 100000 z_0_3 + 100000 z_0_4 + 100000 z_0_5 + 100000 z_0_6 + 100000 z_0_9 <= 602212.95484025637
 c2405: 120 p_0_2 + 120 p_0_3 + 120 p_0_4 + 120 p_0_5 + 120 p_0_6 + 120 p_0_9 + 100000 z_0_2 + 100000 z_0_3 + 100000 z_0_4 + 100000 z_0_5 + 100000 z_0_6 + 100000 z_0_9 <= 602221.2453798647
 c2406: 120 p_0_1 + 120 p_0_2 + 120 p_0_3 + 120 p_0_4 + 120 p_0_5 + 120 p_0_6 + 120 p_0_9 + 100000 z_0_1 + 100000 z_0_2 + 100000 z_0_3 + 100000 z_0_4 + 100000 z_0_5 + 100000 z_0_6 + 100000 z_0_9 <= 702211.30443262821
 c2407: 120 p_0_7 + 120 p_0_9 + 100000 z_0_7 + 100000 z_0_9 <= 202473.56074191336
 c2408: 120 p_0_1 + 120 p_0_7 + 120 p_0_9 + 100000 z_0_1 + 100000 z_0_7 + 100000 z_0_9 <= 302470.91089545545
 c2409: 120 p_0_2 + 120 p_0_7 + 120 p_0_9 + 100000 z_0_2 + 100000 z_0_7 + 100000 z_0_9 <= 302251.01648291096
 c2410: 120 p_0_1 + 120 p_0_2 + 120 p_0_7 + 120 p_0_9 + 100000 z_0_1 + 100000 z_0_2 + 100000 z_0_7 + 100000 z_0_9 <= 402250.27628843742
 c2411: 120 p_0_3 + 120 p_0_7 + 120 p_0_9 + 100000 z_0_3 + 100000 z_0_7 + 100000 z_0_9 <= 302388.81154017121
 c2412: 120 p_0_1 + 120 p_0_3 + 120 p_0_7 + 120 p_0_9 + 100000 z_0_1 + 100000 z_0_3 + 100000 z_0_7 + 100000 z_0_9 <= 402386.16169371334
 c2413: 120 p_0_2 + 120 p_0_3 + 120 p_0_7 + 120 p_0_9 + 100000 z_0_2 + 100000 z_0_3 + 100000 z_0_7 + 100000 z_0_9 <= 402161.5126233421
 c2414: 120 p_0_1 + 120 p_0_2 + 120 p_0_3 + 120 p_0_7 + 120 p_0_9 + 100000 z_0_1 + 100000 z_0_2 + 100000 z_0_3 + 100000 z_0_7 + 100000 z_0_9 <= 502158.86277688423
 c2415: 120 p_0_4 + 120 p_0_7 + 120 p_0_9 + 100000 z_0_4 + 100000 z_0_7 + 100000 z_0_9 <= 302473.23543138715
 c2416: 120 p_0_1 + 120 p_0_4 + 120 p_0_7 + 120 p_0_9 + 100000 z_0_1 + 100000 z_0_4 + 100000 z_0_7 + 100000 z_0_9 <= 402468.37202637986
 c2417: 120 p_0_2 + 120 p_0_4 + 120 p_0_7 + 120 p_0_9 + 100000 z_0_2 + 100000 z_0_4 + 100000 z_0_7 + 100000 z_0_9 <= 402250.69117238477
 c2418: 120 p_0_1 + 120 p_0_2 + 120 p_0_4 + 120 p_0_7 + 120 p_0_9 + 100000 z_0_1 + 100000 z_0_2 + 100000 z_0_4 + 100000 z_0_7 + 100000 z_0_9 <= 502249.95097791124
 c2419: 120 p_0_3 + 120 p_0_4 + 120 p_0_7 + 120 p_0_9 + 100000 z_0_3 + 100000 z_0_4 + 100000 z_0_7 + 100000 z_0_9 <= 402388.48622964503
 c2420: 120 p_0_1 + 120 p_0_3 + 120 p_0_4 + 120 p_0_7 + 120 p_0_9 + 100000 z_0_1 + 100000 z_0_3 + 100000 z_0_4 + 100000 z_0_7 + 100000 z_0_9 <= 502378.79935051512
 c2421: 120 p_0_2 + 120 p_0_3 + 120 p_0_4 + 120 p_0_7 + 120 p_0_9 + 100000 z_0_2 + 100000 z_0_3 + 100000 z_0_4 + 100000 z_0_7 + 100000 z_0_9 <= 502161.18731281592
 c2422: 120 p_0_1 + 120 p_0_2 + 120 p_0_3 + 120 p_0_4 + 120 p_0_7 + 120 p_0_9 + 100000 z_0_1 + 100000 z_0_2 + 100000 z_0_3 + 100000 z_0_4 + 100000 z_0_7 + 100000 z_0_9 <= 602151.50043368607
 c2423: 120 p_0_5 + 120 p_0_7 + 120 p_0_9 + 100000 z_0_5 + 100000 z_0_7 + 100000 z_0_9 <= 302189.14847541793
 c2424: 120 p_0_1 + 120 p_0_5 + 120 p_0_7 + 120 p_0_9 + 100000 z_0_1 + 100000 z_0_5 + 100000 z_0_7 + 100000 z_0_9 <= 402187.90272666089
 c2425: 120 p_0_2 + 120 p_0_5 + 120 p_0_7 + 120 p_0_9 + 100000 z_0_2 + 100000 z_0_5 + 100000 z_0_7 + 100000 z_0_9 <= 402186.38161731255
 c2426: 120 p_0_1 + 120 p_0_2 + 120 p_0_5 + 120 p_0_7 + 120 p_0_9 + 100000 z_0_1 + 100000 z_0_2 + 100000 z_0_5 + 100000 z_0_7 + 100000 z_0_9 <= 502185.64142283908
 c2427: 120 p_0_3 + 120 p_0_5 + 120 p_0_7 + 120 p_0_9 + 100000 z_0_3 + 100000 z_0_5 + 100000 z_0_7 + 100000 z_0_9 <= 402098.52816537197
 c2428: 120 p_0_1 + 120 p_0_3 + 120 p_0_5 + 120 p_0_7 + 120 p_0_9 + 100000 z_0_1 + 100000 z_0_3 + 100000 z_0_5 + 100000 z_0_7 + 100000 z_0_9 <= 502095.8783189141
 c2429: 120 p_0_2 + 120 p_0_3 + 120 p_0_5 + 120 p_0_7 + 120 p_0_9 + 100000 z_0_2 + 100000 z_0_3 + 100000 z_0_5 + 100000 z_0_7 + 100000 z_0_9 <= 502096.8777577437
 c2430: 120 p_0_1 + 120 p_0_2 + 120 p_0_3 + 120 p_0_5 + 120 p_0_7 + 120 p_0_9 + 100000 z_0_1 + 100000 z_0_2 + 100000 z_0_3 + 100000 z_0_5 + 100000 z_0_7 + 100000 z_0_9 <= 602094.22791128582
 c2431: 120 p_0_4 + 120 p_0_5 + 120 p_0_7 + 120 p_0_9 + 100000 z_0_4 + 100000 z_0_5 + 100000 z_0_7 + 100000 z_0_9 <= 402188.82316489174
 c2432: 120 p_0_1 + 120 p_0_4 + 120 p_0_5 + 120 p_0_7 + 120 p_0_9 + 100000 z_0_1 + 100000 z_0_4 + 100000 z_0_5 + 100000 z_0_7 + 100000 z_0_9 <= 502187.57741613471
 c2433: 120 p_0_2 + 120 p_0_4 + 120 p_0_5 + 120 p_0_7 + 120 p_0_9 + 100000 z_0_2 + 100000 z_0_4 + 100000 z_0_5 + 100000 z_0_7 + 100000 z_0_9 <= 502186.05630678637
 c2434: 120 p_0_1 + 120 p_0_2 + 120 p_0_4 + 120 p_0_5 + 120 p_0_7 + 120 p_0_9 + 100000 z_0_1 + 100000 z_0_2 + 100000 z_0_4 + 100000 z_0_5 + 100000 z_0_7 + 100000 z_0_9 <= 602185.31611231284
 c2435: 120 p_0_3 + 120 p_0_4 + 120 p_0_5 + 120 p_0_7 + 120 p_0_9 + 100000 z_0_3 + 100000 z_0_4 + 100000 z_0_5 + 100000 z_0_7 + 100000 z_0_9 <= 502098.20285484579
 c2436: 120 p_0_1 + 120 p_0_3 + 120 p_0_4 + 120 p_0_5 + 120 p_0_7 + 120 p_0_9 + 100000 z_0_1 + 100000 z_0_3 + 100000 z_0_4 + 100000 z_0_5 + 100000 z_0_7 + 100000 z_0_9 <= 602088.51597571583
 c2437: 120 p_0_2 + 120 p_0_3 + 120 p_0_4 + 120 p_0_5 + 120 p_0_7 + 120 p_0_9 + 100000 z_0_2 + 100000 z_0_3 + 100000 z_0_4 + 100000 z_0_5 + 100000 z_0_7 + 100000 z_0_9 <= 602096.55244721752
 c2438: 120 p_0_1 + 120 p_0_2 + 120 p_0_3 + 120 p_0_4 + 120 p_0_5 + 120 p_0_7 + 120 p_0_9 + 100000 z_0_1 + 100000 z_0_2 + 100000 z_0_3 + 100000 z_0_4 + 100000 z_0_5 + 100000 z_0_7 + 100000 z_0_9 <= 702086.86556808767
 c2439: 120 p_0_6 + 120 p_0_7 + 120 p_0_9 + 100000 z_0_6 + 100000 z_0_7 + 100000 z_0_9 <= 302447.44423450733
 c2440: 120 p_0_1 + 120 p_0_6 + 120 p_0_7 + 120 p_0_9 + 100000 z_0_1 + 100000 z_0_6 + 100000 z_0_7 + 100000 z_0_9 <= 402444.7943880494
 c2441: 120 p_0_2 + 120 p_0_6 + 120 p_0_7 + 120 p_0_9 + 100000 z_0_2 + 100000 z_0_6 + 100000 z_0_7 + 100000 z_0_9 <= 402220.14531767822
 c2442: 120 p_0_1 + 120 p_0_2 + 120 p_0_6 + 120 p_0_7 + 120 p_0_9 + 100000 z_0_1 + 100000 z_0_2 + 100000 z_0_6 + 100000 z_0_7 + 100000 z_0_9 <= 502217.49547122029
 c2443: 120 p_0_3 + 120 p_0_6 + 120 p_0_7 + 120 p_0_9 + 100000 z_0_3 + 100000 z_0_6 + 100000 z_0_7 + 100000 z_0_9 <= 402385.67864074156
 c2444: 120 p_0_1 + 120 p_0_3 + 120 p_0_6 + 120 p_0_7 + 120 p_0_9 + 100000 z_0_1 + 100000 z_0_3 + 100000 z_0_6 + 100000 z_0_7 + 100000 z_0_9 <= 502383.02879428369
 c2445: 120 p_0_2 + 120 p_0_3 + 120 p_0_6 + 120 p_0_7 + 120 p_0_9 + 100000 z_0_2 + 100000 z_0_3 + 100000 z_0_6 + 100000 z_0_7 + 100000 z_0_9 <= 502158.37972391245
 c2446: 120 p_0_1 + 120 p_0_2 + 120 p_0_3 + 120 p_0_6 + 120 p_0_7 + 120 p_0_9 + 100000 z_0_1 + 100000 z_0_2 + 100000 z_0_3 + 100000 z_0_6 + 100000 z_0_7 + 100000 z_0_9 <= 602155.72987745458
 c2447: 120 p_0_4 + 120 p_0_6 + 120 p_0_7 + 120 p_0_9 + 100000 z_0_4 + 100000 z_0_6 + 100000 z_0_7 + 100000 z_0_9 <= 402447.11892398109
 c2448: 120 p_0_1 + 120 p_0_4 + 120 p_0_6 + 120 p_0_7 + 120 p_0_9 + 100000 z_0_1 + 100000 z_0_4 + 100000 z_0_6 + 100000 z_0_7 + 100000 z_0_9 <= 502440.44146196218
 c2449: 120 p_0_2 + 120 p_0_4 + 120 p_0_6 + 120 p_0_7 + 120 p_0_9 + 100000 z_0_2 + 100000 z_0_4 + 100000 z_0_6 + 100000 z_0_7 + 100000 z_0_9 <= 502219.82000715198
 c2450: 120 p_0_1 + 120 p_0_2 + 120 p_0_4 + 120 p_0_6 + 120 p_0_7 + 120 p_0_9 + 100000 z_0_1 + 100000 z_0_2 + 100000 z_0_4 + 100000 z_0_6 + 100000 z_0_7 + 100000 z_0_9 <= 602213.14254513313
 c2451: 120 p_0_3 + 120 p_0_4 + 120 p_0_6 + 120 p_0_7 + 120 p_0_9 + 100000 z_0_3 + 100000 z_0_4 + 100000 z_0_6 + 100000 z_0_7 + 100000 z_0_9 <= 502385.35333021538
 c2452: 120 p_0_1 + 120 p_0_3 + 120 p_0_4 + 120 p_0_6 + 120 p_0_7 + 120 p_0_9 + 100000 z_0_1 + 100000 z_0_3 + 100000 z_0_4 + 100000 z_0_6 + 100000 z_0_7 + 100000 z_0_9 <= 602375.66645108548
 c2453: 120 p_0_2 + 120 p_0_3 + 120 p_0_4 + 120 p_0_6 + 120 p_0_7 + 120 p_0_9 + 100000 z_0_2 + 100000 z_0_3 + 100000 z_0_4 + 100000 z_0_6 + 100000 z_0_7 + 100000 z_0_9 <= 602158.05441338627
 c2454: 120 p_0_1 + 120 p_0_2 + 120 p_0_3 + 120 p_0_4 + 120 p_0_6 + 120 p_0_7 + 120 p_0_9 + 100000 z_0_1 + 100000 z_0_2 + 100000 z_0_3 + 100000 z_0_4 + 100000 z_0_6 + 100000 z_0_7 + 100000 z_0_9 <= 702148.36753425642
 c2455: 120 p_0_5 + 120 p_0_6 + 120 p_0_7 + 120 p_0_9 + 100000 z_0_5 + 100000 z_0_6 + 100000 z_0_7 + 100000 z_0_9 <= 402157.16085970803
 c2456: 120 p_0_1 + 120 p_0_5 + 120 p_0_6 + 120 p_0_7 + 120 p_0_9 + 100000 z_0_1 + 100000 z_0_5 + 100000 z_0_6 + 100000 z_0_7 + 100000 z_0_9 <= 502154.51101325016
 c2457: 120 p_0_2 + 120 p_0_5 + 120 p_0_6 + 120 p_0_7 + 120 p_0_9 + 100000 z_0_2 + 100000 z_0_5 + 100000 z_0_6 + 100000 z_0_7 + 100000 z_0_9 <= 502155.51045207982
 c2458: 120 p_0_1 + 120 p_0_2 + 120 p_0_5 + 120 p_0_6 + 120 p_0_7 + 120 p_0_9 + 100000 z_0_1 + 100000 z_0_2 + 100000 z_0_5 + 100000 z_0_6 + 100000 z_0_7 + 100000 z_0_9 <= 602152.86060562194
 c2459: 120 p_0_3 + 120 p_0_5 + 120 p_0_6 + 120 p_0_7 + 120 p_0_9 + 100000 z_0_3 + 100000 z_0_5 + 100000 z_0_6 + 100000 z_0_7 + 100000 z_0_9 <= 502095.39526594232
 c2460: 120 p_0_1 + 120 p_0_3 + 120 p_0_5 + 120 p_0_6 + 120 p_0_7 + 120 p_0_9 + 100000 z_0_1 + 100000 z_0_3 + 100000 z_0_5 + 100000 z_0_6 + 100000 z_0_7 + 100000 z_0_9 <= 602092.74541948445
 c2461: 120 p_0_2 + 120 p_0_3 + 120 p_0_5 + 120 p_0_6 + 120 p_0_7 + 120 p_0_9 + 100000 z_0_2 + 100000 z_0_3 + 100000 z_0_5 + 100000 z_0_6 + 100000 z_0_7 + 100000 z_0_9 <= 602093.74485831405
 c2462: 120 p_0_1 + 120 p_0_2 + 120 p_0_3 + 120 p_0_5 + 120 p_0_6 + 120 p_0_7 + 120 p_0_9 + 100000 z_0_1 + 100000 z_0_2 + 100000 z_0_3 + 100000 z_0_5 + 100000 z_0_6 + 100000 z_0_7 + 100000 z_0_9 <= 702091.09501185617
 c2463: 120 p_0_4 + 120 p_0_5 + 120 p_0_6 + 120 p_0_7 + 120 p_0_9 + 100000 z_0_4 + 100000 z_0_5 + 100000 z_0_6 + 100000 z_0_7 + 100000 z_0_9 <= 502156.83554918185
 c2464: 120 p_0_1 + 120 p_0_4 + 120 p_0_5 + 120 p_0_6 + 120 p_0_7 + 120 p_0_9 + 100000 z_0_1 + 100000 z_0_4 + 100000 z_0_5 + 100000 z_0_6 + 100000 z_0_7 + 100000 z_0_9 <= 602150.158087163
 c2465: 120 p_0_2 + 120 p_0_4 + 120 p_0_5 + 120 p_0_6 + 120 p_0_7 + 120 p_0_9 + 100000 z_0_2 + 100000 z_0_4 + 100000 z_0_5 + 100000 z_0_6 + 100000 z_0_7 + 100000 z_0_9 <= 602155.18514155364
 c2466: 120 p_0_1 + 120 p_0_2 + 120 p_0_4 + 120 p_0_5 + 120 p_0_6 + 120 p_0_7 + 120 p_0_9 + 100000 z_0_1 + 100000 z_0_2 + 100000 z_0_4 + 100000 z_0_5 + 100000 z_0_6 + 100000 z_0_7 + 100000 z_0_9 <= 702148.50767953473
 c2467: 120 p_0_3 + 120 p_0_4 + 120 p_0_5 + 120 p_0_6 + 120 p_0_7 + 120 p_0_9 + 100000 z_0_3 + 100000 z_0_4 + 100000 z_0_5 + 100000 z_0_6 + 100000 z_0_7 + 100000 z_0_9 <= 602095.06995541614
 c2468: 120 p_0_1 + 120 p_0_3 + 120 p_0_4 + 120 p_0_5 + 120 p_0_6 + 120 p_0_7 + 120 p_0_9 + 100000 z_0_1 + 100000 z_0_3 + 100000 z_0_4 + 100000 z_0_5 + 100000 z_0_6 + 100000 z_0_7 + 100000 z_0_9 <= 702085.38307628618
 c2469: 120 p_0_2 + 120 p_0_3 + 120 p_0_4 + 120 p_0_5 + 120 p_0_6 + 120 p_0_7 + 120 p_0_9 + 100000 z_0_2 + 100000 z_0_3 + 100000 z_0_4 + 100000 z_0_5 + 100000 z_0_6 + 100000 z_0_7 + 100000 z_0_9 <= 702093.41954778787
 c2470: 120 p_0_1 + 120 p_0_2 + 120 p_0_3 + 120 p_0_4 + 120 p_0_5 + 120 p_0_6 + 120 p_0_7 + 120 p_0_9 + 100000 z_0_1 + 100000 z_0_2 + 100000 z_0_3 + 100000 z_0_4 + 100000 z_0_5 + 100000 z_0_6 + 100000 z_0_7 + 100000 z_0_9 <= 802083.73266865802
 c2471: 120 p_0_8 + 120 p_0_9 + 100000 z_0_8 + 100000 z_0_9 <= 202711.92510962582
 c2472: 120 p_0_1 + 120 p_0_8 + 120 p_0_9 + 100000 z_0_1 + 100000 z_0_8 + 100000 z_0_9 <= 302319.4709699857
 c2473: 120 p_0_2 + 120 p_0_8 + 120 p_0_9 + 100000 z_0_2 + 100000 z_0_8 + 100000 z_0_9 <= 302710.38810883049
 c2474: 120 p_0_1 + 120 p_0_2 + 120 p_0_8 + 120 p_0_9 + 100000 z_0_1 + 100000 z_0_2 + 100000 z_0_8 + 100000 z_0_9 <= 402306.49409340805
 c2475: 120 p_0_3 + 120 p_0_8 + 120 p_0_9 + 100000 z_0_3 + 100000 z_0_8 + 100000 z_0_9 <= 302575.58689954423
 c2476: 120 p_0_1 + 120 p_0_3 + 120 p_0_8 + 120 p_0_9 + 100000 z_0_1 + 100000 z_0_3 + 100000 z_0_8 + 100000 z_0_9 <= 402183.13275990408
 c2477: 120 p_0_2 + 120 p_0_3 + 120 p_0_8 + 120 p_0_9 + 100000 z_0_2 + 100000 z_0_3 + 100000 z_0_8 + 100000 z_0_9 <= 402574.04989874887
 c2478: 120 p_0_1 + 120 p_0_2 + 120 p_0_3 + 120 p_0_8 + 120 p_0_9 + 100000 z_0_1 + 100000 z_0_2 + 100000 z_0_3 + 100000 z_0_8 + 100000 z_0_9 <= 502176.52366659063
 c2479: 120 p_0_4 + 120 p_0_8 + 120 p_0_9 + 100000 z_0_4 + 100000 z_0_8 + 100000 z_0_9 <= 302253.23583633144
 c2480: 120 p_0_1 + 120 p_0_4 + 120 p_0_8 + 120 p_0_9 + 100000 z_0_1 + 100000 z_0_4 + 100000 z_0_8 + 100000 z_0_9 <= 402252.44550625095
 c2481: 120 p_0_2 + 120 p_0_4 + 120 p_0_8 + 120 p_0_9 + 100000 z_0_2 + 100000 z_0_4 + 100000 z_0_8 + 100000 z_0_9 <= 402240.25895975379
 c2482: 120 p_0_1 + 120 p_0_2 + 120 p_0_4 + 120 p_0_8 + 120 p_0_9 + 100000 z_0_1 + 100000 z_0_2 + 100000 z_0_4 + 100000 z_0_8 + 100000 z_0_9 <= 502239.4686296733
 c2483: 120 p_0_3 + 120 p_0_4 + 120 p_0_8 + 120 p_0_9 + 100000 z_0_3 + 100000 z_0_4 + 100000 z_0_8 + 100000 z_0_9 <= 402140.63789114781
 c2484: 120 p_0_1 + 120 p_0_3 + 120 p_0_4 + 120 p_0_8 + 120 p_0_9 + 100000 z_0_1 + 100000 z_0_3 + 100000 z_0_4 + 100000 z_0_8 + 100000 z_0_9 <= 502130.69694391132
 c2485: 120 p_0_2 + 120 p_0_3 + 120 p_0_4 + 120 p_0_8 + 120 p_0_9 + 100000 z_0_2 + 100000 z_0_3 + 100000 z_0_4 + 100000 z_0_8 + 100000 z_0_9 <= 502139.10089035251
 c2486: 120 p_0_1 + 120 p_0_2 + 120 p_0_3 + 120 p_0_4 + 120 p_0_8 + 120 p_0_9 + 100000 z_0_1 + 100000 z_0_2 + 100000 z_0_3 + 100000 z_0_4 + 100000 z_0_8 + 100000 z_0_9 <= 602129.15994311601
 c2487: 120 p_0_5 + 120 p_0_8 + 120 p_0_9 + 100000 z_0_5 + 100000 z_0_8 + 100000 z_0_9 <= 302711.91985053581
 c2488: 120 p_0_1 + 120 p_0_5 + 120 p_0_8 + 120 p_0_9 + 100000 z_0_1 + 100000 z_0_5 + 100000 z_0_8 + 100000 z_0_9 <= 402319.46571089572
 c2489: 120 p_0_2 + 120 p_0_5 + 120 p_0_8 + 120 p_0_9 + 100000 z_0_2 + 100000 z_0_5 + 100000 z_0_8 + 100000 z_0_9 <= 402710.3828497405
 c2490: 120 p_0_1 + 120 p_0_2 + 120 p_0_5 + 120 p_0_8 + 120 p_0_9 + 100000 z_0_1 + 100000 z_0_2 + 100000 z_0_5 + 100000 z_0_8 + 100000 z_0_9 <= 502294.63069198601
 c2491: 120 p_0_3 + 120 p_0_5 + 120 p_0_8 + 120 p_0_9 + 100000 z_0_3 + 100000 z_0_5 + 100000 z_0_8 + 100000 z_0_9 <= 402575.58164045418
 c2492: 120 p_0_1 + 120 p_0_3 + 120 p_0_5 + 120 p_0_8 + 120 p_0_9 + 100000 z_0_1 + 100000 z_0_3 + 100000 z_0_5 + 100000 z_0_8 + 100000 z_0_9 <= 502183.12750081409
 c2493: 120 p_0_2 + 120 p_0_3 + 120 p_0_5 + 120 p_0_8 + 120 p_0_9 + 100000 z_0_2 + 100000 z_0_3 + 100000 z_0_5 + 100000 z_0_8 + 100000 z_0_9 <= 502574.04463965888
 c2494: 120 p_0_1 + 120 p_0_2 + 120 p_0_3 + 120 p_0_5 + 120 p_0_8 + 120 p_0_9 + 100000 z_0_1 + 100000 z_0_2 + 100000 z_0_3 + 100000 z_0_5 + 100000 z_0_8 + 100000 z_0_9 <= 602176.51840750058
 c2495: 120 p_0_4 + 120 p_0_5 + 120 p_0_8 + 120 p_0_9 + 100000 z_0_4 + 100000 z_0_5 + 100000 z_0_8 + 100000 z_0_9 <= 402253.23057724145
 c2496: 120 p_0_1 + 120 p_0_4 + 120 p_0_5 + 120 p_0_8 + 120 p_0_9 + 100000 z_0_1 + 100000 z_0_4 + 100000 z_0_5 + 100000 z_0_8 + 100000 z_0_9 <= 502252.44024716096
 c2497: 120 p_0_2 + 120 p_0_4 + 120 p_0_5 + 120 p_0_8 + 120 p_0_9 + 100000 z_0_2 + 100000 z_0_4 + 100000 z_0_5 + 100000 z_0_8 + 100000 z_0_9 <= 502229.98441777093
 c2498: 120 p_0_1 + 120 p_0_2 + 120 p_0_4 + 120 p_0_5 + 120 p_0_8 + 120 p_0_9 + 100000 z_0_1 + 100000 z_0_2 + 100000 z_0_4 + 100000 z_0_5 + 100000 z_0_8 + 100000 z_0_9 <= 602227.6052282512
 c2499: 120 p_0_3 + 120 p_0_4 + 120 p_0_5 + 120 p_0_8 + 120 p_0_9 + 100000 z_0_3 + 100000 z_0_4 + 100000 z_0_5 + 100000 z_0_8 + 100000 z_0_9 <= 502140.63263205782
 c2500: 120 p_0_1 + 120 p_0_3 + 120 p_0_4 + 120 p_0_5 + 120 p_0_8 + 120 p_0_9 + 100000 z_0_1 + 100000 z_0_3 + 100000 z_0_4 + 100000 z_0_5 + 100000 z_0_8 + 100000 z_0_9 <= 602130.69168482127
 c2501: 120 p_0_2 + 120 p_0_3 + 120 p_0_4 + 120 p_0_5 + 120 p_0_8 + 120 p_0_9 + 100000 z_0_2 + 100000 z_0_3 + 100000 z_0_4 + 100000 z_0_5 + 100000 z_0_8 + 100000 z_0_9 <= 602139.09563126252
 c2502: 120 p_0_1 + 120 p_0_2 + 120 p_0_3 + 120 p_0_4 + 120 p_0_5 + 120 p_0_8 + 120 p_0_9 + 100000 z_0_1 + 100000 z_0_2 + 100000 z_0_3 + 100000 z_0_4 + 100000 z_0_5 + 100000 z_0_8 + 100000 z_0_9 <= 702129.15468402603
 c2503: 120 p_0_6 + 120 p_0_8 + 120 p_0_9 + 100000 z_0_6 + 100000 z_0_8 + 100000 z_0_9 <= 302662.86125822616
 c2504: 120 p_0_1 + 120 p_0_6 + 120 p_0_8 + 120 p_0_9 + 100000 z_0_1 + 100000 z_0_6 + 100000 z_0_8 + 100000 z_0_9 <= 402270.40711858607
 c2505: 120 p_0_2 + 120 p_0_6 + 120 p_0_8 + 120 p_0_9 + 100000 z_0_2 + 100000 z_0_6 + 100000 z_0_8 + 100000 z_0_9 <= 402661.32425743085
 c2506: 120 p_0_1 + 120 p_0_2 + 120 p_0_6 + 120 p_0_8 + 120 p_0_9 + 100000 z_0_1 + 100000 z_0_2 + 100000 z_0_6 + 100000 z_0_8 + 100000 z_0_9 <= 502257.43024200835
 c2507: 120 p_0_3 + 120 p_0_6 + 120 p_0_8 + 120 p_0_9 + 100000 z_0_3 + 100000 z_0_6 + 100000 z_0_8 + 100000 z_0_9 <= 402572.45400011458
 c2508: 120 p_0_1 + 120 p_0_3 + 120 p_0_6 + 120 p_0_8 + 120 p_0_9 + 100000 z_0_1 + 100000 z_0_3 + 100000 z_0_6 + 100000 z_0_8 + 100000 z_0_9 <= 502179.99986047443
 c2509: 120 p_0_2 + 120 p_0_3 + 120 p_0_6 + 120 p_0_8 + 120 p_0_9 + 100000 z_0_2 + 100000 z_0_3 + 100000 z_0_6 + 100000 z_0_8 + 100000 z_0_9 <= 502570.91699931922
 c2510: 120 p_0_1 + 120 p_0_2 + 120 p_0_3 + 120 p_0_6 + 120 p_0_8 + 120 p_0_9 + 100000 z_0_1 + 100000 z_0_2 + 100000 z_0_3 + 100000 z_0_6 + 100000 z_0_8 + 100000 z_0_9 <= 602173.39076716092
 c2511: 120 p_0_4 + 120 p_0_6 + 120 p_0_8 + 120 p_0_9 + 100000 z_0_4 + 100000 z_0_6 + 100000 z_0_8 + 100000 z_0_9 <= 402204.1719849318
 c2512: 120 p_0_1 + 120 p_0_4 + 120 p_0_6 + 120 p_0_8 + 120 p_0_9 + 100000 z_0_1 + 100000 z_0_4 + 100000 z_0_6 + 100000 z_0_8 + 100000 z_0_9 <= 502203.38165485131
 c2513: 120 p_0_2 + 120 p_0_4 + 120 p_0_6 + 120 p_0_8 + 120 p_0_9 + 100000 z_0_2 + 100000 z_0_4 + 100000 z_0_6 + 100000 z_0_8 + 100000 z_0_9 <= 502200.74300179956
 c2514: 120 p_0_1 + 120 p_0_2 + 120 p_0_4 + 120 p_0_6 + 120 p_0_8 + 120 p_0_9 + 100000 z_0_1 + 100000 z_0_2 + 100000 z_0_4 + 100000 z_0_6 + 100000 z_0_8 + 100000 z_0_9 <= 602190.80205456307
 c2515: 120 p_0_3 + 120 p_0_4 + 120 p_0_6 + 120 p_0_8 + 120 p_0_9 + 100000 z_0_3 + 100000 z_0_4 + 100000 z_0_6 + 100000 z_0_8 + 100000 z_0_9 <= 502137.50499171816
 c2516: 120 p_0_1 + 120 p_0_3 + 120 p_0_4 + 120 p_0_6 + 120 p_0_8 + 120 p_0_9 + 100000 z_0_1 + 100000 z_0_3 + 100000 z_0_4 + 100000 z_0_6 + 100000 z_0_8 + 100000 z_0_9 <= 602127.56404448173
 c2517: 120 p_0_2 + 120 p_0_3 + 120 p_0_4 + 120 p_0_6 + 120 p_0_8 + 120 p_0_9 + 100000 z_0_2 + 100000 z_0_3 + 100000 z_0_4 + 100000 z_0_6 + 100000 z_0_8 + 100000 z_0_9 <= 602135.96799092286
 c2518: 120 p_0_1 + 120 p_0_2 + 120 p_0_3 + 120 p_0_4 + 120 p_0_6 + 120 p_0_8 + 120 p_0_9 + 100000 z_0_1 + 100000 z_0_2 + 100000 z_0_3 + 100000 z_0_4 + 100000 z_0_6 + 100000 z_0_8 + 100000 z_0_9 <= 702126.02704368636
 c2519: 120 p_0_5 + 120 p_0_6 + 120 p_0_8 + 120 p_0_9 + 100000 z_0_5 + 100000 z_0_6 + 100000 z_0_8 + 100000 z_0_9 <= 402662.85599913617
 c2520: 120 p_0_1 + 120 p_0_5 + 120 p_0_6 + 120 p_0_8 + 120 p_0_9 + 100000 z_0_1 + 100000 z_0_5 + 100000 z_0_6 + 100000 z_0_8 + 100000 z_0_9 <= 502270.40185949602
 c2521: 120 p_0_2 + 120 p_0_5 + 120 p_0_6 + 120 p_0_8 + 120 p_0_9 + 100000 z_0_2 + 100000 z_0_5 + 100000 z_0_6 + 100000 z_0_8 + 100000 z_0_9 <= 502661.31899834081
 c2522: 120 p_0_1 + 120 p_0_2 + 120 p_0_5 + 120 p_0_6 + 120 p_0_8 + 120 p_0_9 + 100000 z_0_1 + 100000 z_0_2 + 100000 z_0_5 + 100000 z_0_6 + 100000 z_0_8 + 100000 z_0_9 <= 602245.56684058625
 c2523: 120 p_0_3 + 120 p_0_5 + 120 p_0_6 + 120 p_0_8 + 120 p_0_9 + 100000 z_0_3 + 100000 z_0_5 + 100000 z_0_6 + 100000 z_0_8 + 100000 z_0_9 <= 502572.44874102453
 c2524: 120 p_0_1 + 120 p_0_3 + 120 p_0_5 + 120 p_0_6 + 120 p_0_8 + 120 p_0_9 + 100000 z_0_1 + 100000 z_0_3 + 100000 z_0_5 + 100000 z_0_6 + 100000 z_0_8 + 100000 z_0_9 <= 602179.9946013845
 c2525: 120 p_0_2 + 120 p_0_3 + 120 p_0_5 + 120 p_0_6 + 120 p_0_8 + 120 p_0_9 + 100000 z_0_2 + 100000 z_0_3 + 100000 z_0_5 + 100000 z_0_6 + 100000 z_0_8 + 100000 z_0_9 <= 602570.91174022923
 c2526: 120 p_0_1 + 120 p_0_2 + 120 p_0_3 + 120 p_0_5 + 120 p_0_6 + 120 p_0_8 + 120 p_0_9 + 100000 z_0_1 + 100000 z_0_2 + 100000 z_0_3 + 100000 z_0_5 + 100000 z_0_6 + 100000 z_0_8 + 100000 z_0_9 <= 702173.38550807093
 c2527: 120 p_0_4 + 120 p_0_5 + 120 p_0_6 + 120 p_0_8 + 120 p_0_9 + 100000 z_0_4 + 100000 z_0_5 + 100000 z_0_6 + 100000 z_0_8 + 100000 z_0_9 <= 502204.16672584176
 c2528: 120 p_0_1 + 120 p_0_4 + 120 p_0_5 + 120 p_0_6 + 120 p_0_8 + 120 p_0_9 + 100000 z_0_1 + 100000 z_0_4 + 100000 z_0_5 + 100000 z_0_6 + 100000 z_0_8 + 100000 z_0_9 <= 602203.37639576127
 c2529: 120 p_0_2 + 120 p_0_4 + 120 p_0_5 + 120 p_0_6 + 120 p_0_8 + 120 p_0_9 + 100000 z_0_2 + 100000 z_0_4 + 100000 z_0_5 + 100000 z_0_6 + 100000 z_0_8 + 100000 z_0_9 <= 602200.73774270958
 c2530: 120 p_0_1 + 120 p_0_2 + 120 p_0_4 + 120 p_0_5 + 120 p_0_6 + 120 p_0_8 + 120 p_0_9 + 100000 z_0_1 + 100000 z_0_2 + 100000 z_0_4 + 100000 z_0_5 + 100000 z_0_6 + 100000 z_0_8 + 100000 z_0_9 <= 702190.79679547308
 c2531: 120 p_0_3 + 120 p_0_4 + 120 p_0_5 + 120 p_0_6 + 120 p_0_8 + 120 p_0_9 + 100000 z_0_3 + 100000 z_0_4 + 100000 z_0_5 + 100000 z_0_6 + 100000 z_0_8 + 100000 z_0_9 <= 602137.49973262812
 c2532: 120 p_0_1 + 120 p_0_3 + 120 p_0_4 + 120 p_0_5 + 120 p_0_6 + 120 p_0_8 + 120 p_0_9 + 100000 z_0_1 + 100000 z_0_3 + 100000 z_0_4 + 100000 z_0_5 + 100000 z_0_6 + 100000 z_0_8 + 100000 z_0_9 <= 702127.55878539162
 c2533: 120 p_0_2 + 120 p_0_3 + 120 p_0_4 + 120 p_0_5 + 120 p_0_6 + 120 p_0_8 + 120 p_0_9 + 100000 z_0_2 + 100000 z_0_3 + 100000 z_0_4 + 100000 z_0_5 + 100000 z_0_6 + 100000 z_0_8 + 100000 z_0_9 <= 702135.96273183287
 c2534: 120 p_0_1 + 120 p_0_2 + 120 p_0_3 + 120 p_0_4 + 120 p_0_5 + 120 p_0_6 + 120 p_0_8 + 120 p_0_9 + 100000 z_0_1 + 100000 z_0_2 + 100000 z_0_3 + 100000 z_0_4 + 100000 z_0_5 + 100000 z_0_6 + 100000 z_0_8 + 100000 z_0_9 <= 802126.02178459638
 c2535: 120 p_0_7 + 120 p_0_8 + 120 p_0_9 + 100000 z_0_7 + 100000 z_0_8 + 100000 z_0_9 <= 302128.71819748683
 c2536: 120 p_0_1 + 120 p_0_7 + 120 p_0_8 + 120 p_0_9 + 100000 z_0_1 + 100000 z_0_7 + 100000 z_0_8 + 100000 z_0_9 <= 402126.06835102889
 c2537: 120 p_0_2 + 120 p_0_7 + 120 p_0_8 + 120 p_0_9 + 100000 z_0_2 + 100000 z_0_7 + 100000 z_0_8 + 100000 z_0_9 <= 402115.74132090912
 c2538: 120 p_0_1 + 120 p_0_2 + 120 p_0_7 + 120 p_0_8 + 120 p_0_9 + 100000 z_0_1 + 100000 z_0_2 + 100000 z_0_7 + 100000 z_0_8 + 100000 z_0_9 <= 502113.09147445124
 c2539: 120 p_0_3 + 120 p_0_7 + 120 p_0_8 + 120 p_0_9 + 100000 z_0_3 + 100000 z_0_7 + 100000 z_0_8 + 100000 z_0_9 <= 402013.13736959721
 c2540: 120 p_0_1 + 120 p_0_3 + 120 p_0_7 + 120 p_0_8 + 120 p_0_9 + 100000 z_0_1 + 100000 z_0_3 + 100000 z_0_7 + 100000 z_0_8 + 100000 z_0_9 <= 502010.48752313934
 c2541: 120 p_0_2 + 120 p_0_3 + 120 p_0_7 + 120 p_0_8 + 120 p_0_9 + 100000 z_0_2 + 100000 z_0_3 + 100000 z_0_7 + 100000 z_0_8 + 100000 z_0_9 <= 502011.60036880191
 c2542: 120 p_0_1 + 120 p_0_2 + 120 p_0_3 + 120 p_0_7 + 120 p_0_8 + 120 p_0_9 + 100000 z_0_1 + 100000 z_0_2 + 100000 z_0_3 + 100000 z_0_7 + 100000 z_0_8 + 100000 z_0_9 <= 602008.95052234398
 c2543: 120 p_0_4 + 120 p_0_7 + 120 p_0_8 + 120 p_0_9 + 100000 z_0_4 + 100000 z_0_7 + 100000 z_0_8 + 100000 z_0_9 <= 402128.39288696065
 c2544: 120 p_0_1 + 120 p_0_4 + 120 p_0_7 + 120 p_0_8 + 120 p_0_9 + 100000 z_0_1 + 100000 z_0_4 + 100000 z_0_7 + 100000 z_0_8 + 100000 z_0_9 <= 502124.87374228076
 c2545: 120 p_0_2 + 120 p_0_4 + 120 p_0_7 + 120 p_0_8 + 120 p_0_9 + 100000 z_0_2 + 100000 z_0_4 + 100000 z_0_7 + 100000 z_0_8 + 100000 z_0_9 <= 502115.41601038293
 c2546: 120 p_0_1 + 120 p_0_2 + 120 p_0_4 + 120 p_0_7 + 120 p_0_8 + 120 p_0_9 + 100000 z_0_1 + 100000 z_0_2 + 100000 z_0_4 + 100000 z_0_7 + 100000 z_0_8 + 100000 z_0_9 <= 602111.89686570305
 c2547: 120 p_0_3 + 120 p_0_4 + 120 p_0_7 + 120 p_0_8 + 120 p_0_9 + 100000 z_0_3 + 100000 z_0_4 + 100000 z_0_7 + 100000 z_0_8 + 100000 z_0_9 <= 502012.81205907103
 c2548: 120 p_0_1 + 120 p_0_3 + 120 p_0_4 + 120 p_0_7 + 120 p_0_8 + 120 p_0_9 + 100000 z_0_1 + 100000 z_0_3 + 100000 z_0_4 + 100000 z_0_7 + 100000 z_0_8 + 100000 z_0_9 <= 602003.12517994118
 c2549: 120 p_0_2 + 120 p_0_3 + 120 p_0_4 + 120 p_0_7 + 120 p_0_8 + 120 p_0_9 + 100000 z_0_2 + 100000 z_0_3 + 100000 z_0_4 + 100000 z_0_7 + 100000 z_0_8 + 100000 z_0_9 <= 602011.27505827567
 c2550: 120 p_0_1 + 120 p_0_2 + 120 p_0_3 + 120 p_0_4 + 120 p_0_7 + 120 p_0_8 + 120 p_0_9 + 100000 z_0_1 + 100000 z_0_2 + 100000 z_0_3 + 100000 z_0_4 + 100000 z_0_7 + 100000 z_0_8 + 100000 z_0_9 <= 702001.58817914582
 c2551: 120 p_0_5 + 120 p_0_7 + 120 p_0_8 + 120 p_0_9 + 100000 z_0_5 + 100000 z_0_7 + 100000 z_0_8 + 100000 z_0_9 <= 402128.71293839678
 c2552: 120 p_0_1 + 120 p_0_5 + 120 p_0_7 + 120 p_0_8 + 120 p_0_9 + 100000 z_0_1 + 100000 z_0_5 + 100000 z_0_7 + 100000 z_0_8 + 100000 z_0_9 <= 502126.06309193891
 c2553: 120 p_0_2 + 120 p_0_5 + 120 p_0_7 + 120 p_0_8 + 120 p_0_9 + 100000 z_0_2 + 100000 z_0_5 + 100000 z_0_7 + 100000 z_0_8 + 100000 z_0_9 <= 502103.16790967021
 c2554: 120 p_0_1 + 120 p_0_2 + 120 p_0_5 + 120 p_0_7 + 120 p_0_8 + 120 p_0_9 + 100000 z_0_1 + 100000 z_0_2 + 100000 z_0_5 + 100000 z_0_7 + 100000 z_0_8 + 100000 z_0_9 <= 602100.51806321228
 c2555: 120 p_0_3 + 120 p_0_5 + 120 p_0_7 + 120 p_0_8 + 120 p_0_9 + 100000 z_0_3 + 100000 z_0_5 + 100000 z_0_7 + 100000 z_0_8 + 100000 z_0_9 <= 502013.13211050723
 c2556: 120 p_0_1 + 120 p_0_3 + 120 p_0_5 + 120 p_0_7 + 120 p_0_8 + 120 p_0_9 + 100000 z_0_1 + 100000 z_0_3 + 100000 z_0_5 + 100000 z_0_7 + 100000 z_0_8 + 100000 z_0_9 <= 602010.48226404935
 c2557: 120 p_0_2 + 120 p_0_3 + 120 p_0_5 + 120 p_0_7 + 120 p_0_8 + 120 p_0_9 + 100000 z_0_2 + 100000 z_0_3 + 100000 z_0_5 + 100000 z_0_7 + 100000 z_0_8 + 100000 z_0_9 <= 602011.59510971187
 c2558: 120 p_0_1 + 120 p_0_2 + 120 p_0_3 + 120 p_0_5 + 120 p_0_7 + 120 p_0_8 + 120 p_0_9 + 100000 z_0_1 + 100000 z_0_2 + 100000 z_0_3 + 100000 z_0_5 + 100000 z_0_7 + 100000 z_0_8 + 100000 z_0_9 <= 702008.94526325399
 c2559: 120 p_0_4 + 120 p_0_5 + 120 p_0_7 + 120 p_0_8 + 120 p_0_9 + 100000 z_0_4 + 100000 z_0_5 + 100000 z_0_7 + 100000 z_0_8 + 100000 z_0_9 <= 502128.3876278706
 c2560: 120 p_0_1 + 120 p_0_4 + 120 p_0_5 + 120 p_0_7 + 120 p_0_8 + 120 p_0_9 + 100000 z_0_1 + 100000 z_0_4 + 100000 z_0_5 + 100000 z_0_7 + 100000 z_0_8 + 100000 z_0_9 <= 602124.86848319077
 c2561: 120 p_0_2 + 120 p_0_4 + 120 p_0_5 + 120 p_0_7 + 120 p_0_8 + 120 p_0_9 + 100000 z_0_2 + 100000 z_0_4 + 100000 z_0_5 + 100000 z_0_7 + 100000 z_0_8 + 100000 z_0_9 <= 602102.84259914397
 c2562: 120 p_0_1 + 120 p_0_2 + 120 p_0_4 + 120 p_0_5 + 120 p_0_7 + 120 p_0_8 + 120 p_0_9 + 100000 z_0_1 + 100000 z_0_2 + 100000 z_0_4 + 100000 z_0_5 + 100000 z_0_7 + 100000 z_0_8 + 100000 z_0_9 <= 702100.033464281
 c2563: 120 p_0_3 + 120 p_0_4 + 120 p_0_5 + 120 p_0_7 + 120 p_0_8 + 120 p_0_9 + 100000 z_0_3 + 100000 z_0_4 + 100000 z_0_5 + 100000 z_0_7 + 100000 z_0_8 + 100000 z_0_9 <= 602012.80679998104
 c2564: 120 p_0_1 + 120 p_0_3 + 120 p_0_4 + 120 p_0_5 + 120 p_0_7 + 120 p_0_8 + 120 p_0_9 + 100000 z_0_1 + 100000 z_0_3 + 100000 z_0_4 + 100000 z_0_5 + 100000 z_0_7 + 100000 z_0_8 + 100000 z_0_9 <= 702003.11992085108
 c2565: 120 p_0_2 + 120 p_0_3 + 120 p_0_4 + 120 p_0_5 + 120 p_0_7 + 120 p_0_8 + 120 p_0_9 + 100000 z_0_2 + 100000 z_0_3 + 100000 z_0_4 + 100000 z_0_5 + 100000 z_0_7 + 100000 z_0_8 + 100000 z_0_9 <= 702011.26979918568
 c2566: 120 p_0_1 + 120 p_0_2 + 120 p_0_3 + 120 p_0_4 + 120 p_0_5 + 120 p_0_7 + 120 p_0_8 + 120 p_0_9 + 100000 z_0_1 + 100000 z_0_2 + 100000 z_0_3 + 100000 z_0_4 + 100000 z_0_5 + 100000 z_0_7 + 100000 z_0_8 + 100000 z_0_9 <= 802001.58292005584
 c2567: 120 p_0_6 + 120 p_0_7 + 120 p_0_8 + 120 p_0_9 + 100000 z_0_6 + 100000 z_0_7 + 100000 z_0_8 + 100000 z_0_9 <= 402079.65434608713
 c2568: 120 p_0_1 + 120 p_0_6 + 120 p_0_7 + 120 p_0_8 + 120 p_0_9 + 100000 z_0_1 + 100000 z_0_6 + 100000 z_0_7 + 100000 z_0_8 + 100000 z_0_9 <= 502077.00449962926
 c2569: 120 p_0_2 + 120 p_0_6 + 120 p_0_7 + 120 p_0_8 + 120 p_0_9 + 100000 z_0_2 + 100000 z_0_6 + 100000 z_0_7 + 100000 z_0_8 + 100000 z_0_9 <= 502070.23306313797
 c2570: 120 p_0_1 + 120 p_0_2 + 120 p_0_6 + 120 p_0_7 + 120 p_0_8 + 120 p_0_9 + 100000 z_0_1 + 100000 z_0_2 + 100000 z_0_6 + 100000 z_0_7 + 100000 z_0_8 + 100000 z_0_9 <= 602067.5832166801
 c2571: 120 p_0_3 + 120 p_0_6 + 120 p_0_7 + 120 p_0_8 + 120 p_0_9 + 100000 z_0_3 + 100000 z_0_6 + 100000 z_0_7 + 100000 z_0_8 + 100000 z_0_9 <= 502010.00447016757
 c2572: 120 p_0_1 + 120 p_0_3 + 120 p_0_6 + 120 p_0_7 + 120 p_0_8 + 120 p_0_9 + 100000 z_0_1 + 100000 z_0_3 + 100000 z_0_6 + 100000 z_0_7 + 100000 z_0_8 + 100000 z_0_9 <= 602007.35462370969
 c2573: 120 p_0_2 + 120 p_0_3 + 120 p_0_6 + 120 p_0_7 + 120 p_0_8 + 120 p_0_9 + 100000 z_0_2 + 100000 z_0_3 + 100000 z_0_6 + 100000 z_0_7 + 100000 z_0_8 + 100000 z_0_9 <= 602008.4674693722
 c2574: 120 p_0_1 + 120 p_0_2 + 120 p_0_3 + 120 p_0_6 + 120 p_0_7 + 120 p_0_8 + 120 p_0_9 + 100000 z_0_1 + 100000 z_0_2 + 100000 z_0_3 + 100000 z_0_6 + 100000 z_0_7 + 100000 z_0_8 + 100000 z_0_9 <= 702005.81762291433
 c2575: 120 p_0_4 + 120 p_0_6 + 120 p_0_7 + 120 p_0_8 + 120 p_0_9 + 100000 z_0_4 + 100000 z_0_6 + 100000 z_0_7 + 100000 z_0_8 + 100000 z_0_9 <= 502079.32903556095
 c2576: 120 p_0_1 + 120 p_0_4 + 120 p_0_6 + 120 p_0_7 + 120 p_0_8 + 120 p_0_9 + 100000 z_0_1 + 100000 z_0_4 + 100000 z_0_6 + 100000 z_0_7 + 100000 z_0_8 + 100000 z_0_9 <= 602075.80989088106
 c2577: 120 p_0_2 + 120 p_0_4 + 120 p_0_6 + 120 p_0_7 + 120 p_0_8 + 120 p_0_9 + 100000 z_0_2 + 100000 z_0_4 + 100000 z_0_6 + 100000 z_0_7 + 100000 z_0_8 + 100000 z_0_9 <= 602069.90775261179
 c2578: 120 p_0_1 + 120 p_0_2 + 120 p_0_4 + 120 p_0_6 + 120 p_0_7 + 120 p_0_8 + 120 p_0_9 + 100000 z_0_1 + 100000 z_0_2 + 100000 z_0_4 + 100000 z_0_6 + 100000 z_0_7 + 100000 z_0_8 + 100000 z_0_9 <= 702063.23029059288
 c2579: 120 p_0_3 + 120 p_0_4 + 120 p_0_6 + 120 p_0_7 + 120 p_0_8 + 120 p_0_9 + 100000 z_0_3 + 100000 z_0_4 + 100000 z_0_6 + 100000 z_0_7 + 100000 z_0_8 + 100000 z_0_9 <= 602009.67915964138
 c2580: 120 p_0_1 + 120 p_0_3 + 120 p_0_4 + 120 p_0_6 + 120 p_0_7 + 120 p_0_8 + 120 p_0_9 + 100000 z_0_1 + 100000 z_0_3 + 100000 z_0_4 + 100000 z_0_6 + 100000 z_0_7 + 100000 z_0_8 + 100000 z_0_9 <= 701999.99228051153
 c2581: 120 p_0_2 + 120 p_0_3 + 120 p_0_4 + 120 p_0_6 + 120 p_0_7 + 120 p_0_8 + 120 p_0_9 + 100000 z_0_2 + 100000 z_0_3 + 100000 z_0_4 + 100000 z_0_6 + 100000 z_0_7 + 100000 z_0_8 + 100000 z_0_9 <= 702008.14215884602
 c2582: 120 p_0_1 + 120 p_0_2 + 120 p_0_3 + 120 p_0_4 + 120 p_0_6 + 120 p_0_7 + 120 p_0_8 + 120 p_0_9 + 100000 z_0_1 + 100000 z_0_2 + 100000 z_0_3 + 100000 z_0_4 + 100000 z_0_6 + 100000 z_0_7 + 100000 z_0_8 + 100000 z_0_9 <= 801998.45527971617
 c2583: 120 p_0_5 + 120 p_0_6 + 120 p_0_7 + 120 p_0_8 + 120 p_0_9 + 100000 z_0_5 + 100000 z_0_6 + 100000 z_0_7 + 100000 z_0_8 + 100000 z_0_9 <= 502079.64908699715
 c2584: 120 p_0_1 + 120 p_0_5 + 120 p_0_6 + 120 p_0_7 + 120 p_0_8 + 120 p_0_9 + 100000 z_0_1 + 100000 z_0_5 + 100000 z_0_6 + 100000 z_0_7 + 100000 z_0_8 + 100000 z_0_9 <= 602076.99924053927
 c2585: 120 p_0_2 + 120 p_0_5 + 120 p_0_6 + 120 p_0_7 + 120 p_0_8 + 120 p_0_9 + 100000 z_0_2 + 100000 z_0_5 + 100000 z_0_6 + 100000 z_0_7 + 100000 z_0_8 + 100000 z_0_9 <= 602070.22780404799
 c2586: 120 p_0_1 + 120 p_0_2 + 120 p_0_5 + 120 p_0_6 + 120 p_0_7 + 120 p_0_8 + 120 p_0_9 + 100000 z_0_1 + 100000 z_0_2 + 100000 z_0_5 + 100000 z_0_6 + 100000 z_0_7 + 100000 z_0_8 + 100000 z_0_9 <= 702067.57795759011
 c2587: 120 p_0_3 + 120 p_0_5 + 120 p_0_6 + 120 p_0_7 + 120 p_0_8 + 120 p_0_9 + 100000 z_0_3 + 100000 z_0_5 + 100000 z_0_6 + 100000 z_0_7 + 100000 z_0_8 + 100000 z_0_9 <= 602009.99921107758
 c2588: 120 p_0_1 + 120 p_0_3 + 120 p_0_5 + 120 p_0_6 + 120 p_0_7 + 120 p_0_8 + 120 p_0_9 + 100000 z_0_1 + 100000 z_0_3 + 100000 z_0_5 + 100000 z_0_6 + 100000 z_0_7 + 100000 z_0_8 + 100000 z_0_9 <= 702007.3493646197
 c2589: 120 p_0_2 + 120 p_0_3 + 120 p_0_5 + 120 p_0_6 + 120 p_0_7 + 120 p_0_8 + 120 p_0_9 + 100000 z_0_2 + 100000 z_0_3 + 100000 z_0_5 + 100000 z_0_6 + 100000 z_0_7 + 100000 z_0_8 + 100000 z_0_9 <= 702008.46221028222
 c2590: 120 p_0_1 + 120 p_0_2 + 120 p_0_3 + 120 p_0_5 + 120 p_0_6 + 120 p_0_7 + 120 p_0_8 + 120 p_0_9 + 100000 z_0_1 + 100000 z_0_2 + 100000 z_0_3 + 100000 z_0_5 + 100000 z_0_6 + 100000 z_0_7 + 100000 z_0_8 + 100000 z_0_9 <= 802005.81236382434
 c2591: 120 p_0_4 + 120 p_0_5 + 120 p_0_6 + 120 p_0_7 + 120 p_0_8 + 120 p_0_9 + 100000 z_0_4 + 100000 z_0_5 + 100000 z_0_6 + 100000 z_0_7 + 100000 z_0_8 + 100000 z_0_9 <= 602079.32377647096
 c2592: 120 p_0_1 + 120 p_0_4 + 120 p_0_5 + 120 p_0_6 + 120 p_0_7 + 120 p_0_8 + 120 p_0_9 + 100000 z_0_1 + 100000 z_0_4 + 100000 z_0_5 + 100000 z_0_6 + 100000 z_0_7 + 100000 z_0_8 + 100000 z_0_9 <= 702075.80463179108
 c2593: 120 p_0_2 + 120 p_0_4 + 120 p_0_5 + 120 p_0_6 + 120 p_0_7 + 120 p_0_8 + 120 p_0_9 + 100000 z_0_2 + 100000 z_0_4 + 100000 z_0_5 + 100000 z_0_6 + 100000 z_0_7 + 100000 z_0_8 + 100000 z_0_9 <= 702069.9024935218
 c2594: 120 p_0_1 + 120 p_0_2 + 120 p_0_4 + 120 p_0_5 + 120 p_0_6 + 120 p_0_7 + 120 p_0_8 + 120 p_0_9 + 100000 z_0_1 + 100000 z_0_2 + 100000 z_0_4 + 100000 z_0_5 + 100000 z_0_6 + 100000 z_0_7 + 100000 z_0_8 + 100000 z_0_9 <= 802063.22503150289
 c2595: 120 p_0_3 + 120 p_0_4 + 120 p_0_5 + 120 p_0_6 + 120 p_0_7 + 120 p_0_8 + 120 p_0_9 + 100000 z_0_3 + 100000 z_0_4 + 100000 z_0_5 + 100000 z_0_6 + 100000 z_0_7 + 100000 z_0_8 + 100000 z_0_9 <= 702009.6739005514
 c2596: 120 p_0_1 + 120 p_0_3 + 120 p_0_4 + 120 p_0_5 + 120 p_0_6 + 120 p_0_7 + 120 p_0_8 + 120 p_0_9 + 100000 z_0_1 + 100000 z_0_3 + 100000 z_0_4 + 100000 z_0_5 + 100000 z_0_6 + 100000 z_0_7 + 100000 z_0_8 + 100000 z_0_9 <= 801999.98702142143
 c2597: 120 p_0_2 + 120 p_0_3 + 120 p_0_4 + 120 p_0_5 + 120 p_0_6 + 120 p_0_7 + 120 p_0_8 + 120 p_0_9 + 100000 z_0_2 + 100000 z_0_3 + 100000 z_0_4 + 100000 z_0_5 + 100000 z_0_6 + 100000 z_0_7 + 100000 z_0_8 + 100000 z_0_9 <= 802008.13689975603
 c2598: 120 p_0_1 + 120 p_0_2 + 120 p_0_3 + 120 p_0_4 + 120 p_0_5 + 120 p_0_6 + 120 p_0_7 + 120 p_0_8 + 120 p_0_9 + 100000 z_0_1 + 100000 z_0_2 + 100000 z_0_3 + 100000 z_0_4 + 100000 z_0_5 + 100000 z_0_6 + 100000 z_0_7 + 100000 z_0_8 + 100000 z_0_9 <= 901998.45002062619
 c2599: 120 p_0_10 + 100000 z_0_10 <= 103115.79166972185
 c2600: 120 p_0_1 + 120 p_0_10 + 100000 z_0_1 + 100000 z_0_10 <= 203095.61127015034
 c2601: 120 p_0_10 + 120 p_0_2 + 100000 z_0_10 + 100000 z_0_2 <= 202843.59848951385
 c2602: 120 p_0_1 + 120 p_0_10 + 120 p_0_2 + 100000 z_0_1 + 100000 z_0_10 + 100000 z_0_2 <= 302833.1906996512
 c2603: 120 p_0_10 + 120 p_0_3 + 100000 z_0_10 + 100000 z_0_3 <= 202615.65769282039
 c2604: 120 p_0_1 + 120 p_0_10 + 120 p_0_3 + 100000 z_0_1 + 100000 z_0_10 + 100000 z_0_3 <= 302595.47729324887
 c2605: 120 p_0_10 + 120 p_0_2 + 120 p_0_3 + 100000 z_0_10 + 100000 z_0_2 + 100000 z_0_3 <= 302354.52466145018
 c2606: 120 p_0_1 + 120 p_0_10 + 120 p_0_2 + 120 p_0_3 + 100000 z_0_1 + 100000 z_0_10 + 100000 z_0_2 + 100000 z_0_3 <= 402334.34426187869
 c2607: 120 p_0_10 + 120 p_0_4 + 100000 z_0_10 + 100000 z_0_4 <= 203075.41572652751
 c2608: 120 p_0_1 + 120 p_0_10 + 120 p_0_4 + 100000 z_0_1 + 100000 z_0_10 + 100000 z_0_4 <= 303065.47477929102
 c2609: 120 p_0_10 + 120 p_0_2 + 120 p_0_4 + 100000 z_0_10 + 100000 z_0_2 + 100000 z_0_4 <= 302805.43339831161
 c2610: 120 p_0_1 + 120 p_0_10 + 120 p_0_2 + 120 p_0_4 + 100000 z_0_1 + 100000 z_0_10 + 100000 z_0_2 + 100000 z_0_4 <= 402803.05420879187
 c2611: 120 p_0_10 + 120 p_0_3 + 120 p_0_4 + 100000 z_0_10 + 100000 z_0_3 + 100000 z_0_4 <= 302577.53532066254
 c2612: 120 p_0_1 + 120 p_0_10 + 120 p_0_3 + 120 p_0_4 + 100000 z_0_1 + 100000 z_0_10 + 100000 z_0_3 + 100000 z_0_4 <= 402565.34080238955
 c2613: 120 p_0_10 + 120 p_0_2 + 120 p_0_3 + 120 p_0_4 + 100000 z_0_10 + 100000 z_0_2 + 100000 z_0_3 + 100000 z_0_4 <= 402316.40228929237
 c2614: 120 p_0_1 + 120 p_0_10 + 120 p_0_2 + 120 p_0_3 + 120 p_0_4 + 100000 z_0_1 + 100000 z_0_10 + 100000 z_0_2 + 100000 z_0_3 + 100000 z_0_4 <= 502304.20777101937
 c2615: 120 p_0_10 + 120 p_0_5 + 100000 z_0_10 + 100000 z_0_5 <= 202756.57374603208
 c2616: 120 p_0_1 + 120 p_0_10 + 120 p_0_5 + 100000 z_0_1 + 100000 z_0_10 + 100000 z_0_5 <= 302746.92251677631
 c2617: 120 p_0_10 + 120 p_0_2 + 120 p_0_5 + 100000 z_0_10 + 100000 z_0_2 + 100000 z_0_5 <= 302755.06900281709
 c2618: 120 p_0_1 + 120 p_0_10 + 120 p_0_2 + 120 p_0_5 + 100000 z_0_1 + 100000 z_0_10 + 100000 z_0_2 + 100000 z_0_5 <= 402745.27210914803
 c2619: 120 p_0_10 + 120 p_0_3 + 120 p_0_5 + 100000 z_0_10 + 100000 z_0_3 + 100000 z_0_5 <= 302284.78964140773
 c2620: 120 p_0_1 + 120 p_0_10 + 120 p_0_3 + 120 p_0_5 + 100000 z_0_1 + 100000 z_0_10 + 100000 z_0_3 + 100000 z_0_5 <= 402264.60924183624
 c2621: 120 p_0_10 + 120 p_0_2 + 120 p_0_3 + 120 p_0_5 + 100000 z_0_10 + 100000 z_0_2 + 100000 z_0_3 + 100000 z_0_5 <= 402283.13923377945
 c2622: 120 p_0_1 + 120 p_0_10 + 120 p_0_2 + 120 p_0_3 + 120 p_0_5 + 100000 z_0_1 + 100000 z_0_10 + 100000 z_0_2 + 100000 z_0_3 + 100000 z_0_5 <= 502262.95883420797
 c2623: 120 p_0_10 + 120 p_0_4 + 120 p_0_5 + 100000 z_0_10 + 100000 z_0_4 + 100000 z_0_5 <= 302718.71597272845
 c2624: 120 p_0_1 + 120 p_0_10 + 120 p_0_4 + 120 p_0_5 + 100000 z_0_1 + 100000 z_0_10 + 100000 z_0_4 + 100000 z_0_5 <= 402716.78602591698
 c2625: 120 p_0_10 + 120 p_0_2 + 120 p_0_4 + 120 p_0_5 + 100000 z_0_10 + 100000 z_0_2 + 100000 z_0_4 + 100000 z_0_5 <= 402717.06556510017
 c2626: 120 p_0_1 + 120 p_0_10 + 120 p_0_2 + 120 p_0_4 + 120 p_0_5 + 100000 z_0_1 + 100000 z_0_10 + 100000 z_0_2 + 100000 z_0_4 + 100000 z_0_5 <= 502715.13561828871
 c2627: 120 p_0_10 + 120 p_0_3 + 120 p_0_4 + 120 p_0_5 + 100000 z_0_10 + 100000 z_0_3 + 100000 z_0_4 + 100000 z_0_5 <= 402246.66726924991
 c2628: 120 p_0_1 + 120 p_0_10 + 120 p_0_3 + 120 p_0_4 + 120 p_0_5 + 100000 z_0_1 + 100000 z_0_10 + 100000 z_0_3 + 100000 z_0_4 + 100000 z_0_5 <= 502234.47275097691
 c2629: 120 p_0_10 + 120 p_0_2 + 120 p_0_3 + 120 p_0_4 + 120 p_0_5 + 100000 z_0_10 + 100000 z_0_2 + 100000 z_0_3 + 100000 z_0_4 + 100000 z_0_5 <= 502245.01686162164
 c2630: 120 p_0_1 + 120 p_0_10 + 120 p_0_2 + 120 p_0_3 + 120 p_0_4 + 120 p_0_5 + 100000 z_0_1 + 100000 z_0_10 + 100000 z_0_2 + 100000 z_0_3 + 100000 z_0_4 + 100000 z_0_5 <= 602232.82234334864
 c2631: 120 p_0_10 + 120 p_0_6 + 100000 z_0_10 + 100000 z_0_6 <= 202662.26918869707
 c2632: 120 p_0_1 + 120 p_0_10 + 120 p_0_6 + 100000 z_0_1 + 100000 z_0_10 + 100000 z_0_6 <= 302642.08878912556
 c2633: 120 p_0_10 + 120 p_0_2 + 120 p_0_6 + 100000 z_0_10 + 100000 z_0_2 + 100000 z_0_6 <= 302414.19433015247
 c2634: 120 p_0_1 + 120 p_0_10 + 120 p_0_2 + 120 p_0_6 + 100000 z_0_1 + 100000 z_0_10 + 100000 z_0_2 + 100000 z_0_6 <= 402394.01393058099
 c2635: 120 p_0_10 + 120 p_0_3 + 120 p_0_6 + 100000 z_0_10 + 100000 z_0_3 + 100000 z_0_6 <= 302596.47650997626
 c2636: 120 p_0_1 + 120 p_0_10 + 120 p_0_3 + 120 p_0_6 + 100000 z_0_1 + 100000 z_0_10 + 100000 z_0_3 + 100000 z_0_6 <= 402576.29611040477
 c2637: 120 p_0_10 + 120 p_0_2 + 120 p_0_3 + 120 p_0_6 + 100000 z_0_10 + 100000 z_0_2 + 100000 z_0_3 + 100000 z_0_6 <= 402348.40165143169
 c2638: 120 p_0_1 + 120 p_0_10 + 120 p_0_2 + 120 p_0_3 + 120 p_0_6 + 100000 z_0_1 + 100000 z_0_10 + 100000 z_0_2 + 100000 z_0_3 + 100000 z_0_6 <= 502328.2212518602
 c2639: 120 p_0_10 + 120 p_0_4 + 120 p_0_6 + 100000 z_0_10 + 100000 z_0_4 + 100000 z_0_6 <= 302623.12914869521
 c2640: 120 p_0_1 + 120 p_0_10 + 120 p_0_4 + 120 p_0_6 + 100000 z_0_1 + 100000 z_0_10 + 100000 z_0_4 + 100000 z_0_6 <= 402611.95229826623
 c2641: 120 p_0_10 + 120 p_0_2 + 120 p_0_4 + 120 p_0_6 + 100000 z_0_10 + 100000 z_0_2 + 100000 z_0_4 + 100000 z_0_6 <= 402375.05429015064
 c2642: 120 p_0_1 + 120 p_0_10 + 120 p_0_2 + 120 p_0_4 + 120 p_0_6 + 100000 z_0_1 + 100000 z_0_10 + 100000 z_0_2 + 100000 z_0_4 + 100000 z_0_6 <= 502363.87743972166
 c2643: 120 p_0_10 + 120 p_0_3 + 120 p_0_4 + 120 p_0_6 + 100000 z_0_10 + 100000 z_0_3 + 100000 z_0_4 + 100000 z_0_6 <= 402558.35413781845
 c2644: 120 p_0_1 + 120 p_0_10 + 120 p_0_3 + 120 p_0_4 + 120 p_0_6 + 100000 z_0_1 + 100000 z_0_10 + 100000 z_0_3 + 100000 z_0_4 + 100000 z_0_6 <= 502546.15961954545
 c2645: 120 p_0_10 + 120 p_0_2 + 120 p_0_3 + 120 p_0_4 + 120 p_0_6 + 100000 z_0_10 + 100000 z_0_2 + 100000 z_0_3 + 100000 z_0_4 + 100000 z_0_6 <= 502310.27927927388
 c2646: 120 p_0_1 + 120 p_0_10 + 120 p_0_2 + 120 p_0_3 + 120 p_0_4 + 120 p_0_6 + 100000 z_0_1 + 100000 z_0_10 + 100000 z_0_2 + 100000 z_0_3 + 100000 z_0_4 + 100000 z_0_6 <= 602298.08476100094
 c2647: 120 p_0_10 + 120 p_0_5 + 120 p_0_6 + 100000 z_0_10 + 100000 z_0_5 + 100000 z_0_6 <= 302346.67105144245
 c2648: 120 p_0_1 + 120 p_0_10 + 120 p_0_5 + 120 p_0_6 + 100000 z_0_1 + 100000 z_0_10 + 100000 z_0_5 + 100000 z_0_6 <= 402326.4906518709
 c2649: 120 p_0_10 + 120 p_0_2 + 120 p_0_5 + 120 p_0_6 + 100000 z_0_10 + 100000 z_0_2 + 100000 z_0_5 + 100000 z_0_6 <= 402345.02064381418
 c2650: 120 p_0_1 + 120 p_0_10 + 120 p_0_2 + 120 p_0_5 + 120 p_0_6 + 100000 z_0_1 + 100000 z_0_10 + 100000 z_0_2 + 100000 z_0_5 + 100000 z_0_6 <= 502324.84024424269
 c2651: 120 p_0_10 + 120 p_0_3 + 120 p_0_5 + 120 p_0_6 + 100000 z_0_10 + 100000 z_0_3 + 100000 z_0_5 + 100000 z_0_6 <= 402280.87837272167
 c2652: 120 p_0_1 + 120 p_0_10 + 120 p_0_3 + 120 p_0_5 + 120 p_0_6 + 100000 z_0_1 + 100000 z_0_10 + 100000 z_0_3 + 100000 z_0_5 + 100000 z_0_6 <= 502260.69797315012
 c2653: 120 p_0_10 + 120 p_0_2 + 120 p_0_3 + 120 p_0_5 + 120 p_0_6 + 100000 z_0_10 + 100000 z_0_2 + 100000 z_0_3 + 100000 z_0_5 + 100000 z_0_6 <= 502279.22796509339
 c2654: 120 p_0_1 + 120 p_0_10 + 120 p_0_2 + 120 p_0_3 + 120 p_0_5 + 120 p_0_6 + 100000 z_0_1 + 100000 z_0_10 + 100000 z_0_2 + 100000 z_0_3 + 100000 z_0_5 + 100000 z_0_6 <= 602259.04756552191
 c2655: 120 p_0_10 + 120 p_0_4 + 120 p_0_5 + 120 p_0_6 + 100000 z_0_10 + 100000 z_0_4 + 100000 z_0_5 + 100000 z_0_6 <= 402307.53101144056
 c2656: 120 p_0_1 + 120 p_0_10 + 120 p_0_4 + 120 p_0_5 + 120 p_0_6 + 100000 z_0_1 + 100000 z_0_10 + 100000 z_0_4 + 100000 z_0_5 + 100000 z_0_6 <= 502296.35416101158
 c2657: 120 p_0_10 + 120 p_0_2 + 120 p_0_4 + 120 p_0_5 + 120 p_0_6 + 100000 z_0_10 + 100000 z_0_2 + 100000 z_0_4 + 100000 z_0_5 + 100000 z_0_6 <= 502305.88060381229
 c2658: 120 p_0_1 + 120 p_0_10 + 120 p_0_2 + 120 p_0_4 + 120 p_0_5 + 120 p_0_6 + 100000 z_0_1 + 100000 z_0_10 + 100000 z_0_2 + 100000 z_0_4 + 100000 z_0_5 + 100000 z_0_6 <= 602294.70375338336
 c2659: 120 p_0_10 + 120 p_0_3 + 120 p_0_4 + 120 p_0_5 + 120 p_0_6 + 100000 z_0_10 + 100000 z_0_3 + 100000 z_0_4 + 100000 z_0_5 + 100000 z_0_6 <= 502242.75600056385
 c2660: 120 p_0_1 + 120 p_0_10 + 120 p_0_3 + 120 p_0_4 + 120 p_0_5 + 120 p_0_6 + 100000 z_0_1 + 100000 z_0_10 + 100000 z_0_3 + 100000 z_0_4 + 100000 z_0_5 + 100000 z_0_6 <= 602230.56148229085
 c2661: 120 p_0_10 + 120 p_0_2 + 120 p_0_3 + 120 p_0_4 + 120 p_0_5 + 120 p_0_6 + 100000 z_0_10 + 100000 z_0_2 + 100000 z_0_3 + 100000 z_0_4 + 100000 z_0_5 + 100000 z_0_6 <= 602241.10559293558
 c2662: 120 p_0_1 + 120 p_0_10 + 120 p_0_2 + 120 p_0_3 + 120 p_0_4 + 120 p_0_5 + 120 p_0_6 + 100000 z_0_1 + 100000 z_0_10 + 100000 z_0_2 + 100000 z_0_3 + 100000 z_0_4 + 100000 z_0_5 + 100000 z_0_6 <= 702228.91107466258
 c2663: 120 p_0_10 + 120 p_0_7 + 100000 z_0_10 + 100000 z_0_7 <= 202940.55548929752
 c2664: 120 p_0_1 + 120 p_0_10 + 120 p_0_7 + 100000 z_0_1 + 100000 z_0_10 + 100000 z_0_7 <= 302937.90564283961
 c2665: 120 p_0_10 + 120 p_0_2 + 120 p_0_7 + 100000 z_0_10 + 100000 z_0_2 + 100000 z_0_7 <= 302676.225266814
 c2666: 120 p_0_1 + 120 p_0_10 + 120 p_0_2 + 120 p_0_7 + 100000 z_0_1 + 100000 z_0_10 + 100000 z_0_2 + 100000 z_0_7 <= 402675.48507234053
 c2667: 120 p_0_10 + 120 p_0_3 + 120 p_0_7 + 100000 z_0_10 + 100000 z_0_3 + 100000 z_0_7 <= 302449.71211610461
 c2668: 120 p_0_1 + 120 p_0_10 + 120 p_0_3 + 120 p_0_7 + 100000 z_0_1 + 100000 z_0_10 + 100000 z_0_3 + 100000 z_0_7 <= 402437.77166593814
 c2669: 120 p_0_10 + 120 p_0_2 + 120 p_0_3 + 120 p_0_7 + 100000 z_0_10 + 100000 z_0_2 + 100000 z_0_3 + 100000 z_0_7 <= 402188.57908473443
 c2670: 120 p_0_1 + 120 p_0_10 + 120 p_0_2 + 120 p_0_3 + 120 p_0_7 + 100000 z_0_1 + 100000 z_0_10 + 100000 z_0_2 + 100000 z_0_3 + 100000 z_0_7 <= 502176.63863456802
 c2671: 120 p_0_10 + 120 p_0_4 + 120 p_0_7 + 100000 z_0_10 + 100000 z_0_4 + 100000 z_0_7 <= 302940.55286177871
 c2672: 120 p_0_1 + 120 p_0_10 + 120 p_0_4 + 120 p_0_7 + 100000 z_0_1 + 100000 z_0_10 + 100000 z_0_4 + 100000 z_0_7 <= 402937.90301532083
 c2673: 120 p_0_10 + 120 p_0_2 + 120 p_0_4 + 120 p_0_7 + 100000 z_0_10 + 100000 z_0_2 + 100000 z_0_4 + 100000 z_0_7 <= 402676.22263929516
 c2674: 120 p_0_1 + 120 p_0_10 + 120 p_0_2 + 120 p_0_4 + 120 p_0_7 + 100000 z_0_1 + 100000 z_0_10 + 100000 z_0_2 + 100000 z_0_4 + 100000 z_0_7 <= 502675.48244482168
 c2675: 120 p_0_10 + 120 p_0_3 + 120 p_0_4 + 120 p_0_7 + 100000 z_0_10 + 100000 z_0_3 + 100000 z_0_4 + 100000 z_0_7 <= 402449.70948858577
 c2676: 120 p_0_1 + 120 p_0_10 + 120 p_0_3 + 120 p_0_4 + 120 p_0_7 + 100000 z_0_1 + 100000 z_0_10 + 100000 z_0_3 + 100000 z_0_4 + 100000 z_0_7 <= 502437.76903841936
 c2677: 120 p_0_10 + 120 p_0_2 + 120 p_0_3 + 120 p_0_4 + 120 p_0_7 + 100000 z_0_10 + 100000 z_0_2 + 100000 z_0_3 + 100000 z_0_4 + 100000 z_0_7 <= 502188.57645721559
 c2678: 120 p_0_1 + 120 p_0_10 + 120 p_0_2 + 120 p_0_3 + 120 p_0_4 + 120 p_0_7 + 100000 z_0_1 + 100000 z_0_10 + 100000 z_0_2 + 100000 z_0_3 + 100000 z_0_4 + 100000 z_0_7 <= 602176.63600704924
 c2679: 120 p_0_10 + 120 p_0_5 + 120 p_0_7 + 100000 z_0_10 + 100000 z_0_5 + 100000 z_0_7 <= 302590.46263822267
 c2680: 120 p_0_1 + 120 p_0_10 + 120 p_0_5 + 120 p_0_7 + 100000 z_0_1 + 100000 z_0_10 + 100000 z_0_5 + 100000 z_0_7 <= 402589.21688946558
 c2681: 120 p_0_10 + 120 p_0_2 + 120 p_0_5 + 120 p_0_7 + 100000 z_0_10 + 100000 z_0_2 + 100000 z_0_5 + 100000 z_0_7 <= 402588.8122305944
 c2682: 120 p_0_1 + 120 p_0_10 + 120 p_0_2 + 120 p_0_5 + 120 p_0_7 + 100000 z_0_1 + 100000 z_0_10 + 100000 z_0_2 + 100000 z_0_5 + 100000 z_0_7 <= 502587.56648183736
 c2683: 120 p_0_10 + 120 p_0_3 + 120 p_0_5 + 120 p_0_7 + 100000 z_0_10 + 100000 z_0_3 + 100000 z_0_5 + 100000 z_0_7 <= 402118.84406469192
 c2684: 120 p_0_1 + 120 p_0_10 + 120 p_0_3 + 120 p_0_5 + 120 p_0_7 + 100000 z_0_1 + 100000 z_0_10 + 100000 z_0_3 + 100000 z_0_5 + 100000 z_0_7 <= 502106.90361452551
 c2685: 120 p_0_10 + 120 p_0_2 + 120 p_0_3 + 120 p_0_5 + 120 p_0_7 + 100000 z_0_10 + 100000 z_0_2 + 100000 z_0_3 + 100000 z_0_5 + 100000 z_0_7 <= 502117.1936570637
 c2686: 120 p_0_1 + 120 p_0_10 + 120 p_0_2 + 120 p_0_3 + 120 p_0_5 + 120 p_0_7 + 100000 z_0_1 + 100000 z_0_10 + 100000 z_0_2 + 100000 z_0_3 + 100000 z_0_5 + 100000 z_0_7 <= 602105.25320689729
 c2687: 120 p_0_10 + 120 p_0_4 + 120 p_0_5 + 120 p_0_7 + 100000 z_0_10 + 100000 z_0_4 + 100000 z_0_5 + 100000 z_0_7 <= 402590.46001070383
 c2688: 120 p_0_1 + 120 p_0_10 + 120 p_0_4 + 120 p_0_5 + 120 p_0_7 + 100000 z_0_1 + 100000 z_0_10 + 100000 z_0_4 + 100000 z_0_5 + 100000 z_0_7 <= 502589.21426194679
 c2689: 120 p_0_10 + 120 p_0_2 + 120 p_0_4 + 120 p_0_5 + 120 p_0_7 + 100000 z_0_10 + 100000 z_0_2 + 100000 z_0_4 + 100000 z_0_5 + 100000 z_0_7 <= 502588.80960307561
 c2690: 120 p_0_1 + 120 p_0_10 + 120 p_0_2 + 120 p_0_4 + 120 p_0_5 + 120 p_0_7 + 100000 z_0_1 + 100000 z_0_10 + 100000 z_0_2 + 100000 z_0_4 + 100000 z_0_5 + 100000 z_0_7 <= 602587.56385431858
 c2691: 120 p_0_10 + 120 p_0_3 + 120 p_0_4 + 120 p_0_5 + 120 p_0_7 + 100000 z_0_10 + 100000 z_0_3 + 100000 z_0_4 + 100000 z_0_5 + 100000 z_0_7 <= 502118.84143717313
 c2692: 120 p_0_1 + 120 p_0_10 + 120 p_0_3 + 120 p_0_4 + 120 p_0_5 + 120 p_0_7 + 100000 z_0_1 + 100000 z_0_10 + 100000 z_0_3 + 100000 z_0_4 + 100000 z_0_5 + 100000 z_0_7 <= 602106.90098700672
 c2693: 120 p_0_10 + 120 p_0_2 + 120 p_0_3 + 120 p_0_4 + 120 p_0_5 + 120 p_0_7 + 100000 z_0_10 + 100000 z_0_2 + 100000 z_0_3 + 100000 z_0_4 + 100000 z_0_5 + 100000 z_0_7 <= 602117.19102954492
 c2694: 120 p_0_1 + 120 p_0_10 + 120 p_0_2 + 120 p_0_3 + 120 p_0_4 + 120 p_0_5 + 120 p_0_7 + 100000 z_0_1 + 100000 z_0_10 + 100000 z_0_2 + 100000 z_0_3 + 100000 z_0_4 + 100000 z_0_5 + 100000 z_0_7 <= 702105.25057937845
 c2695: 120 p_0_10 + 120 p_0_6 + 120 p_0_7 + 100000 z_0_10 + 100000 z_0_6 + 100000 z_0_7 <= 302492.29652702622
 c2696: 120 p_0_1 + 120 p_0_10 + 120 p_0_6 + 120 p_0_7 + 100000 z_0_1 + 100000 z_0_10 + 100000 z_0_6 + 100000 z_0_7 <= 402484.38316181488
 c2697: 120 p_0_10 + 120 p_0_2 + 120 p_0_6 + 120 p_0_7 + 100000 z_0_10 + 100000 z_0_2 + 100000 z_0_6 + 100000 z_0_7 <= 402244.22166848165
 c2698: 120 p_0_1 + 120 p_0_10 + 120 p_0_2 + 120 p_0_6 + 120 p_0_7 + 100000 z_0_1 + 100000 z_0_10 + 100000 z_0_2 + 100000 z_0_6 + 100000 z_0_7 <= 502236.30830327031
 c2699: 120 p_0_10 + 120 p_0_3 + 120 p_0_6 + 120 p_0_7 + 100000 z_0_10 + 100000 z_0_3 + 100000 z_0_6 + 100000 z_0_7 <= 402430.53093326051
 c2700: 120 p_0_1 + 120 p_0_10 + 120 p_0_3 + 120 p_0_6 + 120 p_0_7 + 100000 z_0_1 + 100000 z_0_10 + 100000 z_0_3 + 100000 z_0_6 + 100000 z_0_7 <= 502418.59048309404
 c2701: 120 p_0_10 + 120 p_0_2 + 120 p_0_3 + 120 p_0_6 + 120 p_0_7 + 100000 z_0_10 + 100000 z_0_2 + 100000 z_0_3 + 100000 z_0_6 + 100000 z_0_7 <= 502182.45607471594
 c2702: 120 p_0_1 + 120 p_0_10 + 120 p_0_2 + 120 p_0_3 + 120 p_0_6 + 120 p_0_7 + 100000 z_0_1 + 100000 z_0_10 + 100000 z_0_2 + 100000 z_0_3 + 100000 z_0_6 + 100000 z_0_7 <= 602170.51562454947
 c2703: 120 p_0_10 + 120 p_0_4 + 120 p_0_6 + 120 p_0_7 + 100000 z_0_10 + 100000 z_0_4 + 100000 z_0_6 + 100000 z_0_7 <= 402492.29389950744
 c2704: 120 p_0_1 + 120 p_0_10 + 120 p_0_4 + 120 p_0_6 + 120 p_0_7 + 100000 z_0_1 + 100000 z_0_10 + 100000 z_0_4 + 100000 z_0_6 + 100000 z_0_7 <= 502484.38053429604
 c2705: 120 p_0_10 + 120 p_0_2 + 120 p_0_4 + 120 p_0_6 + 120 p_0_7 + 100000 z_0_10 + 100000 z_0_2 + 100000 z_0_4 + 100000 z_0_6 + 100000 z_0_7 <= 502244.21904096287
 c2706: 120 p_0_1 + 120 p_0_10 + 120 p_0_2 + 120 p_0_4 + 120 p_0_6 + 120 p_0_7 + 100000 z_0_1 + 100000 z_0_10 + 100000 z_0_2 + 100000 z_0_4 + 100000 z_0_6 + 100000 z_0_7 <= 602236.30567575153
 c2707: 120 p_0_10 + 120 p_0_3 + 120 p_0_4 + 120 p_0_6 + 120 p_0_7 + 100000 z_0_10 + 100000 z_0_3 + 100000 z_0_4 + 100000 z_0_6 + 100000 z_0_7 <= 502430.52830574167
 c2708: 120 p_0_1 + 120 p_0_10 + 120 p_0_3 + 120 p_0_4 + 120 p_0_6 + 120 p_0_7 + 100000 z_0_1 + 100000 z_0_10 + 100000 z_0_3 + 100000 z_0_4 + 100000 z_0_6 + 100000 z_0_7 <= 602418.58785557526
 c2709: 120 p_0_10 + 120 p_0_2 + 120 p_0_3 + 120 p_0_4 + 120 p_0_6 + 120 p_0_7 + 100000 z_0_10 + 100000 z_0_2 + 100000 z_0_3 + 100000 z_0_4 + 100000 z_0_6 + 100000 z_0_7 <= 602182.4534471971
 c2710: 120 p_0_1 + 120 p_0_10 + 120 p_0_2 + 120 p_0_3 + 120 p_0_4 + 120 p_0_6 + 120 p_0_7 + 100000 z_0_1 + 100000 z_0_10 + 100000 z_0_2 + 100000 z_0_3 + 100000 z_0_4 + 100000 z_0_6 + 100000 z_0_7 <= 702170.51299703075
 c2711: 120 p_0_10 + 120 p_0_5 + 120 p_0_6 + 120 p_0_7 + 100000 z_0_10 + 100000 z_0_5 + 100000 z_0_6 + 100000 z_0_7 <= 402176.69838977157
 c2712: 120 p_0_1 + 120 p_0_10 + 120 p_0_5 + 120 p_0_6 + 120 p_0_7 + 100000 z_0_1 + 100000 z_0_10 + 100000 z_0_5 + 100000 z_0_6 + 100000 z_0_7 <= 502168.78502456023
 c2713: 120 p_0_10 + 120 p_0_2 + 120 p_0_5 + 120 p_0_6 + 120 p_0_7 + 100000 z_0_10 + 100000 z_0_2 + 100000 z_0_5 + 100000 z_0_6 + 100000 z_0_7 <= 502175.04798214335
 c2714: 120 p_0_1 + 120 p_0_10 + 120 p_0_2 + 120 p_0_5 + 120 p_0_6 + 120 p_0_7 + 100000 z_0_1 + 100000 z_0_10 + 100000 z_0_2 + 100000 z_0_5 + 100000 z_0_6 + 100000 z_0_7 <= 602167.13461693202
 c2715: 120 p_0_10 + 120 p_0_3 + 120 p_0_5 + 120 p_0_6 + 120 p_0_7 + 100000 z_0_10 + 100000 z_0_3 + 100000 z_0_5 + 100000 z_0_6 + 100000 z_0_7 <= 502114.93279600586
 c2716: 120 p_0_1 + 120 p_0_10 + 120 p_0_3 + 120 p_0_5 + 120 p_0_6 + 120 p_0_7 + 100000 z_0_1 + 100000 z_0_10 + 100000 z_0_3 + 100000 z_0_5 + 100000 z_0_6 + 100000 z_0_7 <= 602102.99234583939
 c2717: 120 p_0_10 + 120 p_0_2 + 120 p_0_3 + 120 p_0_5 + 120 p_0_6 + 120 p_0_7 + 100000 z_0_10 + 100000 z_0_2 + 100000 z_0_3 + 100000 z_0_5 + 100000 z_0_6 + 100000 z_0_7 <= 602113.28238837759
 c2718: 120 p_0_1 + 120 p_0_10 + 120 p_0_2 + 120 p_0_3 + 120 p_0_5 + 120 p_0_6 + 120 p_0_7 + 100000 z_0_1 + 100000 z_0_10 + 100000 z_0_2 + 100000 z_0_3 + 100000 z_0_5 + 100000 z_0_6 + 100000 z_0_7 <= 702101.34193821112
 c2719: 120 p_0_10 + 120 p_0_4 + 120 p_0_5 + 120 p_0_6 + 120 p_0_7 + 100000 z_0_10 + 100000 z_0_4 + 100000 z_0_5 + 100000 z_0_6 + 100000 z_0_7 <= 502176.69576225278
 c2720: 120 p_0_1 + 120 p_0_10 + 120 p_0_4 + 120 p_0_5 + 120 p_0_6 + 120 p_0_7 + 100000 z_0_1 + 100000 z_0_10 + 100000 z_0_4 + 100000 z_0_5 + 100000 z_0_6 + 100000 z_0_7 <= 602168.78239704145
 c2721: 120 p_0_10 + 120 p_0_2 + 120 p_0_4 + 120 p_0_5 + 120 p_0_6 + 120 p_0_7 + 100000 z_0_10 + 100000 z_0_2 + 100000 z_0_4 + 100000 z_0_5 + 100000 z_0_6 + 100000 z_0_7 <= 602175.04535462451
 c2722: 120 p_0_1 + 120 p_0_10 + 120 p_0_2 + 120 p_0_4 + 120 p_0_5 + 120 p_0_6 + 120 p_0_7 + 100000 z_0_1 + 100000 z_0_10 + 100000 z_0_2 + 100000 z_0_4 + 100000 z_0_5 + 100000 z_0_6 + 100000 z_0_7 <= 702167.13198941317
 c2723: 120 p_0_10 + 120 p_0_3 + 120 p_0_4 + 120 p_0_5 + 120 p_0_6 + 120 p_0_7 + 100000 z_0_10 + 100000 z_0_3 + 100000 z_0_4 + 100000 z_0_5 + 100000 z_0_6 + 100000 z_0_7 <= 602114.93016848702
 c2724: 120 p_0_1 + 120 p_0_10 + 120 p_0_3 + 120 p_0_4 + 120 p_0_5 + 120 p_0_6 + 120 p_0_7 + 100000 z_0_1 + 100000 z_0_10 + 100000 z_0_3 + 100000 z_0_4 + 100000 z_0_5 + 100000 z_0_6 + 100000 z_0_7 <= 702102.98971832066
 c2725: 120 p_0_10 + 120 p_0_2 + 120 p_0_3 + 120 p_0_4 + 120 p_0_5 + 120 p_0_6 + 120 p_0_7 + 100000 z_0_10 + 100000 z_0_2 + 100000 z_0_3 + 100000 z_0_4 + 100000 z_0_5 + 100000 z_0_6 + 100000 z_0_7 <= 702113.27976085874
 c2726: 120 p_0_1 + 120 p_0_10 + 120 p_0_2 + 120 p_0_3 + 120 p_0_4 + 120 p_0_5 + 120 p_0_6 + 120 p_0_7 + 100000 z_0_1 + 100000 z_0_10 + 100000 z_0_2 + 100000 z_0_3 + 100000 z_0_4 + 100000 z_0_5 + 100000 z_0_6 + 100000 z_0_7 <= 802101.33931069239
 c2727: 120 p_0_10 + 120 p_0_8 + 100000 z_0_10 + 100000 z_0_8 <= 202703.95439060894
 c2728: 120 p_0_1 + 120 p_0_10 + 120 p_0_8 + 100000 z_0_1 + 100000 z_0_10 + 100000 z_0_8 <= 302696.67358823837
 c2729: 120 p_0_10 + 120 p_0_2 + 120 p_0_8 + 100000 z_0_10 + 100000 z_0_2 + 100000 z_0_8 <= 302702.41738981364
 c2730: 120 p_0_1 + 120 p_0_10 + 120 p_0_2 + 120 p_0_8 + 100000 z_0_1 + 100000 z_0_10 + 100000 z_0_2 + 100000 z_0_8 <= 402695.13658744306
 c2731: 120 p_0_10 + 120 p_0_3 + 120 p_0_8 + 100000 z_0_10 + 100000 z_0_3 + 100000 z_0_8 <= 302203.82041370746
 c2732: 120 p_0_1 + 120 p_0_10 + 120 p_0_3 + 120 p_0_8 + 100000 z_0_1 + 100000 z_0_10 + 100000 z_0_3 + 100000 z_0_8 <= 402196.53961133689
 c2733: 120 p_0_10 + 120 p_0_2 + 120 p_0_3 + 120 p_0_8 + 100000 z_0_10 + 100000 z_0_2 + 100000 z_0_3 + 100000 z_0_8 <= 402202.28341291216
 c2734: 120 p_0_1 + 120 p_0_10 + 120 p_0_2 + 120 p_0_3 + 120 p_0_8 + 100000 z_0_1 + 100000 z_0_10 + 100000 z_0_2 + 100000 z_0_3 + 100000 z_0_8 <= 502195.00261054159
 c2735: 120 p_0_10 + 120 p_0_4 + 120 p_0_8 + 100000 z_0_10 + 100000 z_0_4 + 100000 z_0_8 <= 302667.32742745953
 c2736: 120 p_0_1 + 120 p_0_10 + 120 p_0_4 + 120 p_0_8 + 100000 z_0_1 + 100000 z_0_10 + 100000 z_0_4 + 100000 z_0_8 <= 402666.53709737904
 c2737: 120 p_0_10 + 120 p_0_2 + 120 p_0_4 + 120 p_0_8 + 100000 z_0_10 + 100000 z_0_2 + 100000 z_0_4 + 100000 z_0_8 <= 402665.79042666423
 c2738: 120 p_0_1 + 120 p_0_10 + 120 p_0_2 + 120 p_0_4 + 120 p_0_8 + 100000 z_0_1 + 100000 z_0_10 + 100000 z_0_2 + 100000 z_0_4 + 100000 z_0_8 <= 502665.00009658374
 c2739: 120 p_0_10 + 120 p_0_3 + 120 p_0_4 + 120 p_0_8 + 100000 z_0_10 + 100000 z_0_3 + 100000 z_0_4 + 100000 z_0_8 <= 402167.19345055806
 c2740: 120 p_0_1 + 120 p_0_10 + 120 p_0_3 + 120 p_0_4 + 120 p_0_8 + 100000 z_0_1 + 100000 z_0_10 + 100000 z_0_3 + 100000 z_0_4 + 100000 z_0_8 <= 502166.40312047757
 c2741: 120 p_0_10 + 120 p_0_2 + 120 p_0_3 + 120 p_0_4 + 120 p_0_8 + 100000 z_0_10 + 100000 z_0_2 + 100000 z_0_3 + 100000 z_0_4 + 100000 z_0_8 <= 502165.65644976276
 c2742: 120 p_0_1 + 120 p_0_10 + 120 p_0_2 + 120 p_0_3 + 120 p_0_4 + 120 p_0_8 + 100000 z_0_1 + 100000 z_0_10 + 100000 z_0_2 + 100000 z_0_3 + 100000 z_0_4 + 100000 z_0_8 <= 602164.86611968221
 c2743: 120 p_0_10 + 120 p_0_5 + 120 p_0_8 + 100000 z_0_10 + 100000 z_0_5 + 100000 z_0_8 <= 302691.49438620295
 c2744: 120 p_0_1 + 120 p_0_10 + 120 p_0_5 + 120 p_0_8 + 100000 z_0_1 + 100000 z_0_10 + 100000 z_0_5 + 100000 z_0_8 <= 402684.21358383237
 c2745: 120 p_0_10 + 120 p_0_2 + 120 p_0_5 + 120 p_0_8 + 100000 z_0_10 + 100000 z_0_2 + 100000 z_0_5 + 100000 z_0_8 <= 402689.84397857467
 c2746: 120 p_0_1 + 120 p_0_10 + 120 p_0_2 + 120 p_0_5 + 120 p_0_8 + 100000 z_0_1 + 100000 z_0_10 + 100000 z_0_2 + 100000 z_0_5 + 100000 z_0_8 <= 502682.5631762041
 c2747: 120 p_0_10 + 120 p_0_3 + 120 p_0_5 + 120 p_0_8 + 100000 z_0_10 + 100000 z_0_3 + 100000 z_0_5 + 100000 z_0_8 <= 402199.39358654298
 c2748: 120 p_0_1 + 120 p_0_10 + 120 p_0_3 + 120 p_0_5 + 120 p_0_8 + 100000 z_0_1 + 100000 z_0_10 + 100000 z_0_3 + 100000 z_0_5 + 100000 z_0_8 <= 502184.0796069309
 c2749: 120 p_0_10 + 120 p_0_2 + 120 p_0_3 + 120 p_0_5 + 120 p_0_8 + 100000 z_0_10 + 100000 z_0_2 + 100000 z_0_3 + 100000 z_0_5 + 100000 z_0_8 <= 502197.85658574768
 c2750: 120 p_0_1 + 120 p_0_10 + 120 p_0_2 + 120 p_0_3 + 120 p_0_5 + 120 p_0_8 + 100000 z_0_1 + 100000 z_0_10 + 100000 z_0_2 + 100000 z_0_3 + 100000 z_0_5 + 100000 z_0_8 <= 602182.42919930269
 c2751: 120 p_0_10 + 120 p_0_4 + 120 p_0_5 + 120 p_0_8 + 100000 z_0_10 + 100000 z_0_4 + 100000 z_0_5 + 100000 z_0_8 <= 402654.86742305354
 c2752: 120 p_0_1 + 120 p_0_10 + 120 p_0_4 + 120 p_0_5 + 120 p_0_8 + 100000 z_0_1 + 100000 z_0_10 + 100000 z_0_4 + 100000 z_0_5 + 100000 z_0_8 <= 502654.07709297305
 c2753: 120 p_0_10 + 120 p_0_2 + 120 p_0_4 + 120 p_0_5 + 120 p_0_8 + 100000 z_0_10 + 100000 z_0_2 + 100000 z_0_4 + 100000 z_0_5 + 100000 z_0_8 <= 502653.21701542527
 c2754: 120 p_0_1 + 120 p_0_10 + 120 p_0_2 + 120 p_0_4 + 120 p_0_5 + 120 p_0_8 + 100000 z_0_1 + 100000 z_0_10 + 100000 z_0_2 + 100000 z_0_4 + 100000 z_0_5 + 100000 z_0_8 <= 602652.42668534478
 c2755: 120 p_0_10 + 120 p_0_3 + 120 p_0_4 + 120 p_0_5 + 120 p_0_8 + 100000 z_0_10 + 100000 z_0_3 + 100000 z_0_4 + 100000 z_0_5 + 100000 z_0_8 <= 502161.27121438517
 c2756: 120 p_0_1 + 120 p_0_10 + 120 p_0_3 + 120 p_0_4 + 120 p_0_5 + 120 p_0_8 + 100000 z_0_1 + 100000 z_0_10 + 100000 z_0_3 + 100000 z_0_4 + 100000 z_0_5 + 100000 z_0_8 <= 602153.94311607163
 c2757: 120 p_0_10 + 120 p_0_2 + 120 p_0_3 + 120 p_0_4 + 120 p_0_5 + 120 p_0_8 + 100000 z_0_10 + 100000 z_0_2 + 100000 z_0_3 + 100000 z_0_4 + 100000 z_0_5 + 100000 z_0_8 <= 602159.73421358981
 c2758: 120 p_0_1 + 120 p_0_10 + 120 p_0_2 + 120 p_0_3 + 120 p_0_4 + 120 p_0_5 + 120 p_0_8 + 100000 z_0_1 + 100000 z_0_10 + 100000 z_0_2 + 100000 z_0_3 + 100000 z_0_4 + 100000 z_0_5 + 100000 z_0_8 <= 702152.29270844336
 c2759: 120 p_0_10 + 120 p_0_6 + 120 p_0_8 + 100000 z_0_10 + 100000 z_0_6 + 100000 z_0_8 <= 302261.45725351915
 c2760: 120 p_0_1 + 120 p_0_10 + 120 p_0_6 + 120 p_0_8 + 100000 z_0_1 + 100000 z_0_10 + 100000 z_0_6 + 100000 z_0_8 <= 402253.55535663303
 c2761: 120 p_0_10 + 120 p_0_2 + 120 p_0_6 + 120 p_0_8 + 100000 z_0_10 + 100000 z_0_2 + 100000 z_0_6 + 100000 z_0_8 <= 402259.92025272385
 c2762: 120 p_0_1 + 120 p_0_10 + 120 p_0_2 + 120 p_0_6 + 120 p_0_8 + 100000 z_0_1 + 100000 z_0_10 + 100000 z_0_2 + 100000 z_0_6 + 100000 z_0_8 <= 502244.94030294381
 c2763: 120 p_0_10 + 120 p_0_3 + 120 p_0_6 + 120 p_0_8 + 100000 z_0_10 + 100000 z_0_3 + 100000 z_0_6 + 100000 z_0_8 <= 402195.66457479837
 c2764: 120 p_0_1 + 120 p_0_10 + 120 p_0_3 + 120 p_0_6 + 120 p_0_8 + 100000 z_0_1 + 100000 z_0_10 + 100000 z_0_3 + 100000 z_0_6 + 100000 z_0_8 <= 502177.35842849279
 c2765: 120 p_0_10 + 120 p_0_2 + 120 p_0_3 + 120 p_0_6 + 120 p_0_8 + 100000 z_0_10 + 100000 z_0_2 + 100000 z_0_3 + 100000 z_0_6 + 100000 z_0_8 <= 502194.12757400307
 c2766: 120 p_0_1 + 120 p_0_10 + 120 p_0_2 + 120 p_0_3 + 120 p_0_6 + 120 p_0_8 + 100000 z_0_1 + 100000 z_0_10 + 100000 z_0_2 + 100000 z_0_3 + 100000 z_0_6 + 100000 z_0_8 <= 602175.82142769743
 c2767: 120 p_0_10 + 120 p_0_4 + 120 p_0_6 + 120 p_0_8 + 100000 z_0_10 + 100000 z_0_4 + 100000 z_0_6 + 100000 z_0_8 <= 402224.2091958542
 c2768: 120 p_0_1 + 120 p_0_10 + 120 p_0_4 + 120 p_0_6 + 120 p_0_8 + 100000 z_0_1 + 100000 z_0_10 + 100000 z_0_4 + 100000 z_0_6 + 100000 z_0_8 <= 502223.41886577371
 c2769: 120 p_0_10 + 120 p_0_2 + 120 p_0_4 + 120 p_0_6 + 120 p_0_8 + 100000 z_0_10 + 100000 z_0_2 + 100000 z_0_4 + 100000 z_0_6 + 100000 z_0_8 <= 502220.78021272196
 c2770: 120 p_0_1 + 120 p_0_10 + 120 p_0_2 + 120 p_0_4 + 120 p_0_6 + 120 p_0_8 + 100000 z_0_1 + 100000 z_0_10 + 100000 z_0_2 + 100000 z_0_4 + 100000 z_0_6 + 100000 z_0_8 <= 602214.80381208449
 c2771: 120 p_0_10 + 120 p_0_3 + 120 p_0_4 + 120 p_0_6 + 120 p_0_8 + 100000 z_0_10 + 100000 z_0_3 + 100000 z_0_4 + 100000 z_0_6 + 100000 z_0_8 <= 502157.54220264056
 c2772: 120 p_0_1 + 120 p_0_10 + 120 p_0_3 + 120 p_0_4 + 120 p_0_6 + 120 p_0_8 + 100000 z_0_1 + 100000 z_0_10 + 100000 z_0_3 + 100000 z_0_4 + 100000 z_0_6 + 100000 z_0_8 <= 602147.22193763347
 c2773: 120 p_0_10 + 120 p_0_2 + 120 p_0_3 + 120 p_0_4 + 120 p_0_6 + 120 p_0_8 + 100000 z_0_10 + 100000 z_0_2 + 100000 z_0_3 + 100000 z_0_4 + 100000 z_0_6 + 100000 z_0_8 <= 602156.0052018452
 c2774: 120 p_0_1 + 120 p_0_10 + 120 p_0_2 + 120 p_0_3 + 120 p_0_4 + 120 p_0_6 + 120 p_0_8 + 100000 z_0_1 + 100000 z_0_10 + 100000 z_0_2 + 100000 z_0_3 + 100000 z_0_4 + 100000 z_0_6 + 100000 z_0_8 <= 702145.68493683811
 c2775: 120 p_0_10 + 120 p_0_5 + 120 p_0_6 + 120 p_0_8 + 100000 z_0_10 + 100000 z_0_5 + 100000 z_0_6 + 100000 z_0_8 <= 402261.27499657765
 c2776: 120 p_0_1 + 120 p_0_10 + 120 p_0_5 + 120 p_0_6 + 120 p_0_8 + 100000 z_0_1 + 100000 z_0_10 + 100000 z_0_5 + 100000 z_0_6 + 100000 z_0_8 <= 502253.37309969153
 c2777: 120 p_0_10 + 120 p_0_2 + 120 p_0_5 + 120 p_0_6 + 120 p_0_8 + 100000 z_0_10 + 100000 z_0_2 + 100000 z_0_5 + 100000 z_0_6 + 100000 z_0_8 <= 502259.73799578234
 c2778: 120 p_0_1 + 120 p_0_10 + 120 p_0_2 + 120 p_0_5 + 120 p_0_6 + 120 p_0_8 + 100000 z_0_1 + 100000 z_0_10 + 100000 z_0_2 + 100000 z_0_5 + 100000 z_0_6 + 100000 z_0_8 <= 602239.55759621086
 c2779: 120 p_0_10 + 120 p_0_3 + 120 p_0_5 + 120 p_0_6 + 120 p_0_8 + 100000 z_0_10 + 100000 z_0_3 + 100000 z_0_5 + 100000 z_0_6 + 100000 z_0_8 <= 502195.48231785686
 c2780: 120 p_0_1 + 120 p_0_10 + 120 p_0_3 + 120 p_0_5 + 120 p_0_6 + 120 p_0_8 + 100000 z_0_1 + 100000 z_0_10 + 100000 z_0_3 + 100000 z_0_5 + 100000 z_0_6 + 100000 z_0_8 <= 602175.30191828543
 c2781: 120 p_0_10 + 120 p_0_2 + 120 p_0_3 + 120 p_0_5 + 120 p_0_6 + 120 p_0_8 + 100000 z_0_10 + 100000 z_0_2 + 100000 z_0_3 + 100000 z_0_5 + 100000 z_0_6 + 100000 z_0_8 <= 602193.94531706162
 c2782: 120 p_0_1 + 120 p_0_10 + 120 p_0_2 + 120 p_0_3 + 120 p_0_5 + 120 p_0_6 + 120 p_0_8 + 100000 z_0_1 + 100000 z_0_10 + 100000 z_0_2 + 100000 z_0_3 + 100000 z_0_5 + 100000 z_0_6 + 100000 z_0_8 <= 702173.76491749007
 c2783: 120 p_0_10 + 120 p_0_4 + 120 p_0_5 + 120 p_0_6 + 120 p_0_8 + 100000 z_0_10 + 100000 z_0_4 + 100000 z_0_5 + 100000 z_0_6 + 100000 z_0_8 <= 502224.02693891269
 c2784: 120 p_0_1 + 120 p_0_10 + 120 p_0_4 + 120 p_0_5 + 120 p_0_6 + 120 p_0_8 + 100000 z_0_1 + 100000 z_0_10 + 100000 z_0_4 + 100000 z_0_5 + 100000 z_0_6 + 100000 z_0_8 <= 602223.23660883214
 c2785: 120 p_0_10 + 120 p_0_2 + 120 p_0_4 + 120 p_0_5 + 120 p_0_6 + 120 p_0_8 + 100000 z_0_10 + 100000 z_0_2 + 100000 z_0_4 + 100000 z_0_5 + 100000 z_0_6 + 100000 z_0_8 <= 602220.59795578045
 c2786: 120 p_0_1 + 120 p_0_10 + 120 p_0_2 + 120 p_0_4 + 120 p_0_5 + 120 p_0_6 + 120 p_0_8 + 100000 z_0_1 + 100000 z_0_10 + 100000 z_0_2 + 100000 z_0_4 + 100000 z_0_5 + 100000 z_0_6 + 100000 z_0_8 <= 702209.42110535153
 c2787: 120 p_0_10 + 120 p_0_3 + 120 p_0_4 + 120 p_0_5 + 120 p_0_6 + 120 p_0_8 + 100000 z_0_10 + 100000 z_0_3 + 100000 z_0_4 + 100000 z_0_5 + 100000 z_0_6 + 100000 z_0_8 <= 602157.35994569911
 c2788: 120 p_0_1 + 120 p_0_10 + 120 p_0_3 + 120 p_0_4 + 120 p_0_5 + 120 p_0_6 + 120 p_0_8 + 100000 z_0_1 + 100000 z_0_10 + 100000 z_0_3 + 100000 z_0_4 + 100000 z_0_5 + 100000 z_0_6 + 100000 z_0_8 <= 702145.16542742611
 c2789: 120 p_0_10 + 120 p_0_2 + 120 p_0_3 + 120 p_0_4 + 120 p_0_5 + 120 p_0_6 + 120 p_0_8 + 100000 z_0_10 + 100000 z_0_2 + 100000 z_0_3 + 100000 z_0_4 + 100000 z_0_5 + 100000 z_0_6 + 100000 z_0_8 <= 702155.82294490375
 c2790: 120 p_0_1 + 120 p_0_10 + 120 p_0_2 + 120 p_0_3 + 120 p_0_4 + 120 p_0_5 + 120 p_0_6 + 120 p_0_8 + 100000 z_0_1 + 100000 z_0_10 + 100000 z_0_2 + 100000 z_0_3 + 100000 z_0_4 + 100000 z_0_5 + 100000 z_0_6 + 100000 z_0_8 <= 802143.62842663075
 c2791: 120 p_0_10 + 120 p_0_7 + 120 p_0_8 + 100000 z_0_10 + 100000 z_0_7 + 100000 z_0_8 <= 302542.48710560752
 c2792: 120 p_0_1 + 120 p_0_10 + 120 p_0_7 + 120 p_0_8 + 100000 z_0_1 + 100000 z_0_10 + 100000 z_0_7 + 100000 z_0_8 <= 402538.96796092769
 c2793: 120 p_0_10 + 120 p_0_2 + 120 p_0_7 + 120 p_0_8 + 100000 z_0_10 + 100000 z_0_2 + 100000 z_0_7 + 100000 z_0_8 <= 402540.95010481216
 c2794: 120 p_0_1 + 120 p_0_10 + 120 p_0_2 + 120 p_0_7 + 120 p_0_8 + 100000 z_0_1 + 100000 z_0_10 + 100000 z_0_2 + 100000 z_0_7 + 100000 z_0_8 <= 502537.43096013233
 c2795: 120 p_0_10 + 120 p_0_3 + 120 p_0_7 + 120 p_0_8 + 100000 z_0_10 + 100000 z_0_3 + 100000 z_0_7 + 100000 z_0_8 <= 402042.35312870605
 c2796: 120 p_0_1 + 120 p_0_10 + 120 p_0_3 + 120 p_0_7 + 120 p_0_8 + 100000 z_0_1 + 100000 z_0_10 + 100000 z_0_3 + 100000 z_0_7 + 100000 z_0_8 <= 502038.83398402622
 c2797: 120 p_0_10 + 120 p_0_2 + 120 p_0_3 + 120 p_0_7 + 120 p_0_8 + 100000 z_0_10 + 100000 z_0_2 + 100000 z_0_3 + 100000 z_0_7 + 100000 z_0_8 <= 502040.81612791069
 c2798: 120 p_0_1 + 120 p_0_10 + 120 p_0_2 + 120 p_0_3 + 120 p_0_7 + 120 p_0_8 + 100000 z_0_1 + 100000 z_0_10 + 100000 z_0_2 + 100000 z_0_3 + 100000 z_0_7 + 100000 z_0_8 <= 602037.29698323086
 c2799: 120 p_0_10 + 120 p_0_4 + 120 p_0_7 + 120 p_0_8 + 100000 z_0_10 + 100000 z_0_4 + 100000 z_0_7 + 100000 z_0_8 <= 402542.48447808868
 c2800: 120 p_0_1 + 120 p_0_10 + 120 p_0_4 + 120 p_0_7 + 120 p_0_8 + 100000 z_0_1 + 100000 z_0_10 + 100000 z_0_4 + 100000 z_0_7 + 100000 z_0_8 <= 502538.96533340885
 c2801: 120 p_0_10 + 120 p_0_2 + 120 p_0_4 + 120 p_0_7 + 120 p_0_8 + 100000 z_0_10 + 100000 z_0_2 + 100000 z_0_4 + 100000 z_0_7 + 100000 z_0_8 <= 502540.94747729338
 c2802: 120 p_0_1 + 120 p_0_10 + 120 p_0_2 + 120 p_0_4 + 120 p_0_7 + 120 p_0_8 + 100000 z_0_1 + 100000 z_0_10 + 100000 z_0_2 + 100000 z_0_4 + 100000 z_0_7 + 100000 z_0_8 <= 602537.42833261355
 c2803: 120 p_0_10 + 120 p_0_3 + 120 p_0_4 + 120 p_0_7 + 120 p_0_8 + 100000 z_0_10 + 100000 z_0_3 + 100000 z_0_4 + 100000 z_0_7 + 100000 z_0_8 <= 502042.3505011872
 c2804: 120 p_0_1 + 120 p_0_10 + 120 p_0_3 + 120 p_0_4 + 120 p_0_7 + 120 p_0_8 + 100000 z_0_1 + 100000 z_0_10 + 100000 z_0_3 + 100000 z_0_4 + 100000 z_0_7 + 100000 z_0_8 <= 602038.83135650738
 c2805: 120 p_0_10 + 120 p_0_2 + 120 p_0_3 + 120 p_0_4 + 120 p_0_7 + 120 p_0_8 + 100000 z_0_10 + 100000 z_0_2 + 100000 z_0_3 + 100000 z_0_4 + 100000 z_0_7 + 100000 z_0_8 <= 602040.8135003919
 c2806: 120 p_0_1 + 120 p_0_10 + 120 p_0_2 + 120 p_0_3 + 120 p_0_4 + 120 p_0_7 + 120 p_0_8 + 100000 z_0_1 + 100000 z_0_10 + 100000 z_0_2 + 100000 z_0_3 + 100000 z_0_4 + 100000 z_0_7 + 100000 z_0_8 <= 702037.29435571202
 c2807: 120 p_0_10 + 120 p_0_5 + 120 p_0_7 + 120 p_0_8 + 100000 z_0_10 + 100000 z_0_5 + 100000 z_0_7 + 100000 z_0_8 <= 402530.02710120147
 c2808: 120 p_0_1 + 120 p_0_10 + 120 p_0_5 + 120 p_0_7 + 120 p_0_8 + 100000 z_0_1 + 100000 z_0_10 + 100000 z_0_5 + 100000 z_0_7 + 100000 z_0_8 <= 502526.50795652164
 c2809: 120 p_0_10 + 120 p_0_2 + 120 p_0_5 + 120 p_0_7 + 120 p_0_8 + 100000 z_0_10 + 100000 z_0_2 + 100000 z_0_5 + 100000 z_0_7 + 100000 z_0_8 <= 502528.37669357326
 c2810: 120 p_0_1 + 120 p_0_10 + 120 p_0_2 + 120 p_0_5 + 120 p_0_7 + 120 p_0_8 + 100000 z_0_1 + 100000 z_0_10 + 100000 z_0_2 + 100000 z_0_5 + 100000 z_0_7 + 100000 z_0_8 <= 602524.85754889343
 c2811: 120 p_0_10 + 120 p_0_3 + 120 p_0_5 + 120 p_0_7 + 120 p_0_8 + 100000 z_0_10 + 100000 z_0_3 + 100000 z_0_5 + 100000 z_0_7 + 100000 z_0_8 <= 502033.44800982717
 c2812: 120 p_0_1 + 120 p_0_10 + 120 p_0_3 + 120 p_0_5 + 120 p_0_7 + 120 p_0_8 + 100000 z_0_1 + 100000 z_0_10 + 100000 z_0_3 + 100000 z_0_5 + 100000 z_0_7 + 100000 z_0_8 <= 602026.37397962017
 c2813: 120 p_0_10 + 120 p_0_2 + 120 p_0_3 + 120 p_0_5 + 120 p_0_7 + 120 p_0_8 + 100000 z_0_10 + 100000 z_0_2 + 100000 z_0_3 + 100000 z_0_5 + 100000 z_0_7 + 100000 z_0_8 <= 602031.91100903181
 c2814: 120 p_0_1 + 120 p_0_10 + 120 p_0_2 + 120 p_0_3 + 120 p_0_5 + 120 p_0_7 + 120 p_0_8 + 100000 z_0_1 + 100000 z_0_10 + 100000 z_0_2 + 100000 z_0_3 + 100000 z_0_5 + 100000 z_0_7 + 100000 z_0_8 <= 702024.7235719919
 c2815: 120 p_0_10 + 120 p_0_4 + 120 p_0_5 + 120 p_0_7 + 120 p_0_8 + 100000 z_0_10 + 100000 z_0_4 + 100000 z_0_5 + 100000 z_0_7 + 100000 z_0_8 <= 502530.02447368269
 c2816: 120 p_0_1 + 120 p_0_10 + 120 p_0_4 + 120 p_0_5 + 120 p_0_7 + 120 p_0_8 + 100000 z_0_1 + 100000 z_0_10 + 100000 z_0_4 + 100000 z_0_5 + 100000 z_0_7 + 100000 z_0_8 <= 602526.50532900286
 c2817: 120 p_0_10 + 120 p_0_2 + 120 p_0_4 + 120 p_0_5 + 120 p_0_7 + 120 p_0_8 + 100000 z_0_10 + 100000 z_0_2 + 100000 z_0_4 + 100000 z_0_5 + 100000 z_0_7 + 100000 z_0_8 <= 602528.37406605447
 c2818: 120 p_0_1 + 120 p_0_10 + 120 p_0_2 + 120 p_0_4 + 120 p_0_5 + 120 p_0_7 + 120 p_0_8 + 100000 z_0_1 + 100000 z_0_10 + 100000 z_0_2 + 100000 z_0_4 + 100000 z_0_5 + 100000 z_0_7 + 100000 z_0_8 <= 702524.85492137459
 c2819: 120 p_0_10 + 120 p_0_3 + 120 p_0_4 + 120 p_0_5 + 120 p_0_7 + 120 p_0_8 + 100000 z_0_10 + 100000 z_0_3 + 100000 z_0_4 + 100000 z_0_5 + 100000 z_0_7 + 100000 z_0_8 <= 602033.44538230833
 c2820: 120 p_0_1 + 120 p_0_10 + 120 p_0_3 + 120 p_0_4 + 120 p_0_5 + 120 p_0_7 + 120 p_0_8 + 100000 z_0_1 + 100000 z_0_10 + 100000 z_0_3 + 100000 z_0_4 + 100000 z_0_5 + 100000 z_0_7 + 100000 z_0_8 <= 702026.37135210144
 c2821: 120 p_0_10 + 120 p_0_2 + 120 p_0_3 + 120 p_0_4 + 120 p_0_5 + 120 p_0_7 + 120 p_0_8 + 100000 z_0_10 + 100000 z_0_2 + 100000 z_0_3 + 100000 z_0_4 + 100000 z_0_5 + 100000 z_0_7 + 100000 z_0_8 <= 702031.90838151309
 c2822: 120 p_0_1 + 120 p_0_10 + 120 p_0_2 + 120 p_0_3 + 120 p_0_4 + 120 p_0_5 + 120 p_0_7 + 120 p_0_8 + 100000 z_0_1 + 100000 z_0_10 + 100000 z_0_2 + 100000 z_0_3 + 100000 z_0_4 + 100000 z_0_5 + 100000 z_0_7 + 100000 z_0_8 <= 802024.72094447317
 c2823: 120 p_0_10 + 120 p_0_6 + 120 p_0_7 + 120 p_0_8 + 100000 z_0_10 + 100000 z_0_6 + 100000 z_0_7 + 100000 z_0_8 <= 402099.36887400213
 c2824: 120 p_0_1 + 120 p_0_10 + 120 p_0_6 + 120 p_0_7 + 120 p_0_8 + 100000 z_0_1 + 100000 z_0_10 + 100000 z_0_6 + 100000 z_0_7 + 100000 z_0_8 <= 502095.8497293223
 c2825: 120 p_0_10 + 120 p_0_2 + 120 p_0_6 + 120 p_0_7 + 120 p_0_8 + 100000 z_0_10 + 100000 z_0_2 + 100000 z_0_6 + 100000 z_0_7 + 100000 z_0_8 <= 502090.75382031291
 c2826: 120 p_0_1 + 120 p_0_10 + 120 p_0_2 + 120 p_0_6 + 120 p_0_7 + 120 p_0_8 + 100000 z_0_1 + 100000 z_0_10 + 100000 z_0_2 + 100000 z_0_6 + 100000 z_0_7 + 100000 z_0_8 <= 602087.23467563302
 c2827: 120 p_0_10 + 120 p_0_3 + 120 p_0_6 + 120 p_0_7 + 120 p_0_8 + 100000 z_0_10 + 100000 z_0_3 + 100000 z_0_6 + 100000 z_0_7 + 100000 z_0_8 <= 502029.71899808262
 c2828: 120 p_0_1 + 120 p_0_10 + 120 p_0_3 + 120 p_0_6 + 120 p_0_7 + 120 p_0_8 + 100000 z_0_1 + 100000 z_0_10 + 100000 z_0_3 + 100000 z_0_6 + 100000 z_0_7 + 100000 z_0_8 <= 602019.65280118212
 c2829: 120 p_0_10 + 120 p_0_2 + 120 p_0_3 + 120 p_0_6 + 120 p_0_7 + 120 p_0_8 + 100000 z_0_10 + 100000 z_0_2 + 100000 z_0_3 + 100000 z_0_6 + 100000 z_0_7 + 100000 z_0_8 <= 602028.18199728732
 c2830: 120 p_0_1 + 120 p_0_10 + 120 p_0_2 + 120 p_0_3 + 120 p_0_6 + 120 p_0_7 + 120 p_0_8 + 100000 z_0_1 + 100000 z_0_10 + 100000 z_0_2 + 100000 z_0_3 + 100000 z_0_6 + 100000 z_0_7 + 100000 z_0_8 <= 702018.11580038676
 c2831: 120 p_0_10 + 120 p_0_4 + 120 p_0_6 + 120 p_0_7 + 120 p_0_8 + 100000 z_0_10 + 100000 z_0_4 + 100000 z_0_6 + 100000 z_0_7 + 100000 z_0_8 <= 502099.36624648335
 c2832: 120 p_0_1 + 120 p_0_10 + 120 p_0_4 + 120 p_0_6 + 120 p_0_7 + 120 p_0_8 + 100000 z_0_1 + 100000 z_0_10 + 100000 z_0_4 + 100000 z_0_6 + 100000 z_0_7 + 100000 z_0_8 <= 602095.84710180352
 c2833: 120 p_0_10 + 120 p_0_2 + 120 p_0_4 + 120 p_0_6 + 120 p_0_7 + 120 p_0_8 + 100000 z_0_10 + 100000 z_0_2 + 100000 z_0_4 + 100000 z_0_6 + 100000 z_0_7 + 100000 z_0_8 <= 602090.75119279406
 c2834: 120 p_0_1 + 120 p_0_10 + 120 p_0_2 + 120 p_0_4 + 120 p_0_6 + 120 p_0_7 + 120 p_0_8 + 100000 z_0_1 + 100000 z_0_10 + 100000 z_0_2 + 100000 z_0_4 + 100000 z_0_6 + 100000 z_0_7 + 100000 z_0_8 <= 702087.2320481143
 c2835: 120 p_0_10 + 120 p_0_3 + 120 p_0_4 + 120 p_0_6 + 120 p_0_7 + 120 p_0_8 + 100000 z_0_10 + 100000 z_0_3 + 100000 z_0_4 + 100000 z_0_6 + 100000 z_0_7 + 100000 z_0_8 <= 602029.71637056384
 c2836: 120 p_0_1 + 120 p_0_10 + 120 p_0_3 + 120 p_0_4 + 120 p_0_6 + 120 p_0_7 + 120 p_0_8 + 100000 z_0_1 + 100000 z_0_10 + 100000 z_0_3 + 100000 z_0_4 + 100000 z_0_6 + 100000 z_0_7 + 100000 z_0_8 <= 702019.65017366328
 c2837: 120 p_0_10 + 120 p_0_2 + 120 p_0_3 + 120 p_0_4 + 120 p_0_6 + 120 p_0_7 + 120 p_0_8 + 100000 z_0_10 + 100000 z_0_2 + 100000 z_0_3 + 100000 z_0_4 + 100000 z_0_6 + 100000 z_0_7 + 100000 z_0_8 <= 702028.17936976848
 c2838: 120 p_0_1 + 120 p_0_10 + 120 p_0_2 + 120 p_0_3 + 120 p_0_4 + 120 p_0_6 + 120 p_0_7 + 120 p_0_8 + 100000 z_0_1 + 100000 z_0_10 + 100000 z_0_2 + 100000 z_0_3 + 100000 z_0_4 + 100000 z_0_6 + 100000 z_0_7 + 100000 z_0_8 <= 802018.11317286792
 c2839: 120 p_0_10 + 120 p_0_5 + 120 p_0_6 + 120 p_0_7 + 120 p_0_8 + 100000 z_0_10 + 100000 z_0_5 + 100000 z_0_6 + 100000 z_0_7 + 100000 z_0_8 <= 502099.18661706062
 c2840: 120 p_0_1 + 120 p_0_10 + 120 p_0_5 + 120 p_0_6 + 120 p_0_7 + 120 p_0_8 + 100000 z_0_1 + 100000 z_0_10 + 100000 z_0_5 + 100000 z_0_6 + 100000 z_0_7 + 100000 z_0_8 <= 602095.6674723808
 c2841: 120 p_0_10 + 120 p_0_2 + 120 p_0_5 + 120 p_0_6 + 120 p_0_7 + 120 p_0_8 + 100000 z_0_10 + 100000 z_0_2 + 100000 z_0_5 + 100000 z_0_6 + 100000 z_0_7 + 100000 z_0_8 <= 602089.76533411152
 c2842: 120 p_0_1 + 120 p_0_10 + 120 p_0_2 + 120 p_0_5 + 120 p_0_6 + 120 p_0_7 + 120 p_0_8 + 100000 z_0_1 + 100000 z_0_10 + 100000 z_0_2 + 100000 z_0_5 + 100000 z_0_6 + 100000 z_0_7 + 100000 z_0_8 <= 702081.85196890018
 c2843: 120 p_0_10 + 120 p_0_3 + 120 p_0_5 + 120 p_0_6 + 120 p_0_7 + 120 p_0_8 + 100000 z_0_10 + 100000 z_0_3 + 100000 z_0_5 + 100000 z_0_6 + 100000 z_0_7 + 100000 z_0_8 <= 602029.53674114111
 c2844: 120 p_0_1 + 120 p_0_10 + 120 p_0_3 + 120 p_0_5 + 120 p_0_6 + 120 p_0_7 + 120 p_0_8 + 100000 z_0_1 + 100000 z_0_10 + 100000 z_0_3 + 100000 z_0_5 + 100000 z_0_6 + 100000 z_0_7 + 100000 z_0_8 <= 702017.59629097464
 c2845: 120 p_0_10 + 120 p_0_2 + 120 p_0_3 + 120 p_0_5 + 120 p_0_6 + 120 p_0_7 + 120 p_0_8 + 100000 z_0_10 + 100000 z_0_2 + 100000 z_0_3 + 100000 z_0_5 + 100000 z_0_6 + 100000 z_0_7 + 100000 z_0_8 <= 702027.99974034575
 c2846: 120 p_0_1 + 120 p_0_10 + 120 p_0_2 + 120 p_0_3 + 120 p_0_5 + 120 p_0_6 + 120 p_0_7 + 120 p_0_8 + 100000 z_0_1 + 100000 z_0_10 + 100000 z_0_2 + 100000 z_0_3 + 100000 z_0_5 + 100000 z_0_6 + 100000 z_0_7 + 100000 z_0_8 <= 802016.0592901794
 c2847: 120 p_0_10 + 120 p_0_4 + 120 p_0_5 + 120 p_0_6 + 120 p_0_7 + 120 p_0_8 + 100000 z_0_10 + 100000 z_0_4 + 100000 z_0_5 + 100000 z_0_6 + 100000 z_0_7 + 100000 z_0_8 <= 602099.18398954184
 c2848: 120 p_0_1 + 120 p_0_10 + 120 p_0_4 + 120 p_0_5 + 120 p_0_6 + 120 p_0_7 + 120 p_0_8 + 100000 z_0_1 + 100000 z_0_10 + 100000 z_0_4 + 100000 z_0_5 + 100000 z_0_6 + 100000 z_0_7 + 100000 z_0_8 <= 702095.66484486195
 c2849: 120 p_0_10 + 120 p_0_2 + 120 p_0_4 + 120 p_0_5 + 120 p_0_6 + 120 p_0_7 + 120 p_0_8 + 100000 z_0_10 + 100000 z_0_2 + 100000 z_0_4 + 100000 z_0_5 + 100000 z_0_6 + 100000 z_0_7 + 100000 z_0_8 <= 702089.76270659268
 c2850: 120 p_0_1 + 120 p_0_10 + 120 p_0_2 + 120 p_0_4 + 120 p_0_5 + 120 p_0_6 + 120 p_0_7 + 120 p_0_8 + 100000 z_0_1 + 100000 z_0_10 + 100000 z_0_2 + 100000 z_0_4 + 100000 z_0_5 + 100000 z_0_6 + 100000 z_0_7 + 100000 z_0_8 <= 802081.84934138134
 c2851: 120 p_0_10 + 120 p_0_3 + 120 p_0_4 + 120 p_0_5 + 120 p_0_6 + 120 p_0_7 + 120 p_0_8 + 100000 z_0_10 + 100000 z_0_3 + 100000 z_0_4 + 100000 z_0_5 + 100000 z_0_6 + 100000 z_0_7 + 100000 z_0_8 <= 702029.53411362227
 c2852: 120 p_0_1 + 120 p_0_10 + 120 p_0_3 + 120 p_0_4 + 120 p_0_5 + 120 p_0_6 + 120 p_0_7 + 120 p_0_8 + 100000 z_0_1 + 100000 z_0_10 + 100000 z_0_3 + 100000 z_0_4 + 100000 z_0_5 + 100000 z_0_6 + 100000 z_0_7 + 100000 z_0_8 <= 802017.59366345592
 c2853: 120 p_0_10 + 120 p_0_2 + 120 p_0_3 + 120 p_0_4 + 120 p_0_5 + 120 p_0_6 + 120 p_0_7 + 120 p_0_8 + 100000 z_0_10 + 100000 z_0_2 + 100000 z_0_3 + 100000 z_0_4 + 100000 z_0_5 + 100000 z_0_6 + 100000 z_0_7 + 100000 z_0_8 <= 802027.99711282691
 c2854: 120 p_0_1 + 120 p_0_10 + 120 p_0_2 + 120 p_0_3 + 120 p_0_4 + 120 p_0_5 + 120 p_0_6 + 120 p_0_7 + 120 p_0_8 + 100000 z_0_1 + 100000 z_0_10 + 100000 z_0_2 + 100000 z_0_3 + 100000 z_0_4 + 100000 z_0_5 + 100000 z_0_6 + 100000 z_0_7 + 100000 z_0_8 <= 902016.05666266056
 c2855: 120 p_0_10 + 120 p_0_9 + 100000 z_0_10 + 100000 z_0_9 <= 202645.46397222046
 c2856: 120 p_0_1 + 120 p_0_10 + 120 p_0_9 + 100000 z_0_1 + 100000 z_0_10 + 100000 z_0_9 <= 302625.28357264894
 c2857: 120 p_0_10 + 120 p_0_2 + 120 p_0_9 + 100000 z_0_10 + 100000 z_0_2 + 100000 z_0_9 <= 302418.16505539138
 c2858: 120 p_0_1 + 120 p_0_10 + 120 p_0_2 + 120 p_0_9 + 100000 z_0_1 + 100000 z_0_10 + 100000 z_0_2 + 100000 z_0_9 <= 402407.47833764029
 c2859: 120 p_0_10 + 120 p_0_3 + 120 p_0_9 + 100000 z_0_10 + 100000 z_0_3 + 100000 z_0_9 <= 302554.2535387791
 c2860: 120 p_0_1 + 120 p_0_10 + 120 p_0_3 + 120 p_0_9 + 100000 z_0_1 + 100000 z_0_10 + 100000 z_0_3 + 100000 z_0_9 <= 402534.07313920761
 c2861: 120 p_0_10 + 120 p_0_2 + 120 p_0_3 + 120 p_0_9 + 100000 z_0_10 + 100000 z_0_2 + 100000 z_0_3 + 100000 z_0_9 <= 402326.95462194999
 c2862: 120 p_0_1 + 120 p_0_10 + 120 p_0_2 + 120 p_0_3 + 120 p_0_9 + 100000 z_0_1 + 100000 z_0_10 + 100000 z_0_2 + 100000 z_0_3 + 100000 z_0_9 <= 502306.7742223785
 c2863: 120 p_0_10 + 120 p_0_4 + 120 p_0_9 + 100000 z_0_10 + 100000 z_0_4 + 100000 z_0_9 <= 302605.70384248602
 c2864: 120 p_0_1 + 120 p_0_10 + 120 p_0_4 + 120 p_0_9 + 100000 z_0_1 + 100000 z_0_10 + 100000 z_0_4 + 100000 z_0_9 <= 402595.14708178962
 c2865: 120 p_0_10 + 120 p_0_2 + 120 p_0_4 + 120 p_0_9 + 100000 z_0_10 + 100000 z_0_2 + 100000 z_0_4 + 100000 z_0_9 <= 402379.72103630065
 c2866: 120 p_0_1 + 120 p_0_10 + 120 p_0_2 + 120 p_0_4 + 120 p_0_9 + 100000 z_0_1 + 100000 z_0_10 + 100000 z_0_2 + 100000 z_0_4 + 100000 z_0_9 <= 502377.34184678097
 c2867: 120 p_0_10 + 120 p_0_3 + 120 p_0_4 + 120 p_0_9 + 100000 z_0_10 + 100000 z_0_3 + 100000 z_0_4 + 100000 z_0_9 <= 402516.13116662129
 c2868: 120 p_0_1 + 120 p_0_10 + 120 p_0_3 + 120 p_0_4 + 120 p_0_9 + 100000 z_0_1 + 100000 z_0_10 + 100000 z_0_3 + 100000 z_0_4 + 100000 z_0_9 <= 502503.93664834829
 c2869: 120 p_0_10 + 120 p_0_2 + 120 p_0_3 + 120 p_0_4 + 120 p_0_9 + 100000 z_0_10 + 100000 z_0_2 + 100000 z_0_3 + 100000 z_0_4 + 100000 z_0_9 <= 502288.83224979218
 c2870: 120 p_0_1 + 120 p_0_10 + 120 p_0_2 + 120 p_0_3 + 120 p_0_4 + 120 p_0_9 + 100000 z_0_1 + 100000 z_0_10 + 100000 z_0_2 + 100000 z_0_3 + 100000 z_0_4 + 100000 z_0_9 <= 602276.63773151918
 c2871: 120 p_0_10 + 120 p_0_5 + 120 p_0_9 + 100000 z_0_10 + 100000 z_0_5 + 100000 z_0_9 <= 302355.18059742119
 c2872: 120 p_0_1 + 120 p_0_10 + 120 p_0_5 + 120 p_0_9 + 100000 z_0_1 + 100000 z_0_10 + 100000 z_0_5 + 100000 z_0_9 <= 402345.1047758637
 c2873: 120 p_0_10 + 120 p_0_2 + 120 p_0_5 + 120 p_0_9 + 100000 z_0_10 + 100000 z_0_2 + 100000 z_0_5 + 100000 z_0_9 <= 402353.53018979297
 c2874: 120 p_0_1 + 120 p_0_10 + 120 p_0_2 + 120 p_0_5 + 120 p_0_9 + 100000 z_0_1 + 100000 z_0_10 + 100000 z_0_2 + 100000 z_0_5 + 100000 z_0_9 <= 502342.84347204189
 c2875: 120 p_0_10 + 120 p_0_3 + 120 p_0_5 + 120 p_0_9 + 100000 z_0_10 + 100000 z_0_3 + 100000 z_0_5 + 100000 z_0_9 <= 402263.97016397986
 c2876: 120 p_0_1 + 120 p_0_10 + 120 p_0_3 + 120 p_0_5 + 120 p_0_9 + 100000 z_0_1 + 100000 z_0_10 + 100000 z_0_3 + 100000 z_0_5 + 100000 z_0_9 <= 502243.78976440837
 c2877: 120 p_0_10 + 120 p_0_2 + 120 p_0_3 + 120 p_0_5 + 120 p_0_9 + 100000 z_0_10 + 100000 z_0_2 + 100000 z_0_3 + 100000 z_0_5 + 100000 z_0_9 <= 502262.31975635164
 c2878: 120 p_0_1 + 120 p_0_10 + 120 p_0_2 + 120 p_0_3 + 120 p_0_5 + 120 p_0_9 + 100000 z_0_1 + 100000 z_0_10 + 100000 z_0_2 + 100000 z_0_3 + 100000 z_0_5 + 100000 z_0_9 <= 602242.1393567801
 c2879: 120 p_0_10 + 120 p_0_4 + 120 p_0_5 + 120 p_0_9 + 100000 z_0_10 + 100000 z_0_4 + 100000 z_0_5 + 100000 z_0_9 <= 402316.89823181584
 c2880: 120 p_0_1 + 120 p_0_10 + 120 p_0_4 + 120 p_0_5 + 120 p_0_9 + 100000 z_0_1 + 100000 z_0_10 + 100000 z_0_4 + 100000 z_0_5 + 100000 z_0_9 <= 502314.96828500438
 c2881: 120 p_0_10 + 120 p_0_2 + 120 p_0_4 + 120 p_0_5 + 120 p_0_9 + 100000 z_0_10 + 100000 z_0_2 + 100000 z_0_4 + 100000 z_0_5 + 100000 z_0_9 <= 502315.0861707023
 c2882: 120 p_0_1 + 120 p_0_10 + 120 p_0_2 + 120 p_0_4 + 120 p_0_5 + 120 p_0_9 + 100000 z_0_1 + 100000 z_0_10 + 100000 z_0_2 + 100000 z_0_4 + 100000 z_0_5 + 100000 z_0_9 <= 602312.70698118256
 c2883: 120 p_0_10 + 120 p_0_3 + 120 p_0_4 + 120 p_0_5 + 120 p_0_9 + 100000 z_0_10 + 100000 z_0_3 + 100000 z_0_4 + 100000 z_0_5 + 100000 z_0_9 <= 502225.84779182205
 c2884: 120 p_0_1 + 120 p_0_10 + 120 p_0_3 + 120 p_0_4 + 120 p_0_5 + 120 p_0_9 + 100000 z_0_1 + 100000 z_0_10 + 100000 z_0_3 + 100000 z_0_4 + 100000 z_0_5 + 100000 z_0_9 <= 602213.65327354905
 c2885: 120 p_0_10 + 120 p_0_2 + 120 p_0_3 + 120 p_0_4 + 120 p_0_5 + 120 p_0_9 + 100000 z_0_10 + 100000 z_0_2 + 100000 z_0_3 + 100000 z_0_4 + 100000 z_0_5 + 100000 z_0_9 <= 602224.19738419377
 c2886: 120 p_0_1 + 120 p_0_10 + 120 p_0_2 + 120 p_0_3 + 120 p_0_4 + 120 p_0_5 + 120 p_0_9 + 100000 z_0_1 + 100000 z_0_10 + 100000 z_0_2 + 100000 z_0_3 + 100000 z_0_4 + 100000 z_0_5 + 100000 z_0_9 <= 702212.00286592077
 c2887: 120 p_0_10 + 120 p_0_6 + 120 p_0_9 + 100000 z_0_10 + 100000 z_0_6 + 100000 z_0_9 <= 302616.91331807023
 c2888: 120 p_0_1 + 120 p_0_10 + 120 p_0_6 + 120 p_0_9 + 100000 z_0_1 + 100000 z_0_10 + 100000 z_0_6 + 100000 z_0_9 <= 402596.73291849875
 c2889: 120 p_0_10 + 120 p_0_2 + 120 p_0_6 + 120 p_0_9 + 100000 z_0_10 + 100000 z_0_2 + 100000 z_0_6 + 100000 z_0_9 <= 402389.61440124112
 c2890: 120 p_0_1 + 120 p_0_10 + 120 p_0_2 + 120 p_0_6 + 120 p_0_9 + 100000 z_0_1 + 100000 z_0_10 + 100000 z_0_2 + 100000 z_0_6 + 100000 z_0_9 <= 502369.43400166964
 c2891: 120 p_0_10 + 120 p_0_3 + 120 p_0_6 + 120 p_0_9 + 100000 z_0_10 + 100000 z_0_3 + 100000 z_0_6 + 100000 z_0_9 <= 402551.12063934945
 c2892: 120 p_0_1 + 120 p_0_10 + 120 p_0_3 + 120 p_0_6 + 120 p_0_9 + 100000 z_0_1 + 100000 z_0_10 + 100000 z_0_3 + 100000 z_0_6 + 100000 z_0_9 <= 502530.94023977796
 c2893: 120 p_0_10 + 120 p_0_2 + 120 p_0_3 + 120 p_0_6 + 120 p_0_9 + 100000 z_0_10 + 100000 z_0_2 + 100000 z_0_3 + 100000 z_0_6 + 100000 z_0_9 <= 502323.82172252034
 c2894: 120 p_0_1 + 120 p_0_10 + 120 p_0_2 + 120 p_0_3 + 120 p_0_6 + 120 p_0_9 + 100000 z_0_1 + 100000 z_0_10 + 100000 z_0_2 + 100000 z_0_3 + 100000 z_0_6 + 100000 z_0_9 <= 602303.64132294885
 c2895: 120 p_0_10 + 120 p_0_4 + 120 p_0_6 + 120 p_0_9 + 100000 z_0_10 + 100000 z_0_4 + 100000 z_0_6 + 100000 z_0_9 <= 402577.7732780684
 c2896: 120 p_0_1 + 120 p_0_10 + 120 p_0_4 + 120 p_0_6 + 120 p_0_9 + 100000 z_0_1 + 100000 z_0_10 + 100000 z_0_4 + 100000 z_0_6 + 100000 z_0_9 <= 502566.59642763942
 c2897: 120 p_0_10 + 120 p_0_2 + 120 p_0_4 + 120 p_0_6 + 120 p_0_9 + 100000 z_0_10 + 100000 z_0_2 + 100000 z_0_4 + 100000 z_0_6 + 100000 z_0_9 <= 502350.47436123929
 c2898: 120 p_0_1 + 120 p_0_10 + 120 p_0_2 + 120 p_0_4 + 120 p_0_6 + 120 p_0_9 + 100000 z_0_1 + 100000 z_0_10 + 100000 z_0_2 + 100000 z_0_4 + 100000 z_0_6 + 100000 z_0_9 <= 602339.29751081031
 c2899: 120 p_0_10 + 120 p_0_3 + 120 p_0_4 + 120 p_0_6 + 120 p_0_9 + 100000 z_0_10 + 100000 z_0_3 + 100000 z_0_4 + 100000 z_0_6 + 100000 z_0_9 <= 502512.99826719164
 c2900: 120 p_0_1 + 120 p_0_10 + 120 p_0_3 + 120 p_0_4 + 120 p_0_6 + 120 p_0_9 + 100000 z_0_1 + 100000 z_0_10 + 100000 z_0_3 + 100000 z_0_4 + 100000 z_0_6 + 100000 z_0_9 <= 602500.8037489187
 c2901: 120 p_0_10 + 120 p_0_2 + 120 p_0_3 + 120 p_0_4 + 120 p_0_6 + 120 p_0_9 + 100000 z_0_10 + 100000 z_0_2 + 100000 z_0_3 + 100000 z_0_4 + 100000 z_0_6 + 100000 z_0_9 <= 602285.69935036253
 c2902: 120 p_0_1 + 120 p_0_10 + 120 p_0_2 + 120 p_0_3 + 120 p_0_4 + 120 p_0_6 + 120 p_0_9 + 100000 z_0_1 + 100000 z_0_10 + 100000 z_0_2 + 100000 z_0_3 + 100000 z_0_4 + 100000 z_0_6 + 100000 z_0_9 <= 702273.50483208953
 c2903: 120 p_0_10 + 120 p_0_5 + 120 p_0_6 + 120 p_0_9 + 100000 z_0_10 + 100000 z_0_5 + 100000 z_0_6 + 100000 z_0_9 <= 402326.62994327099
 c2904: 120 p_0_1 + 120 p_0_10 + 120 p_0_5 + 120 p_0_6 + 120 p_0_9 + 100000 z_0_1 + 100000 z_0_10 + 100000 z_0_5 + 100000 z_0_6 + 100000 z_0_9 <= 502306.44954369951
 c2905: 120 p_0_10 + 120 p_0_2 + 120 p_0_5 + 120 p_0_6 + 120 p_0_9 + 100000 z_0_10 + 100000 z_0_2 + 100000 z_0_5 + 100000 z_0_6 + 100000 z_0_9 <= 502324.97953564278
 c2906: 120 p_0_1 + 120 p_0_10 + 120 p_0_2 + 120 p_0_5 + 120 p_0_6 + 120 p_0_9 + 100000 z_0_1 + 100000 z_0_10 + 100000 z_0_2 + 100000 z_0_5 + 100000 z_0_6 + 100000 z_0_9 <= 602304.79913607123
 c2907: 120 p_0_10 + 120 p_0_3 + 120 p_0_5 + 120 p_0_6 + 120 p_0_9 + 100000 z_0_10 + 100000 z_0_3 + 100000 z_0_5 + 100000 z_0_6 + 100000 z_0_9 <= 502260.83726455021
 c2908: 120 p_0_1 + 120 p_0_10 + 120 p_0_3 + 120 p_0_5 + 120 p_0_6 + 120 p_0_9 + 100000 z_0_1 + 100000 z_0_10 + 100000 z_0_3 + 100000 z_0_5 + 100000 z_0_6 + 100000 z_0_9 <= 602240.65686497872
 c2909: 120 p_0_10 + 120 p_0_2 + 120 p_0_3 + 120 p_0_5 + 120 p_0_6 + 120 p_0_9 + 100000 z_0_10 + 100000 z_0_2 + 100000 z_0_3 + 100000 z_0_5 + 100000 z_0_6 + 100000 z_0_9 <= 602259.186856922
 c2910: 120 p_0_1 + 120 p_0_10 + 120 p_0_2 + 120 p_0_3 + 120 p_0_5 + 120 p_0_6 + 120 p_0_9 + 100000 z_0_1 + 100000 z_0_10 + 100000 z_0_2 + 100000 z_0_3 + 100000 z_0_5 + 100000 z_0_6 + 100000 z_0_9 <= 702239.00645735045
 c2911: 120 p_0_10 + 120 p_0_4 + 120 p_0_5 + 120 p_0_6 + 120 p_0_9 + 100000 z_0_10 + 100000 z_0_4 + 100000 z_0_5 + 100000 z_0_6 + 100000 z_0_9 <= 502287.48990326916
 c2912: 120 p_0_1 + 120 p_0_10 + 120 p_0_4 + 120 p_0_5 + 120 p_0_6 + 120 p_0_9 + 100000 z_0_1 + 100000 z_0_10 + 100000 z_0_4 + 100000 z_0_5 + 100000 z_0_6 + 100000 z_0_9 <= 602276.31305284018
 c2913: 120 p_0_10 + 120 p_0_2 + 120 p_0_4 + 120 p_0_5 + 120 p_0_6 + 120 p_0_9 + 100000 z_0_10 + 100000 z_0_2 + 100000 z_0_4 + 100000 z_0_5 + 100000 z_0_6 + 100000 z_0_9 <= 602285.83949564083
 c2914: 120 p_0_1 + 120 p_0_10 + 120 p_0_2 + 120 p_0_4 + 120 p_0_5 + 120 p_0_6 + 120 p_0_9 + 100000 z_0_1 + 100000 z_0_10 + 100000 z_0_2 + 100000 z_0_4 + 100000 z_0_5 + 100000 z_0_6 + 100000 z_0_9 <= 702274.66264521191
 c2915: 120 p_0_10 + 120 p_0_3 + 120 p_0_4 + 120 p_0_5 + 120 p_0_6 + 120 p_0_9 + 100000 z_0_10 + 100000 z_0_3 + 100000 z_0_4 + 100000 z_0_5 + 100000 z_0_6 + 100000 z_0_9 <= 602222.7148923924
 c2916: 120 p_0_1 + 120 p_0_10 + 120 p_0_3 + 120 p_0_4 + 120 p_0_5 + 120 p_0_6 + 120 p_0_9 + 100000 z_0_1 + 100000 z_0_10 + 100000 z_0_3 + 100000 z_0_4 + 100000 z_0_5 + 100000 z_0_6 + 100000 z_0_9 <= 702210.5203741194
 c2917: 120 p_0_10 + 120 p_0_2 + 120 p_0_3 + 120 p_0_4 + 120 p_0_5 + 120 p_0_6 + 120 p_0_9 + 100000 z_0_10 + 100000 z_0_2 + 100000 z_0_3 + 100000 z_0_4 + 100000 z_0_5 + 100000 z_0_6 + 100000 z_0_9 <= 702221.06448476412
 c2918: 120 p_0_1 + 120 p_0_10 + 120 p_0_2 + 120 p_0_3 + 120 p_0_4 + 120 p_0_5 + 120 p_0_6 + 120 p_0_9 + 100000 z_0_1 + 100000 z_0_10 + 100000 z_0_2 + 100000 z_0_3 + 100000 z_0_4 + 100000 z_0_5 + 100000 z_0_6 + 100000 z_0_9 <= 802208.86996649113
 c2919: 120 p_0_10 + 120 p_0_7 + 120 p_0_9 + 100000 z_0_10 + 100000 z_0_7 + 100000 z_0_9 <= 302473.05716380547
 c2920: 120 p_0_1 + 120 p_0_10 + 120 p_0_7 + 120 p_0_9 + 100000 z_0_1 + 100000 z_0_10 + 100000 z_0_7 + 100000 z_0_9 <= 402467.57794533827
 c2921: 120 p_0_10 + 120 p_0_2 + 120 p_0_7 + 120 p_0_9 + 100000 z_0_10 + 100000 z_0_2 + 100000 z_0_7 + 100000 z_0_9 <= 402250.51290480304
 c2922: 120 p_0_1 + 120 p_0_10 + 120 p_0_2 + 120 p_0_7 + 120 p_0_9 + 100000 z_0_1 + 100000 z_0_10 + 100000 z_0_2 + 100000 z_0_7 + 100000 z_0_9 <= 502249.77271032956
 c2923: 120 p_0_10 + 120 p_0_3 + 120 p_0_7 + 120 p_0_9 + 100000 z_0_10 + 100000 z_0_3 + 100000 z_0_7 + 100000 z_0_9 <= 402388.30796206335
 c2924: 120 p_0_1 + 120 p_0_10 + 120 p_0_3 + 120 p_0_7 + 120 p_0_9 + 100000 z_0_1 + 100000 z_0_10 + 100000 z_0_3 + 100000 z_0_7 + 100000 z_0_9 <= 502376.36751189688
 c2925: 120 p_0_10 + 120 p_0_2 + 120 p_0_3 + 120 p_0_7 + 120 p_0_9 + 100000 z_0_10 + 100000 z_0_2 + 100000 z_0_3 + 100000 z_0_7 + 100000 z_0_9 <= 502161.00904523424
 c2926: 120 p_0_1 + 120 p_0_10 + 120 p_0_2 + 120 p_0_3 + 120 p_0_7 + 120 p_0_9 + 100000 z_0_1 + 100000 z_0_10 + 100000 z_0_2 + 100000 z_0_3 + 100000 z_0_7 + 100000 z_0_9 <= 602149.06859506783
 c2927: 120 p_0_10 + 120 p_0_4 + 120 p_0_7 + 120 p_0_9 + 100000 z_0_10 + 100000 z_0_4 + 100000 z_0_7 + 100000 z_0_9 <= 402473.05453628668
 c2928: 120 p_0_1 + 120 p_0_10 + 120 p_0_4 + 120 p_0_7 + 120 p_0_9 + 100000 z_0_1 + 100000 z_0_10 + 100000 z_0_4 + 100000 z_0_7 + 100000 z_0_9 <= 502467.57531781943
 c2929: 120 p_0_10 + 120 p_0_2 + 120 p_0_4 + 120 p_0_7 + 120 p_0_9 + 100000 z_0_10 + 100000 z_0_2 + 100000 z_0_4 + 100000 z_0_7 + 100000 z_0_9 <= 502250.51027728425
 c2930: 120 p_0_1 + 120 p_0_10 + 120 p_0_2 + 120 p_0_4 + 120 p_0_7 + 120 p_0_9 + 100000 z_0_1 + 100000 z_0_10 + 100000 z_0_2 + 100000 z_0_4 + 100000 z_0_7 + 100000 z_0_9 <= 602249.77008281078
 c2931: 120 p_0_10 + 120 p_0_3 + 120 p_0_4 + 120 p_0_7 + 120 p_0_9 + 100000 z_0_10 + 100000 z_0_3 + 100000 z_0_4 + 100000 z_0_7 + 100000 z_0_9 <= 502388.30533454451
 c2932: 120 p_0_1 + 120 p_0_10 + 120 p_0_3 + 120 p_0_4 + 120 p_0_7 + 120 p_0_9 + 100000 z_0_1 + 100000 z_0_10 + 100000 z_0_3 + 100000 z_0_4 + 100000 z_0_7 + 100000 z_0_9 <= 602376.36488437816
 c2933: 120 p_0_10 + 120 p_0_2 + 120 p_0_3 + 120 p_0_4 + 120 p_0_7 + 120 p_0_9 + 100000 z_0_10 + 100000 z_0_2 + 100000 z_0_3 + 100000 z_0_4 + 100000 z_0_7 + 100000 z_0_9 <= 602161.00641771546
 c2934: 120 p_0_1 + 120 p_0_10 + 120 p_0_2 + 120 p_0_3 + 120 p_0_4 + 120 p_0_7 + 120 p_0_9 + 100000 z_0_1 + 100000 z_0_10 + 100000 z_0_2 + 100000 z_0_3 + 100000 z_0_4 + 100000 z_0_7 + 100000 z_0_9 <= 702149.06596754899
 c2935: 120 p_0_10 + 120 p_0_5 + 120 p_0_7 + 120 p_0_9 + 100000 z_0_10 + 100000 z_0_5 + 100000 z_0_7 + 100000 z_0_9 <= 402188.64489731006
 c2936: 120 p_0_1 + 120 p_0_10 + 120 p_0_5 + 120 p_0_7 + 120 p_0_9 + 100000 z_0_1 + 100000 z_0_10 + 100000 z_0_5 + 100000 z_0_7 + 100000 z_0_9 <= 502187.39914855303
 c2937: 120 p_0_10 + 120 p_0_2 + 120 p_0_5 + 120 p_0_7 + 120 p_0_9 + 100000 z_0_10 + 100000 z_0_2 + 100000 z_0_5 + 100000 z_0_7 + 100000 z_0_9 <= 502185.87803920463
 c2938: 120 p_0_1 + 120 p_0_10 + 120 p_0_2 + 120 p_0_5 + 120 p_0_7 + 120 p_0_9 + 100000 z_0_1 + 100000 z_0_10 + 100000 z_0_2 + 100000 z_0_5 + 100000 z_0_7 + 100000 z_0_9 <= 602185.13784473122
 c2939: 120 p_0_10 + 120 p_0_3 + 120 p_0_5 + 120 p_0_7 + 120 p_0_9 + 100000 z_0_10 + 100000 z_0_3 + 100000 z_0_5 + 100000 z_0_7 + 100000 z_0_9 <= 502098.02458726411
 c2940: 120 p_0_1 + 120 p_0_10 + 120 p_0_3 + 120 p_0_5 + 120 p_0_7 + 120 p_0_9 + 100000 z_0_1 + 100000 z_0_10 + 100000 z_0_3 + 100000 z_0_5 + 100000 z_0_7 + 100000 z_0_9 <= 602086.0841370977
 c2941: 120 p_0_10 + 120 p_0_2 + 120 p_0_3 + 120 p_0_5 + 120 p_0_7 + 120 p_0_9 + 100000 z_0_10 + 100000 z_0_2 + 100000 z_0_3 + 100000 z_0_5 + 100000 z_0_7 + 100000 z_0_9 <= 602096.37417963578
 c2942: 120 p_0_1 + 120 p_0_10 + 120 p_0_2 + 120 p_0_3 + 120 p_0_5 + 120 p_0_7 + 120 p_0_9 + 100000 z_0_1 + 100000 z_0_10 + 100000 z_0_2 + 100000 z_0_3 + 100000 z_0_5 + 100000 z_0_7 + 100000 z_0_9 <= 702084.43372946943
 c2943: 120 p_0_10 + 120 p_0_4 + 120 p_0_5 + 120 p_0_7 + 120 p_0_9 + 100000 z_0_10 + 100000 z_0_4 + 100000 z_0_5 + 100000 z_0_7 + 100000 z_0_9 <= 502188.64226979128
 c2944: 120 p_0_1 + 120 p_0_10 + 120 p_0_4 + 120 p_0_5 + 120 p_0_7 + 120 p_0_9 + 100000 z_0_1 + 100000 z_0_10 + 100000 z_0_4 + 100000 z_0_5 + 100000 z_0_7 + 100000 z_0_9 <= 602187.39652103418
 c2945: 120 p_0_10 + 120 p_0_2 + 120 p_0_4 + 120 p_0_5 + 120 p_0_7 + 120 p_0_9 + 100000 z_0_10 + 100000 z_0_2 + 100000 z_0_4 + 100000 z_0_5 + 100000 z_0_7 + 100000 z_0_9 <= 602185.87541168591
 c2946: 120 p_0_1 + 120 p_0_10 + 120 p_0_2 + 120 p_0_4 + 120 p_0_5 + 120 p_0_7 + 120 p_0_9 + 100000 z_0_1 + 100000 z_0_10 + 100000 z_0_2 + 100000 z_0_4 + 100000 z_0_5 + 100000 z_0_7 + 100000 z_0_9 <= 702185.13521721237
 c2947: 120 p_0_10 + 120 p_0_3 + 120 p_0_4 + 120 p_0_5 + 120 p_0_7 + 120 p_0_9 + 100000 z_0_10 + 100000 z_0_3 + 100000 z_0_4 + 100000 z_0_5 + 100000 z_0_7 + 100000 z_0_9 <= 602098.02195974533
 c2948: 120 p_0_1 + 120 p_0_10 + 120 p_0_3 + 120 p_0_4 + 120 p_0_5 + 120 p_0_7 + 120 p_0_9 + 100000 z_0_1 + 100000 z_0_10 + 100000 z_0_3 + 100000 z_0_4 + 100000 z_0_5 + 100000 z_0_7 + 100000 z_0_9 <= 702086.08150957886
 c2949: 120 p_0_10 + 120 p_0_2 + 120 p_0_3 + 120 p_0_4 + 120 p_0_5 + 120 p_0_7 + 120 p_0_9 + 100000 z_0_10 + 100000 z_0_2 + 100000 z_0_3 + 100000 z_0_4 + 100000 z_0_5 + 100000 z_0_7 + 100000 z_0_9 <= 702096.37155211705
 c2950: 120 p_0_1 + 120 p_0_10 + 120 p_0_2 + 120 p_0_3 + 120 p_0_4 + 120 p_0_5 + 120 p_0_7 + 120 p_0_9 + 100000 z_0_1 + 100000 z_0_10 + 100000 z_0_2 + 100000 z_0_3 + 100000 z_0_4 + 100000 z_0_5 + 100000 z_0_7 + 100000 z_0_9 <= 802084.43110195058
 c2951: 120 p_0_10 + 120 p_0_6 + 120 p_0_7 + 120 p_0_9 + 100000 z_0_10 + 100000 z_0_6 + 100000 z_0_7 + 100000 z_0_9 <= 402446.94065639941
 c2952: 120 p_0_1 + 120 p_0_10 + 120 p_0_6 + 120 p_0_7 + 120 p_0_9 + 100000 z_0_1 + 100000 z_0_10 + 100000 z_0_6 + 100000 z_0_7 + 100000 z_0_9 <= 502439.02729118802
 c2953: 120 p_0_10 + 120 p_0_2 + 120 p_0_6 + 120 p_0_7 + 120 p_0_9 + 100000 z_0_10 + 100000 z_0_2 + 100000 z_0_6 + 100000 z_0_7 + 100000 z_0_9 <= 502219.6417395703
 c2954: 120 p_0_1 + 120 p_0_10 + 120 p_0_2 + 120 p_0_6 + 120 p_0_7 + 120 p_0_9 + 100000 z_0_1 + 100000 z_0_10 + 100000 z_0_2 + 100000 z_0_6 + 100000 z_0_7 + 100000 z_0_9 <= 602211.72837435897
 c2955: 120 p_0_10 + 120 p_0_3 + 120 p_0_6 + 120 p_0_7 + 120 p_0_9 + 100000 z_0_10 + 100000 z_0_3 + 100000 z_0_6 + 100000 z_0_7 + 100000 z_0_9 <= 502385.1750626337
 c2956: 120 p_0_1 + 120 p_0_10 + 120 p_0_3 + 120 p_0_6 + 120 p_0_7 + 120 p_0_9 + 100000 z_0_1 + 100000 z_0_10 + 100000 z_0_3 + 100000 z_0_6 + 100000 z_0_7 + 100000 z_0_9 <= 602373.23461246723
 c2957: 120 p_0_10 + 120 p_0_2 + 120 p_0_3 + 120 p_0_6 + 120 p_0_7 + 120 p_0_9 + 100000 z_0_10 + 100000 z_0_2 + 100000 z_0_3 + 100000 z_0_6 + 100000 z_0_7 + 100000 z_0_9 <= 602157.87614580453
 c2958: 120 p_0_1 + 120 p_0_10 + 120 p_0_2 + 120 p_0_3 + 120 p_0_6 + 120 p_0_7 + 120 p_0_9 + 100000 z_0_1 + 100000 z_0_10 + 100000 z_0_2 + 100000 z_0_3 + 100000 z_0_6 + 100000 z_0_7 + 100000 z_0_9 <= 702145.93569563818
 c2959: 120 p_0_10 + 120 p_0_4 + 120 p_0_6 + 120 p_0_7 + 120 p_0_9 + 100000 z_0_10 + 100000 z_0_4 + 100000 z_0_6 + 100000 z_0_7 + 100000 z_0_9 <= 502446.93802888063
 c2960: 120 p_0_1 + 120 p_0_10 + 120 p_0_4 + 120 p_0_6 + 120 p_0_7 + 120 p_0_9 + 100000 z_0_1 + 100000 z_0_10 + 100000 z_0_4 + 100000 z_0_6 + 100000 z_0_7 + 100000 z_0_9 <= 602439.02466366929
 c2961: 120 p_0_10 + 120 p_0_2 + 120 p_0_4 + 120 p_0_6 + 120 p_0_7 + 120 p_0_9 + 100000 z_0_10 + 100000 z_0_2 + 100000 z_0_4 + 100000 z_0_6 + 100000 z_0_7 + 100000 z_0_9 <= 602219.63911205146
 c2962: 120 p_0_1 + 120 p_0_10 + 120 p_0_2 + 120 p_0_4 + 120 p_0_6 + 120 p_0_7 + 120 p_0_9 + 100000 z_0_1 + 100000 z_0_10 + 100000 z_0_2 + 100000 z_0_4 + 100000 z_0_6 + 100000 z_0_7 + 100000 z_0_9 <= 702211.72574684012
 c2963: 120 p_0_10 + 120 p_0_3 + 120 p_0_4 + 120 p_0_6 + 120 p_0_7 + 120 p_0_9 + 100000 z_0_10 + 100000 z_0_3 + 100000 z_0_4 + 100000 z_0_6 + 100000 z_0_7 + 100000 z_0_9 <= 602385.17243511486
 c2964: 120 p_0_1 + 120 p_0_10 + 120 p_0_3 + 120 p_0_4 + 120 p_0_6 + 120 p_0_7 + 120 p_0_9 + 100000 z_0_1 + 100000 z_0_10 + 100000 z_0_3 + 100000 z_0_4 + 100000 z_0_6 + 100000 z_0_7 + 100000 z_0_9 <= 702373.23198494851
 c2965: 120 p_0_10 + 120 p_0_2 + 120 p_0_3 + 120 p_0_4 + 120 p_0_6 + 120 p_0_7 + 120 p_0_9 + 100000 z_0_10 + 100000 z_0_2 + 100000 z_0_3 + 100000 z_0_4 + 100000 z_0_6 + 100000 z_0_7 + 100000 z_0_9 <= 702157.87351828581
 c2966: 120 p_0_1 + 120 p_0_10 + 120 p_0_2 + 120 p_0_3 + 120 p_0_4 + 120 p_0_6 + 120 p_0_7 + 120 p_0_9 + 100000 z_0_1 + 100000 z_0_10 + 100000 z_0_2 + 100000 z_0_3 + 100000 z_0_4 + 100000 z_0_6 + 100000 z_0_7 + 100000 z_0_9 <= 802145.93306811934
 c2967: 120 p_0_10 + 120 p_0_5 + 120 p_0_6 + 120 p_0_7 + 120 p_0_9 + 100000 z_0_10 + 100000 z_0_5 + 100000 z_0_6 + 100000 z_0_7 + 100000 z_0_9 <= 502156.65728160017
 c2968: 120 p_0_1 + 120 p_0_10 + 120 p_0_5 + 120 p_0_6 + 120 p_0_7 + 120 p_0_9 + 100000 z_0_1 + 100000 z_0_10 + 100000 z_0_5 + 100000 z_0_6 + 100000 z_0_7 + 100000 z_0_9 <= 602148.74391638883
 c2969: 120 p_0_10 + 120 p_0_2 + 120 p_0_5 + 120 p_0_6 + 120 p_0_7 + 120 p_0_9 + 100000 z_0_10 + 100000 z_0_2 + 100000 z_0_5 + 100000 z_0_6 + 100000 z_0_7 + 100000 z_0_9 <= 602155.0068739719
 c2970: 120 p_0_1 + 120 p_0_10 + 120 p_0_2 + 120 p_0_5 + 120 p_0_6 + 120 p_0_7 + 120 p_0_9 + 100000 z_0_1 + 100000 z_0_10 + 100000 z_0_2 + 100000 z_0_5 + 100000 z_0_6 + 100000 z_0_7 + 100000 z_0_9 <= 702147.09350876056
 c2971: 120 p_0_10 + 120 p_0_3 + 120 p_0_5 + 120 p_0_6 + 120 p_0_7 + 120 p_0_9 + 100000 z_0_10 + 100000 z_0_3 + 100000 z_0_5 + 100000 z_0_6 + 100000 z_0_7 + 100000 z_0_9 <= 602094.8916878344
 c2972: 120 p_0_1 + 120 p_0_10 + 120 p_0_3 + 120 p_0_5 + 120 p_0_6 + 120 p_0_7 + 120 p_0_9 + 100000 z_0_1 + 100000 z_0_10 + 100000 z_0_3 + 100000 z_0_5 + 100000 z_0_6 + 100000 z_0_7 + 100000 z_0_9 <= 702082.95123766805
 c2973: 120 p_0_10 + 120 p_0_2 + 120 p_0_3 + 120 p_0_5 + 120 p_0_6 + 120 p_0_7 + 120 p_0_9 + 100000 z_0_10 + 100000 z_0_2 + 100000 z_0_3 + 100000 z_0_5 + 100000 z_0_6 + 100000 z_0_7 + 100000 z_0_9 <= 702093.24128020613
 c2974: 120 p_0_1 + 120 p_0_10 + 120 p_0_2 + 120 p_0_3 + 120 p_0_5 + 120 p_0_6 + 120 p_0_7 + 120 p_0_9 + 100000 z_0_1 + 100000 z_0_10 + 100000 z_0_2 + 100000 z_0_3 + 100000 z_0_5 + 100000 z_0_6 + 100000 z_0_7 + 100000 z_0_9 <= 802081.30083003978
 c2975: 120 p_0_10 + 120 p_0_4 + 120 p_0_5 + 120 p_0_6 + 120 p_0_7 + 120 p_0_9 + 100000 z_0_10 + 100000 z_0_4 + 100000 z_0_5 + 100000 z_0_6 + 100000 z_0_7 + 100000 z_0_9 <= 602156.65465408133
 c2976: 120 p_0_1 + 120 p_0_10 + 120 p_0_4 + 120 p_0_5 + 120 p_0_6 + 120 p_0_7 + 120 p_0_9 + 100000 z_0_1 + 100000 z_0_10 + 100000 z_0_4 + 100000 z_0_5 + 100000 z_0_6 + 100000 z_0_7 + 100000 z_0_9 <= 702148.74128886999
 c2977: 120 p_0_10 + 120 p_0_2 + 120 p_0_4 + 120 p_0_5 + 120 p_0_6 + 120 p_0_7 + 120 p_0_9 + 100000 z_0_10 + 100000 z_0_2 + 100000 z_0_4 + 100000 z_0_5 + 100000 z_0_6 + 100000 z_0_7 + 100000 z_0_9 <= 702155.00424645306
 c2978: 120 p_0_1 + 120 p_0_10 + 120 p_0_2 + 120 p_0_4 + 120 p_0_5 + 120 p_0_6 + 120 p_0_7 + 120 p_0_9 + 100000 z_0_1 + 100000 z_0_10 + 100000 z_0_2 + 100000 z_0_4 + 100000 z_0_5 + 100000 z_0_6 + 100000 z_0_7 + 100000 z_0_9 <= 802147.09088124172
 c2979: 120 p_0_10 + 120 p_0_3 + 120 p_0_4 + 120 p_0_5 + 120 p_0_6 + 120 p_0_7 + 120 p_0_9 + 100000 z_0_10 + 100000 z_0_3 + 100000 z_0_4 + 100000 z_0_5 + 100000 z_0_6 + 100000 z_0_7 + 100000 z_0_9 <= 702094.88906031568
 c2980: 120 p_0_1 + 120 p_0_10 + 120 p_0_3 + 120 p_0_4 + 120 p_0_5 + 120 p_0_6 + 120 p_0_7 + 120 p_0_9 + 100000 z_0_1 + 100000 z_0_10 + 100000 z_0_3 + 100000 z_0_4 + 100000 z_0_5 + 100000 z_0_6 + 100000 z_0_7 + 100000 z_0_9 <= 802082.94861014921
 c2981: 120 p_0_10 + 120 p_0_2 + 120 p_0_3 + 120 p_0_4 + 120 p_0_5 + 120 p_0_6 + 120 p_0_7 + 120 p_0_9 + 100000 z_0_10 + 100000 z_0_2 + 100000 z_0_3 + 100000 z_0_4 + 100000 z_0_5 + 100000 z_0_6 + 100000 z_0_7 + 100000 z_0_9 <= 802093.2386526874
 c2982: 120 p_0_1 + 120 p_0_10 + 120 p_0_2 + 120 p_0_3 + 120 p_0_4 + 120 p_0_5 + 120 p_0_6 + 120 p_0_7 + 120 p_0_9 + 100000 z_0_1 + 100000 z_0_10 + 100000 z_0_2 + 100000 z_0_3 + 100000 z_0_4 + 100000 z_0_5 + 100000 z_0_6 + 100000 z_0_7 + 100000 z_0_9 <= 902081.29820252093
 c2983: 120 p_0_10 + 120 p_0_8 + 120 p_0_9 + 100000 z_0_10 + 100000 z_0_8 + 100000 z_0_9 <= 302289.68190438038
 c2984: 120 p_0_1 + 120 p_0_10 + 120 p_0_8 + 120 p_0_9 + 100000 z_0_1 + 100000 z_0_10 + 100000 z_0_8 + 100000 z_0_9 <= 402282.40110200981
 c2985: 120 p_0_10 + 120 p_0_2 + 120 p_0_8 + 120 p_0_9 + 100000 z_0_10 + 100000 z_0_2 + 100000 z_0_8 + 100000 z_0_9 <= 402276.70502780267
 c2986: 120 p_0_1 + 120 p_0_10 + 120 p_0_2 + 120 p_0_8 + 120 p_0_9 + 100000 z_0_1 + 100000 z_0_10 + 100000 z_0_2 + 100000 z_0_8 + 100000 z_0_9 <= 502269.4242254321
 c2987: 120 p_0_10 + 120 p_0_3 + 120 p_0_8 + 120 p_0_9 + 100000 z_0_10 + 100000 z_0_3 + 100000 z_0_8 + 100000 z_0_9 <= 402178.57936820516
 c2988: 120 p_0_1 + 120 p_0_10 + 120 p_0_3 + 120 p_0_8 + 120 p_0_9 + 100000 z_0_1 + 100000 z_0_10 + 100000 z_0_3 + 100000 z_0_8 + 100000 z_0_9 <= 502158.39896863361
 c2989: 120 p_0_10 + 120 p_0_2 + 120 p_0_3 + 120 p_0_8 + 120 p_0_9 + 100000 z_0_10 + 100000 z_0_2 + 100000 z_0_3 + 100000 z_0_8 + 100000 z_0_9 <= 502177.0423674098
 c2990: 120 p_0_1 + 120 p_0_10 + 120 p_0_2 + 120 p_0_3 + 120 p_0_8 + 120 p_0_9 + 100000 z_0_1 + 100000 z_0_10 + 100000 z_0_2 + 100000 z_0_3 + 100000 z_0_8 + 100000 z_0_9 <= 602156.86196783825
 c2991: 120 p_0_10 + 120 p_0_4 + 120 p_0_8 + 120 p_0_9 + 100000 z_0_10 + 100000 z_0_4 + 100000 z_0_8 + 100000 z_0_9 <= 402253.05494123098
 c2992: 120 p_0_1 + 120 p_0_10 + 120 p_0_4 + 120 p_0_8 + 120 p_0_9 + 100000 z_0_1 + 100000 z_0_10 + 100000 z_0_4 + 100000 z_0_8 + 100000 z_0_9 <= 502252.26461115049
 c2993: 120 p_0_10 + 120 p_0_2 + 120 p_0_4 + 120 p_0_8 + 120 p_0_9 + 100000 z_0_10 + 100000 z_0_2 + 100000 z_0_4 + 100000 z_0_8 + 100000 z_0_9 <= 502240.07806465327
 c2994: 120 p_0_1 + 120 p_0_10 + 120 p_0_2 + 120 p_0_4 + 120 p_0_8 + 120 p_0_9 + 100000 z_0_1 + 100000 z_0_10 + 100000 z_0_2 + 100000 z_0_4 + 100000 z_0_8 + 100000 z_0_9 <= 602239.28773457278
 c2995: 120 p_0_10 + 120 p_0_3 + 120 p_0_4 + 120 p_0_8 + 120 p_0_9 + 100000 z_0_10 + 100000 z_0_3 + 100000 z_0_4 + 100000 z_0_8 + 100000 z_0_9 <= 502140.45699604729
 c2996: 120 p_0_1 + 120 p_0_10 + 120 p_0_3 + 120 p_0_4 + 120 p_0_8 + 120 p_0_9 + 100000 z_0_1 + 100000 z_0_10 + 100000 z_0_3 + 100000 z_0_4 + 100000 z_0_8 + 100000 z_0_9 <= 602128.26247777429
 c2997: 120 p_0_10 + 120 p_0_2 + 120 p_0_3 + 120 p_0_4 + 120 p_0_8 + 120 p_0_9 + 100000 z_0_10 + 100000 z_0_2 + 100000 z_0_3 + 100000 z_0_4 + 100000 z_0_8 + 100000 z_0_9 <= 602138.91999525193
 c2998: 120 p_0_1 + 120 p_0_10 + 120 p_0_2 + 120 p_0_3 + 120 p_0_4 + 120 p_0_8 + 120 p_0_9 + 100000 z_0_1 + 100000 z_0_10 + 100000 z_0_2 + 100000 z_0_3 + 100000 z_0_4 + 100000 z_0_8 + 100000 z_0_9 <= 702126.72547697893
 c2999: 120 p_0_10 + 120 p_0_5 + 120 p_0_8 + 120 p_0_9 + 100000 z_0_10 + 100000 z_0_5 + 100000 z_0_8 + 100000 z_0_9 <= 402289.67664529034
 c3000: 120 p_0_1 + 120 p_0_10 + 120 p_0_5 + 120 p_0_8 + 120 p_0_9 + 100000 z_0_1 + 100000 z_0_10 + 100000 z_0_5 + 100000 z_0_8 + 100000 z_0_9 <= 502282.39584291977
 c3001: 120 p_0_10 + 120 p_0_2 + 120 p_0_5 + 120 p_0_8 + 120 p_0_9 + 100000 z_0_10 + 100000 z_0_2 + 100000 z_0_5 + 100000 z_0_8 + 100000 z_0_9 <= 502268.24754176114
 c3002: 120 p_0_1 + 120 p_0_10 + 120 p_0_2 + 120 p_0_5 + 120 p_0_8 + 120 p_0_9 + 100000 z_0_1 + 100000 z_0_10 + 100000 z_0_2 + 100000 z_0_5 + 100000 z_0_8 + 100000 z_0_9 <= 602257.56082401006
 c3003: 120 p_0_10 + 120 p_0_3 + 120 p_0_5 + 120 p_0_8 + 120 p_0_9 + 100000 z_0_10 + 100000 z_0_3 + 100000 z_0_5 + 100000 z_0_8 + 100000 z_0_9 <= 502178.57410911511
 c3004: 120 p_0_1 + 120 p_0_10 + 120 p_0_3 + 120 p_0_5 + 120 p_0_8 + 120 p_0_9 + 100000 z_0_1 + 100000 z_0_10 + 100000 z_0_3 + 100000 z_0_5 + 100000 z_0_8 + 100000 z_0_9 <= 602158.39370954363
 c3005: 120 p_0_10 + 120 p_0_2 + 120 p_0_3 + 120 p_0_5 + 120 p_0_8 + 120 p_0_9 + 100000 z_0_10 + 100000 z_0_2 + 100000 z_0_3 + 100000 z_0_5 + 100000 z_0_8 + 100000 z_0_9 <= 602177.03710831981
 c3006: 120 p_0_1 + 120 p_0_10 + 120 p_0_2 + 120 p_0_3 + 120 p_0_5 + 120 p_0_8 + 120 p_0_9 + 100000 z_0_1 + 100000 z_0_10 + 100000 z_0_2 + 100000 z_0_3 + 100000 z_0_5 + 100000 z_0_8 + 100000 z_0_9 <= 702156.85670874827
 c3007: 120 p_0_10 + 120 p_0_4 + 120 p_0_5 + 120 p_0_8 + 120 p_0_9 + 100000 z_0_10 + 100000 z_0_4 + 100000 z_0_5 + 100000 z_0_8 + 100000 z_0_9 <= 502253.04968214093
 c3008: 120 p_0_1 + 120 p_0_10 + 120 p_0_4 + 120 p_0_5 + 120 p_0_8 + 120 p_0_9 + 100000 z_0_1 + 100000 z_0_10 + 100000 z_0_4 + 100000 z_0_5 + 100000 z_0_8 + 100000 z_0_9 <= 602252.2593520605
 c3009: 120 p_0_10 + 120 p_0_2 + 120 p_0_4 + 120 p_0_5 + 120 p_0_8 + 120 p_0_9 + 100000 z_0_10 + 100000 z_0_2 + 100000 z_0_4 + 100000 z_0_5 + 100000 z_0_8 + 100000 z_0_9 <= 602229.80352267041
 c3010: 120 p_0_1 + 120 p_0_10 + 120 p_0_2 + 120 p_0_4 + 120 p_0_5 + 120 p_0_8 + 120 p_0_9 + 100000 z_0_1 + 100000 z_0_10 + 100000 z_0_2 + 100000 z_0_4 + 100000 z_0_5 + 100000 z_0_8 + 100000 z_0_9 <= 702227.42433315073
 c3011: 120 p_0_10 + 120 p_0_3 + 120 p_0_4 + 120 p_0_5 + 120 p_0_8 + 120 p_0_9 + 100000 z_0_10 + 100000 z_0_3 + 100000 z_0_4 + 100000 z_0_5 + 100000 z_0_8 + 100000 z_0_9 <= 602140.4517369573
 c3012: 120 p_0_1 + 120 p_0_10 + 120 p_0_3 + 120 p_0_4 + 120 p_0_5 + 120 p_0_8 + 120 p_0_9 + 100000 z_0_1 + 100000 z_0_10 + 100000 z_0_3 + 100000 z_0_4 + 100000 z_0_5 + 100000 z_0_8 + 100000 z_0_9 <= 702128.2572186843
 c3013: 120 p_0_10 + 120 p_0_2 + 120 p_0_3 + 120 p_0_4 + 120 p_0_5 + 120 p_0_8 + 120 p_0_9 + 100000 z_0_10 + 100000 z_0_2 + 100000 z_0_3 + 100000 z_0_4 + 100000 z_0_5 + 100000 z_0_8 + 100000 z_0_9 <= 702138.91473616194
 c3014: 120 p_0_1 + 120 p_0_10 + 120 p_0_2 + 120 p_0_3 + 120 p_0_4 + 120 p_0_5 + 120 p_0_8 + 120 p_0_9 + 100000 z_0_1 + 100000 z_0_10 + 100000 z_0_2 + 100000 z_0_3 + 100000 z_0_4 + 100000 z_0_5 + 100000 z_0_8 + 100000 z_0_9 <= 802126.72021788894
 c3015: 120 p_0_10 + 120 p_0_6 + 120 p_0_8 + 120 p_0_9 + 100000 z_0_10 + 100000 z_0_6 + 100000 z_0_8 + 100000 z_0_9 <= 402241.23914749629
 c3016: 120 p_0_1 + 120 p_0_10 + 120 p_0_6 + 120 p_0_8 + 120 p_0_9 + 100000 z_0_1 + 100000 z_0_10 + 100000 z_0_6 + 100000 z_0_8 + 100000 z_0_9 <= 502233.33725061012
 c3017: 120 p_0_10 + 120 p_0_2 + 120 p_0_6 + 120 p_0_8 + 120 p_0_9 + 100000 z_0_10 + 100000 z_0_2 + 100000 z_0_6 + 100000 z_0_8 + 100000 z_0_9 <= 502239.70214670093
 c3018: 120 p_0_1 + 120 p_0_10 + 120 p_0_2 + 120 p_0_6 + 120 p_0_8 + 120 p_0_9 + 100000 z_0_1 + 100000 z_0_10 + 100000 z_0_2 + 100000 z_0_6 + 100000 z_0_8 + 100000 z_0_9 <= 602220.3603740324
 c3019: 120 p_0_10 + 120 p_0_3 + 120 p_0_6 + 120 p_0_8 + 120 p_0_9 + 100000 z_0_10 + 100000 z_0_3 + 100000 z_0_6 + 100000 z_0_8 + 100000 z_0_9 <= 502175.44646877551
 c3020: 120 p_0_1 + 120 p_0_10 + 120 p_0_3 + 120 p_0_6 + 120 p_0_8 + 120 p_0_9 + 100000 z_0_1 + 100000 z_0_10 + 100000 z_0_3 + 100000 z_0_6 + 100000 z_0_8 + 100000 z_0_9 <= 602155.26606920396
 c3021: 120 p_0_10 + 120 p_0_2 + 120 p_0_3 + 120 p_0_6 + 120 p_0_8 + 120 p_0_9 + 100000 z_0_10 + 100000 z_0_2 + 100000 z_0_3 + 100000 z_0_6 + 100000 z_0_8 + 100000 z_0_9 <= 602173.90946798015
 c3022: 120 p_0_1 + 120 p_0_10 + 120 p_0_2 + 120 p_0_3 + 120 p_0_6 + 120 p_0_8 + 120 p_0_9 + 100000 z_0_1 + 100000 z_0_10 + 100000 z_0_2 + 100000 z_0_3 + 100000 z_0_6 + 100000 z_0_8 + 100000 z_0_9 <= 702153.7290684086
 c3023: 120 p_0_10 + 120 p_0_4 + 120 p_0_6 + 120 p_0_8 + 120 p_0_9 + 100000 z_0_10 + 100000 z_0_4 + 100000 z_0_6 + 100000 z_0_8 + 100000 z_0_9 <= 502203.99108983128
 c3024: 120 p_0_1 + 120 p_0_10 + 120 p_0_4 + 120 p_0_6 + 120 p_0_8 + 120 p_0_9 + 100000 z_0_1 + 100000 z_0_10 + 100000 z_0_4 + 100000 z_0_6 + 100000 z_0_8 + 100000 z_0_9 <= 602203.20075975079
 c3025: 120 p_0_10 + 120 p_0_2 + 120 p_0_4 + 120 p_0_6 + 120 p_0_8 + 120 p_0_9 + 100000 z_0_10 + 100000 z_0_2 + 100000 z_0_4 + 100000 z_0_6 + 100000 z_0_8 + 100000 z_0_9 <= 602200.5621066991
 c3026: 120 p_0_1 + 120 p_0_10 + 120 p_0_2 + 120 p_0_4 + 120 p_0_6 + 120 p_0_8 + 120 p_0_9 + 100000 z_0_1 + 100000 z_0_10 + 100000 z_0_2 + 100000 z_0_4 + 100000 z_0_6 + 100000 z_0_8 + 100000 z_0_9 <= 702190.22388317308
 c3027: 120 p_0_10 + 120 p_0_3 + 120 p_0_4 + 120 p_0_6 + 120 p_0_8 + 120 p_0_9 + 100000 z_0_10 + 100000 z_0_3 + 100000 z_0_4 + 100000 z_0_6 + 100000 z_0_8 + 100000 z_0_9 <= 602137.32409661764
 c3028: 120 p_0_1 + 120 p_0_10 + 120 p_0_3 + 120 p_0_4 + 120 p_0_6 + 120 p_0_8 + 120 p_0_9 + 100000 z_0_1 + 100000 z_0_10 + 100000 z_0_3 + 100000 z_0_4 + 100000 z_0_6 + 100000 z_0_8 + 100000 z_0_9 <= 702125.12957834464
 c3029: 120 p_0_10 + 120 p_0_2 + 120 p_0_3 + 120 p_0_4 + 120 p_0_6 + 120 p_0_8 + 120 p_0_9 + 100000 z_0_10 + 100000 z_0_2 + 100000 z_0_3 + 100000 z_0_4 + 100000 z_0_6 + 100000 z_0_8 + 100000 z_0_9 <= 702135.78709582239
 c3030: 120 p_0_1 + 120 p_0_10 + 120 p_0_2 + 120 p_0_3 + 120 p_0_4 + 120 p_0_6 + 120 p_0_8 + 120 p_0_9 + 100000 z_0_1 + 100000 z_0_10 + 100000 z_0_2 + 100000 z_0_3 + 100000 z_0_4 + 100000 z_0_6 + 100000 z_0_8 + 100000 z_0_9 <= 802123.59257754928
 c3031: 120 p_0_10 + 120 p_0_5 + 120 p_0_6 + 120 p_0_8 + 120 p_0_9 + 100000 z_0_10 + 100000 z_0_5 + 100000 z_0_6 + 100000 z_0_8 + 100000 z_0_9 <= 502241.23388840625
 c3032: 120 p_0_1 + 120 p_0_10 + 120 p_0_5 + 120 p_0_6 + 120 p_0_8 + 120 p_0_9 + 100000 z_0_1 + 100000 z_0_10 + 100000 z_0_5 + 100000 z_0_6 + 100000 z_0_8 + 100000 z_0_9 <= 602233.33199152013
 c3033: 120 p_0_10 + 120 p_0_2 + 120 p_0_5 + 120 p_0_6 + 120 p_0_8 + 120 p_0_9 + 100000 z_0_10 + 100000 z_0_2 + 100000 z_0_5 + 100000 z_0_6 + 100000 z_0_8 + 100000 z_0_9 <= 602239.69688761095
 c3034: 120 p_0_1 + 120 p_0_10 + 120 p_0_2 + 120 p_0_5 + 120 p_0_6 + 120 p_0_8 + 120 p_0_9 + 100000 z_0_1 + 100000 z_0_10 + 100000 z_0_2 + 100000 z_0_5 + 100000 z_0_6 + 100000 z_0_8 + 100000 z_0_9 <= 702219.5164880394
 c3035: 120 p_0_10 + 120 p_0_3 + 120 p_0_5 + 120 p_0_6 + 120 p_0_8 + 120 p_0_9 + 100000 z_0_10 + 100000 z_0_3 + 100000 z_0_5 + 100000 z_0_6 + 100000 z_0_8 + 100000 z_0_9 <= 602175.44120968552
 c3036: 120 p_0_1 + 120 p_0_10 + 120 p_0_3 + 120 p_0_5 + 120 p_0_6 + 120 p_0_8 + 120 p_0_9 + 100000 z_0_1 + 100000 z_0_10 + 100000 z_0_3 + 100000 z_0_5 + 100000 z_0_6 + 100000 z_0_8 + 100000 z_0_9 <= 702155.26081011398
 c3037: 120 p_0_10 + 120 p_0_2 + 120 p_0_3 + 120 p_0_5 + 120 p_0_6 + 120 p_0_8 + 120 p_0_9 + 100000 z_0_10 + 100000 z_0_2 + 100000 z_0_3 + 100000 z_0_5 + 100000 z_0_6 + 100000 z_0_8 + 100000 z_0_9 <= 702173.90420889016
 c3038: 120 p_0_1 + 120 p_0_10 + 120 p_0_2 + 120 p_0_3 + 120 p_0_5 + 120 p_0_6 + 120 p_0_8 + 120 p_0_9 + 100000 z_0_1 + 100000 z_0_10 + 100000 z_0_2 + 100000 z_0_3 + 100000 z_0_5 + 100000 z_0_6 + 100000 z_0_8 + 100000 z_0_9 <= 802153.72380931862
 c3039: 120 p_0_10 + 120 p_0_4 + 120 p_0_5 + 120 p_0_6 + 120 p_0_8 + 120 p_0_9 + 100000 z_0_10 + 100000 z_0_4 + 100000 z_0_5 + 100000 z_0_6 + 100000 z_0_8 + 100000 z_0_9 <= 602203.98583074124
 c3040: 120 p_0_1 + 120 p_0_10 + 120 p_0_4 + 120 p_0_5 + 120 p_0_6 + 120 p_0_8 + 120 p_0_9 + 100000 z_0_1 + 100000 z_0_10 + 100000 z_0_4 + 100000 z_0_5 + 100000 z_0_6 + 100000 z_0_8 + 100000 z_0_9 <= 702203.1955006608
 c3041: 120 p_0_10 + 120 p_0_2 + 120 p_0_4 + 120 p_0_5 + 120 p_0_6 + 120 p_0_8 + 120 p_0_9 + 100000 z_0_10 + 100000 z_0_2 + 100000 z_0_4 + 100000 z_0_5 + 100000 z_0_6 + 100000 z_0_8 + 100000 z_0_9 <= 702200.55684760911
 c3042: 120 p_0_1 + 120 p_0_10 + 120 p_0_2 + 120 p_0_4 + 120 p_0_5 + 120 p_0_6 + 120 p_0_8 + 120 p_0_9 + 100000 z_0_1 + 100000 z_0_10 + 100000 z_0_2 + 100000 z_0_4 + 100000 z_0_5 + 100000 z_0_6 + 100000 z_0_8 + 100000 z_0_9 <= 802189.37999718008
 c3043: 120 p_0_10 + 120 p_0_3 + 120 p_0_4 + 120 p_0_5 + 120 p_0_6 + 120 p_0_8 + 120 p_0_9 + 100000 z_0_10 + 100000 z_0_3 + 100000 z_0_4 + 100000 z_0_5 + 100000 z_0_6 + 100000 z_0_8 + 100000 z_0_9 <= 702137.31883752765
 c3044: 120 p_0_1 + 120 p_0_10 + 120 p_0_3 + 120 p_0_4 + 120 p_0_5 + 120 p_0_6 + 120 p_0_8 + 120 p_0_9 + 100000 z_0_1 + 100000 z_0_10 + 100000 z_0_3 + 100000 z_0_4 + 100000 z_0_5 + 100000 z_0_6 + 100000 z_0_8 + 100000 z_0_9 <= 802125.12431925465
 c3045: 120 p_0_10 + 120 p_0_2 + 120 p_0_3 + 120 p_0_4 + 120 p_0_5 + 120 p_0_6 + 120 p_0_8 + 120 p_0_9 + 100000 z_0_10 + 100000 z_0_2 + 100000 z_0_3 + 100000 z_0_4 + 100000 z_0_5 + 100000 z_0_6 + 100000 z_0_8 + 100000 z_0_9 <= 802135.78183673229
 c3046: 120 p_0_1 + 120 p_0_10 + 120 p_0_2 + 120 p_0_3 + 120 p_0_4 + 120 p_0_5 + 120 p_0_6 + 120 p_0_8 + 120 p_0_9 + 100000 z_0_1 + 100000 z_0_10 + 100000 z_0_2 + 100000 z_0_3 + 100000 z_0_4 + 100000 z_0_5 + 100000 z_0_6 + 100000 z_0_8 + 100000 z_0_9 <= 902123.58731845929
 c3047: 120 p_0_10 + 120 p_0_7 + 120 p_0_8 + 120 p_0_9 + 100000 z_0_10 + 100000 z_0_7 + 100000 z_0_8 + 100000 z_0_9 <= 402128.21461937891
 c3048: 120 p_0_1 + 120 p_0_10 + 120 p_0_7 + 120 p_0_8 + 120 p_0_9 + 100000 z_0_1 + 100000 z_0_10 + 100000 z_0_7 + 100000 z_0_8 + 100000 z_0_9 <= 502124.69547469908
 c3049: 120 p_0_10 + 120 p_0_2 + 120 p_0_7 + 120 p_0_8 + 120 p_0_9 + 100000 z_0_10 + 100000 z_0_2 + 100000 z_0_7 + 100000 z_0_8 + 100000 z_0_9 <= 502115.23774280126
 c3050: 120 p_0_1 + 120 p_0_10 + 120 p_0_2 + 120 p_0_7 + 120 p_0_8 + 120 p_0_9 + 100000 z_0_1 + 100000 z_0_10 + 100000 z_0_2 + 100000 z_0_7 + 100000 z_0_8 + 100000 z_0_9 <= 602111.71859812143
 c3051: 120 p_0_10 + 120 p_0_3 + 120 p_0_7 + 120 p_0_8 + 120 p_0_9 + 100000 z_0_10 + 100000 z_0_3 + 100000 z_0_7 + 100000 z_0_8 + 100000 z_0_9 <= 502012.63379148935
 c3052: 120 p_0_1 + 120 p_0_10 + 120 p_0_3 + 120 p_0_7 + 120 p_0_8 + 120 p_0_9 + 100000 z_0_1 + 100000 z_0_10 + 100000 z_0_3 + 100000 z_0_7 + 100000 z_0_8 + 100000 z_0_9 <= 602000.69334132294
 c3053: 120 p_0_10 + 120 p_0_2 + 120 p_0_3 + 120 p_0_7 + 120 p_0_8 + 120 p_0_9 + 100000 z_0_10 + 100000 z_0_2 + 100000 z_0_3 + 100000 z_0_7 + 100000 z_0_8 + 100000 z_0_9 <= 602011.09679069405
 c3054: 120 p_0_1 + 120 p_0_10 + 120 p_0_2 + 120 p_0_3 + 120 p_0_7 + 120 p_0_8 + 120 p_0_9 + 100000 z_0_1 + 100000 z_0_10 + 100000 z_0_2 + 100000 z_0_3 + 100000 z_0_7 + 100000 z_0_8 + 100000 z_0_9 <= 701999.15634052758
 c3055: 120 p_0_10 + 120 p_0_4 + 120 p_0_7 + 120 p_0_8 + 120 p_0_9 + 100000 z_0_10 + 100000 z_0_4 + 100000 z_0_7 + 100000 z_0_8 + 100000 z_0_9 <= 502128.21199186012
 c3056: 120 p_0_1 + 120 p_0_10 + 120 p_0_4 + 120 p_0_7 + 120 p_0_8 + 120 p_0_9 + 100000 z_0_1 + 100000 z_0_10 + 100000 z_0_4 + 100000 z_0_7 + 100000 z_0_8 + 100000 z_0_9 <= 602124.6928471803
 c3057: 120 p_0_10 + 120 p_0_2 + 120 p_0_4 + 120 p_0_7 + 120 p_0_8 + 120 p_0_9 + 100000 z_0_10 + 100000 z_0_2 + 100000 z_0_4 + 100000 z_0_7 + 100000 z_0_8 + 100000 z_0_9 <= 602115.23511528247
 c3058: 120 p_0_1 + 120 p_0_10 + 120 p_0_2 + 120 p_0_4 + 120 p_0_7 + 120 p_0_8 + 120 p_0_9 + 100000 z_0_1 + 100000 z_0_10 + 100000 z_0_2 + 100000 z_0_4 + 100000 z_0_7 + 100000 z_0_8 + 100000 z_0_9 <= 702111.71597060259
 c3059: 120 p_0_10 + 120 p_0_3 + 120 p_0_4 + 120 p_0_7 + 120 p_0_8 + 120 p_0_9 + 100000 z_0_10 + 100000 z_0_3 + 100000 z_0_4 + 100000 z_0_7 + 100000 z_0_8 + 100000 z_0_9 <= 602012.63116397057
 c3060: 120 p_0_1 + 120 p_0_10 + 120 p_0_3 + 120 p_0_4 + 120 p_0_7 + 120 p_0_8 + 120 p_0_9 + 100000 z_0_1 + 100000 z_0_10 + 100000 z_0_3 + 100000 z_0_4 + 100000 z_0_7 + 100000 z_0_8 + 100000 z_0_9 <= 702000.6907138041
 c3061: 120 p_0_10 + 120 p_0_2 + 120 p_0_3 + 120 p_0_4 + 120 p_0_7 + 120 p_0_8 + 120 p_0_9 + 100000 z_0_10 + 100000 z_0_2 + 100000 z_0_3 + 100000 z_0_4 + 100000 z_0_7 + 100000 z_0_8 + 100000 z_0_9 <= 702011.09416317521
 c3062: 120 p_0_1 + 120 p_0_10 + 120 p_0_2 + 120 p_0_3 + 120 p_0_4 + 120 p_0_7 + 120 p_0_8 + 120 p_0_9 + 100000 z_0_1 + 100000 z_0_10 + 100000 z_0_2 + 100000 z_0_3 + 100000 z_0_4 + 100000 z_0_7 + 100000 z_0_8 + 100000 z_0_9 <= 801999.15371300874
 c3063: 120 p_0_10 + 120 p_0_5 + 120 p_0_7 + 120 p_0_8 + 120 p_0_9 + 100000 z_0_10 + 100000 z_0_5 + 100000 z_0_7 + 100000 z_0_8 + 100000 z_0_9 <= 502128.20936028892
 c3064: 120 p_0_1 + 120 p_0_10 + 120 p_0_5 + 120 p_0_7 + 120 p_0_8 + 120 p_0_9 + 100000 z_0_1 + 100000 z_0_10 + 100000 z_0_5 + 100000 z_0_7 + 100000 z_0_8 + 100000 z_0_9 <= 602124.69021560904
 c3065: 120 p_0_10 + 120 p_0_2 + 120 p_0_5 + 120 p_0_7 + 120 p_0_8 + 120 p_0_9 + 100000 z_0_10 + 100000 z_0_2 + 100000 z_0_5 + 100000 z_0_7 + 100000 z_0_8 + 100000 z_0_9 <= 602102.66433156235
 c3066: 120 p_0_1 + 120 p_0_10 + 120 p_0_2 + 120 p_0_5 + 120 p_0_7 + 120 p_0_8 + 120 p_0_9 + 100000 z_0_1 + 100000 z_0_10 + 100000 z_0_2 + 100000 z_0_5 + 100000 z_0_7 + 100000 z_0_8 + 100000 z_0_9 <= 702099.85519669938
 c3067: 120 p_0_10 + 120 p_0_3 + 120 p_0_5 + 120 p_0_7 + 120 p_0_8 + 120 p_0_9 + 100000 z_0_10 + 100000 z_0_3 + 100000 z_0_5 + 100000 z_0_7 + 100000 z_0_8 + 100000 z_0_9 <= 602012.62853239931
 c3068: 120 p_0_1 + 120 p_0_10 + 120 p_0_3 + 120 p_0_5 + 120 p_0_7 + 120 p_0_8 + 120 p_0_9 + 100000 z_0_1 + 100000 z_0_10 + 100000 z_0_3 + 100000 z_0_5 + 100000 z_0_7 + 100000 z_0_8 + 100000 z_0_9 <= 702000.68808223295
 c3069: 120 p_0_10 + 120 p_0_2 + 120 p_0_3 + 120 p_0_5 + 120 p_0_7 + 120 p_0_8 + 120 p_0_9 + 100000 z_0_10 + 100000 z_0_2 + 100000 z_0_3 + 100000 z_0_5 + 100000 z_0_7 + 100000 z_0_8 + 100000 z_0_9 <= 702011.09153160395
 c3070: 120 p_0_1 + 120 p_0_10 + 120 p_0_2 + 120 p_0_3 + 120 p_0_5 + 120 p_0_7 + 120 p_0_8 + 120 p_0_9 + 100000 z_0_1 + 100000 z_0_10 + 100000 z_0_2 + 100000 z_0_3 + 100000 z_0_5 + 100000 z_0_7 + 100000 z_0_8 + 100000 z_0_9 <= 801999.15108143759
 c3071: 120 p_0_10 + 120 p_0_4 + 120 p_0_5 + 120 p_0_7 + 120 p_0_8 + 120 p_0_9 + 100000 z_0_10 + 100000 z_0_4 + 100000 z_0_5 + 100000 z_0_7 + 100000 z_0_8 + 100000 z_0_9 <= 602128.20673277008
 c3072: 120 p_0_1 + 120 p_0_10 + 120 p_0_4 + 120 p_0_5 + 120 p_0_7 + 120 p_0_8 + 120 p_0_9 + 100000 z_0_1 + 100000 z_0_10 + 100000 z_0_4 + 100000 z_0_5 + 100000 z_0_7 + 100000 z_0_8 + 100000 z_0_9 <= 702124.68758809031
 c3073: 120 p_0_10 + 120 p_0_2 + 120 p_0_4 + 120 p_0_5 + 120 p_0_7 + 120 p_0_8 + 120 p_0_9 + 100000 z_0_10 + 100000 z_0_2 + 100000 z_0_4 + 100000 z_0_5 + 100000 z_0_7 + 100000 z_0_8 + 100000 z_0_9 <= 702102.66170404351
 c3074: 120 p_0_1 + 120 p_0_10 + 120 p_0_2 + 120 p_0_4 + 120 p_0_5 + 120 p_0_7 + 120 p_0_8 + 120 p_0_9 + 100000 z_0_1 + 100000 z_0_10 + 100000 z_0_2 + 100000 z_0_4 + 100000 z_0_5 + 100000 z_0_7 + 100000 z_0_8 + 100000 z_0_9 <= 802099.85256918054
 c3075: 120 p_0_10 + 120 p_0_3 + 120 p_0_4 + 120 p_0_5 + 120 p_0_7 + 120 p_0_8 + 120 p_0_9 + 100000 z_0_10 + 100000 z_0_3 + 100000 z_0_4 + 100000 z_0_5 + 100000 z_0_7 + 100000 z_0_8 + 100000 z_0_9 <= 702012.62590488046
 c3076: 120 p_0_1 + 120 p_0_10 + 120 p_0_3 + 120 p_0_4 + 120 p_0_5 + 120 p_0_7 + 120 p_0_8 + 120 p_0_9 + 100000 z_0_1 + 100000 z_0_10 + 100000 z_0_3 + 100000 z_0_4 + 100000 z_0_5 + 100000 z_0_7 + 100000 z_0_8 + 100000 z_0_9 <= 802000.68545471411
 c3077: 120 p_0_10 + 120 p_0_2 + 120 p_0_3 + 120 p_0_4 + 120 p_0_5 + 120 p_0_7 + 120 p_0_8 + 120 p_0_9 + 100000 z_0_10 + 100000 z_0_2 + 100000 z_0_3 + 100000 z_0_4 + 100000 z_0_5 + 100000 z_0_7 + 100000 z_0_8 + 100000 z_0_9 <= 802011.08890408522
 c3078: 120 p_0_1 + 120 p_0_10 + 120 p_0_2 + 120 p_0_3 + 120 p_0_4 + 120 p_0_5 + 120 p_0_7 + 120 p_0_8 + 120 p_0_9 + 100000 z_0_1 + 100000 z_0_10 + 100000 z_0_2 + 100000 z_0_3 + 100000 z_0_4 + 100000 z_0_5 + 100000 z_0_7 + 100000 z_0_8 + 100000 z_0_9 <= 901999.14845391875
 c3079: 120 p_0_10 + 120 p_0_6 + 120 p_0_7 + 120 p_0_8 + 120 p_0_9 + 100000 z_0_10 + 100000 z_0_6 + 100000 z_0_7 + 100000 z_0_8 + 100000 z_0_9 <= 502079.15076797927
 c3080: 120 p_0_1 + 120 p_0_10 + 120 p_0_6 + 120 p_0_7 + 120 p_0_8 + 120 p_0_9 + 100000 z_0_1 + 100000 z_0_10 + 100000 z_0_6 + 100000 z_0_7 + 100000 z_0_8 + 100000 z_0_9 <= 602075.63162329944
 c3081: 120 p_0_10 + 120 p_0_2 + 120 p_0_6 + 120 p_0_7 + 120 p_0_8 + 120 p_0_9 + 100000 z_0_10 + 100000 z_0_2 + 100000 z_0_6 + 100000 z_0_7 + 100000 z_0_8 + 100000 z_0_9 <= 602069.72948503005
 c3082: 120 p_0_1 + 120 p_0_10 + 120 p_0_2 + 120 p_0_6 + 120 p_0_7 + 120 p_0_8 + 120 p_0_9 + 100000 z_0_1 + 100000 z_0_10 + 100000 z_0_2 + 100000 z_0_6 + 100000 z_0_7 + 100000 z_0_8 + 100000 z_0_9 <= 702062.65474672173
 c3083: 120 p_0_10 + 120 p_0_3 + 120 p_0_6 + 120 p_0_7 + 120 p_0_8 + 120 p_0_9 + 100000 z_0_10 + 100000 z_0_3 + 100000 z_0_6 + 100000 z_0_7 + 100000 z_0_8 + 100000 z_0_9 <= 602009.50089205964
 c3084: 120 p_0_1 + 120 p_0_10 + 120 p_0_3 + 120 p_0_6 + 120 p_0_7 + 120 p_0_8 + 120 p_0_9 + 100000 z_0_1 + 100000 z_0_10 + 100000 z_0_3 + 100000 z_0_6 + 100000 z_0_7 + 100000 z_0_8 + 100000 z_0_9 <= 701997.56044189329
 c3085: 120 p_0_10 + 120 p_0_2 + 120 p_0_3 + 120 p_0_6 + 120 p_0_7 + 120 p_0_8 + 120 p_0_9 + 100000 z_0_10 + 100000 z_0_2 + 100000 z_0_3 + 100000 z_0_6 + 100000 z_0_7 + 100000 z_0_8 + 100000 z_0_9 <= 702007.9638912644
 c3086: 120 p_0_1 + 120 p_0_10 + 120 p_0_2 + 120 p_0_3 + 120 p_0_6 + 120 p_0_7 + 120 p_0_8 + 120 p_0_9 + 100000 z_0_1 + 100000 z_0_10 + 100000 z_0_2 + 100000 z_0_3 + 100000 z_0_6 + 100000 z_0_7 + 100000 z_0_8 + 100000 z_0_9 <= 801996.02344109793
 c3087: 120 p_0_10 + 120 p_0_4 + 120 p_0_6 + 120 p_0_7 + 120 p_0_8 + 120 p_0_9 + 100000 z_0_10 + 100000 z_0_4 + 100000 z_0_6 + 100000 z_0_7 + 100000 z_0_8 + 100000 z_0_9 <= 602079.14814046049
 c3088: 120 p_0_1 + 120 p_0_10 + 120 p_0_4 + 120 p_0_6 + 120 p_0_7 + 120 p_0_8 + 120 p_0_9 + 100000 z_0_1 + 100000 z_0_10 + 100000 z_0_4 + 100000 z_0_6 + 100000 z_0_7 + 100000 z_0_8 + 100000 z_0_9 <= 702075.6289957806
 c3089: 120 p_0_10 + 120 p_0_2 + 120 p_0_4 + 120 p_0_6 + 120 p_0_7 + 120 p_0_8 + 120 p_0_9 + 100000 z_0_10 + 100000 z_0_2 + 100000 z_0_4 + 100000 z_0_6 + 100000 z_0_7 + 100000 z_0_8 + 100000 z_0_9 <= 702069.72685751133
 c3090: 120 p_0_1 + 120 p_0_10 + 120 p_0_2 + 120 p_0_4 + 120 p_0_6 + 120 p_0_7 + 120 p_0_8 + 120 p_0_9 + 100000 z_0_1 + 100000 z_0_10 + 100000 z_0_2 + 100000 z_0_4 + 100000 z_0_6 + 100000 z_0_7 + 100000 z_0_8 + 100000 z_0_9 <= 802062.65211920289
 c3091: 120 p_0_10 + 120 p_0_3 + 120 p_0_4 + 120 p_0_6 + 120 p_0_7 + 120 p_0_8 + 120 p_0_9 + 100000 z_0_10 + 100000 z_0_3 + 100000 z_0_4 + 100000 z_0_6 + 100000 z_0_7 + 100000 z_0_8 + 100000 z_0_9 <= 702009.49826454092
 c3092: 120 p_0_1 + 120 p_0_10 + 120 p_0_3 + 120 p_0_4 + 120 p_0_6 + 120 p_0_7 + 120 p_0_8 + 120 p_0_9 + 100000 z_0_1 + 100000 z_0_10 + 100000 z_0_3 + 100000 z_0_4 + 100000 z_0_6 + 100000 z_0_7 + 100000 z_0_8 + 100000 z_0_9 <= 801997.55781437445
 c3093: 120 p_0_10 + 120 p_0_2 + 120 p_0_3 + 120 p_0_4 + 120 p_0_6 + 120 p_0_7 + 120 p_0_8 + 120 p_0_9 + 100000 z_0_10 + 100000 z_0_2 + 100000 z_0_3 + 100000 z_0_4 + 100000 z_0_6 + 100000 z_0_7 + 100000 z_0_8 + 100000 z_0_9 <= 802007.96126374556
 c3094: 120 p_0_1 + 120 p_0_10 + 120 p_0_2 + 120 p_0_3 + 120 p_0_4 + 120 p_0_6 + 120 p_0_7 + 120 p_0_8 + 120 p_0_9 + 100000 z_0_1 + 100000 z_0_10 + 100000 z_0_2 + 100000 z_0_3 + 100000 z_0_4 + 100000 z_0_6 + 100000 z_0_7 + 100000 z_0_8 + 100000 z_0_9 <= 901996.02081357909
 c3095: 120 p_0_10 + 120 p_0_5 + 120 p_0_6 + 120 p_0_7 + 120 p_0_8 + 120 p_0_9 + 100000 z_0_10 + 100000 z_0_5 + 100000 z_0_6 + 100000 z_0_7 + 100000 z_0_8 + 100000 z_0_9 <= 602079.14550888923
 c3096: 120 p_0_1 + 120 p_0_10 + 120 p_0_5 + 120 p_0_6 + 120 p_0_7 + 120 p_0_8 + 120 p_0_9 + 100000 z_0_1 + 100000 z_0_10 + 100000 z_0_5 + 100000 z_0_6 + 100000 z_0_7 + 100000 z_0_8 + 100000 z_0_9 <= 702075.62636420934
 c3097: 120 p_0_10 + 120 p_0_2 + 120 p_0_5 + 120 p_0_6 + 120 p_0_7 + 120 p_0_8 + 120 p_0_9 + 100000 z_0_10 + 100000 z_0_2 + 100000 z_0_5 + 100000 z_0_6 + 100000 z_0_7 + 100000 z_0_8 + 100000 z_0_9 <= 702069.72422594007
 c3098: 120 p_0_1 + 120 p_0_10 + 120 p_0_2 + 120 p_0_5 + 120 p_0_6 + 120 p_0_7 + 120 p_0_8 + 120 p_0_9 + 100000 z_0_1 + 100000 z_0_10 + 100000 z_0_2 + 100000 z_0_5 + 100000 z_0_6 + 100000 z_0_7 + 100000 z_0_8 + 100000 z_0_9 <= 802061.81086072873
 c3099: 120 p_0_10 + 120 p_0_3 + 120 p_0_5 + 120 p_0_6 + 120 p_0_7 + 120 p_0_8 + 120 p_0_9 + 100000 z_0_10 + 100000 z_0_3 + 100000 z_0_5 + 100000 z_0_6 + 100000 z_0_7 + 100000 z_0_8 + 100000 z_0_9 <= 702009.49563296966
 c3100: 120 p_0_1 + 120 p_0_10 + 120 p_0_3 + 120 p_0_5 + 120 p_0_6 + 120 p_0_7 + 120 p_0_8 + 120 p_0_9 + 100000 z_0_1 + 100000 z_0_10 + 100000 z_0_3 + 100000 z_0_5 + 100000 z_0_6 + 100000 z_0_7 + 100000 z_0_8 + 100000 z_0_9 <= 801997.55518280331
 c3101: 120 p_0_10 + 120 p_0_2 + 120 p_0_3 + 120 p_0_5 + 120 p_0_6 + 120 p_0_7 + 120 p_0_8 + 120 p_0_9 + 100000 z_0_10 + 100000 z_0_2 + 100000 z_0_3 + 100000 z_0_5 + 100000 z_0_6 + 100000 z_0_7 + 100000 z_0_8 + 100000 z_0_9 <= 802007.9586321743
 c3102: 120 p_0_1 + 120 p_0_10 + 120 p_0_2 + 120 p_0_3 + 120 p_0_5 + 120 p_0_6 + 120 p_0_7 + 120 p_0_8 + 120 p_0_9 + 100000 z_0_1 + 100000 z_0_10 + 100000 z_0_2 + 100000 z_0_3 + 100000 z_0_5 + 100000 z_0_6 + 100000 z_0_7 + 100000 z_0_8 + 100000 z_0_9 <= 901996.01818200795
 c3103: 120 p_0_10 + 120 p_0_4 + 120 p_0_5 + 120 p_0_6 + 120 p_0_7 + 120 p_0_8 + 120 p_0_9 + 100000 z_0_10 + 100000 z_0_4 + 100000 z_0_5 + 100000 z_0_6 + 100000 z_0_7 + 100000 z_0_8 + 100000 z_0_9 <= 702079.14288137038
 c3104: 120 p_0_1 + 120 p_0_10 + 120 p_0_4 + 120 p_0_5 + 120 p_0_6 + 120 p_0_7 + 120 p_0_8 + 120 p_0_9 + 100000 z_0_1 + 100000 z_0_10 + 100000 z_0_4 + 100000 z_0_5 + 100000 z_0_6 + 100000 z_0_7 + 100000 z_0_8 + 100000 z_0_9 <= 802075.62373669061
 c3105: 120 p_0_10 + 120 p_0_2 + 120 p_0_4 + 120 p_0_5 + 120 p_0_6 + 120 p_0_7 + 120 p_0_8 + 120 p_0_9 + 100000 z_0_10 + 100000 z_0_2 + 100000 z_0_4 + 100000 z_0_5 + 100000 z_0_6 + 100000 z_0_7 + 100000 z_0_8 + 100000 z_0_9 <= 802069.72159842122
 c3106: 120 p_0_1 + 120 p_0_10 + 120 p_0_2 + 120 p_0_4 + 120 p_0_5 + 120 p_0_6 + 120 p_0_7 + 120 p_0_8 + 120 p_0_9 + 100000 z_0_1 + 100000 z_0_10 + 100000 z_0_2 + 100000 z_0_4 + 100000 z_0_5 + 100000 z_0_6 + 100000 z_0_7 + 100000 z_0_8 + 100000 z_0_9 <= 902061.80823320989
 c3107: 120 p_0_10 + 120 p_0_3 + 120 p_0_4 + 120 p_0_5 + 120 p_0_6 + 120 p_0_7 + 120 p_0_8 + 120 p_0_9 + 100000 z_0_10 + 100000 z_0_3 + 100000 z_0_4 + 100000 z_0_5 + 100000 z_0_6 + 100000 z_0_7 + 100000 z_0_8 + 100000 z_0_9 <= 802009.49300545081
 c3108: 120 p_0_1 + 120 p_0_10 + 120 p_0_3 + 120 p_0_4 + 120 p_0_5 + 120 p_0_6 + 120 p_0_7 + 120 p_0_8 + 120 p_0_9 + 100000 z_0_1 + 100000 z_0_10 + 100000 z_0_3 + 100000 z_0_4 + 100000 z_0_5 + 100000 z_0_6 + 100000 z_0_7 + 100000 z_0_8 + 100000 z_0_9 <= 901997.55255528446
 c3109: 120 p_0_10 + 120 p_0_2 + 120 p_0_3 + 120 p_0_4 + 120 p_0_5 + 120 p_0_6 + 120 p_0_7 + 120 p_0_8 + 120 p_0_9 + 100000 z_0_10 + 100000 z_0_2 + 100000 z_0_3 + 100000 z_0_4 + 100000 z_0_5 + 100000 z_0_6 + 100000 z_0_7 + 100000 z_0_8 + 100000 z_0_9 <= 902007.95600465557
 c3110: 120 p_0_1 + 120 p_0_10 + 120 p_0_2 + 120 p_0_3 + 120 p_0_4 + 120 p_0_5 + 120 p_0_6 + 120 p_0_7 + 120 p_0_8 + 120 p_0_9 + 100000 z_0_1 + 100000 z_0_10 + 100000 z_0_2 + 100000 z_0_3 + 100000 z_0_4 + 100000 z_0_5 + 100000 z_0_6 + 100000 z_0_7 + 100000 z_0_8 + 100000 z_0_9 <= 1001996.0155544891
 c3111: 120 p_1_1 + 100000 z_1_1 <= 103132.68113812628
 c3112: 120 p_1_2 + 100000 z_1_2 <= 103286.01272538165
 c3113: 120 p_1_1 + 120 p_1_2 + 100000 z_1_1 + 100000 z_1_2 <= 202870.26056762715
 c3114: 120 p_1_3 + 100000 z_1_3 <= 103012.66522415946
 c3115: 120 p_1_1 + 120 p_1_3 + 100000 z_1_1 + 100000 z_1_3 <= 202615.13899200119
 c3116: 120 p_1_2 + 120 p_1_3 + 100000 z_1_2 + 100000 z_1_3 <= 202751.53219278928
 c3117: 120 p_1_1 + 120 p_1_2 + 120 p_1_3 + 100000 z_1_1 + 100000 z_1_2 + 100000 z_1_3 <= 302354.00596063101
 c3118: 120 p_1_4 + 100000 z_1_4 <= 103075.59662162802
 c3119: 120 p_1_1 + 120 p_1_4 + 100000 z_1_1 + 100000 z_1_4 <= 203065.65567439151
 c3120: 120 p_1_2 + 120 p_1_4 + 100000 z_1_2 + 100000 z_1_4 <= 202805.6142934121
 c3121: 120 p_1_1 + 120 p_1_2 + 120 p_1_4 + 100000 z_1_1 + 100000 z_1_2 + 100000 z_1_4 <= 302803.2351038924
 c3122: 120 p_1_3 + 120 p_1_4 + 100000 z_1_3 + 100000 z_1_4 <= 202577.71621576307
 c3123: 120 p_1_1 + 120 p_1_3 + 120 p_1_4 + 100000 z_1_1 + 100000 z_1_3 + 100000 z_1_4 <= 302567.77526852657
 c3124: 120 p_1_2 + 120 p_1_3 + 120 p_1_4 + 100000 z_1_2 + 100000 z_1_3 + 100000 z_1_4 <= 302316.58318439289
 c3125: 120 p_1_1 + 120 p_1_2 + 120 p_1_3 + 120 p_1_4 + 100000 z_1_1 + 100000 z_1_2 + 100000 z_1_3 + 100000 z_1_4 <= 402306.6422371564
 c3126: 120 p_1_5 + 100000 z_1_5 <= 103199.13364631316
 c3127: 120 p_1_1 + 120 p_1_5 + 100000 z_1_1 + 100000 z_1_5 <= 202783.99238475226
 c3128: 120 p_1_2 + 120 p_1_5 + 100000 z_1_2 + 100000 z_1_5 <= 203197.48323868492
 c3129: 120 p_1_1 + 120 p_1_2 + 120 p_1_5 + 100000 z_1_1 + 100000 z_1_2 + 100000 z_1_5 <= 302782.34197712399
 c3130: 120 p_1_3 + 120 p_1_5 + 100000 z_1_3 + 100000 z_1_5 <= 202681.7971727468
 c3131: 120 p_1_1 + 120 p_1_3 + 120 p_1_5 + 100000 z_1_1 + 100000 z_1_3 + 100000 z_1_5 <= 302284.27094058855
 c3132: 120 p_1_2 + 120 p_1_3 + 120 p_1_5 + 100000 z_1_2 + 100000 z_1_3 + 100000 z_1_5 <= 302680.14676511858
 c3133: 120 p_1_1 + 120 p_1_2 + 120 p_1_3 + 120 p_1_5 + 100000 z_1_1 + 100000 z_1_2 + 100000 z_1_3 + 100000 z_1_5 <= 402282.62053296028
 c3134: 120 p_1_4 + 120 p_1_5 + 100000 z_1_4 + 100000 z_1_5 <= 202718.89686782894
 c3135: 120 p_1_1 + 120 p_1_4 + 120 p_1_5 + 100000 z_1_1 + 100000 z_1_4 + 100000 z_1_5 <= 302716.96692101751
 c3136: 120 p_1_2 + 120 p_1_4 + 120 p_1_5 + 100000 z_1_2 + 100000 z_1_4 + 100000 z_1_5 <= 302717.24646020069
 c3137: 120 p_1_1 + 120 p_1_2 + 120 p_1_4 + 120 p_1_5 + 100000 z_1_1 + 100000 z_1_2 + 100000 z_1_4 + 100000 z_1_5 <= 402715.31651338923
 c3138: 120 p_1_3 + 120 p_1_4 + 120 p_1_5 + 100000 z_1_3 + 100000 z_1_4 + 100000 z_1_5 <= 302246.84816435043
 c3139: 120 p_1_1 + 120 p_1_3 + 120 p_1_4 + 120 p_1_5 + 100000 z_1_1 + 100000 z_1_3 + 100000 z_1_4 + 100000 z_1_5 <= 402236.90721711394
 c3140: 120 p_1_2 + 120 p_1_3 + 120 p_1_4 + 120 p_1_5 + 100000 z_1_2 + 100000 z_1_3 + 100000 z_1_4 + 100000 z_1_5 <= 402245.19775672216
 c3141: 120 p_1_1 + 120 p_1_2 + 120 p_1_3 + 120 p_1_4 + 120 p_1_5 + 100000 z_1_1 + 100000 z_1_2 + 100000 z_1_3 + 100000 z_1_4 + 100000 z_1_5 <= 502235.25680948567
 c3142: 120 p_1_6 + 100000 z_1_6 <= 103083.89129942696
 c3143: 120 p_1_1 + 120 p_1_6 + 100000 z_1_1 + 100000 z_1_6 <= 202665.05331962419
 c3144: 120 p_1_2 + 120 p_1_6 + 100000 z_1_2 + 100000 z_1_6 <= 202835.81644088239
 c3145: 120 p_1_1 + 120 p_1_2 + 120 p_1_6 + 100000 z_1_1 + 100000 z_1_2 + 100000 z_1_6 <= 302420.0642831279
 c3146: 120 p_1_3 + 120 p_1_6 + 100000 z_1_3 + 100000 z_1_6 <= 202993.48404131536
 c3147: 120 p_1_1 + 120 p_1_3 + 120 p_1_6 + 100000 z_1_1 + 100000 z_1_3 + 100000 z_1_6 <= 302595.95780915709
 c3148: 120 p_1_2 + 120 p_1_3 + 120 p_1_6 + 100000 z_1_2 + 100000 z_1_3 + 100000 z_1_6 <= 302745.40918277082
 c3149: 120 p_1_1 + 120 p_1_2 + 120 p_1_3 + 120 p_1_6 + 100000 z_1_1 + 100000 z_1_2 + 100000 z_1_3 + 100000 z_1_6 <= 402347.88295061252
 c3150: 120 p_1_4 + 120 p_1_6 + 100000 z_1_4 + 100000 z_1_6 <= 202623.3100437957
 c3151: 120 p_1_1 + 120 p_1_4 + 120 p_1_6 + 100000 z_1_1 + 100000 z_1_4 + 100000 z_1_6 <= 302613.36909655924
 c3152: 120 p_1_2 + 120 p_1_4 + 120 p_1_6 + 100000 z_1_2 + 100000 z_1_4 + 100000 z_1_6 <= 302375.23518525111
 c3153: 120 p_1_1 + 120 p_1_2 + 120 p_1_4 + 120 p_1_6 + 100000 z_1_1 + 100000 z_1_2 + 100000 z_1_4 + 100000 z_1_6 <= 402365.29423801467
 c3154: 120 p_1_3 + 120 p_1_4 + 120 p_1_6 + 100000 z_1_3 + 100000 z_1_4 + 100000 z_1_6 <= 302558.53503291897
 c3155: 120 p_1_1 + 120 p_1_3 + 120 p_1_4 + 120 p_1_6 + 100000 z_1_1 + 100000 z_1_3 + 100000 z_1_4 + 100000 z_1_6 <= 402548.59408568247
 c3156: 120 p_1_2 + 120 p_1_3 + 120 p_1_4 + 120 p_1_6 + 100000 z_1_2 + 100000 z_1_3 + 100000 z_1_4 + 100000 z_1_6 <= 402310.4601743744
 c3157: 120 p_1_1 + 120 p_1_2 + 120 p_1_3 + 120 p_1_4 + 120 p_1_6 + 100000 z_1_1 + 100000 z_1_2 + 100000 z_1_3 + 100000 z_1_4 + 100000 z_1_6 <= 502300.51922713791
 c3158: 120 p_1_5 + 120 p_1_6 + 100000 z_1_5 + 100000 z_1_6 <= 202768.29316217231
 c3159: 120 p_1_1 + 120 p_1_5 + 120 p_1_6 + 100000 z_1_1 + 100000 z_1_5 + 100000 z_1_6 <= 302353.15190061141
 c3160: 120 p_1_2 + 120 p_1_5 + 120 p_1_6 + 100000 z_1_2 + 100000 z_1_5 + 100000 z_1_6 <= 302766.64275454404
 c3161: 120 p_1_1 + 120 p_1_2 + 120 p_1_5 + 120 p_1_6 + 100000 z_1_1 + 100000 z_1_2 + 100000 z_1_5 + 100000 z_1_6 <= 402350.89059678954
 c3162: 120 p_1_3 + 120 p_1_5 + 120 p_1_6 + 100000 z_1_3 + 100000 z_1_5 + 100000 z_1_6 <= 302677.88590406073
 c3163: 120 p_1_1 + 120 p_1_3 + 120 p_1_5 + 120 p_1_6 + 100000 z_1_1 + 100000 z_1_3 + 100000 z_1_5 + 100000 z_1_6 <= 402280.35967190244
 c3164: 120 p_1_2 + 120 p_1_3 + 120 p_1_5 + 120 p_1_6 + 100000 z_1_2 + 100000 z_1_3 + 100000 z_1_5 + 100000 z_1_6 <= 402676.23549643246
 c3165: 120 p_1_1 + 120 p_1_2 + 120 p_1_3 + 120 p_1_5 + 120 p_1_6 + 100000 z_1_1 + 100000 z_1_2 + 100000 z_1_3 + 100000 z_1_5 + 100000 z_1_6 <= 502278.70926427422
 c3166: 120 p_1_4 + 120 p_1_5 + 120 p_1_6 + 100000 z_1_4 + 100000 z_1_5 + 100000 z_1_6 <= 302307.71190654108
 c3167: 120 p_1_1 + 120 p_1_4 + 120 p_1_5 + 120 p_1_6 + 100000 z_1_1 + 100000 z_1_4 + 100000 z_1_5 + 100000 z_1_6 <= 402297.77095930459
 c3168: 120 p_1_2 + 120 p_1_4 + 120 p_1_5 + 120 p_1_6 + 100000 z_1_2 + 100000 z_1_4 + 100000 z_1_5 + 100000 z_1_6 <= 402306.06149891281
 c3169: 120 p_1_1 + 120 p_1_2 + 120 p_1_4 + 120 p_1_5 + 120 p_1_6 + 100000 z_1_1 + 100000 z_1_2 + 100000 z_1_4 + 100000 z_1_5 + 100000 z_1_6 <= 502296.12055167631
 c3170: 120 p_1_3 + 120 p_1_4 + 120 p_1_5 + 120 p_1_6 + 100000 z_1_3 + 100000 z_1_4 + 100000 z_1_5 + 100000 z_1_6 <= 402242.93689566432
 c3171: 120 p_1_1 + 120 p_1_3 + 120 p_1_4 + 120 p_1_5 + 120 p_1_6 + 100000 z_1_1 + 100000 z_1_3 + 100000 z_1_4 + 100000 z_1_5 + 100000 z_1_6 <= 502232.99594842782
 c3172: 120 p_1_2 + 120 p_1_3 + 120 p_1_4 + 120 p_1_5 + 120 p_1_6 + 100000 z_1_2 + 100000 z_1_3 + 100000 z_1_4 + 100000 z_1_5 + 100000 z_1_6 <= 502241.2864880361
 c3173: 120 p_1_1 + 120 p_1_2 + 120 p_1_3 + 120 p_1_4 + 120 p_1_5 + 120 p_1_6 + 100000 z_1_1 + 100000 z_1_2 + 100000 z_1_3 + 100000 z_1_4 + 100000 z_1_5 + 100000 z_1_6 <= 602231.34554079955
 c3174: 120 p_1_7 + 100000 z_1_7 <= 102941.05906740543
 c3175: 120 p_1_1 + 120 p_1_7 + 100000 z_1_1 + 100000 z_1_7 <= 202938.40922094753
 c3176: 120 p_1_2 + 120 p_1_7 + 100000 z_1_2 + 100000 z_1_7 <= 202676.72884492189
 c3177: 120 p_1_1 + 120 p_1_2 + 120 p_1_7 + 100000 z_1_1 + 100000 z_1_2 + 100000 z_1_7 <= 302675.98865044839
 c3178: 120 p_1_3 + 120 p_1_7 + 100000 z_1_3 + 100000 z_1_7 <= 202450.21569421247
 c3179: 120 p_1_1 + 120 p_1_3 + 120 p_1_7 + 100000 z_1_1 + 100000 z_1_3 + 100000 z_1_7 <= 302447.56584775459
 c3180: 120 p_1_2 + 120 p_1_3 + 120 p_1_7 + 100000 z_1_2 + 100000 z_1_3 + 100000 z_1_7 <= 302189.08266284229
 c3181: 120 p_1_1 + 120 p_1_2 + 120 p_1_3 + 120 p_1_7 + 100000 z_1_1 + 100000 z_1_2 + 100000 z_1_3 + 100000 z_1_7 <= 402186.43281638442
 c3182: 120 p_1_4 + 120 p_1_7 + 100000 z_1_4 + 100000 z_1_7 <= 202940.73375687923
 c3183: 120 p_1_1 + 120 p_1_4 + 120 p_1_7 + 100000 z_1_1 + 100000 z_1_4 + 100000 z_1_7 <= 302938.08391042135
 c3184: 120 p_1_2 + 120 p_1_4 + 120 p_1_7 + 100000 z_1_2 + 100000 z_1_4 + 100000 z_1_7 <= 302676.40353439568
 c3185: 120 p_1_1 + 120 p_1_2 + 120 p_1_4 + 120 p_1_7 + 100000 z_1_1 + 100000 z_1_2 + 100000 z_1_4 + 100000 z_1_7 <= 402675.6633399222
 c3186: 120 p_1_3 + 120 p_1_4 + 120 p_1_7 + 100000 z_1_3 + 100000 z_1_4 + 100000 z_1_7 <= 302449.89038368629
 c3187: 120 p_1_1 + 120 p_1_3 + 120 p_1_4 + 120 p_1_7 + 100000 z_1_1 + 100000 z_1_3 + 100000 z_1_4 + 100000 z_1_7 <= 402440.20350455638
 c3188: 120 p_1_2 + 120 p_1_3 + 120 p_1_4 + 120 p_1_7 + 100000 z_1_2 + 100000 z_1_3 + 100000 z_1_4 + 100000 z_1_7 <= 402188.75735231611
 c3189: 120 p_1_1 + 120 p_1_2 + 120 p_1_3 + 120 p_1_4 + 120 p_1_7 + 100000 z_1_1 + 100000 z_1_2 + 100000 z_1_3 + 100000 z_1_4 + 100000 z_1_7 <= 502179.07047318621
 c3190: 120 p_1_5 + 120 p_1_7 + 100000 z_1_5 + 100000 z_1_7 <= 202590.96621633053
 c3191: 120 p_1_1 + 120 p_1_5 + 120 p_1_7 + 100000 z_1_1 + 100000 z_1_5 + 100000 z_1_7 <= 302589.7204675735
 c3192: 120 p_1_2 + 120 p_1_5 + 120 p_1_7 + 100000 z_1_2 + 100000 z_1_5 + 100000 z_1_7 <= 302589.31580870232
 c3193: 120 p_1_1 + 120 p_1_2 + 120 p_1_5 + 120 p_1_7 + 100000 z_1_1 + 100000 z_1_2 + 100000 z_1_5 + 100000 z_1_7 <= 402588.07005994522
 c3194: 120 p_1_3 + 120 p_1_5 + 120 p_1_7 + 100000 z_1_3 + 100000 z_1_5 + 100000 z_1_7 <= 302119.34764279984
 c3195: 120 p_1_1 + 120 p_1_3 + 120 p_1_5 + 120 p_1_7 + 100000 z_1_1 + 100000 z_1_3 + 100000 z_1_5 + 100000 z_1_7 <= 402116.69779634196
 c3196: 120 p_1_2 + 120 p_1_3 + 120 p_1_5 + 120 p_1_7 + 100000 z_1_2 + 100000 z_1_3 + 100000 z_1_5 + 100000 z_1_7 <= 402117.69723517157
 c3197: 120 p_1_1 + 120 p_1_2 + 120 p_1_3 + 120 p_1_5 + 120 p_1_7 + 100000 z_1_1 + 100000 z_1_2 + 100000 z_1_3 + 100000 z_1_5 + 100000 z_1_7 <= 502115.04738871369
 c3198: 120 p_1_4 + 120 p_1_5 + 120 p_1_7 + 100000 z_1_4 + 100000 z_1_5 + 100000 z_1_7 <= 302590.64090580435
 c3199: 120 p_1_1 + 120 p_1_4 + 120 p_1_5 + 120 p_1_7 + 100000 z_1_1 + 100000 z_1_4 + 100000 z_1_5 + 100000 z_1_7 <= 402589.39515704731
 c3200: 120 p_1_2 + 120 p_1_4 + 120 p_1_5 + 120 p_1_7 + 100000 z_1_2 + 100000 z_1_4 + 100000 z_1_5 + 100000 z_1_7 <= 402588.99049817608
 c3201: 120 p_1_1 + 120 p_1_2 + 120 p_1_4 + 120 p_1_5 + 120 p_1_7 + 100000 z_1_1 + 100000 z_1_2 + 100000 z_1_4 + 100000 z_1_5 + 100000 z_1_7 <= 502587.74474941904
 c3202: 120 p_1_3 + 120 p_1_4 + 120 p_1_5 + 120 p_1_7 + 100000 z_1_3 + 100000 z_1_4 + 100000 z_1_5 + 100000 z_1_7 <= 402119.02233227366
 c3203: 120 p_1_1 + 120 p_1_3 + 120 p_1_4 + 120 p_1_5 + 120 p_1_7 + 100000 z_1_1 + 100000 z_1_3 + 100000 z_1_4 + 100000 z_1_5 + 100000 z_1_7 <= 502109.33545314375
 c3204: 120 p_1_2 + 120 p_1_3 + 120 p_1_4 + 120 p_1_5 + 120 p_1_7 + 100000 z_1_2 + 100000 z_1_3 + 100000 z_1_4 + 100000 z_1_5 + 100000 z_1_7 <= 502117.37192464538
 c3205: 120 p_1_1 + 120 p_1_2 + 120 p_1_3 + 120 p_1_4 + 120 p_1_5 + 120 p_1_7 + 100000 z_1_1 + 100000 z_1_2 + 100000 z_1_3 + 100000 z_1_4 + 100000 z_1_5 + 100000 z_1_7 <= 602107.68504551554
 c3206: 120 p_1_6 + 120 p_1_7 + 100000 z_1_6 + 100000 z_1_7 <= 202492.80010513411
 c3207: 120 p_1_1 + 120 p_1_6 + 120 p_1_7 + 100000 z_1_1 + 100000 z_1_6 + 100000 z_1_7 <= 302490.15025867621
 c3208: 120 p_1_2 + 120 p_1_6 + 120 p_1_7 + 100000 z_1_2 + 100000 z_1_6 + 100000 z_1_7 <= 302244.72524658957
 c3209: 120 p_1_1 + 120 p_1_2 + 120 p_1_6 + 120 p_1_7 + 100000 z_1_1 + 100000 z_1_2 + 100000 z_1_6 + 100000 z_1_7 <= 402242.07540013164
 c3210: 120 p_1_3 + 120 p_1_6 + 120 p_1_7 + 100000 z_1_3 + 100000 z_1_6 + 100000 z_1_7 <= 302431.03451136837
 c3211: 120 p_1_1 + 120 p_1_3 + 120 p_1_6 + 120 p_1_7 + 100000 z_1_1 + 100000 z_1_3 + 100000 z_1_6 + 100000 z_1_7 <= 402428.3846649105
 c3212: 120 p_1_2 + 120 p_1_3 + 120 p_1_6 + 120 p_1_7 + 100000 z_1_2 + 100000 z_1_3 + 100000 z_1_6 + 100000 z_1_7 <= 402182.9596528238
 c3213: 120 p_1_1 + 120 p_1_2 + 120 p_1_3 + 120 p_1_6 + 120 p_1_7 + 100000 z_1_1 + 100000 z_1_2 + 100000 z_1_3 + 100000 z_1_6 + 100000 z_1_7 <= 502180.30980636593
 c3214: 120 p_1_4 + 120 p_1_6 + 120 p_1_7 + 100000 z_1_4 + 100000 z_1_6 + 100000 z_1_7 <= 302492.4747946079
 c3215: 120 p_1_1 + 120 p_1_4 + 120 p_1_6 + 120 p_1_7 + 100000 z_1_1 + 100000 z_1_4 + 100000 z_1_6 + 100000 z_1_7 <= 402485.79733258905
 c3216: 120 p_1_2 + 120 p_1_4 + 120 p_1_6 + 120 p_1_7 + 100000 z_1_2 + 100000 z_1_4 + 100000 z_1_6 + 100000 z_1_7 <= 402244.39993606333
 c3217: 120 p_1_1 + 120 p_1_2 + 120 p_1_4 + 120 p_1_6 + 120 p_1_7 + 100000 z_1_1 + 100000 z_1_2 + 100000 z_1_4 + 100000 z_1_6 + 100000 z_1_7 <= 502237.72247404448
 c3218: 120 p_1_3 + 120 p_1_4 + 120 p_1_6 + 120 p_1_7 + 100000 z_1_3 + 100000 z_1_4 + 100000 z_1_6 + 100000 z_1_7 <= 402430.70920084219
 c3219: 120 p_1_1 + 120 p_1_3 + 120 p_1_4 + 120 p_1_6 + 120 p_1_7 + 100000 z_1_1 + 100000 z_1_3 + 100000 z_1_4 + 100000 z_1_6 + 100000 z_1_7 <= 502421.02232171228
 c3220: 120 p_1_2 + 120 p_1_3 + 120 p_1_4 + 120 p_1_6 + 120 p_1_7 + 100000 z_1_2 + 100000 z_1_3 + 100000 z_1_4 + 100000 z_1_6 + 100000 z_1_7 <= 502182.63434229762
 c3221: 120 p_1_1 + 120 p_1_2 + 120 p_1_3 + 120 p_1_4 + 120 p_1_6 + 120 p_1_7 + 100000 z_1_1 + 100000 z_1_2 + 100000 z_1_3 + 100000 z_1_4 + 100000 z_1_6 + 100000 z_1_7 <= 602172.94746316771
 c3222: 120 p_1_5 + 120 p_1_6 + 120 p_1_7 + 100000 z_1_5 + 100000 z_1_6 + 100000 z_1_7 <= 302177.20196787949
 c3223: 120 p_1_1 + 120 p_1_5 + 120 p_1_6 + 120 p_1_7 + 100000 z_1_1 + 100000 z_1_5 + 100000 z_1_6 + 100000 z_1_7 <= 402174.55212142156
 c3224: 120 p_1_2 + 120 p_1_5 + 120 p_1_6 + 120 p_1_7 + 100000 z_1_2 + 100000 z_1_5 + 100000 z_1_6 + 100000 z_1_7 <= 402175.55156025122
 c3225: 120 p_1_1 + 120 p_1_2 + 120 p_1_5 + 120 p_1_6 + 120 p_1_7 + 100000 z_1_1 + 100000 z_1_2 + 100000 z_1_5 + 100000 z_1_6 + 100000 z_1_7 <= 502172.90171379334
 c3226: 120 p_1_3 + 120 p_1_5 + 120 p_1_6 + 120 p_1_7 + 100000 z_1_3 + 100000 z_1_5 + 100000 z_1_6 + 100000 z_1_7 <= 402115.43637411372
 c3227: 120 p_1_1 + 120 p_1_3 + 120 p_1_5 + 120 p_1_6 + 120 p_1_7 + 100000 z_1_1 + 100000 z_1_3 + 100000 z_1_5 + 100000 z_1_6 + 100000 z_1_7 <= 502112.78652765584
 c3228: 120 p_1_2 + 120 p_1_3 + 120 p_1_5 + 120 p_1_6 + 120 p_1_7 + 100000 z_1_2 + 100000 z_1_3 + 100000 z_1_5 + 100000 z_1_6 + 100000 z_1_7 <= 502113.78596648551
 c3229: 120 p_1_1 + 120 p_1_2 + 120 p_1_3 + 120 p_1_5 + 120 p_1_6 + 120 p_1_7 + 100000 z_1_1 + 100000 z_1_2 + 100000 z_1_3 + 100000 z_1_5 + 100000 z_1_6 + 100000 z_1_7 <= 602111.13612002763
 c3230: 120 p_1_4 + 120 p_1_5 + 120 p_1_6 + 120 p_1_7 + 100000 z_1_4 + 100000 z_1_5 + 100000 z_1_6 + 100000 z_1_7 <= 402176.87665735331
 c3231: 120 p_1_1 + 120 p_1_4 + 120 p_1_5 + 120 p_1_6 + 120 p_1_7 + 100000 z_1_1 + 100000 z_1_4 + 100000 z_1_5 + 100000 z_1_6 + 100000 z_1_7 <= 502170.1991953344
 c3232: 120 p_1_2 + 120 p_1_4 + 120 p_1_5 + 120 p_1_6 + 120 p_1_7 + 100000 z_1_2 + 100000 z_1_4 + 100000 z_1_5 + 100000 z_1_6 + 100000 z_1_7 <= 502175.22624972503
 c3233: 120 p_1_1 + 120 p_1_2 + 120 p_1_4 + 120 p_1_5 + 120 p_1_6 + 120 p_1_7 + 100000 z_1_1 + 100000 z_1_2 + 100000 z_1_4 + 100000 z_1_5 + 100000 z_1_6 + 100000 z_1_7 <= 602168.54878770618
 c3234: 120 p_1_3 + 120 p_1_4 + 120 p_1_5 + 120 p_1_6 + 120 p_1_7 + 100000 z_1_3 + 100000 z_1_4 + 100000 z_1_5 + 100000 z_1_6 + 100000 z_1_7 <= 502115.11106358754
 c3235: 120 p_1_1 + 120 p_1_3 + 120 p_1_4 + 120 p_1_5 + 120 p_1_6 + 120 p_1_7 + 100000 z_1_1 + 100000 z_1_3 + 100000 z_1_4 + 100000 z_1_5 + 100000 z_1_6 + 100000 z_1_7 <= 602105.42418445763
 c3236: 120 p_1_2 + 120 p_1_3 + 120 p_1_4 + 120 p_1_5 + 120 p_1_6 + 120 p_1_7 + 100000 z_1_2 + 100000 z_1_3 + 100000 z_1_4 + 100000 z_1_5 + 100000 z_1_6 + 100000 z_1_7 <= 602113.46065595932
 c3237: 120 p_1_1 + 120 p_1_2 + 120 p_1_3 + 120 p_1_4 + 120 p_1_5 + 120 p_1_6 + 120 p_1_7 + 100000 z_1_1 + 100000 z_1_2 + 100000 z_1_3 + 100000 z_1_4 + 100000 z_1_5 + 100000 z_1_6 + 100000 z_1_7 <= 702103.77377682936
 c3238: 120 p_1_8 + 100000 z_1_8 <= 103126.19759585442
 c3239: 120 p_1_1 + 120 p_1_8 + 100000 z_1_1 + 100000 z_1_8 <= 202733.74345621432
 c3240: 120 p_1_2 + 120 p_1_8 + 100000 z_1_2 + 100000 z_1_8 <= 203124.66059505907
 c3241: 120 p_1_1 + 120 p_1_2 + 120 p_1_8 + 100000 z_1_1 + 100000 z_1_2 + 100000 z_1_8 <= 302732.20645541901
 c3242: 120 p_1_3 + 120 p_1_8 + 100000 z_1_3 + 100000 z_1_8 <= 202596.84862379832
 c3243: 120 p_1_1 + 120 p_1_3 + 120 p_1_8 + 100000 z_1_1 + 100000 z_1_3 + 100000 z_1_8 <= 302216.20131008921
 c3244: 120 p_1_2 + 120 p_1_3 + 120 p_1_8 + 100000 z_1_2 + 100000 z_1_3 + 100000 z_1_8 <= 302595.31162300298
 c3245: 120 p_1_1 + 120 p_1_2 + 120 p_1_3 + 120 p_1_8 + 100000 z_1_1 + 100000 z_1_2 + 100000 z_1_3 + 100000 z_1_8 <= 402214.6643092939
 c3246: 120 p_1_4 + 120 p_1_8 + 100000 z_1_4 + 100000 z_1_8 <= 202667.50832256005
 c3247: 120 p_1_1 + 120 p_1_4 + 120 p_1_8 + 100000 z_1_1 + 100000 z_1_4 + 100000 z_1_8 <= 302666.71799247956
 c3248: 120 p_1_2 + 120 p_1_4 + 120 p_1_8 + 100000 z_1_2 + 100000 z_1_4 + 100000 z_1_8 <= 302665.97132176469
 c3249: 120 p_1_1 + 120 p_1_2 + 120 p_1_4 + 120 p_1_8 + 100000 z_1_1 + 100000 z_1_2 + 100000 z_1_4 + 100000 z_1_8 <= 402665.1809916842
 c3250: 120 p_1_3 + 120 p_1_4 + 120 p_1_8 + 100000 z_1_3 + 100000 z_1_4 + 100000 z_1_8 <= 302169.62791669508
 c3251: 120 p_1_1 + 120 p_1_3 + 120 p_1_4 + 120 p_1_8 + 100000 z_1_1 + 100000 z_1_3 + 100000 z_1_4 + 100000 z_1_8 <= 402168.83758661459
 c3252: 120 p_1_2 + 120 p_1_3 + 120 p_1_4 + 120 p_1_8 + 100000 z_1_2 + 100000 z_1_3 + 100000 z_1_4 + 100000 z_1_8 <= 402168.09091589978
 c3253: 120 p_1_1 + 120 p_1_2 + 120 p_1_3 + 120 p_1_4 + 120 p_1_8 + 100000 z_1_1 + 100000 z_1_2 + 100000 z_1_3 + 100000 z_1_4 + 100000 z_1_8 <= 502167.30058581929
 c3254: 120 p_1_5 + 120 p_1_8 + 100000 z_1_5 + 100000 z_1_8 <= 203113.73759144841
 c3255: 120 p_1_1 + 120 p_1_5 + 120 p_1_8 + 100000 z_1_1 + 100000 z_1_5 + 100000 z_1_8 <= 302721.28345180833
 c3256: 120 p_1_2 + 120 p_1_5 + 120 p_1_8 + 100000 z_1_2 + 100000 z_1_5 + 100000 z_1_8 <= 303112.20059065311
 c3257: 120 p_1_1 + 120 p_1_2 + 120 p_1_5 + 120 p_1_8 + 100000 z_1_1 + 100000 z_1_2 + 100000 z_1_5 + 100000 z_1_8 <= 402719.63304418005
 c3258: 120 p_1_3 + 120 p_1_5 + 120 p_1_8 + 100000 z_1_3 + 100000 z_1_5 + 100000 z_1_8 <= 302596.40111788205
 c3259: 120 p_1_1 + 120 p_1_3 + 120 p_1_5 + 120 p_1_8 + 100000 z_1_1 + 100000 z_1_3 + 100000 z_1_5 + 100000 z_1_8 <= 402203.94697824196
 c3260: 120 p_1_2 + 120 p_1_3 + 120 p_1_5 + 120 p_1_8 + 100000 z_1_2 + 100000 z_1_3 + 100000 z_1_5 + 100000 z_1_8 <= 402594.86411708675
 c3261: 120 p_1_1 + 120 p_1_2 + 120 p_1_3 + 120 p_1_5 + 120 p_1_8 + 100000 z_1_1 + 100000 z_1_2 + 100000 z_1_3 + 100000 z_1_5 + 100000 z_1_8 <= 502202.09089805494
 c3262: 120 p_1_4 + 120 p_1_5 + 120 p_1_8 + 100000 z_1_4 + 100000 z_1_5 + 100000 z_1_8 <= 302655.04831815406
 c3263: 120 p_1_1 + 120 p_1_4 + 120 p_1_5 + 120 p_1_8 + 100000 z_1_1 + 100000 z_1_4 + 100000 z_1_5 + 100000 z_1_8 <= 402654.25798807357
 c3264: 120 p_1_2 + 120 p_1_4 + 120 p_1_5 + 120 p_1_8 + 100000 z_1_2 + 100000 z_1_4 + 100000 z_1_5 + 100000 z_1_8 <= 402653.39791052579
 c3265: 120 p_1_1 + 120 p_1_2 + 120 p_1_4 + 120 p_1_5 + 120 p_1_8 + 100000 z_1_1 + 100000 z_1_2 + 100000 z_1_4 + 100000 z_1_5 + 100000 z_1_8 <= 502652.6075804453
 c3266: 120 p_1_3 + 120 p_1_4 + 120 p_1_5 + 120 p_1_8 + 100000 z_1_3 + 100000 z_1_4 + 100000 z_1_5 + 100000 z_1_8 <= 402161.45210948569
 c3267: 120 p_1_1 + 120 p_1_3 + 120 p_1_4 + 120 p_1_5 + 120 p_1_8 + 100000 z_1_1 + 100000 z_1_3 + 100000 z_1_4 + 100000 z_1_5 + 100000 z_1_8 <= 502156.3775822086
 c3268: 120 p_1_2 + 120 p_1_3 + 120 p_1_4 + 120 p_1_5 + 120 p_1_8 + 100000 z_1_2 + 100000 z_1_3 + 100000 z_1_4 + 100000 z_1_5 + 100000 z_1_8 <= 502159.91510869033
 c3269: 120 p_1_1 + 120 p_1_2 + 120 p_1_3 + 120 p_1_4 + 120 p_1_5 + 120 p_1_8 + 100000 z_1_1 + 100000 z_1_2 + 100000 z_1_3 + 100000 z_1_4 + 100000 z_1_5 + 100000 z_1_8 <= 602154.72717458033
 c3270: 120 p_1_6 + 120 p_1_8 + 100000 z_1_6 + 100000 z_1_8 <= 202683.07936424908
 c3271: 120 p_1_1 + 120 p_1_6 + 120 p_1_8 + 100000 z_1_1 + 100000 z_1_6 + 100000 z_1_8 <= 302290.62522460899
 c3272: 120 p_1_2 + 120 p_1_6 + 120 p_1_8 + 100000 z_1_2 + 100000 z_1_6 + 100000 z_1_8 <= 302681.54236345371
 c3273: 120 p_1_1 + 120 p_1_2 + 120 p_1_6 + 120 p_1_8 + 100000 z_1_1 + 100000 z_1_2 + 100000 z_1_6 + 100000 z_1_8 <= 402282.0101709197
 c3274: 120 p_1_3 + 120 p_1_6 + 120 p_1_8 + 100000 z_1_3 + 100000 z_1_6 + 100000 z_1_8 <= 302592.6721061375
 c3275: 120 p_1_1 + 120 p_1_3 + 120 p_1_6 + 120 p_1_8 + 100000 z_1_1 + 100000 z_1_3 + 100000 z_1_6 + 100000 z_1_8 <= 402200.21796649735
 c3276: 120 p_1_2 + 120 p_1_3 + 120 p_1_6 + 120 p_1_8 + 100000 z_1_2 + 100000 z_1_3 + 100000 z_1_6 + 100000 z_1_8 <= 402591.13510534214
 c3277: 120 p_1_1 + 120 p_1_2 + 120 p_1_3 + 120 p_1_6 + 120 p_1_8 + 100000 z_1_1 + 100000 z_1_2 + 100000 z_1_3 + 100000 z_1_6 + 100000 z_1_8 <= 502195.48312644981
 c3278: 120 p_1_4 + 120 p_1_6 + 120 p_1_8 + 100000 z_1_4 + 100000 z_1_6 + 100000 z_1_8 <= 302224.39009095472
 c3279: 120 p_1_1 + 120 p_1_4 + 120 p_1_6 + 120 p_1_8 + 100000 z_1_1 + 100000 z_1_4 + 100000 z_1_6 + 100000 z_1_8 <= 402223.59976087423
 c3280: 120 p_1_2 + 120 p_1_4 + 120 p_1_6 + 120 p_1_8 + 100000 z_1_2 + 100000 z_1_4 + 100000 z_1_6 + 100000 z_1_8 <= 402220.96110782248
 c3281: 120 p_1_1 + 120 p_1_2 + 120 p_1_4 + 120 p_1_6 + 120 p_1_8 + 100000 z_1_1 + 100000 z_1_2 + 100000 z_1_4 + 100000 z_1_6 + 100000 z_1_8 <= 502214.98470718495
 c3282: 120 p_1_3 + 120 p_1_4 + 120 p_1_6 + 120 p_1_8 + 100000 z_1_3 + 100000 z_1_4 + 100000 z_1_6 + 100000 z_1_8 <= 402157.72309774108
 c3283: 120 p_1_1 + 120 p_1_3 + 120 p_1_4 + 120 p_1_6 + 120 p_1_8 + 100000 z_1_1 + 100000 z_1_3 + 100000 z_1_4 + 100000 z_1_6 + 100000 z_1_8 <= 502149.6564037705
 c3284: 120 p_1_2 + 120 p_1_3 + 120 p_1_4 + 120 p_1_6 + 120 p_1_8 + 100000 z_1_2 + 100000 z_1_3 + 100000 z_1_4 + 100000 z_1_6 + 100000 z_1_8 <= 502156.18609694578
 c3285: 120 p_1_1 + 120 p_1_2 + 120 p_1_3 + 120 p_1_4 + 120 p_1_6 + 120 p_1_8 + 100000 z_1_1 + 100000 z_1_2 + 100000 z_1_3 + 100000 z_1_4 + 100000 z_1_6 + 100000 z_1_8 <= 602148.11940297519
 c3286: 120 p_1_5 + 120 p_1_6 + 120 p_1_8 + 100000 z_1_5 + 100000 z_1_6 + 100000 z_1_8 <= 302682.89710730757
 c3287: 120 p_1_1 + 120 p_1_5 + 120 p_1_6 + 120 p_1_8 + 100000 z_1_1 + 100000 z_1_5 + 100000 z_1_6 + 100000 z_1_8 <= 402290.44296766748
 c3288: 120 p_1_2 + 120 p_1_5 + 120 p_1_6 + 120 p_1_8 + 100000 z_1_2 + 100000 z_1_5 + 100000 z_1_6 + 100000 z_1_8 <= 402681.36010651221
 c3289: 120 p_1_1 + 120 p_1_2 + 120 p_1_5 + 120 p_1_6 + 120 p_1_8 + 100000 z_1_1 + 100000 z_1_2 + 100000 z_1_5 + 100000 z_1_6 + 100000 z_1_8 <= 502269.4367596808
 c3290: 120 p_1_3 + 120 p_1_5 + 120 p_1_6 + 120 p_1_8 + 100000 z_1_3 + 100000 z_1_5 + 100000 z_1_6 + 100000 z_1_8 <= 402592.48984919599
 c3291: 120 p_1_1 + 120 p_1_3 + 120 p_1_5 + 120 p_1_6 + 120 p_1_8 + 100000 z_1_1 + 100000 z_1_3 + 100000 z_1_5 + 100000 z_1_6 + 100000 z_1_8 <= 502200.03570955584
 c3292: 120 p_1_2 + 120 p_1_3 + 120 p_1_5 + 120 p_1_6 + 120 p_1_8 + 100000 z_1_2 + 100000 z_1_3 + 100000 z_1_5 + 100000 z_1_6 + 100000 z_1_8 <= 502590.95284840063
 c3293: 120 p_1_1 + 120 p_1_2 + 120 p_1_3 + 120 p_1_5 + 120 p_1_6 + 120 p_1_8 + 100000 z_1_1 + 100000 z_1_2 + 100000 z_1_3 + 100000 z_1_5 + 100000 z_1_6 + 100000 z_1_8 <= 602193.42661624239
 c3294: 120 p_1_4 + 120 p_1_5 + 120 p_1_6 + 120 p_1_8 + 100000 z_1_4 + 100000 z_1_5 + 100000 z_1_6 + 100000 z_1_8 <= 402224.20783401321
 c3295: 120 p_1_1 + 120 p_1_4 + 120 p_1_5 + 120 p_1_6 + 120 p_1_8 + 100000 z_1_1 + 100000 z_1_4 + 100000 z_1_5 + 100000 z_1_6 + 100000 z_1_8 <= 502223.41750393272
 c3296: 120 p_1_2 + 120 p_1_4 + 120 p_1_5 + 120 p_1_6 + 120 p_1_8 + 100000 z_1_2 + 100000 z_1_4 + 100000 z_1_5 + 100000 z_1_6 + 100000 z_1_8 <= 502220.77885088098
 c3297: 120 p_1_1 + 120 p_1_2 + 120 p_1_4 + 120 p_1_5 + 120 p_1_6 + 120 p_1_8 + 100000 z_1_1 + 100000 z_1_2 + 100000 z_1_4 + 100000 z_1_5 + 100000 z_1_6 + 100000 z_1_8 <= 602210.83790364454
 c3298: 120 p_1_3 + 120 p_1_4 + 120 p_1_5 + 120 p_1_6 + 120 p_1_8 + 100000 z_1_3 + 100000 z_1_4 + 100000 z_1_5 + 100000 z_1_6 + 100000 z_1_8 <= 502157.54084079957
 c3299: 120 p_1_1 + 120 p_1_3 + 120 p_1_4 + 120 p_1_5 + 120 p_1_6 + 120 p_1_8 + 100000 z_1_1 + 100000 z_1_3 + 100000 z_1_4 + 100000 z_1_5 + 100000 z_1_6 + 100000 z_1_8 <= 602147.59989356308
 c3300: 120 p_1_2 + 120 p_1_3 + 120 p_1_4 + 120 p_1_5 + 120 p_1_6 + 120 p_1_8 + 100000 z_1_2 + 100000 z_1_3 + 100000 z_1_4 + 100000 z_1_5 + 100000 z_1_6 + 100000 z_1_8 <= 602156.00384000421
 c3301: 120 p_1_1 + 120 p_1_2 + 120 p_1_3 + 120 p_1_4 + 120 p_1_5 + 120 p_1_6 + 120 p_1_8 + 100000 z_1_1 + 100000 z_1_2 + 100000 z_1_3 + 100000 z_1_4 + 100000 z_1_5 + 100000 z_1_6 + 100000 z_1_8 <= 702146.06289276772
 c3302: 120 p_1_7 + 120 p_1_8 + 100000 z_1_7 + 100000 z_1_8 <= 202542.99068371538
 c3303: 120 p_1_1 + 120 p_1_7 + 120 p_1_8 + 100000 z_1_1 + 100000 z_1_7 + 100000 z_1_8 <= 302540.34083725751
 c3304: 120 p_1_2 + 120 p_1_7 + 120 p_1_8 + 100000 z_1_2 + 100000 z_1_7 + 100000 z_1_8 <= 302541.45368292008
 c3305: 120 p_1_1 + 120 p_1_2 + 120 p_1_7 + 120 p_1_8 + 100000 z_1_1 + 100000 z_1_2 + 100000 z_1_7 + 100000 z_1_8 <= 402538.80383646215
 c3306: 120 p_1_3 + 120 p_1_7 + 120 p_1_8 + 100000 z_1_3 + 100000 z_1_7 + 100000 z_1_8 <= 302052.14731052244
 c3307: 120 p_1_1 + 120 p_1_3 + 120 p_1_7 + 120 p_1_8 + 100000 z_1_1 + 100000 z_1_3 + 100000 z_1_7 + 100000 z_1_8 <= 402048.62816584262
 c3308: 120 p_1_2 + 120 p_1_3 + 120 p_1_7 + 120 p_1_8 + 100000 z_1_2 + 100000 z_1_3 + 100000 z_1_7 + 100000 z_1_8 <= 402050.61030972714
 c3309: 120 p_1_1 + 120 p_1_2 + 120 p_1_3 + 120 p_1_7 + 120 p_1_8 + 100000 z_1_1 + 100000 z_1_2 + 100000 z_1_3 + 100000 z_1_7 + 100000 z_1_8 <= 502047.09116504731
 c3310: 120 p_1_4 + 120 p_1_7 + 120 p_1_8 + 100000 z_1_4 + 100000 z_1_7 + 100000 z_1_8 <= 302542.6653731892
 c3311: 120 p_1_1 + 120 p_1_4 + 120 p_1_7 + 120 p_1_8 + 100000 z_1_1 + 100000 z_1_4 + 100000 z_1_7 + 100000 z_1_8 <= 402539.14622850937
 c3312: 120 p_1_2 + 120 p_1_4 + 120 p_1_7 + 120 p_1_8 + 100000 z_1_2 + 100000 z_1_4 + 100000 z_1_7 + 100000 z_1_8 <= 402541.1283723939
 c3313: 120 p_1_1 + 120 p_1_2 + 120 p_1_4 + 120 p_1_7 + 120 p_1_8 + 100000 z_1_1 + 100000 z_1_2 + 100000 z_1_4 + 100000 z_1_7 + 100000 z_1_8 <= 502537.60922771401
 c3314: 120 p_1_3 + 120 p_1_4 + 120 p_1_7 + 120 p_1_8 + 100000 z_1_3 + 100000 z_1_4 + 100000 z_1_7 + 100000 z_1_8 <= 402044.78496732423
 c3315: 120 p_1_1 + 120 p_1_3 + 120 p_1_4 + 120 p_1_7 + 120 p_1_8 + 100000 z_1_1 + 100000 z_1_3 + 100000 z_1_4 + 100000 z_1_7 + 100000 z_1_8 <= 502041.2658226444
 c3316: 120 p_1_2 + 120 p_1_3 + 120 p_1_4 + 120 p_1_7 + 120 p_1_8 + 100000 z_1_2 + 100000 z_1_3 + 100000 z_1_4 + 100000 z_1_7 + 100000 z_1_8 <= 502043.24796652893
 c3317: 120 p_1_1 + 120 p_1_2 + 120 p_1_3 + 120 p_1_4 + 120 p_1_7 + 120 p_1_8 + 100000 z_1_1 + 100000 z_1_2 + 100000 z_1_3 + 100000 z_1_4 + 100000 z_1_7 + 100000 z_1_8 <= 602039.7288218491
 c3318: 120 p_1_5 + 120 p_1_7 + 120 p_1_8 + 100000 z_1_5 + 100000 z_1_7 + 100000 z_1_8 <= 302530.53067930939
 c3319: 120 p_1_1 + 120 p_1_5 + 120 p_1_7 + 120 p_1_8 + 100000 z_1_1 + 100000 z_1_5 + 100000 z_1_7 + 100000 z_1_8 <= 402527.88083285152
 c3320: 120 p_1_2 + 120 p_1_5 + 120 p_1_7 + 120 p_1_8 + 100000 z_1_2 + 100000 z_1_5 + 100000 z_1_7 + 100000 z_1_8 <= 402528.88027168112
 c3321: 120 p_1_1 + 120 p_1_2 + 120 p_1_5 + 120 p_1_7 + 120 p_1_8 + 100000 z_1_1 + 100000 z_1_2 + 100000 z_1_5 + 100000 z_1_7 + 100000 z_1_8 <= 502526.23042522324
 c3322: 120 p_1_3 + 120 p_1_5 + 120 p_1_7 + 120 p_1_8 + 100000 z_1_3 + 100000 z_1_5 + 100000 z_1_7 + 100000 z_1_8 <= 402039.68730611645
 c3323: 120 p_1_1 + 120 p_1_3 + 120 p_1_5 + 120 p_1_7 + 120 p_1_8 + 100000 z_1_1 + 100000 z_1_3 + 100000 z_1_5 + 100000 z_1_7 + 100000 z_1_8 <= 502036.16816143662
 c3324: 120 p_1_2 + 120 p_1_3 + 120 p_1_5 + 120 p_1_7 + 120 p_1_8 + 100000 z_1_2 + 100000 z_1_3 + 100000 z_1_5 + 100000 z_1_7 + 100000 z_1_8 <= 502038.03689848818
 c3325: 120 p_1_1 + 120 p_1_2 + 120 p_1_3 + 120 p_1_5 + 120 p_1_7 + 120 p_1_8 + 100000 z_1_1 + 100000 z_1_2 + 100000 z_1_3 + 100000 z_1_5 + 100000 z_1_7 + 100000 z_1_8 <= 602034.51775380841
 c3326: 120 p_1_4 + 120 p_1_5 + 120 p_1_7 + 120 p_1_8 + 100000 z_1_4 + 100000 z_1_5 + 100000 z_1_7 + 100000 z_1_8 <= 402530.20536878321
 c3327: 120 p_1_1 + 120 p_1_4 + 120 p_1_5 + 120 p_1_7 + 120 p_1_8 + 100000 z_1_1 + 100000 z_1_4 + 100000 z_1_5 + 100000 z_1_7 + 100000 z_1_8 <= 502526.68622410338
 c3328: 120 p_1_2 + 120 p_1_4 + 120 p_1_5 + 120 p_1_7 + 120 p_1_8 + 100000 z_1_2 + 100000 z_1_4 + 100000 z_1_5 + 100000 z_1_7 + 100000 z_1_8 <= 502528.55496115494
 c3329: 120 p_1_1 + 120 p_1_2 + 120 p_1_4 + 120 p_1_5 + 120 p_1_7 + 120 p_1_8 + 100000 z_1_1 + 100000 z_1_2 + 100000 z_1_4 + 100000 z_1_5 + 100000 z_1_7 + 100000 z_1_8 <= 602525.03581647517
 c3330: 120 p_1_3 + 120 p_1_4 + 120 p_1_5 + 120 p_1_7 + 120 p_1_8 + 100000 z_1_3 + 100000 z_1_4 + 100000 z_1_5 + 100000 z_1_7 + 100000 z_1_8 <= 502033.62627740891
 c3331: 120 p_1_1 + 120 p_1_3 + 120 p_1_4 + 120 p_1_5 + 120 p_1_7 + 120 p_1_8 + 100000 z_1_1 + 100000 z_1_3 + 100000 z_1_4 + 100000 z_1_5 + 100000 z_1_7 + 100000 z_1_8 <= 602028.80581823841
 c3332: 120 p_1_2 + 120 p_1_3 + 120 p_1_4 + 120 p_1_5 + 120 p_1_7 + 120 p_1_8 + 100000 z_1_2 + 100000 z_1_3 + 100000 z_1_4 + 100000 z_1_5 + 100000 z_1_7 + 100000 z_1_8 <= 602032.08927661355
 c3333: 120 p_1_1 + 120 p_1_2 + 120 p_1_3 + 120 p_1_4 + 120 p_1_5 + 120 p_1_7 + 120 p_1_8 + 100000 z_1_1 + 100000 z_1_2 + 100000 z_1_3 + 100000 z_1_4 + 100000 z_1_5 + 100000 z_1_7 + 100000 z_1_8 <= 702027.15541061014
 c3334: 120 p_1_6 + 120 p_1_7 + 120 p_1_8 + 100000 z_1_6 + 100000 z_1_7 + 100000 z_1_8 <= 302099.87245211005
 c3335: 120 p_1_1 + 120 p_1_6 + 120 p_1_7 + 120 p_1_8 + 100000 z_1_1 + 100000 z_1_6 + 100000 z_1_7 + 100000 z_1_8 <= 402097.22260565218
 c3336: 120 p_1_2 + 120 p_1_6 + 120 p_1_7 + 120 p_1_8 + 100000 z_1_2 + 100000 z_1_6 + 100000 z_1_7 + 100000 z_1_8 <= 402093.19472064875
 c3337: 120 p_1_1 + 120 p_1_2 + 120 p_1_6 + 120 p_1_7 + 120 p_1_8 + 100000 z_1_1 + 100000 z_1_2 + 100000 z_1_6 + 100000 z_1_7 + 100000 z_1_8 <= 502089.67557596893
 c3338: 120 p_1_3 + 120 p_1_6 + 120 p_1_7 + 120 p_1_8 + 100000 z_1_3 + 100000 z_1_6 + 100000 z_1_7 + 100000 z_1_8 <= 402032.96612767834
 c3339: 120 p_1_1 + 120 p_1_3 + 120 p_1_6 + 120 p_1_7 + 120 p_1_8 + 100000 z_1_1 + 100000 z_1_3 + 100000 z_1_6 + 100000 z_1_7 + 100000 z_1_8 <= 502029.44698299852
 c3340: 120 p_1_2 + 120 p_1_3 + 120 p_1_6 + 120 p_1_7 + 120 p_1_8 + 100000 z_1_2 + 100000 z_1_3 + 100000 z_1_6 + 100000 z_1_7 + 100000 z_1_8 <= 502031.42912688304
 c3341: 120 p_1_1 + 120 p_1_2 + 120 p_1_3 + 120 p_1_6 + 120 p_1_7 + 120 p_1_8 + 100000 z_1_1 + 100000 z_1_2 + 100000 z_1_3 + 100000 z_1_6 + 100000 z_1_7 + 100000 z_1_8 <= 602027.90998220316
 c3342: 120 p_1_4 + 120 p_1_6 + 120 p_1_7 + 120 p_1_8 + 100000 z_1_4 + 100000 z_1_6 + 100000 z_1_7 + 100000 z_1_8 <= 402099.54714158387
 c3343: 120 p_1_1 + 120 p_1_4 + 120 p_1_6 + 120 p_1_7 + 120 p_1_8 + 100000 z_1_1 + 100000 z_1_4 + 100000 z_1_6 + 100000 z_1_7 + 100000 z_1_8 <= 502096.02799690404
 c3344: 120 p_1_2 + 120 p_1_4 + 120 p_1_6 + 120 p_1_7 + 120 p_1_8 + 100000 z_1_2 + 100000 z_1_4 + 100000 z_1_6 + 100000 z_1_7 + 100000 z_1_8 <= 502090.93208789459
 c3345: 120 p_1_1 + 120 p_1_2 + 120 p_1_4 + 120 p_1_6 + 120 p_1_7 + 120 p_1_8 + 100000 z_1_1 + 100000 z_1_2 + 100000 z_1_4 + 100000 z_1_6 + 100000 z_1_7 + 100000 z_1_8 <= 602087.41294321476
 c3346: 120 p_1_3 + 120 p_1_4 + 120 p_1_6 + 120 p_1_7 + 120 p_1_8 + 100000 z_1_3 + 100000 z_1_4 + 100000 z_1_6 + 100000 z_1_7 + 100000 z_1_8 <= 502029.8972656643
 c3347: 120 p_1_1 + 120 p_1_3 + 120 p_1_4 + 120 p_1_6 + 120 p_1_7 + 120 p_1_8 + 100000 z_1_1 + 100000 z_1_3 + 100000 z_1_4 + 100000 z_1_6 + 100000 z_1_7 + 100000 z_1_8 <= 602022.08463980036
 c3348: 120 p_1_2 + 120 p_1_3 + 120 p_1_4 + 120 p_1_6 + 120 p_1_7 + 120 p_1_8 + 100000 z_1_2 + 100000 z_1_3 + 100000 z_1_4 + 100000 z_1_6 + 100000 z_1_7 + 100000 z_1_8 <= 602028.36026486894
 c3349: 120 p_1_1 + 120 p_1_2 + 120 p_1_3 + 120 p_1_4 + 120 p_1_6 + 120 p_1_7 + 120 p_1_8 + 100000 z_1_1 + 100000 z_1_2 + 100000 z_1_3 + 100000 z_1_4 + 100000 z_1_6 + 100000 z_1_7 + 100000 z_1_8 <= 702020.547639005
 c3350: 120 p_1_5 + 120 p_1_6 + 120 p_1_7 + 120 p_1_8 + 100000 z_1_5 + 100000 z_1_6 + 100000 z_1_7 + 100000 z_1_8 <= 402099.69019516854
 c3351: 120 p_1_1 + 120 p_1_5 + 120 p_1_6 + 120 p_1_7 + 120 p_1_8 + 100000 z_1_1 + 100000 z_1_5 + 100000 z_1_6 + 100000 z_1_7 + 100000 z_1_8 <= 502097.04034871067
 c3352: 120 p_1_2 + 120 p_1_5 + 120 p_1_6 + 120 p_1_7 + 120 p_1_8 + 100000 z_1_2 + 100000 z_1_5 + 100000 z_1_6 + 100000 z_1_7 + 100000 z_1_8 <= 502090.26891221938
 c3353: 120 p_1_1 + 120 p_1_2 + 120 p_1_5 + 120 p_1_6 + 120 p_1_7 + 120 p_1_8 + 100000 z_1_1 + 100000 z_1_2 + 100000 z_1_5 + 100000 z_1_6 + 100000 z_1_7 + 100000 z_1_8 <= 602087.61906576145
 c3354: 120 p_1_3 + 120 p_1_5 + 120 p_1_6 + 120 p_1_7 + 120 p_1_8 + 100000 z_1_3 + 100000 z_1_5 + 100000 z_1_6 + 100000 z_1_7 + 100000 z_1_8 <= 502030.04031924898
 c3355: 120 p_1_1 + 120 p_1_3 + 120 p_1_5 + 120 p_1_6 + 120 p_1_7 + 120 p_1_8 + 100000 z_1_1 + 100000 z_1_3 + 100000 z_1_5 + 100000 z_1_6 + 100000 z_1_7 + 100000 z_1_8 <= 602027.39047279104
 c3356: 120 p_1_2 + 120 p_1_3 + 120 p_1_5 + 120 p_1_6 + 120 p_1_7 + 120 p_1_8 + 100000 z_1_2 + 100000 z_1_3 + 100000 z_1_5 + 100000 z_1_6 + 100000 z_1_7 + 100000 z_1_8 <= 602028.50331845367
 c3357: 120 p_1_1 + 120 p_1_2 + 120 p_1_3 + 120 p_1_5 + 120 p_1_6 + 120 p_1_7 + 120 p_1_8 + 100000 z_1_1 + 100000 z_1_2 + 100000 z_1_3 + 100000 z_1_5 + 100000 z_1_6 + 100000 z_1_7 + 100000 z_1_8 <= 702025.8534719958
 c3358: 120 p_1_4 + 120 p_1_5 + 120 p_1_6 + 120 p_1_7 + 120 p_1_8 + 100000 z_1_4 + 100000 z_1_5 + 100000 z_1_6 + 100000 z_1_7 + 100000 z_1_8 <= 502099.36488464236
 c3359: 120 p_1_1 + 120 p_1_4 + 120 p_1_5 + 120 p_1_6 + 120 p_1_7 + 120 p_1_8 + 100000 z_1_1 + 100000 z_1_4 + 100000 z_1_5 + 100000 z_1_6 + 100000 z_1_7 + 100000 z_1_8 <= 602095.84573996253
 c3360: 120 p_1_2 + 120 p_1_4 + 120 p_1_5 + 120 p_1_6 + 120 p_1_7 + 120 p_1_8 + 100000 z_1_2 + 100000 z_1_4 + 100000 z_1_5 + 100000 z_1_6 + 100000 z_1_7 + 100000 z_1_8 <= 602089.94360169326
 c3361: 120 p_1_1 + 120 p_1_2 + 120 p_1_4 + 120 p_1_5 + 120 p_1_6 + 120 p_1_7 + 120 p_1_8 + 100000 z_1_1 + 100000 z_1_2 + 100000 z_1_4 + 100000 z_1_5 + 100000 z_1_6 + 100000 z_1_7 + 100000 z_1_8 <= 702083.26613967435
 c3362: 120 p_1_3 + 120 p_1_4 + 120 p_1_5 + 120 p_1_6 + 120 p_1_7 + 120 p_1_8 + 100000 z_1_3 + 100000 z_1_4 + 100000 z_1_5 + 100000 z_1_6 + 100000 z_1_7 + 100000 z_1_8 <= 602029.71500872285
 c3363: 120 p_1_1 + 120 p_1_3 + 120 p_1_4 + 120 p_1_5 + 120 p_1_6 + 120 p_1_7 + 120 p_1_8 + 100000 z_1_1 + 100000 z_1_3 + 100000 z_1_4 + 100000 z_1_5 + 100000 z_1_6 + 100000 z_1_7 + 100000 z_1_8 <= 702020.02812959289
 c3364: 120 p_1_2 + 120 p_1_3 + 120 p_1_4 + 120 p_1_5 + 120 p_1_6 + 120 p_1_7 + 120 p_1_8 + 100000 z_1_2 + 100000 z_1_3 + 100000 z_1_4 + 100000 z_1_5 + 100000 z_1_6 + 100000 z_1_7 + 100000 z_1_8 <= 702028.17800792749
 c3365: 120 p_1_1 + 120 p_1_2 + 120 p_1_3 + 120 p_1_4 + 120 p_1_5 + 120 p_1_6 + 120 p_1_7 + 120 p_1_8 + 100000 z_1_1 + 100000 z_1_2 + 100000 z_1_3 + 100000 z_1_4 + 100000 z_1_5 + 100000 z_1_6 + 100000 z_1_7 + 100000 z_1_8 <= 802018.49112879753
 c3366: 120 p_1_9 + 100000 z_1_9 <= 103087.59928019982
 c3367: 120 p_1_1 + 120 p_1_9 + 100000 z_1_1 + 100000 z_1_9 <= 202651.01774004567
 c3368: 120 p_1_2 + 120 p_1_9 + 100000 z_1_2 + 100000 z_1_9 <= 202860.30036337071
 c3369: 120 p_1_1 + 120 p_1_2 + 120 p_1_9 + 100000 z_1_1 + 100000 z_1_2 + 100000 z_1_9 <= 302444.54820561619
 c3370: 120 p_1_3 + 120 p_1_9 + 100000 z_1_3 + 100000 z_1_9 <= 202951.2610701182
 c3371: 120 p_1_1 + 120 p_1_3 + 120 p_1_9 + 100000 z_1_1 + 100000 z_1_3 + 100000 z_1_9 <= 302553.73483795993
 c3372: 120 p_1_2 + 120 p_1_3 + 120 p_1_9 + 100000 z_1_2 + 100000 z_1_3 + 100000 z_1_9 <= 302723.96215328912
 c3373: 120 p_1_1 + 120 p_1_2 + 120 p_1_3 + 120 p_1_9 + 100000 z_1_1 + 100000 z_1_2 + 100000 z_1_3 + 100000 z_1_9 <= 402326.43592113082
 c3374: 120 p_1_4 + 120 p_1_9 + 100000 z_1_4 + 100000 z_1_9 <= 202605.88473758652
 c3375: 120 p_1_1 + 120 p_1_4 + 120 p_1_9 + 100000 z_1_1 + 100000 z_1_4 + 100000 z_1_9 <= 302595.94379035005
 c3376: 120 p_1_2 + 120 p_1_4 + 120 p_1_9 + 100000 z_1_2 + 100000 z_1_4 + 100000 z_1_9 <= 302379.90193140117
 c3377: 120 p_1_1 + 120 p_1_2 + 120 p_1_4 + 120 p_1_9 + 100000 z_1_1 + 100000 z_1_2 + 100000 z_1_4 + 100000 z_1_9 <= 402377.52274188143
 c3378: 120 p_1_3 + 120 p_1_4 + 120 p_1_9 + 100000 z_1_3 + 100000 z_1_4 + 100000 z_1_9 <= 302516.31206172181
 c3379: 120 p_1_1 + 120 p_1_3 + 120 p_1_4 + 120 p_1_9 + 100000 z_1_1 + 100000 z_1_3 + 100000 z_1_4 + 100000 z_1_9 <= 402506.37111448532
 c3380: 120 p_1_2 + 120 p_1_3 + 120 p_1_4 + 120 p_1_9 + 100000 z_1_2 + 100000 z_1_3 + 100000 z_1_4 + 100000 z_1_9 <= 402289.0131448927
 c3381: 120 p_1_1 + 120 p_1_2 + 120 p_1_3 + 120 p_1_4 + 120 p_1_9 + 100000 z_1_1 + 100000 z_1_2 + 100000 z_1_3 + 100000 z_1_4 + 100000 z_1_9 <= 502279.07219765621
 c3382: 120 p_1_5 + 120 p_1_9 + 100000 z_1_5 + 100000 z_1_9 <= 202797.31590540058
 c3383: 120 p_1_1 + 120 p_1_5 + 120 p_1_9 + 100000 z_1_1 + 100000 z_1_5 + 100000 z_1_9 <= 302382.17464383965
 c3384: 120 p_1_2 + 120 p_1_5 + 120 p_1_9 + 100000 z_1_2 + 100000 z_1_5 + 100000 z_1_9 <= 302795.66549777234
 c3385: 120 p_1_1 + 120 p_1_2 + 120 p_1_5 + 120 p_1_9 + 100000 z_1_1 + 100000 z_1_2 + 100000 z_1_5 + 100000 z_1_9 <= 402379.91334001778
 c3386: 120 p_1_3 + 120 p_1_5 + 120 p_1_9 + 100000 z_1_3 + 100000 z_1_5 + 100000 z_1_9 <= 302660.97769531893
 c3387: 120 p_1_1 + 120 p_1_3 + 120 p_1_5 + 120 p_1_9 + 100000 z_1_1 + 100000 z_1_3 + 100000 z_1_5 + 100000 z_1_9 <= 402263.45146316069
 c3388: 120 p_1_2 + 120 p_1_3 + 120 p_1_5 + 120 p_1_9 + 100000 z_1_2 + 100000 z_1_3 + 100000 z_1_5 + 100000 z_1_9 <= 402659.32728769071
 c3389: 120 p_1_1 + 120 p_1_2 + 120 p_1_3 + 120 p_1_5 + 120 p_1_9 + 100000 z_1_1 + 100000 z_1_2 + 100000 z_1_3 + 100000 z_1_5 + 100000 z_1_9 <= 502261.80105553241
 c3390: 120 p_1_4 + 120 p_1_5 + 120 p_1_9 + 100000 z_1_4 + 100000 z_1_5 + 100000 z_1_9 <= 302317.07912691636
 c3391: 120 p_1_1 + 120 p_1_4 + 120 p_1_5 + 120 p_1_9 + 100000 z_1_1 + 100000 z_1_4 + 100000 z_1_5 + 100000 z_1_9 <= 402315.1491801049
 c3392: 120 p_1_2 + 120 p_1_4 + 120 p_1_5 + 120 p_1_9 + 100000 z_1_2 + 100000 z_1_4 + 100000 z_1_5 + 100000 z_1_9 <= 402315.26706580276
 c3393: 120 p_1_1 + 120 p_1_2 + 120 p_1_4 + 120 p_1_5 + 120 p_1_9 + 100000 z_1_1 + 100000 z_1_2 + 100000 z_1_4 + 100000 z_1_5 + 100000 z_1_9 <= 502312.88787628303
 c3394: 120 p_1_3 + 120 p_1_4 + 120 p_1_5 + 120 p_1_9 + 100000 z_1_3 + 100000 z_1_4 + 100000 z_1_5 + 100000 z_1_9 <= 402226.02868692257
 c3395: 120 p_1_1 + 120 p_1_3 + 120 p_1_4 + 120 p_1_5 + 120 p_1_9 + 100000 z_1_1 + 100000 z_1_3 + 100000 z_1_4 + 100000 z_1_5 + 100000 z_1_9 <= 502216.08773968607
 c3396: 120 p_1_2 + 120 p_1_3 + 120 p_1_4 + 120 p_1_5 + 120 p_1_9 + 100000 z_1_2 + 100000 z_1_3 + 100000 z_1_4 + 100000 z_1_5 + 100000 z_1_9 <= 502224.37827929429
 c3397: 120 p_1_1 + 120 p_1_2 + 120 p_1_3 + 120 p_1_4 + 120 p_1_5 + 120 p_1_9 + 100000 z_1_1 + 100000 z_1_2 + 100000 z_1_3 + 100000 z_1_4 + 100000 z_1_5 + 100000 z_1_9 <= 602214.43733205786
 c3398: 120 p_1_6 + 120 p_1_9 + 100000 z_1_6 + 100000 z_1_9 <= 203038.53542880015
 c3399: 120 p_1_1 + 120 p_1_6 + 120 p_1_9 + 100000 z_1_1 + 100000 z_1_6 + 100000 z_1_9 <= 302619.69744899735
 c3400: 120 p_1_2 + 120 p_1_6 + 120 p_1_9 + 100000 z_1_2 + 100000 z_1_6 + 100000 z_1_9 <= 302811.23651197104
 c3401: 120 p_1_1 + 120 p_1_2 + 120 p_1_6 + 120 p_1_9 + 100000 z_1_1 + 100000 z_1_2 + 100000 z_1_6 + 100000 z_1_9 <= 402395.48435421655
 c3402: 120 p_1_3 + 120 p_1_6 + 120 p_1_9 + 100000 z_1_3 + 100000 z_1_6 + 100000 z_1_9 <= 302948.12817068852
 c3403: 120 p_1_1 + 120 p_1_3 + 120 p_1_6 + 120 p_1_9 + 100000 z_1_1 + 100000 z_1_3 + 100000 z_1_6 + 100000 z_1_9 <= 402550.60193853028
 c3404: 120 p_1_2 + 120 p_1_3 + 120 p_1_6 + 120 p_1_9 + 100000 z_1_2 + 100000 z_1_3 + 100000 z_1_6 + 100000 z_1_9 <= 402720.82925385947
 c3405: 120 p_1_1 + 120 p_1_2 + 120 p_1_3 + 120 p_1_6 + 120 p_1_9 + 100000 z_1_1 + 100000 z_1_2 + 100000 z_1_3 + 100000 z_1_6 + 100000 z_1_9 <= 502323.30302170117
 c3406: 120 p_1_4 + 120 p_1_6 + 120 p_1_9 + 100000 z_1_4 + 100000 z_1_6 + 100000 z_1_9 <= 302577.95417316887
 c3407: 120 p_1_1 + 120 p_1_4 + 120 p_1_6 + 120 p_1_9 + 100000 z_1_1 + 100000 z_1_4 + 100000 z_1_6 + 100000 z_1_9 <= 402568.01322593237
 c3408: 120 p_1_2 + 120 p_1_4 + 120 p_1_6 + 120 p_1_9 + 100000 z_1_2 + 100000 z_1_4 + 100000 z_1_6 + 100000 z_1_9 <= 402350.65525633976
 c3409: 120 p_1_1 + 120 p_1_2 + 120 p_1_4 + 120 p_1_6 + 120 p_1_9 + 100000 z_1_1 + 100000 z_1_2 + 100000 z_1_4 + 100000 z_1_6 + 100000 z_1_9 <= 502340.71430910332
 c3410: 120 p_1_3 + 120 p_1_4 + 120 p_1_6 + 120 p_1_9 + 100000 z_1_3 + 100000 z_1_4 + 100000 z_1_6 + 100000 z_1_9 <= 402513.17916229216
 c3411: 120 p_1_1 + 120 p_1_3 + 120 p_1_4 + 120 p_1_6 + 120 p_1_9 + 100000 z_1_1 + 100000 z_1_3 + 100000 z_1_4 + 100000 z_1_6 + 100000 z_1_9 <= 502503.23821505567
 c3412: 120 p_1_2 + 120 p_1_3 + 120 p_1_4 + 120 p_1_6 + 120 p_1_9 + 100000 z_1_2 + 100000 z_1_3 + 100000 z_1_4 + 100000 z_1_6 + 100000 z_1_9 <= 502285.88024546305
 c3413: 120 p_1_1 + 120 p_1_2 + 120 p_1_3 + 120 p_1_4 + 120 p_1_6 + 120 p_1_9 + 100000 z_1_1 + 100000 z_1_2 + 100000 z_1_3 + 100000 z_1_4 + 100000 z_1_6 + 100000 z_1_9 <= 602275.93929822661
 c3414: 120 p_1_5 + 120 p_1_6 + 120 p_1_9 + 100000 z_1_5 + 100000 z_1_6 + 100000 z_1_9 <= 302748.25205400091
 c3415: 120 p_1_1 + 120 p_1_5 + 120 p_1_6 + 120 p_1_9 + 100000 z_1_1 + 100000 z_1_5 + 100000 z_1_6 + 100000 z_1_9 <= 402333.11079243995
 c3416: 120 p_1_2 + 120 p_1_5 + 120 p_1_6 + 120 p_1_9 + 100000 z_1_2 + 100000 z_1_5 + 100000 z_1_6 + 100000 z_1_9 <= 402746.60164637264
 c3417: 120 p_1_1 + 120 p_1_2 + 120 p_1_5 + 120 p_1_6 + 120 p_1_9 + 100000 z_1_1 + 100000 z_1_2 + 100000 z_1_5 + 100000 z_1_6 + 100000 z_1_9 <= 502330.84948861814
 c3418: 120 p_1_3 + 120 p_1_5 + 120 p_1_6 + 120 p_1_9 + 100000 z_1_3 + 100000 z_1_5 + 100000 z_1_6 + 100000 z_1_9 <= 402657.84479588928
 c3419: 120 p_1_1 + 120 p_1_3 + 120 p_1_5 + 120 p_1_6 + 120 p_1_9 + 100000 z_1_1 + 100000 z_1_3 + 100000 z_1_5 + 100000 z_1_6 + 100000 z_1_9 <= 502260.31856373104
 c3420: 120 p_1_2 + 120 p_1_3 + 120 p_1_5 + 120 p_1_6 + 120 p_1_9 + 100000 z_1_2 + 100000 z_1_3 + 100000 z_1_5 + 100000 z_1_6 + 100000 z_1_9 <= 502656.19438826106
 c3421: 120 p_1_1 + 120 p_1_2 + 120 p_1_3 + 120 p_1_5 + 120 p_1_6 + 120 p_1_9 + 100000 z_1_1 + 100000 z_1_2 + 100000 z_1_3 + 100000 z_1_5 + 100000 z_1_6 + 100000 z_1_9 <= 602258.66815610277
 c3422: 120 p_1_4 + 120 p_1_5 + 120 p_1_6 + 120 p_1_9 + 100000 z_1_4 + 100000 z_1_5 + 100000 z_1_6 + 100000 z_1_9 <= 402287.67079836963
 c3423: 120 p_1_1 + 120 p_1_4 + 120 p_1_5 + 120 p_1_6 + 120 p_1_9 + 100000 z_1_1 + 100000 z_1_4 + 100000 z_1_5 + 100000 z_1_6 + 100000 z_1_9 <= 502277.72985113313
 c3424: 120 p_1_2 + 120 p_1_4 + 120 p_1_5 + 120 p_1_6 + 120 p_1_9 + 100000 z_1_2 + 100000 z_1_4 + 100000 z_1_5 + 100000 z_1_6 + 100000 z_1_9 <= 502286.02039074141
 c3425: 120 p_1_1 + 120 p_1_2 + 120 p_1_4 + 120 p_1_5 + 120 p_1_6 + 120 p_1_9 + 100000 z_1_1 + 100000 z_1_2 + 100000 z_1_4 + 100000 z_1_5 + 100000 z_1_6 + 100000 z_1_9 <= 602276.07944350492
 c3426: 120 p_1_3 + 120 p_1_4 + 120 p_1_5 + 120 p_1_6 + 120 p_1_9 + 100000 z_1_3 + 100000 z_1_4 + 100000 z_1_5 + 100000 z_1_6 + 100000 z_1_9 <= 502222.89578749292
 c3427: 120 p_1_1 + 120 p_1_3 + 120 p_1_4 + 120 p_1_5 + 120 p_1_6 + 120 p_1_9 + 100000 z_1_1 + 100000 z_1_3 + 100000 z_1_4 + 100000 z_1_5 + 100000 z_1_6 + 100000 z_1_9 <= 602212.95484025637
 c3428: 120 p_1_2 + 120 p_1_3 + 120 p_1_4 + 120 p_1_5 + 120 p_1_6 + 120 p_1_9 + 100000 z_1_2 + 100000 z_1_3 + 100000 z_1_4 + 100000 z_1_5 + 100000 z_1_6 + 100000 z_1_9 <= 602221.2453798647
 c3429: 120 p_1_1 + 120 p_1_2 + 120 p_1_3 + 120 p_1_4 + 120 p_1_5 + 120 p_1_6 + 120 p_1_9 + 100000 z_1_1 + 100000 z_1_2 + 100000 z_1_3 + 100000 z_1_4 + 100000 z_1_5 + 100000 z_1_6 + 100000 z_1_9 <= 702211.30443262821
 c3430: 120 p_1_7 + 120 p_1_9 + 100000 z_1_7 + 100000 z_1_9 <= 202473.56074191336
 c3431: 120 p_1_1 + 120 p_1_7 + 120 p_1_9 + 100000 z_1_1 + 100000 z_1_7 + 100000 z_1_9 <= 302470.91089545545
 c3432: 120 p_1_2 + 120 p_1_7 + 120 p_1_9 + 100000 z_1_2 + 100000 z_1_7 + 100000 z_1_9 <= 302251.01648291096
 c3433: 120 p_1_1 + 120 p_1_2 + 120 p_1_7 + 120 p_1_9 + 100000 z_1_1 + 100000 z_1_2 + 100000 z_1_7 + 100000 z_1_9 <= 402250.27628843742
 c3434: 120 p_1_3 + 120 p_1_7 + 120 p_1_9 + 100000 z_1_3 + 100000 z_1_7 + 100000 z_1_9 <= 302388.81154017121
 c3435: 120 p_1_1 + 120 p_1_3 + 120 p_1_7 + 120 p_1_9 + 100000 z_1_1 + 100000 z_1_3 + 100000 z_1_7 + 100000 z_1_9 <= 402386.16169371334
 c3436: 120 p_1_2 + 120 p_1_3 + 120 p_1_7 + 120 p_1_9 + 100000 z_1_2 + 100000 z_1_3 + 100000 z_1_7 + 100000 z_1_9 <= 402161.5126233421
 c3437: 120 p_1_1 + 120 p_1_2 + 120 p_1_3 + 120 p_1_7 + 120 p_1_9 + 100000 z_1_1 + 100000 z_1_2 + 100000 z_1_3 + 100000 z_1_7 + 100000 z_1_9 <= 502158.86277688423
 c3438: 120 p_1_4 + 120 p_1_7 + 120 p_1_9 + 100000 z_1_4 + 100000 z_1_7 + 100000 z_1_9 <= 302473.23543138715
 c3439: 120 p_1_1 + 120 p_1_4 + 120 p_1_7 + 120 p_1_9 + 100000 z_1_1 + 100000 z_1_4 + 100000 z_1_7 + 100000 z_1_9 <= 402468.37202637986
 c3440: 120 p_1_2 + 120 p_1_4 + 120 p_1_7 + 120 p_1_9 + 100000 z_1_2 + 100000 z_1_4 + 100000 z_1_7 + 100000 z_1_9 <= 402250.69117238477
 c3441: 120 p_1_1 + 120 p_1_2 + 120 p_1_4 + 120 p_1_7 + 120 p_1_9 + 100000 z_1_1 + 100000 z_1_2 + 100000 z_1_4 + 100000 z_1_7 + 100000 z_1_9 <= 502249.95097791124
 c3442: 120 p_1_3 + 120 p_1_4 + 120 p_1_7 + 120 p_1_9 + 100000 z_1_3 + 100000 z_1_4 + 100000 z_1_7 + 100000 z_1_9 <= 402388.48622964503
 c3443: 120 p_1_1 + 120 p_1_3 + 120 p_1_4 + 120 p_1_7 + 120 p_1_9 + 100000 z_1_1 + 100000 z_1_3 + 100000 z_1_4 + 100000 z_1_7 + 100000 z_1_9 <= 502378.79935051512
 c3444: 120 p_1_2 + 120 p_1_3 + 120 p_1_4 + 120 p_1_7 + 120 p_1_9 + 100000 z_1_2 + 100000 z_1_3 + 100000 z_1_4 + 100000 z_1_7 + 100000 z_1_9 <= 502161.18731281592
 c3445: 120 p_1_1 + 120 p_1_2 + 120 p_1_3 + 120 p_1_4 + 120 p_1_7 + 120 p_1_9 + 100000 z_1_1 + 100000 z_1_2 + 100000 z_1_3 + 100000 z_1_4 + 100000 z_1_7 + 100000 z_1_9 <= 602151.50043368607
 c3446: 120 p_1_5 + 120 p_1_7 + 120 p_1_9 + 100000 z_1_5 + 100000 z_1_7 + 100000 z_1_9 <= 302189.14847541793
 c3447: 120 p_1_1 + 120 p_1_5 + 120 p_1_7 + 120 p_1_9 + 100000 z_1_1 + 100000 z_1_5 + 100000 z_1_7 + 100000 z_1_9 <= 402187.90272666089
 c3448: 120 p_1_2 + 120 p_1_5 + 120 p_1_7 + 120 p_1_9 + 100000 z_1_2 + 100000 z_1_5 + 100000 z_1_7 + 100000 z_1_9 <= 402186.38161731255
 c3449: 120 p_1_1 + 120 p_1_2 + 120 p_1_5 + 120 p_1_7 + 120 p_1_9 + 100000 z_1_1 + 100000 z_1_2 + 100000 z_1_5 + 100000 z_1_7 + 100000 z_1_9 <= 502185.64142283908
 c3450: 120 p_1_3 + 120 p_1_5 + 120 p_1_7 + 120 p_1_9 + 100000 z_1_3 + 100000 z_1_5 + 100000 z_1_7 + 100000 z_1_9 <= 402098.52816537197
 c3451: 120 p_1_1 + 120 p_1_3 + 120 p_1_5 + 120 p_1_7 + 120 p_1_9 + 100000 z_1_1 + 100000 z_1_3 + 100000 z_1_5 + 100000 z_1_7 + 100000 z_1_9 <= 502095.8783189141
 c3452: 120 p_1_2 + 120 p_1_3 + 120 p_1_5 + 120 p_1_7 + 120 p_1_9 + 100000 z_1_2 + 100000 z_1_3 + 100000 z_1_5 + 100000 z_1_7 + 100000 z_1_9 <= 502096.8777577437
 c3453: 120 p_1_1 + 120 p_1_2 + 120 p_1_3 + 120 p_1_5 + 120 p_1_7 + 120 p_1_9 + 100000 z_1_1 + 100000 z_1_2 + 100000 z_1_3 + 100000 z_1_5 + 100000 z_1_7 + 100000 z_1_9 <= 602094.22791128582
 c3454: 120 p_1_4 + 120 p_1_5 + 120 p_1_7 + 120 p_1_9 + 100000 z_1_4 + 100000 z_1_5 + 100000 z_1_7 + 100000 z_1_9 <= 402188.82316489174
 c3455: 120 p_1_1 + 120 p_1_4 + 120 p_1_5 + 120 p_1_7 + 120 p_1_9 + 100000 z_1_1 + 100000 z_1_4 + 100000 z_1_5 + 100000 z_1_7 + 100000 z_1_9 <= 502187.57741613471
 c3456: 120 p_1_2 + 120 p_1_4 + 120 p_1_5 + 120 p_1_7 + 120 p_1_9 + 100000 z_1_2 + 100000 z_1_4 + 100000 z_1_5 + 100000 z_1_7 + 100000 z_1_9 <= 502186.05630678637
 c3457: 120 p_1_1 + 120 p_1_2 + 120 p_1_4 + 120 p_1_5 + 120 p_1_7 + 120 p_1_9 + 100000 z_1_1 + 100000 z_1_2 + 100000 z_1_4 + 100000 z_1_5 + 100000 z_1_7 + 100000 z_1_9 <= 602185.31611231284
 c3458: 120 p_1_3 + 120 p_1_4 + 120 p_1_5 + 120 p_1_7 + 120 p_1_9 + 100000 z_1_3 + 100000 z_1_4 + 100000 z_1_5 + 100000 z_1_7 + 100000 z_1_9 <= 502098.20285484579
 c3459: 120 p_1_1 + 120 p_1_3 + 120 p_1_4 + 120 p_1_5 + 120 p_1_7 + 120 p_1_9 + 100000 z_1_1 + 100000 z_1_3 + 100000 z_1_4 + 100000 z_1_5 + 100000 z_1_7 + 100000 z_1_9 <= 602088.51597571583
 c3460: 120 p_1_2 + 120 p_1_3 + 120 p_1_4 + 120 p_1_5 + 120 p_1_7 + 120 p_1_9 + 100000 z_1_2 + 100000 z_1_3 + 100000 z_1_4 + 100000 z_1_5 + 100000 z_1_7 + 100000 z_1_9 <= 602096.55244721752
 c3461: 120 p_1_1 + 120 p_1_2 + 120 p_1_3 + 120 p_1_4 + 120 p_1_5 + 120 p_1_7 + 120 p_1_9 + 100000 z_1_1 + 100000 z_1_2 + 100000 z_1_3 + 100000 z_1_4 + 100000 z_1_5 + 100000 z_1_7 + 100000 z_1_9 <= 702086.86556808767
 c3462: 120 p_1_6 + 120 p_1_7 + 120 p_1_9 + 100000 z_1_6 + 100000 z_1_7 + 100000 z_1_9 <= 302447.44423450733
 c3463: 120 p_1_1 + 120 p_1_6 + 120 p_1_7 + 120 p_1_9 + 100000 z_1_1 + 100000 z_1_6 + 100000 z_1_7 + 100000 z_1_9 <= 402444.7943880494
 c3464: 120 p_1_2 + 120 p_1_6 + 120 p_1_7 + 120 p_1_9 + 100000 z_1_2 + 100000 z_1_6 + 100000 z_1_7 + 100000 z_1_9 <= 402220.14531767822
 c3465: 120 p_1_1 + 120 p_1_2 + 120 p_1_6 + 120 p_1_7 + 120 p_1_9 + 100000 z_1_1 + 100000 z_1_2 + 100000 z_1_6 + 100000 z_1_7 + 100000 z_1_9 <= 502217.49547122029
 c3466: 120 p_1_3 + 120 p_1_6 + 120 p_1_7 + 120 p_1_9 + 100000 z_1_3 + 100000 z_1_6 + 100000 z_1_7 + 100000 z_1_9 <= 402385.67864074156
 c3467: 120 p_1_1 + 120 p_1_3 + 120 p_1_6 + 120 p_1_7 + 120 p_1_9 + 100000 z_1_1 + 100000 z_1_3 + 100000 z_1_6 + 100000 z_1_7 + 100000 z_1_9 <= 502383.02879428369
 c3468: 120 p_1_2 + 120 p_1_3 + 120 p_1_6 + 120 p_1_7 + 120 p_1_9 + 100000 z_1_2 + 100000 z_1_3 + 100000 z_1_6 + 100000 z_1_7 + 100000 z_1_9 <= 502158.37972391245
 c3469: 120 p_1_1 + 120 p_1_2 + 120 p_1_3 + 120 p_1_6 + 120 p_1_7 + 120 p_1_9 + 100000 z_1_1 + 100000 z_1_2 + 100000 z_1_3 + 100000 z_1_6 + 100000 z_1_7 + 100000 z_1_9 <= 602155.72987745458
 c3470: 120 p_1_4 + 120 p_1_6 + 120 p_1_7 + 120 p_1_9 + 100000 z_1_4 + 100000 z_1_6 + 100000 z_1_7 + 100000 z_1_9 <= 402447.11892398109
 c3471: 120 p_1_1 + 120 p_1_4 + 120 p_1_6 + 120 p_1_7 + 120 p_1_9 + 100000 z_1_1 + 100000 z_1_4 + 100000 z_1_6 + 100000 z_1_7 + 100000 z_1_9 <= 502440.44146196218
 c3472: 120 p_1_2 + 120 p_1_4 + 120 p_1_6 + 120 p_1_7 + 120 p_1_9 + 100000 z_1_2 + 100000 z_1_4 + 100000 z_1_6 + 100000 z_1_7 + 100000 z_1_9 <= 502219.82000715198
 c3473: 120 p_1_1 + 120 p_1_2 + 120 p_1_4 + 120 p_1_6 + 120 p_1_7 + 120 p_1_9 + 100000 z_1_1 + 100000 z_1_2 + 100000 z_1_4 + 100000 z_1_6 + 100000 z_1_7 + 100000 z_1_9 <= 602213.14254513313
 c3474: 120 p_1_3 + 120 p_1_4 + 120 p_1_6 + 120 p_1_7 + 120 p_1_9 + 100000 z_1_3 + 100000 z_1_4 + 100000 z_1_6 + 100000 z_1_7 + 100000 z_1_9 <= 502385.35333021538
 c3475: 120 p_1_1 + 120 p_1_3 + 120 p_1_4 + 120 p_1_6 + 120 p_1_7 + 120 p_1_9 + 100000 z_1_1 + 100000 z_1_3 + 100000 z_1_4 + 100000 z_1_6 + 100000 z_1_7 + 100000 z_1_9 <= 602375.66645108548
 c3476: 120 p_1_2 + 120 p_1_3 + 120 p_1_4 + 120 p_1_6 + 120 p_1_7 + 120 p_1_9 + 100000 z_1_2 + 100000 z_1_3 + 100000 z_1_4 + 100000 z_1_6 + 100000 z_1_7 + 100000 z_1_9 <= 602158.05441338627
 c3477: 120 p_1_1 + 120 p_1_2 + 120 p_1_3 + 120 p_1_4 + 120 p_1_6 + 120 p_1_7 + 120 p_1_9 + 100000 z_1_1 + 100000 z_1_2 + 100000 z_1_3 + 100000 z_1_4 + 100000 z_1_6 + 100000 z_1_7 + 100000 z_1_9 <= 702148.36753425642
 c3478: 120 p_1_5 + 120 p_1_6 + 120 p_1_7 + 120 p_1_9 + 100000 z_1_5 + 100000 z_1_6 + 100000 z_1_7 + 100000 z_1_9 <= 402157.16085970803
 c3479: 120 p_1_1 + 120 p_1_5 + 120 p_1_6 + 120 p_1_7 + 120 p_1_9 + 100000 z_1_1 + 100000 z_1_5 + 100000 z_1_6 + 100000 z_1_7 + 100000 z_1_9 <= 502154.51101325016
 c3480: 120 p_1_2 + 120 p_1_5 + 120 p_1_6 + 120 p_1_7 + 120 p_1_9 + 100000 z_1_2 + 100000 z_1_5 + 100000 z_1_6 + 100000 z_1_7 + 100000 z_1_9 <= 502155.51045207982
 c3481: 120 p_1_1 + 120 p_1_2 + 120 p_1_5 + 120 p_1_6 + 120 p_1_7 + 120 p_1_9 + 100000 z_1_1 + 100000 z_1_2 + 100000 z_1_5 + 100000 z_1_6 + 100000 z_1_7 + 100000 z_1_9 <= 602152.86060562194
 c3482: 120 p_1_3 + 120 p_1_5 + 120 p_1_6 + 120 p_1_7 + 120 p_1_9 + 100000 z_1_3 + 100000 z_1_5 + 100000 z_1_6 + 100000 z_1_7 + 100000 z_1_9 <= 502095.39526594232
 c3483: 120 p_1_1 + 120 p_1_3 + 120 p_1_5 + 120 p_1_6 + 120 p_1_7 + 120 p_1_9 + 100000 z_1_1 + 100000 z_1_3 + 100000 z_1_5 + 100000 z_1_6 + 100000 z_1_7 + 100000 z_1_9 <= 602092.74541948445
 c3484: 120 p_1_2 + 120 p_1_3 + 120 p_1_5 + 120 p_1_6 + 120 p_1_7 + 120 p_1_9 + 100000 z_1_2 + 100000 z_1_3 + 100000 z_1_5 + 100000 z_1_6 + 100000 z_1_7 + 100000 z_1_9 <= 602093.74485831405
 c3485: 120 p_1_1 + 120 p_1_2 + 120 p_1_3 + 120 p_1_5 + 120 p_1_6 + 120 p_1_7 + 120 p_1_9 + 100000 z_1_1 + 100000 z_1_2 + 100000 z_1_3 + 100000 z_1_5 + 100000 z_1_6 + 100000 z_1_7 + 100000 z_1_9 <= 702091.09501185617
 c3486: 120 p_1_4 + 120 p_1_5 + 120 p_1_6 + 120 p_1_7 + 120 p_1_9 + 100000 z_1_4 + 100000 z_1_5 + 100000 z_1_6 + 100000 z_1_7 + 100000 z_1_9 <= 502156.83554918185
 c3487: 120 p_1_1 + 120 p_1_4 + 120 p_1_5 + 120 p_1_6 + 120 p_1_7 + 120 p_1_9 + 100000 z_1_1 + 100000 z_1_4 + 100000 z_1_5 + 100000 z_1_6 + 100000 z_1_7 + 100000 z_1_9 <= 602150.158087163
 c3488: 120 p_1_2 + 120 p_1_4 + 120 p_1_5 + 120 p_1_6 + 120 p_1_7 + 120 p_1_9 + 100000 z_1_2 + 100000 z_1_4 + 100000 z_1_5 + 100000 z_1_6 + 100000 z_1_7 + 100000 z_1_9 <= 602155.18514155364
 c3489: 120 p_1_1 + 120 p_1_2 + 120 p_1_4 + 120 p_1_5 + 120 p_1_6 + 120 p_1_7 + 120 p_1_9 + 100000 z_1_1 + 100000 z_1_2 + 100000 z_1_4 + 100000 z_1_5 + 100000 z_1_6 + 100000 z_1_7 + 100000 z_1_9 <= 702148.50767953473
 c3490: 120 p_1_3 + 120 p_1_4 + 120 p_1_5 + 120 p_1_6 + 120 p_1_7 + 120 p_1_9 + 100000 z_1_3 + 100000 z_1_4 + 100000 z_1_5 + 100000 z_1_6 + 100000 z_1_7 + 100000 z_1_9 <= 602095.06995541614
 c3491: 120 p_1_1 + 120 p_1_3 + 120 p_1_4 + 120 p_1_5 + 120 p_1_6 + 120 p_1_7 + 120 p_1_9 + 100000 z_1_1 + 100000 z_1_3 + 100000 z_1_4 + 100000 z_1_5 + 100000 z_1_6 + 100000 z_1_7 + 100000 z_1_9 <= 702085.38307628618
 c3492: 120 p_1_2 + 120 p_1_3 + 120 p_1_4 + 120 p_1_5 + 120 p_1_6 + 120 p_1_7 + 120 p_1_9 + 100000 z_1_2 + 100000 z_1_3 + 100000 z_1_4 + 100000 z_1_5 + 100000 z_1_6 + 100000 z_1_7 + 100000 z_1_9 <= 702093.41954778787
 c3493: 120 p_1_1 + 120 p_1_2 + 120 p_1_3 + 120 p_1_4 + 120 p_1_5 + 120 p_1_6 + 120 p_1_7 + 120 p_1_9 + 100000 z_1_1 + 100000 z_1_2 + 100000 z_1_3 + 100000 z_1_4 + 100000 z_1_5 + 100000 z_1_6 + 100000 z_1_7 + 100000 z_1_9 <= 802083.73266865802
 c3494: 120 p_1_8 + 120 p_1_9 + 100000 z_1_8 + 100000 z_1_9 <= 202711.92510962582
 c3495: 120 p_1_1 + 120 p_1_8 + 120 p_1_9 + 100000 z_1_1 + 100000 z_1_8 + 100000 z_1_9 <= 302319.4709699857
 c3496: 120 p_1_2 + 120 p_1_8 + 120 p_1_9 + 100000 z_1_2 + 100000 z_1_8 + 100000 z_1_9 <= 302710.38810883049
 c3497: 120 p_1_1 + 120 p_1_2 + 120 p_1_8 + 120 p_1_9 + 100000 z_1_1 + 100000 z_1_2 + 100000 z_1_8 + 100000 z_1_9 <= 402306.49409340805
 c3498: 120 p_1_3 + 120 p_1_8 + 120 p_1_9 + 100000 z_1_3 + 100000 z_1_8 + 100000 z_1_9 <= 302575.58689954423
 c3499: 120 p_1_1 + 120 p_1_3 + 120 p_1_8 + 120 p_1_9 + 100000 z_1_1 + 100000 z_1_3 + 100000 z_1_8 + 100000 z_1_9 <= 402183.13275990408
 c3500: 120 p_1_2 + 120 p_1_3 + 120 p_1_8 + 120 p_1_9 + 100000 z_1_2 + 100000 z_1_3 + 100000 z_1_8 + 100000 z_1_9 <= 402574.04989874887
 c3501: 120 p_1_1 + 120 p_1_2 + 120 p_1_3 + 120 p_1_8 + 120 p_1_9 + 100000 z_1_1 + 100000 z_1_2 + 100000 z_1_3 + 100000 z_1_8 + 100000 z_1_9 <= 502176.52366659063
 c3502: 120 p_1_4 + 120 p_1_8 + 120 p_1_9 + 100000 z_1_4 + 100000 z_1_8 + 100000 z_1_9 <= 302253.23583633144
 c3503: 120 p_1_1 + 120 p_1_4 + 120 p_1_8 + 120 p_1_9 + 100000 z_1_1 + 100000 z_1_4 + 100000 z_1_8 + 100000 z_1_9 <= 402252.44550625095
 c3504: 120 p_1_2 + 120 p_1_4 + 120 p_1_8 + 120 p_1_9 + 100000 z_1_2 + 100000 z_1_4 + 100000 z_1_8 + 100000 z_1_9 <= 402240.25895975379
 c3505: 120 p_1_1 + 120 p_1_2 + 120 p_1_4 + 120 p_1_8 + 120 p_1_9 + 100000 z_1_1 + 100000 z_1_2 + 100000 z_1_4 + 100000 z_1_8 + 100000 z_1_9 <= 502239.4686296733
 c3506: 120 p_1_3 + 120 p_1_4 + 120 p_1_8 + 120 p_1_9 + 100000 z_1_3 + 100000 z_1_4 + 100000 z_1_8 + 100000 z_1_9 <= 402140.63789114781
 c3507: 120 p_1_1 + 120 p_1_3 + 120 p_1_4 + 120 p_1_8 + 120 p_1_9 + 100000 z_1_1 + 100000 z_1_3 + 100000 z_1_4 + 100000 z_1_8 + 100000 z_1_9 <= 502130.69694391132
 c3508: 120 p_1_2 + 120 p_1_3 + 120 p_1_4 + 120 p_1_8 + 120 p_1_9 + 100000 z_1_2 + 100000 z_1_3 + 100000 z_1_4 + 100000 z_1_8 + 100000 z_1_9 <= 502139.10089035251
 c3509: 120 p_1_1 + 120 p_1_2 + 120 p_1_3 + 120 p_1_4 + 120 p_1_8 + 120 p_1_9 + 100000 z_1_1 + 100000 z_1_2 + 100000 z_1_3 + 100000 z_1_4 + 100000 z_1_8 + 100000 z_1_9 <= 602129.15994311601
 c3510: 120 p_1_5 + 120 p_1_8 + 120 p_1_9 + 100000 z_1_5 + 100000 z_1_8 + 100000 z_1_9 <= 302711.91985053581
 c3511: 120 p_1_1 + 120 p_1_5 + 120 p_1_8 + 120 p_1_9 + 100000 z_1_1 + 100000 z_1_5 + 100000 z_1_8 + 100000 z_1_9 <= 402319.46571089572
 c3512: 120 p_1_2 + 120 p_1_5 + 120 p_1_8 + 120 p_1_9 + 100000 z_1_2 + 100000 z_1_5 + 100000 z_1_8 + 100000 z_1_9 <= 402710.3828497405
 c3513: 120 p_1_1 + 120 p_1_2 + 120 p_1_5 + 120 p_1_8 + 120 p_1_9 + 100000 z_1_1 + 100000 z_1_2 + 100000 z_1_5 + 100000 z_1_8 + 100000 z_1_9 <= 502294.63069198601
 c3514: 120 p_1_3 + 120 p_1_5 + 120 p_1_8 + 120 p_1_9 + 100000 z_1_3 + 100000 z_1_5 + 100000 z_1_8 + 100000 z_1_9 <= 402575.58164045418
 c3515: 120 p_1_1 + 120 p_1_3 + 120 p_1_5 + 120 p_1_8 + 120 p_1_9 + 100000 z_1_1 + 100000 z_1_3 + 100000 z_1_5 + 100000 z_1_8 + 100000 z_1_9 <= 502183.12750081409
 c3516: 120 p_1_2 + 120 p_1_3 + 120 p_1_5 + 120 p_1_8 + 120 p_1_9 + 100000 z_1_2 + 100000 z_1_3 + 100000 z_1_5 + 100000 z_1_8 + 100000 z_1_9 <= 502574.04463965888
 c3517: 120 p_1_1 + 120 p_1_2 + 120 p_1_3 + 120 p_1_5 + 120 p_1_8 + 120 p_1_9 + 100000 z_1_1 + 100000 z_1_2 + 100000 z_1_3 + 100000 z_1_5 + 100000 z_1_8 + 100000 z_1_9 <= 602176.51840750058
 c3518: 120 p_1_4 + 120 p_1_5 + 120 p_1_8 + 120 p_1_9 + 100000 z_1_4 + 100000 z_1_5 + 100000 z_1_8 + 100000 z_1_9 <= 402253.23057724145
 c3519: 120 p_1_1 + 120 p_1_4 + 120 p_1_5 + 120 p_1_8 + 120 p_1_9 + 100000 z_1_1 + 100000 z_1_4 + 100000 z_1_5 + 100000 z_1_8 + 100000 z_1_9 <= 502252.44024716096
 c3520: 120 p_1_2 + 120 p_1_4 + 120 p_1_5 + 120 p_1_8 + 120 p_1_9 + 100000 z_1_2 + 100000 z_1_4 + 100000 z_1_5 + 100000 z_1_8 + 100000 z_1_9 <= 502229.98441777093
 c3521: 120 p_1_1 + 120 p_1_2 + 120 p_1_4 + 120 p_1_5 + 120 p_1_8 + 120 p_1_9 + 100000 z_1_1 + 100000 z_1_2 + 100000 z_1_4 + 100000 z_1_5 + 100000 z_1_8 + 100000 z_1_9 <= 602227.6052282512
 c3522: 120 p_1_3 + 120 p_1_4 + 120 p_1_5 + 120 p_1_8 + 120 p_1_9 + 100000 z_1_3 + 100000 z_1_4 + 100000 z_1_5 + 100000 z_1_8 + 100000 z_1_9 <= 502140.63263205782
 c3523: 120 p_1_1 + 120 p_1_3 + 120 p_1_4 + 120 p_1_5 + 120 p_1_8 + 120 p_1_9 + 100000 z_1_1 + 100000 z_1_3 + 100000 z_1_4 + 100000 z_1_5 + 100000 z_1_8 + 100000 z_1_9 <= 602130.69168482127
 c3524: 120 p_1_2 + 120 p_1_3 + 120 p_1_4 + 120 p_1_5 + 120 p_1_8 + 120 p_1_9 + 100000 z_1_2 + 100000 z_1_3 + 100000 z_1_4 + 100000 z_1_5 + 100000 z_1_8 + 100000 z_1_9 <= 602139.09563126252
 c3525: 120 p_1_1 + 120 p_1_2 + 120 p_1_3 + 120 p_1_4 + 120 p_1_5 + 120 p_1_8 + 120 p_1_9 + 100000 z_1_1 + 100000 z_1_2 + 100000 z_1_3 + 100000 z_1_4 + 100000 z_1_5 + 100000 z_1_8 + 100000 z_1_9 <= 702129.15468402603
 c3526: 120 p_1_6 + 120 p_1_8 + 120 p_1_9 + 100000 z_1_6 + 100000 z_1_8 + 100000 z_1_9 <= 302662.86125822616
 c3527: 120 p_1_1 + 120 p_1_6 + 120 p_1_8 + 120 p_1_9 + 100000 z_1_1 + 100000 z_1_6 + 100000 z_1_8 + 100000 z_1_9 <= 402270.40711858607
 c3528: 120 p_1_2 + 120 p_1_6 + 120 p_1_8 + 120 p_1_9 + 100000 z_1_2 + 100000 z_1_6 + 100000 z_1_8 + 100000 z_1_9 <= 402661.32425743085
 c3529: 120 p_1_1 + 120 p_1_2 + 120 p_1_6 + 120 p_1_8 + 120 p_1_9 + 100000 z_1_1 + 100000 z_1_2 + 100000 z_1_6 + 100000 z_1_8 + 100000 z_1_9 <= 502257.43024200835
 c3530: 120 p_1_3 + 120 p_1_6 + 120 p_1_8 + 120 p_1_9 + 100000 z_1_3 + 100000 z_1_6 + 100000 z_1_8 + 100000 z_1_9 <= 402572.45400011458
 c3531: 120 p_1_1 + 120 p_1_3 + 120 p_1_6 + 120 p_1_8 + 120 p_1_9 + 100000 z_1_1 + 100000 z_1_3 + 100000 z_1_6 + 100000 z_1_8 + 100000 z_1_9 <= 502179.99986047443
 c3532: 120 p_1_2 + 120 p_1_3 + 120 p_1_6 + 120 p_1_8 + 120 p_1_9 + 100000 z_1_2 + 100000 z_1_3 + 100000 z_1_6 + 100000 z_1_8 + 100000 z_1_9 <= 502570.91699931922
 c3533: 120 p_1_1 + 120 p_1_2 + 120 p_1_3 + 120 p_1_6 + 120 p_1_8 + 120 p_1_9 + 100000 z_1_1 + 100000 z_1_2 + 100000 z_1_3 + 100000 z_1_6 + 100000 z_1_8 + 100000 z_1_9 <= 602173.39076716092
 c3534: 120 p_1_4 + 120 p_1_6 + 120 p_1_8 + 120 p_1_9 + 100000 z_1_4 + 100000 z_1_6 + 100000 z_1_8 + 100000 z_1_9 <= 402204.1719849318
 c3535: 120 p_1_1 + 120 p_1_4 + 120 p_1_6 + 120 p_1_8 + 120 p_1_9 + 100000 z_1_1 + 100000 z_1_4 + 100000 z_1_6 + 100000 z_1_8 + 100000 z_1_9 <= 502203.38165485131
 c3536: 120 p_1_2 + 120 p_1_4 + 120 p_1_6 + 120 p_1_8 + 120 p_1_9 + 100000 z_1_2 + 100000 z_1_4 + 100000 z_1_6 + 100000 z_1_8 + 100000 z_1_9 <= 502200.74300179956
 c3537: 120 p_1_1 + 120 p_1_2 + 120 p_1_4 + 120 p_1_6 + 120 p_1_8 + 120 p_1_9 + 100000 z_1_1 + 100000 z_1_2 + 100000 z_1_4 + 100000 z_1_6 + 100000 z_1_8 + 100000 z_1_9 <= 602190.80205456307
 c3538: 120 p_1_3 + 120 p_1_4 + 120 p_1_6 + 120 p_1_8 + 120 p_1_9 + 100000 z_1_3 + 100000 z_1_4 + 100000 z_1_6 + 100000 z_1_8 + 100000 z_1_9 <= 502137.50499171816
 c3539: 120 p_1_1 + 120 p_1_3 + 120 p_1_4 + 120 p_1_6 + 120 p_1_8 + 120 p_1_9 + 100000 z_1_1 + 100000 z_1_3 + 100000 z_1_4 + 100000 z_1_6 + 100000 z_1_8 + 100000 z_1_9 <= 602127.56404448173
 c3540: 120 p_1_2 + 120 p_1_3 + 120 p_1_4 + 120 p_1_6 + 120 p_1_8 + 120 p_1_9 + 100000 z_1_2 + 100000 z_1_3 + 100000 z_1_4 + 100000 z_1_6 + 100000 z_1_8 + 100000 z_1_9 <= 602135.96799092286
 c3541: 120 p_1_1 + 120 p_1_2 + 120 p_1_3 + 120 p_1_4 + 120 p_1_6 + 120 p_1_8 + 120 p_1_9 + 100000 z_1_1 + 100000 z_1_2 + 100000 z_1_3 + 100000 z_1_4 + 100000 z_1_6 + 100000 z_1_8 + 100000 z_1_9 <= 702126.02704368636
 c3542: 120 p_1_5 + 120 p_1_6 + 120 p_1_8 + 120 p_1_9 + 100000 z_1_5 + 100000 z_1_6 + 100000 z_1_8 + 100000 z_1_9 <= 402662.85599913617
 c3543: 120 p_1_1 + 120 p_1_5 + 120 p_1_6 + 120 p_1_8 + 120 p_1_9 + 100000 z_1_1 + 100000 z_1_5 + 100000 z_1_6 + 100000 z_1_8 + 100000 z_1_9 <= 502270.40185949602
 c3544: 120 p_1_2 + 120 p_1_5 + 120 p_1_6 + 120 p_1_8 + 120 p_1_9 + 100000 z_1_2 + 100000 z_1_5 + 100000 z_1_6 + 100000 z_1_8 + 100000 z_1_9 <= 502661.31899834081
 c3545: 120 p_1_1 + 120 p_1_2 + 120 p_1_5 + 120 p_1_6 + 120 p_1_8 + 120 p_1_9 + 100000 z_1_1 + 100000 z_1_2 + 100000 z_1_5 + 100000 z_1_6 + 100000 z_1_8 + 100000 z_1_9 <= 602245.56684058625
 c3546: 120 p_1_3 + 120 p_1_5 + 120 p_1_6 + 120 p_1_8 + 120 p_1_9 + 100000 z_1_3 + 100000 z_1_5 + 100000 z_1_6 + 100000 z_1_8 + 100000 z_1_9 <= 502572.44874102453
 c3547: 120 p_1_1 + 120 p_1_3 + 120 p_1_5 + 120 p_1_6 + 120 p_1_8 + 120 p_1_9 + 100000 z_1_1 + 100000 z_1_3 + 100000 z_1_5 + 100000 z_1_6 + 100000 z_1_8 + 100000 z_1_9 <= 602179.9946013845
 c3548: 120 p_1_2 + 120 p_1_3 + 120 p_1_5 + 120 p_1_6 + 120 p_1_8 + 120 p_1_9 + 100000 z_1_2 + 100000 z_1_3 + 100000 z_1_5 + 100000 z_1_6 + 100000 z_1_8 + 100000 z_1_9 <= 602570.91174022923
 c3549: 120 p_1_1 + 120 p_1_2 + 120 p_1_3 + 120 p_1_5 + 120 p_1_6 + 120 p_1_8 + 120 p_1_9 + 100000 z_1_1 + 100000 z_1_2 + 100000 z_1_3 + 100000 z_1_5 + 100000 z_1_6 + 100000 z_1_8 + 100000 z_1_9 <= 702173.38550807093
 c3550: 120 p_1_4 + 120 p_1_5 + 120 p_1_6 + 120 p_1_8 + 120 p_1_9 + 100000 z_1_4 + 100000 z_1_5 + 100000 z_1_6 + 100000 z_1_8 + 100000 z_1_9 <= 502204.16672584176
 c3551: 120 p_1_1 + 120 p_1_4 + 120 p_1_5 + 120 p_1_6 + 120 p_1_8 + 120 p_1_9 + 100000 z_1_1 + 100000 z_1_4 + 100000 z_1_5 + 100000 z_1_6 + 100000 z_1_8 + 100000 z_1_9 <= 602203.37639576127
 c3552: 120 p_1_2 + 120 p_1_4 + 120 p_1_5 + 120 p_1_6 + 120 p_1_8 + 120 p_1_9 + 100000 z_1_2 + 100000 z_1_4 + 100000 z_1_5 + 100000 z_1_6 + 100000 z_1_8 + 100000 z_1_9 <= 602200.73774270958
 c3553: 120 p_1_1 + 120 p_1_2 + 120 p_1_4 + 120 p_1_5 + 120 p_1_6 + 120 p_1_8 + 120 p_1_9 + 100000 z_1_1 + 100000 z_1_2 + 100000 z_1_4 + 100000 z_1_5 + 100000 z_1_6 + 100000 z_1_8 + 100000 z_1_9 <= 702190.79679547308
 c3554: 120 p_1_3 + 120 p_1_4 + 120 p_1_5 + 120 p_1_6 + 120 p_1_8 + 120 p_1_9 + 100000 z_1_3 + 100000 z_1_4 + 100000 z_1_5 + 100000 z_1_6 + 100000 z_1_8 + 100000 z_1_9 <= 602137.49973262812
 c3555: 120 p_1_1 + 120 p_1_3 + 120 p_1_4 + 120 p_1_5 + 120 p_1_6 + 120 p_1_8 + 120 p_1_9 + 100000 z_1_1 + 100000 z_1_3 + 100000 z_1_4 + 100000 z_1_5 + 100000 z_1_6 + 100000 z_1_8 + 100000 z_1_9 <= 702127.55878539162
 c3556: 120 p_1_2 + 120 p_1_3 + 120 p_1_4 + 120 p_1_5 + 120 p_1_6 + 120 p_1_8 + 120 p_1_9 + 100000 z_1_2 + 100000 z_1_3 + 100000 z_1_4 + 100000 z_1_5 + 100000 z_1_6 + 100000 z_1_8 + 100000 z_1_9 <= 702135.96273183287
 c3557: 120 p_1_1 + 120 p_1_2 + 120 p_1_3 + 120 p_1_4 + 120 p_1_5 + 120 p_1_6 + 120 p_1_8 + 120 p_1_9 + 100000 z_1_1 + 100000 z_1_2 + 100000 z_1_3 + 100000 z_1_4 + 100000 z_1_5 + 100000 z_1_6 + 100000 z_1_8 + 100000 z_1_9 <= 802126.02178459638
 c3558: 120 p_1_7 + 120 p_1_8 + 120 p_1_9 + 100000 z_1_7 + 100000 z_1_8 + 100000 z_1_9 <= 302128.71819748683
 c3559: 120 p_1_1 + 120 p_1_7 + 120 p_1_8 + 120 p_1_9 + 100000 z_1_1 + 100000 z_1_7 + 100000 z_1_8 + 100000 z_1_9 <= 402126.06835102889
 c3560: 120 p_1_2 + 120 p_1_7 + 120 p_1_8 + 120 p_1_9 + 100000 z_1_2 + 100000 z_1_7 + 100000 z_1_8 + 100000 z_1_9 <= 402115.74132090912
 c3561: 120 p_1_1 + 120 p_1_2 + 120 p_1_7 + 120 p_1_8 + 120 p_1_9 + 100000 z_1_1 + 100000 z_1_2 + 100000 z_1_7 + 100000 z_1_8 + 100000 z_1_9 <= 502113.09147445124
 c3562: 120 p_1_3 + 120 p_1_7 + 120 p_1_8 + 120 p_1_9 + 100000 z_1_3 + 100000 z_1_7 + 100000 z_1_8 + 100000 z_1_9 <= 402013.13736959721
 c3563: 120 p_1_1 + 120 p_1_3 + 120 p_1_7 + 120 p_1_8 + 120 p_1_9 + 100000 z_1_1 + 100000 z_1_3 + 100000 z_1_7 + 100000 z_1_8 + 100000 z_1_9 <= 502010.48752313934
 c3564: 120 p_1_2 + 120 p_1_3 + 120 p_1_7 + 120 p_1_8 + 120 p_1_9 + 100000 z_1_2 + 100000 z_1_3 + 100000 z_1_7 + 100000 z_1_8 + 100000 z_1_9 <= 502011.60036880191
 c3565: 120 p_1_1 + 120 p_1_2 + 120 p_1_3 + 120 p_1_7 + 120 p_1_8 + 120 p_1_9 + 100000 z_1_1 + 100000 z_1_2 + 100000 z_1_3 + 100000 z_1_7 + 100000 z_1_8 + 100000 z_1_9 <= 602008.95052234398
 c3566: 120 p_1_4 + 120 p_1_7 + 120 p_1_8 + 120 p_1_9 + 100000 z_1_4 + 100000 z_1_7 + 100000 z_1_8 + 100000 z_1_9 <= 402128.39288696065
 c3567: 120 p_1_1 + 120 p_1_4 + 120 p_1_7 + 120 p_1_8 + 120 p_1_9 + 100000 z_1_1 + 100000 z_1_4 + 100000 z_1_7 + 100000 z_1_8 + 100000 z_1_9 <= 502124.87374228076
 c3568: 120 p_1_2 + 120 p_1_4 + 120 p_1_7 + 120 p_1_8 + 120 p_1_9 + 100000 z_1_2 + 100000 z_1_4 + 100000 z_1_7 + 100000 z_1_8 + 100000 z_1_9 <= 502115.41601038293
 c3569: 120 p_1_1 + 120 p_1_2 + 120 p_1_4 + 120 p_1_7 + 120 p_1_8 + 120 p_1_9 + 100000 z_1_1 + 100000 z_1_2 + 100000 z_1_4 + 100000 z_1_7 + 100000 z_1_8 + 100000 z_1_9 <= 602111.89686570305
 c3570: 120 p_1_3 + 120 p_1_4 + 120 p_1_7 + 120 p_1_8 + 120 p_1_9 + 100000 z_1_3 + 100000 z_1_4 + 100000 z_1_7 + 100000 z_1_8 + 100000 z_1_9 <= 502012.81205907103
 c3571: 120 p_1_1 + 120 p_1_3 + 120 p_1_4 + 120 p_1_7 + 120 p_1_8 + 120 p_1_9 + 100000 z_1_1 + 100000 z_1_3 + 100000 z_1_4 + 100000 z_1_7 + 100000 z_1_8 + 100000 z_1_9 <= 602003.12517994118
 c3572: 120 p_1_2 + 120 p_1_3 + 120 p_1_4 + 120 p_1_7 + 120 p_1_8 + 120 p_1_9 + 100000 z_1_2 + 100000 z_1_3 + 100000 z_1_4 + 100000 z_1_7 + 100000 z_1_8 + 100000 z_1_9 <= 602011.27505827567
 c3573: 120 p_1_1 + 120 p_1_2 + 120 p_1_3 + 120 p_1_4 + 120 p_1_7 + 120 p_1_8 + 120 p_1_9 + 100000 z_1_1 + 100000 z_1_2 + 100000 z_1_3 + 100000 z_1_4 + 100000 z_1_7 + 100000 z_1_8 + 100000 z_1_9 <= 702001.58817914582
 c3574: 120 p_1_5 + 120 p_1_7 + 120 p_1_8 + 120 p_1_9 + 100000 z_1_5 + 100000 z_1_7 + 100000 z_1_8 + 100000 z_1_9 <= 402128.71293839678
 c3575: 120 p_1_1 + 120 p_1_5 + 120 p_1_7 + 120 p_1_8 + 120 p_1_9 + 100000 z_1_1 + 100000 z_1_5 + 100000 z_1_7 + 100000 z_1_8 + 100000 z_1_9 <= 502126.06309193891
 c3576: 120 p_1_2 + 120 p_1_5 + 120 p_1_7 + 120 p_1_8 + 120 p_1_9 + 100000 z_1_2 + 100000 z_1_5 + 100000 z_1_7 + 100000 z_1_8 + 100000 z_1_9 <= 502103.16790967021
 c3577: 120 p_1_1 + 120 p_1_2 + 120 p_1_5 + 120 p_1_7 + 120 p_1_8 + 120 p_1_9 + 100000 z_1_1 + 100000 z_1_2 + 100000 z_1_5 + 100000 z_1_7 + 100000 z_1_8 + 100000 z_1_9 <= 602100.51806321228
 c3578: 120 p_1_3 + 120 p_1_5 + 120 p_1_7 + 120 p_1_8 + 120 p_1_9 + 100000 z_1_3 + 100000 z_1_5 + 100000 z_1_7 + 100000 z_1_8 + 100000 z_1_9 <= 502013.13211050723
 c3579: 120 p_1_1 + 120 p_1_3 + 120 p_1_5 + 120 p_1_7 + 120 p_1_8 + 120 p_1_9 + 100000 z_1_1 + 100000 z_1_3 + 100000 z_1_5 + 100000 z_1_7 + 100000 z_1_8 + 100000 z_1_9 <= 602010.48226404935
 c3580: 120 p_1_2 + 120 p_1_3 + 120 p_1_5 + 120 p_1_7 + 120 p_1_8 + 120 p_1_9 + 100000 z_1_2 + 100000 z_1_3 + 100000 z_1_5 + 100000 z_1_7 + 100000 z_1_8 + 100000 z_1_9 <= 602011.59510971187
 c3581: 120 p_1_1 + 120 p_1_2 + 120 p_1_3 + 120 p_1_5 + 120 p_1_7 + 120 p_1_8 + 120 p_1_9 + 100000 z_1_1 + 100000 z_1_2 + 100000 z_1_3 + 100000 z_1_5 + 100000 z_1_7 + 100000 z_1_8 + 100000 z_1_9 <= 702008.94526325399
 c3582: 120 p_1_4 + 120 p_1_5 + 120 p_1_7 + 120 p_1_8 + 120 p_1_9 + 100000 z_1_4 + 100000 z_1_5 + 100000 z_1_7 + 100000 z_1_8 + 100000 z_1_9 <= 502128.3876278706
 c3583: 120 p_1_1 + 120 p_1_4 + 120 p_1_5 + 120 p_1_7 + 120 p_1_8 + 120 p_1_9 + 100000 z_1_1 + 100000 z_1_4 + 100000 z_1_5 + 100000 z_1_7 + 100000 z_1_8 + 100000 z_1_9 <= 602124.86848319077
 c3584: 120 p_1_2 + 120 p_1_4 + 120 p_1_5 + 120 p_1_7 + 120 p_1_8 + 120 p_1_9 + 100000 z_1_2 + 100000 z_1_4 + 100000 z_1_5 + 100000 z_1_7 + 100000 z_1_8 + 100000 z_1_9 <= 602102.84259914397
 c3585: 120 p_1_1 + 120 p_1_2 + 120 p_1_4 + 120 p_1_5 + 120 p_1_7 + 120 p_1_8 + 120 p_1_9 + 100000 z_1_1 + 100000 z_1_2 + 100000 z_1_4 + 100000 z_1_5 + 100000 z_1_7 + 100000 z_1_8 + 100000 z_1_9 <= 702100.033464281
 c3586: 120 p_1_3 + 120 p_1_4 + 120 p_1_5 + 120 p_1_7 + 120 p_1_8 + 120 p_1_9 + 100000 z_1_3 + 100000 z_1_4 + 100000 z_1_5 + 100000 z_1_7 + 100000 z_1_8 + 100000 z_1_9 <= 602012.80679998104
 c3587: 120 p_1_1 + 120 p_1_3 + 120 p_1_4 + 120 p_1_5 + 120 p_1_7 + 120 p_1_8 + 120 p_1_9 + 100000 z_1_1 + 100000 z_1_3 + 100000 z_1_4 + 100000 z_1_5 + 100000 z_1_7 + 100000 z_1_8 + 100000 z_1_9 <= 702003.11992085108
 c3588: 120 p_1_2 + 120 p_1_3 + 120 p_1_4 + 120 p_1_5 + 120 p_1_7 + 120 p_1_8 + 120 p_1_9 + 100000 z_1_2 + 100000 z_1_3 + 100000 z_1_4 + 100000 z_1_5 + 100000 z_1_7 + 100000 z_1_8 + 100000 z_1_9 <= 702011.26979918568
 c3589: 120 p_1_1 + 120 p_1_2 + 120 p_1_3 + 120 p_1_4 + 120 p_1_5 + 120 p_1_7 + 120 p_1_8 + 120 p_1_9 + 100000 z_1_1 + 100000 z_1_2 + 100000 z_1_3 + 100000 z_1_4 + 100000 z_1_5 + 100000 z_1_7 + 100000 z_1_8 + 100000 z_1_9 <= 802001.58292005584
 c3590: 120 p_1_6 + 120 p_1_7 + 120 p_1_8 + 120 p_1_9 + 100000 z_1_6 + 100000 z_1_7 + 100000 z_1_8 + 100000 z_1_9 <= 402079.65434608713
 c3591: 120 p_1_1 + 120 p_1_6 + 120 p_1_7 + 120 p_1_8 + 120 p_1_9 + 100000 z_1_1 + 100000 z_1_6 + 100000 z_1_7 + 100000 z_1_8 + 100000 z_1_9 <= 502077.00449962926
 c3592: 120 p_1_2 + 120 p_1_6 + 120 p_1_7 + 120 p_1_8 + 120 p_1_9 + 100000 z_1_2 + 100000 z_1_6 + 100000 z_1_7 + 100000 z_1_8 + 100000 z_1_9 <= 502070.23306313797
 c3593: 120 p_1_1 + 120 p_1_2 + 120 p_1_6 + 120 p_1_7 + 120 p_1_8 + 120 p_1_9 + 100000 z_1_1 + 100000 z_1_2 + 100000 z_1_6 + 100000 z_1_7 + 100000 z_1_8 + 100000 z_1_9 <= 602067.5832166801
 c3594: 120 p_1_3 + 120 p_1_6 + 120 p_1_7 + 120 p_1_8 + 120 p_1_9 + 100000 z_1_3 + 100000 z_1_6 + 100000 z_1_7 + 100000 z_1_8 + 100000 z_1_9 <= 502010.00447016757
 c3595: 120 p_1_1 + 120 p_1_3 + 120 p_1_6 + 120 p_1_7 + 120 p_1_8 + 120 p_1_9 + 100000 z_1_1 + 100000 z_1_3 + 100000 z_1_6 + 100000 z_1_7 + 100000 z_1_8 + 100000 z_1_9 <= 602007.35462370969
 c3596: 120 p_1_2 + 120 p_1_3 + 120 p_1_6 + 120 p_1_7 + 120 p_1_8 + 120 p_1_9 + 100000 z_1_2 + 100000 z_1_3 + 100000 z_1_6 + 100000 z_1_7 + 100000 z_1_8 + 100000 z_1_9 <= 602008.4674693722
 c3597: 120 p_1_1 + 120 p_1_2 + 120 p_1_3 + 120 p_1_6 + 120 p_1_7 + 120 p_1_8 + 120 p_1_9 + 100000 z_1_1 + 100000 z_1_2 + 100000 z_1_3 + 100000 z_1_6 + 100000 z_1_7 + 100000 z_1_8 + 100000 z_1_9 <= 702005.81762291433
 c3598: 120 p_1_4 + 120 p_1_6 + 120 p_1_7 + 120 p_1_8 + 120 p_1_9 + 100000 z_1_4 + 100000 z_1_6 + 100000 z_1_7 + 100000 z_1_8 + 100000 z_1_9 <= 502079.32903556095
 c3599: 120 p_1_1 + 120 p_1_4 + 120 p_1_6 + 120 p_1_7 + 120 p_1_8 + 120 p_1_9 + 100000 z_1_1 + 100000 z_1_4 + 100000 z_1_6 + 100000 z_1_7 + 100000 z_1_8 + 100000 z_1_9 <= 602075.80989088106
 c3600: 120 p_1_2 + 120 p_1_4 + 120 p_1_6 + 120 p_1_7 + 120 p_1_8 + 120 p_1_9 + 100000 z_1_2 + 100000 z_1_4 + 100000 z_1_6 + 100000 z_1_7 + 100000 z_1_8 + 100000 z_1_9 <= 602069.90775261179
 c3601: 120 p_1_1 + 120 p_1_2 + 120 p_1_4 + 120 p_1_6 + 120 p_1_7 + 120 p_1_8 + 120 p_1_9 + 100000 z_1_1 + 100000 z_1_2 + 100000 z_1_4 + 100000 z_1_6 + 100000 z_1_7 + 100000 z_1_8 + 100000 z_1_9 <= 702063.23029059288
 c3602: 120 p_1_3 + 120 p_1_4 + 120 p_1_6 + 120 p_1_7 + 120 p_1_8 + 120 p_1_9 + 100000 z_1_3 + 100000 z_1_4 + 100000 z_1_6 + 100000 z_1_7 + 100000 z_1_8 + 100000 z_1_9 <= 602009.67915964138
 c3603: 120 p_1_1 + 120 p_1_3 + 120 p_1_4 + 120 p_1_6 + 120 p_1_7 + 120 p_1_8 + 120 p_1_9 + 100000 z_1_1 + 100000 z_1_3 + 100000 z_1_4 + 100000 z_1_6 + 100000 z_1_7 + 100000 z_1_8 + 100000 z_1_9 <= 701999.99228051153
 c3604: 120 p_1_2 + 120 p_1_3 + 120 p_1_4 + 120 p_1_6 + 120 p_1_7 + 120 p_1_8 + 120 p_1_9 + 100000 z_1_2 + 100000 z_1_3 + 100000 z_1_4 + 100000 z_1_6 + 100000 z_1_7 + 100000 z_1_8 + 100000 z_1_9 <= 702008.14215884602
 c3605: 120 p_1_1 + 120 p_1_2 + 120 p_1_3 + 120 p_1_4 + 120 p_1_6 + 120 p_1_7 + 120 p_1_8 + 120 p_1_9 + 100000 z_1_1 + 100000 z_1_2 + 100000 z_1_3 + 100000 z_1_4 + 100000 z_1_6 + 100000 z_1_7 + 100000 z_1_8 + 100000 z_1_9 <= 801998.45527971617
 c3606: 120 p_1_5 + 120 p_1_6 + 120 p_1_7 + 120 p_1_8 + 120 p_1_9 + 100000 z_1_5 + 100000 z_1_6 + 100000 z_1_7 + 100000 z_1_8 + 100000 z_1_9 <= 502079.64908699715
 c3607: 120 p_1_1 + 120 p_1_5 + 120 p_1_6 + 120 p_1_7 + 120 p_1_8 + 120 p_1_9 + 100000 z_1_1 + 100000 z_1_5 + 100000 z_1_6 + 100000 z_1_7 + 100000 z_1_8 + 100000 z_1_9 <= 602076.99924053927
 c3608: 120 p_1_2 + 120 p_1_5 + 120 p_1_6 + 120 p_1_7 + 120 p_1_8 + 120 p_1_9 + 100000 z_1_2 + 100000 z_1_5 + 100000 z_1_6 + 100000 z_1_7 + 100000 z_1_8 + 100000 z_1_9 <= 602070.22780404799
 c3609: 120 p_1_1 + 120 p_1_2 + 120 p_1_5 + 120 p_1_6 + 120 p_1_7 + 120 p_1_8 + 120 p_1_9 + 100000 z_1_1 + 100000 z_1_2 + 100000 z_1_5 + 100000 z_1_6 + 100000 z_1_7 + 100000 z_1_8 + 100000 z_1_9 <= 702067.57795759011
 c3610: 120 p_1_3 + 120 p_1_5 + 120 p_1_6 + 120 p_1_7 + 120 p_1_8 + 120 p_1_9 + 100000 z_1_3 + 100000 z_1_5 + 100000 z_1_6 + 100000 z_1_7 + 100000 z_1_8 + 100000 z_1_9 <= 602009.99921107758
 c3611: 120 p_1_1 + 120 p_1_3 + 120 p_1_5 + 120 p_1_6 + 120 p_1_7 + 120 p_1_8 + 120 p_1_9 + 100000 z_1_1 + 100000 z_1_3 + 100000 z_1_5 + 100000 z_1_6 + 100000 z_1_7 + 100000 z_1_8 + 100000 z_1_9 <= 702007.3493646197
 c3612: 120 p_1_2 + 120 p_1_3 + 120 p_1_5 + 120 p_1_6 + 120 p_1_7 + 120 p_1_8 + 120 p_1_9 + 100000 z_1_2 + 100000 z_1_3 + 100000 z_1_5 + 100000 z_1_6 + 100000 z_1_7 + 100000 z_1_8 + 100000 z_1_9 <= 702008.46221028222
 c3613: 120 p_1_1 + 120 p_1_2 + 120 p_1_3 + 120 p_1_5 + 120 p_1_6 + 120 p_1_7 + 120 p_1_8 + 120 p_1_9 + 100000 z_1_1 + 100000 z_1_2 + 100000 z_1_3 + 100000 z_1_5 + 100000 z_1_6 + 100000 z_1_7 + 100000 z_1_8 + 100000 z_1_9 <= 802005.81236382434
 c3614: 120 p_1_4 + 120 p_1_5 + 120 p_1_6 + 120 p_1_7 + 120 p_1_8 + 120 p_1_9 + 100000 z_1_4 + 100000 z_1_5 + 100000 z_1_6 + 100000 z_1_7 + 100000 z_1_8 + 100000 z_1_9 <= 602079.32377647096
 c3615: 120 p_1_1 + 120 p_1_4 + 120 p_1_5 + 120 p_1_6 + 120 p_1_7 + 120 p_1_8 + 120 p_1_9 + 100000 z_1_1 + 100000 z_1_4 + 100000 z_1_5 + 100000 z_1_6 + 100000 z_1_7 + 100000 z_1_8 + 100000 z_1_9 <= 702075.80463179108
 c3616: 120 p_1_2 + 120 p_1_4 + 120 p_1_5 + 120 p_1_6 + 120 p_1_7 + 120 p_1_8 + 120 p_1_9 + 100000 z_1_2 + 100000 z_1_4 + 100000 z_1_5 + 100000 z_1_6 + 100000 z_1_7 + 100000 z_1_8 + 100000 z_1_9 <= 702069.9024935218
 c3617: 120 p_1_1 + 120 p_1_2 + 120 p_1_4 + 120 p_1_5 + 120 p_1_6 + 120 p_1_7 + 120 p_1_8 + 120 p_1_9 + 100000 z_1_1 + 100000 z_1_2 + 100000 z_1_4 + 100000 z_1_5 + 100000 z_1_6 + 100000 z_1_7 + 100000 z_1_8 + 100000 z_1_9 <= 802063.22503150289
 c3618: 120 p_1_3 + 120 p_1_4 + 120 p_1_5 + 120 p_1_6 + 120 p_1_7 + 120 p_1_8 + 120 p_1_9 + 100000 z_1_3 + 100000 z_1_4 + 100000 z_1_5 + 100000 z_1_6 + 100000 z_1_7 + 100000 z_1_8 + 100000 z_1_9 <= 702009.6739005514
 c3619: 120 p_1_1 + 120 p_1_3 + 120 p_1_4 + 120 p_1_5 + 120 p_1_6 + 120 p_1_7 + 120 p_1_8 + 120 p_1_9 + 100000 z_1_1 + 100000 z_1_3 + 100000 z_1_4 + 100000 z_1_5 + 100000 z_1_6 + 100000 z_1_7 + 100000 z_1_8 + 100000 z_1_9 <= 801999.98702142143
 c3620: 120 p_1_2 + 120 p_1_3 + 120 p_1_4 + 120 p_1_5 + 120 p_1_6 + 120 p_1_7 + 120 p_1_8 + 120 p_1_9 + 100000 z_1_2 + 100000 z_1_3 + 100000 z_1_4 + 100000 z_1_5 + 100000 z_1_6 + 100000 z_1_7 + 100000 z_1_8 + 100000 z_1_9 <= 802008.13689975603
 c3621: 120 p_1_1 + 120 p_1_2 + 120 p_1_3 + 120 p_1_4 + 120 p_1_5 + 120 p_1_6 + 120 p_1_7 + 120 p_1_8 + 120 p_1_9 + 100000 z_1_1 + 100000 z_1_2 + 100000 z_1_3 + 100000 z_1_4 + 100000 z_1_5 + 100000 z_1_6 + 100000 z_1_7 + 100000 z_1_8 + 100000 z_1_9 <= 901998.45002062619
 c3622: 120 p_1_10 + 100000 z_1_10 <= 103115.79166972185
 c3623: 120 p_1_1 + 120 p_1_10 + 100000 z_1_1 + 100000 z_1_10 <= 203095.61127015034
 c3624: 120 p_1_10 + 120 p_1_2 + 100000 z_1_10 + 100000 z_1_2 <= 202843.59848951385
 c3625: 120 p_1_1 + 120 p_1_10 + 120 p_1_2 + 100000 z_1_1 + 100000 z_1_10 + 100000 z_1_2 <= 302833.1906996512
 c3626: 120 p_1_10 + 120 p_1_3 + 100000 z_1_10 + 100000 z_1_3 <= 202615.65769282039
 c3627: 120 p_1_1 + 120 p_1_10 + 120 p_1_3 + 100000 z_1_1 + 100000 z_1_10 + 100000 z_1_3 <= 302595.47729324887
 c3628: 120 p_1_10 + 120 p_1_2 + 120 p_1_3 + 100000 z_1_10 + 100000 z_1_2 + 100000 z_1_3 <= 302354.52466145018
 c3629: 120 p_1_1 + 120 p_1_10 + 120 p_1_2 + 120 p_1_3 + 100000 z_1_1 + 100000 z_1_10 + 100000 z_1_2 + 100000 z_1_3 <= 402334.34426187869
 c3630: 120 p_1_10 + 120 p_1_4 + 100000 z_1_10 + 100000 z_1_4 <= 203075.41572652751
 c3631: 120 p_1_1 + 120 p_1_10 + 120 p_1_4 + 100000 z_1_1 + 100000 z_1_10 + 100000 z_1_4 <= 303065.47477929102
 c3632: 120 p_1_10 + 120 p_1_2 + 120 p_1_4 + 100000 z_1_10 + 100000 z_1_2 + 100000 z_1_4 <= 302805.43339831161
 c3633: 120 p_1_1 + 120 p_1_10 + 120 p_1_2 + 120 p_1_4 + 100000 z_1_1 + 100000 z_1_10 + 100000 z_1_2 + 100000 z_1_4 <= 402803.05420879187
 c3634: 120 p_1_10 + 120 p_1_3 + 120 p_1_4 + 100000 z_1_10 + 100000 z_1_3 + 100000 z_1_4 <= 302577.53532066254
 c3635: 120 p_1_1 + 120 p_1_10 + 120 p_1_3 + 120 p_1_4 + 100000 z_1_1 + 100000 z_1_10 + 100000 z_1_3 + 100000 z_1_4 <= 402565.34080238955
 c3636: 120 p_1_10 + 120 p_1_2 + 120 p_1_3 + 120 p_1_4 + 100000 z_1_10 + 100000 z_1_2 + 100000 z_1_3 + 100000 z_1_4 <= 402316.40228929237
 c3637: 120 p_1_1 + 120 p_1_10 + 120 p_1_2 + 120 p_1_3 + 120 p_1_4 + 100000 z_1_1 + 100000 z_1_10 + 100000 z_1_2 + 100000 z_1_3 + 100000 z_1_4 <= 502304.20777101937
 c3638: 120 p_1_10 + 120 p_1_5 + 100000 z_1_10 + 100000 z_1_5 <= 202756.57374603208
 c3639: 120 p_1_1 + 120 p_1_10 + 120 p_1_5 + 100000 z_1_1 + 100000 z_1_10 + 100000 z_1_5 <= 302746.92251677631
 c3640: 120 p_1_10 + 120 p_1_2 + 120 p_1_5 + 100000 z_1_10 + 100000 z_1_2 + 100000 z_1_5 <= 302755.06900281709
 c3641: 120 p_1_1 + 120 p_1_10 + 120 p_1_2 + 120 p_1_5 + 100000 z_1_1 + 100000 z_1_10 + 100000 z_1_2 + 100000 z_1_5 <= 402745.27210914803
 c3642: 120 p_1_10 + 120 p_1_3 + 120 p_1_5 + 100000 z_1_10 + 100000 z_1_3 + 100000 z_1_5 <= 302284.78964140773
 c3643: 120 p_1_1 + 120 p_1_10 + 120 p_1_3 + 120 p_1_5 + 100000 z_1_1 + 100000 z_1_10 + 100000 z_1_3 + 100000 z_1_5 <= 402264.60924183624
 c3644: 120 p_1_10 + 120 p_1_2 + 120 p_1_3 + 120 p_1_5 + 100000 z_1_10 + 100000 z_1_2 + 100000 z_1_3 + 100000 z_1_5 <= 402283.13923377945
 c3645: 120 p_1_1 + 120 p_1_10 + 120 p_1_2 + 120 p_1_3 + 120 p_1_5 + 100000 z_1_1 + 100000 z_1_10 + 100000 z_1_2 + 100000 z_1_3 + 100000 z_1_5 <= 502262.95883420797
 c3646: 120 p_1_10 + 120 p_1_4 + 120 p_1_5 + 100000 z_1_10 + 100000 z_1_4 + 100000 z_1_5 <= 302718.71597272845
 c3647: 120 p_1_1 + 120 p_1_10 + 120 p_1_4 + 120 p_1_5 + 100000 z_1_1 + 100000 z_1_10 + 100000 z_1_4 + 100000 z_1_5 <= 402716.78602591698
 c3648: 120 p_1_10 + 120 p_1_2 + 120 p_1_4 + 120 p_1_5 + 100000 z_1_10 + 100000 z_1_2 + 100000 z_1_4 + 100000 z_1_5 <= 402717.06556510017
 c3649: 120 p_1_1 + 120 p_1_10 + 120 p_1_2 + 120 p_1_4 + 120 p_1_5 + 100000 z_1_1 + 100000 z_1_10 + 100000 z_1_2 + 100000 z_1_4 + 100000 z_1_5 <= 502715.13561828871
 c3650: 120 p_1_10 + 120 p_1_3 + 120 p_1_4 + 120 p_1_5 + 100000 z_1_10 + 100000 z_1_3 + 100000 z_1_4 + 100000 z_1_5 <= 402246.66726924991
 c3651: 120 p_1_1 + 120 p_1_10 + 120 p_1_3 + 120 p_1_4 + 120 p_1_5 + 100000 z_1_1 + 100000 z_1_10 + 100000 z_1_3 + 100000 z_1_4 + 100000 z_1_5 <= 502234.47275097691
 c3652: 120 p_1_10 + 120 p_1_2 + 120 p_1_3 + 120 p_1_4 + 120 p_1_5 + 100000 z_1_10 + 100000 z_1_2 + 100000 z_1_3 + 100000 z_1_4 + 100000 z_1_5 <= 502245.01686162164
 c3653: 120 p_1_1 + 120 p_1_10 + 120 p_1_2 + 120 p_1_3 + 120 p_1_4 + 120 p_1_5 + 100000 z_1_1 + 100000 z_1_10 + 100000 z_1_2 + 100000 z_1_3 + 100000 z_1_4 + 100000 z_1_5 <= 602232.82234334864
 c3654: 120 p_1_10 + 120 p_1_6 + 100000 z_1_10 + 100000 z_1_6 <= 202662.26918869707
 c3655: 120 p_1_1 + 120 p_1_10 + 120 p_1_6 + 100000 z_1_1 + 100000 z_1_10 + 100000 z_1_6 <= 302642.08878912556
 c3656: 120 p_1_10 + 120 p_1_2 + 120 p_1_6 + 100000 z_1_10 + 100000 z_1_2 + 100000 z_1_6 <= 302414.19433015247
 c3657: 120 p_1_1 + 120 p_1_10 + 120 p_1_2 + 120 p_1_6 + 100000 z_1_1 + 100000 z_1_10 + 100000 z_1_2 + 100000 z_1_6 <= 402394.01393058099
 c3658: 120 p_1_10 + 120 p_1_3 + 120 p_1_6 + 100000 z_1_10 + 100000 z_1_3 + 100000 z_1_6 <= 302596.47650997626
 c3659: 120 p_1_1 + 120 p_1_10 + 120 p_1_3 + 120 p_1_6 + 100000 z_1_1 + 100000 z_1_10 + 100000 z_1_3 + 100000 z_1_6 <= 402576.29611040477
 c3660: 120 p_1_10 + 120 p_1_2 + 120 p_1_3 + 120 p_1_6 + 100000 z_1_10 + 100000 z_1_2 + 100000 z_1_3 + 100000 z_1_6 <= 402348.40165143169
 c3661: 120 p_1_1 + 120 p_1_10 + 120 p_1_2 + 120 p_1_3 + 120 p_1_6 + 100000 z_1_1 + 100000 z_1_10 + 100000 z_1_2 + 100000 z_1_3 + 100000 z_1_6 <= 502328.2212518602
 c3662: 120 p_1_10 + 120 p_1_4 + 120 p_1_6 + 100000 z_1_10 + 100000 z_1_4 + 100000 z_1_6 <= 302623.12914869521
 c3663: 120 p_1_1 + 120 p_1_10 + 120 p_1_4 + 120 p_1_6 + 100000 z_1_1 + 100000 z_1_10 + 100000 z_1_4 + 100000 z_1_6 <= 402611.95229826623
 c3664: 120 p_1_10 + 120 p_1_2 + 120 p_1_4 + 120 p_1_6 + 100000 z_1_10 + 100000 z_1_2 + 100000 z_1_4 + 100000 z_1_6 <= 402375.05429015064
 c3665: 120 p_1_1 + 120 p_1_10 + 120 p_1_2 + 120 p_1_4 + 120 p_1_6 + 100000 z_1_1 + 100000 z_1_10 + 100000 z_1_2 + 100000 z_1_4 + 100000 z_1_6 <= 502363.87743972166
 c3666: 120 p_1_10 + 120 p_1_3 + 120 p_1_4 + 120 p_1_6 + 100000 z_1_10 + 100000 z_1_3 + 100000 z_1_4 + 100000 z_1_6 <= 402558.35413781845
 c3667: 120 p_1_1 + 120 p_1_10 + 120 p_1_3 + 120 p_1_4 + 120 p_1_6 + 100000 z_1_1 + 100000 z_1_10 + 100000 z_1_3 + 100000 z_1_4 + 100000 z_1_6 <= 502546.15961954545
 c3668: 120 p_1_10 + 120 p_1_2 + 120 p_1_3 + 120 p_1_4 + 120 p_1_6 + 100000 z_1_10 + 100000 z_1_2 + 100000 z_1_3 + 100000 z_1_4 + 100000 z_1_6 <= 502310.27927927388
 c3669: 120 p_1_1 + 120 p_1_10 + 120 p_1_2 + 120 p_1_3 + 120 p_1_4 + 120 p_1_6 + 100000 z_1_1 + 100000 z_1_10 + 100000 z_1_2 + 100000 z_1_3 + 100000 z_1_4 + 100000 z_1_6 <= 602298.08476100094
 c3670: 120 p_1_10 + 120 p_1_5 + 120 p_1_6 + 100000 z_1_10 + 100000 z_1_5 + 100000 z_1_6 <= 302346.67105144245
 c3671: 120 p_1_1 + 120 p_1_10 + 120 p_1_5 + 120 p_1_6 + 100000 z_1_1 + 100000 z_1_10 + 100000 z_1_5 + 100000 z_1_6 <= 402326.4906518709
 c3672: 120 p_1_10 + 120 p_1_2 + 120 p_1_5 + 120 p_1_6 + 100000 z_1_10 + 100000 z_1_2 + 100000 z_1_5 + 100000 z_1_6 <= 402345.02064381418
 c3673: 120 p_1_1 + 120 p_1_10 + 120 p_1_2 + 120 p_1_5 + 120 p_1_6 + 100000 z_1_1 + 100000 z_1_10 + 100000 z_1_2 + 100000 z_1_5 + 100000 z_1_6 <= 502324.84024424269
 c3674: 120 p_1_10 + 120 p_1_3 + 120 p_1_5 + 120 p_1_6 + 100000 z_1_10 + 100000 z_1_3 + 100000 z_1_5 + 100000 z_1_6 <= 402280.87837272167
 c3675: 120 p_1_1 + 120 p_1_10 + 120 p_1_3 + 120 p_1_5 + 120 p_1_6 + 100000 z_1_1 + 100000 z_1_10 + 100000 z_1_3 + 100000 z_1_5 + 100000 z_1_6 <= 502260.69797315012
 c3676: 120 p_1_10 + 120 p_1_2 + 120 p_1_3 + 120 p_1_5 + 120 p_1_6 + 100000 z_1_10 + 100000 z_1_2 + 100000 z_1_3 + 100000 z_1_5 + 100000 z_1_6 <= 502279.22796509339
 c3677: 120 p_1_1 + 120 p_1_10 + 120 p_1_2 + 120 p_1_3 + 120 p_1_5 + 120 p_1_6 + 100000 z_1_1 + 100000 z_1_10 + 100000 z_1_2 + 100000 z_1_3 + 100000 z_1_5 + 100000 z_1_6 <= 602259.04756552191
 c3678: 120 p_1_10 + 120 p_1_4 + 120 p_1_5 + 120 p_1_6 + 100000 z_1_10 + 100000 z_1_4 + 100000 z_1_5 + 100000 z_1_6 <= 402307.53101144056
 c3679: 120 p_1_1 + 120 p_1_10 + 120 p_1_4 + 120 p_1_5 + 120 p_1_6 + 100000 z_1_1 + 100000 z_1_10 + 100000 z_1_4 + 100000 z_1_5 + 100000 z_1_6 <= 502296.35416101158
 c3680: 120 p_1_10 + 120 p_1_2 + 120 p_1_4 + 120 p_1_5 + 120 p_1_6 + 100000 z_1_10 + 100000 z_1_2 + 100000 z_1_4 + 100000 z_1_5 + 100000 z_1_6 <= 502305.88060381229
 c3681: 120 p_1_1 + 120 p_1_10 + 120 p_1_2 + 120 p_1_4 + 120 p_1_5 + 120 p_1_6 + 100000 z_1_1 + 100000 z_1_10 + 100000 z_1_2 + 100000 z_1_4 + 100000 z_1_5 + 100000 z_1_6 <= 602294.70375338336
 c3682: 120 p_1_10 + 120 p_1_3 + 120 p_1_4 + 120 p_1_5 + 120 p_1_6 + 100000 z_1_10 + 100000 z_1_3 + 100000 z_1_4 + 100000 z_1_5 + 100000 z_1_6 <= 502242.75600056385
 c3683: 120 p_1_1 + 120 p_1_10 + 120 p_1_3 + 120 p_1_4 + 120 p_1_5 + 120 p_1_6 + 100000 z_1_1 + 100000 z_1_10 + 100000 z_1_3 + 100000 z_1_4 + 100000 z_1_5 + 100000 z_1_6 <= 602230.56148229085
 c3684: 120 p_1_10 + 120 p_1_2 + 120 p_1_3 + 120 p_1_4 + 120 p_1_5 + 120 p_1_6 + 100000 z_1_10 + 100000 z_1_2 + 100000 z_1_3 + 100000 z_1_4 + 100000 z_1_5 + 100000 z_1_6 <= 602241.10559293558
 c3685: 120 p_1_1 + 120 p_1_10 + 120 p_1_2 + 120 p_1_3 + 120 p_1_4 + 120 p_1_5 + 120 p_1_6 + 100000 z_1_1 + 100000 z_1_10 + 100000 z_1_2 + 100000 z_1_3 + 100000 z_1_4 + 100000 z_1_5 + 100000 z_1_6 <= 702228.91107466258
 c3686: 120 p_1_10 + 120 p_1_7 + 100000 z_1_10 + 100000 z_1_7 <= 202940.55548929752
 c3687: 120 p_1_1 + 120 p_1_10 + 120 p_1_7 + 100000 z_1_1 + 100000 z_1_10 + 100000 z_1_7 <= 302937.90564283961
 c3688: 120 p_1_10 + 120 p_1_2 + 120 p_1_7 + 100000 z_1_10 + 100000 z_1_2 + 100000 z_1_7 <= 302676.225266814
 c3689: 120 p_1_1 + 120 p_1_10 + 120 p_1_2 + 120 p_1_7 + 100000 z_1_1 + 100000 z_1_10 + 100000 z_1_2 + 100000 z_1_7 <= 402675.48507234053
 c3690: 120 p_1_10 + 120 p_1_3 + 120 p_1_7 + 100000 z_1_10 + 100000 z_1_3 + 100000 z_1_7 <= 302449.71211610461
 c3691: 120 p_1_1 + 120 p_1_10 + 120 p_1_3 + 120 p_1_7 + 100000 z_1_1 + 100000 z_1_10 + 100000 z_1_3 + 100000 z_1_7 <= 402437.77166593814
 c3692: 120 p_1_10 + 120 p_1_2 + 120 p_1_3 + 120 p_1_7 + 100000 z_1_10 + 100000 z_1_2 + 100000 z_1_3 + 100000 z_1_7 <= 402188.57908473443
 c3693: 120 p_1_1 + 120 p_1_10 + 120 p_1_2 + 120 p_1_3 + 120 p_1_7 + 100000 z_1_1 + 100000 z_1_10 + 100000 z_1_2 + 100000 z_1_3 + 100000 z_1_7 <= 502176.63863456802
 c3694: 120 p_1_10 + 120 p_1_4 + 120 p_1_7 + 100000 z_1_10 + 100000 z_1_4 + 100000 z_1_7 <= 302940.55286177871
 c3695: 120 p_1_1 + 120 p_1_10 + 120 p_1_4 + 120 p_1_7 + 100000 z_1_1 + 100000 z_1_10 + 100000 z_1_4 + 100000 z_1_7 <= 402937.90301532083
 c3696: 120 p_1_10 + 120 p_1_2 + 120 p_1_4 + 120 p_1_7 + 100000 z_1_10 + 100000 z_1_2 + 100000 z_1_4 + 100000 z_1_7 <= 402676.22263929516
 c3697: 120 p_1_1 + 120 p_1_10 + 120 p_1_2 + 120 p_1_4 + 120 p_1_7 + 100000 z_1_1 + 100000 z_1_10 + 100000 z_1_2 + 100000 z_1_4 + 100000 z_1_7 <= 502675.48244482168
 c3698: 120 p_1_10 + 120 p_1_3 + 120 p_1_4 + 120 p_1_7 + 100000 z_1_10 + 100000 z_1_3 + 100000 z_1_4 + 100000 z_1_7 <= 402449.70948858577
 c3699: 120 p_1_1 + 120 p_1_10 + 120 p_1_3 + 120 p_1_4 + 120 p_1_7 + 100000 z_1_1 + 100000 z_1_10 + 100000 z_1_3 + 100000 z_1_4 + 100000 z_1_7 <= 502437.76903841936
 c3700: 120 p_1_10 + 120 p_1_2 + 120 p_1_3 + 120 p_1_4 + 120 p_1_7 + 100000 z_1_10 + 100000 z_1_2 + 100000 z_1_3 + 100000 z_1_4 + 100000 z_1_7 <= 502188.57645721559
 c3701: 120 p_1_1 + 120 p_1_10 + 120 p_1_2 + 120 p_1_3 + 120 p_1_4 + 120 p_1_7 + 100000 z_1_1 + 100000 z_1_10 + 100000 z_1_2 + 100000 z_1_3 + 100000 z_1_4 + 100000 z_1_7 <= 602176.63600704924
 c3702: 120 p_1_10 + 120 p_1_5 + 120 p_1_7 + 100000 z_1_10 + 100000 z_1_5 + 100000 z_1_7 <= 302590.46263822267
 c3703: 120 p_1_1 + 120 p_1_10 + 120 p_1_5 + 120 p_1_7 + 100000 z_1_1 + 100000 z_1_10 + 100000 z_1_5 + 100000 z_1_7 <= 402589.21688946558
 c3704: 120 p_1_10 + 120 p_1_2 + 120 p_1_5 + 120 p_1_7 + 100000 z_1_10 + 100000 z_1_2 + 100000 z_1_5 + 100000 z_1_7 <= 402588.8122305944
 c3705: 120 p_1_1 + 120 p_1_10 + 120 p_1_2 + 120 p_1_5 + 120 p_1_7 + 100000 z_1_1 + 100000 z_1_10 + 100000 z_1_2 + 100000 z_1_5 + 100000 z_1_7 <= 502587.56648183736
 c3706: 120 p_1_10 + 120 p_1_3 + 120 p_1_5 + 120 p_1_7 + 100000 z_1_10 + 100000 z_1_3 + 100000 z_1_5 + 100000 z_1_7 <= 402118.84406469192
 c3707: 120 p_1_1 + 120 p_1_10 + 120 p_1_3 + 120 p_1_5 + 120 p_1_7 + 100000 z_1_1 + 100000 z_1_10 + 100000 z_1_3 + 100000 z_1_5 + 100000 z_1_7 <= 502106.90361452551
 c3708: 120 p_1_10 + 120 p_1_2 + 120 p_1_3 + 120 p_1_5 + 120 p_1_7 + 100000 z_1_10 + 100000 z_1_2 + 100000 z_1_3 + 100000 z_1_5 + 100000 z_1_7 <= 502117.1936570637
 c3709: 120 p_1_1 + 120 p_1_10 + 120 p_1_2 + 120 p_1_3 + 120 p_1_5 + 120 p_1_7 + 100000 z_1_1 + 100000 z_1_10 + 100000 z_1_2 + 100000 z_1_3 + 100000 z_1_5 + 100000 z_1_7 <= 602105.25320689729
 c3710: 120 p_1_10 + 120 p_1_4 + 120 p_1_5 + 120 p_1_7 + 100000 z_1_10 + 100000 z_1_4 + 100000 z_1_5 + 100000 z_1_7 <= 402590.46001070383
 c3711: 120 p_1_1 + 120 p_1_10 + 120 p_1_4 + 120 p_1_5 + 120 p_1_7 + 100000 z_1_1 + 100000 z_1_10 + 100000 z_1_4 + 100000 z_1_5 + 100000 z_1_7 <= 502589.21426194679
 c3712: 120 p_1_10 + 120 p_1_2 + 120 p_1_4 + 120 p_1_5 + 120 p_1_7 + 100000 z_1_10 + 100000 z_1_2 + 100000 z_1_4 + 100000 z_1_5 + 100000 z_1_7 <= 502588.80960307561
 c3713: 120 p_1_1 + 120 p_1_10 + 120 p_1_2 + 120 p_1_4 + 120 p_1_5 + 120 p_1_7 + 100000 z_1_1 + 100000 z_1_10 + 100000 z_1_2 + 100000 z_1_4 + 100000 z_1_5 + 100000 z_1_7 <= 602587.56385431858
 c3714: 120 p_1_10 + 120 p_1_3 + 120 p_1_4 + 120 p_1_5 + 120 p_1_7 + 100000 z_1_10 + 100000 z_1_3 + 100000 z_1_4 + 100000 z_1_5 + 100000 z_1_7 <= 502118.84143717313
 c3715: 120 p_1_1 + 120 p_1_10 + 120 p_1_3 + 120 p_1_4 + 120 p_1_5 + 120 p_1_7 + 100000 z_1_1 + 100000 z_1_10 + 100000 z_1_3 + 100000 z_1_4 + 100000 z_1_5 + 100000 z_1_7 <= 602106.90098700672
 c3716: 120 p_1_10 + 120 p_1_2 + 120 p_1_3 + 120 p_1_4 + 120 p_1_5 + 120 p_1_7 + 100000 z_1_10 + 100000 z_1_2 + 100000 z_1_3 + 100000 z_1_4 + 100000 z_1_5 + 100000 z_1_7 <= 602117.19102954492
 c3717: 120 p_1_1 + 120 p_1_10 + 120 p_1_2 + 120 p_1_3 + 120 p_1_4 + 120 p_1_5 + 120 p_1_7 + 100000 z_1_1 + 100000 z_1_10 + 100000 z_1_2 + 100000 z_1_3 + 100000 z_1_4 + 100000 z_1_5 + 100000 z_1_7 <= 702105.25057937845
 c3718: 120 p_1_10 + 120 p_1_6 + 120 p_1_7 + 100000 z_1_10 + 100000 z_1_6 + 100000 z_1_7 <= 302492.29652702622
 c3719: 120 p_1_1 + 120 p_1_10 + 120 p_1_6 + 120 p_1_7 + 100000 z_1_1 + 100000 z_1_10 + 100000 z_1_6 + 100000 z_1_7 <= 402484.38316181488
 c3720: 120 p_1_10 + 120 p_1_2 + 120 p_1_6 + 120 p_1_7 + 100000 z_1_10 + 100000 z_1_2 + 100000 z_1_6 + 100000 z_1_7 <= 402244.22166848165
 c3721: 120 p_1_1 + 120 p_1_10 + 120 p_1_2 + 120 p_1_6 + 120 p_1_7 + 100000 z_1_1 + 100000 z_1_10 + 100000 z_1_2 + 100000 z_1_6 + 100000 z_1_7 <= 502236.30830327031
 c3722: 120 p_1_10 + 120 p_1_3 + 120 p_1_6 + 120 p_1_7 + 100000 z_1_10 + 100000 z_1_3 + 100000 z_1_6 + 100000 z_1_7 <= 402430.53093326051
 c3723: 120 p_1_1 + 120 p_1_10 + 120 p_1_3 + 120 p_1_6 + 120 p_1_7 + 100000 z_1_1 + 100000 z_1_10 + 100000 z_1_3 + 100000 z_1_6 + 100000 z_1_7 <= 502418.59048309404
 c3724: 120 p_1_10 + 120 p_1_2 + 120 p_1_3 + 120 p_1_6 + 120 p_1_7 + 100000 z_1_10 + 100000 z_1_2 + 100000 z_1_3 + 100000 z_1_6 + 100000 z_1_7 <= 502182.45607471594
 c3725: 120 p_1_1 + 120 p_1_10 + 120 p_1_2 + 120 p_1_3 + 120 p_1_6 + 120 p_1_7 + 100000 z_1_1 + 100000 z_1_10 + 100000 z_1_2 + 100000 z_1_3 + 100000 z_1_6 + 100000 z_1_7 <= 602170.51562454947
 c3726: 120 p_1_10 + 120 p_1_4 + 120 p_1_6 + 120 p_1_7 + 100000 z_1_10 + 100000 z_1_4 + 100000 z_1_6 + 100000 z_1_7 <= 402492.29389950744
 c3727: 120 p_1_1 + 120 p_1_10 + 120 p_1_4 + 120 p_1_6 + 120 p_1_7 + 100000 z_1_1 + 100000 z_1_10 + 100000 z_1_4 + 100000 z_1_6 + 100000 z_1_7 <= 502484.38053429604
 c3728: 120 p_1_10 + 120 p_1_2 + 120 p_1_4 + 120 p_1_6 + 120 p_1_7 + 100000 z_1_10 + 100000 z_1_2 + 100000 z_1_4 + 100000 z_1_6 + 100000 z_1_7 <= 502244.21904096287
 c3729: 120 p_1_1 + 120 p_1_10 + 120 p_1_2 + 120 p_1_4 + 120 p_1_6 + 120 p_1_7 + 100000 z_1_1 + 100000 z_1_10 + 100000 z_1_2 + 100000 z_1_4 + 100000 z_1_6 + 100000 z_1_7 <= 602236.30567575153
 c3730: 120 p_1_10 + 120 p_1_3 + 120 p_1_4 + 120 p_1_6 + 120 p_1_7 + 100000 z_1_10 + 100000 z_1_3 + 100000 z_1_4 + 100000 z_1_6 + 100000 z_1_7 <= 502430.52830574167
 c3731: 120 p_1_1 + 120 p_1_10 + 120 p_1_3 + 120 p_1_4 + 120 p_1_6 + 120 p_1_7 + 100000 z_1_1 + 100000 z_1_10 + 100000 z_1_3 + 100000 z_1_4 + 100000 z_1_6 + 100000 z_1_7 <= 602418.58785557526
 c3732: 120 p_1_10 + 120 p_1_2 + 120 p_1_3 + 120 p_1_4 + 120 p_1_6 + 120 p_1_7 + 100000 z_1_10 + 100000 z_1_2 + 100000 z_1_3 + 100000 z_1_4 + 100000 z_1_6 + 100000 z_1_7 <= 602182.4534471971
 c3733: 120 p_1_1 + 120 p_1_10 + 120 p_1_2 + 120 p_1_3 + 120 p_1_4 + 120 p_1_6 + 120 p_1_7 + 100000 z_1_1 + 100000 z_1_10 + 100000 z_1_2 + 100000 z_1_3 + 100000 z_1_4 + 100000 z_1_6 + 100000 z_1_7 <= 702170.51299703075
 c3734: 120 p_1_10 + 120 p_1_5 + 120 p_1_6 + 120 p_1_7 + 100000 z_1_10 + 100000 z_1_5 + 100000 z_1_6 + 100000 z_1_7 <= 402176.69838977157
 c3735: 120 p_1_1 + 120 p_1_10 + 120 p_1_5 + 120 p_1_6 + 120 p_1_7 + 100000 z_1_1 + 100000 z_1_10 + 100000 z_1_5 + 100000 z_1_6 + 100000 z_1_7 <= 502168.78502456023
 c3736: 120 p_1_10 + 120 p_1_2 + 120 p_1_5 + 120 p_1_6 + 120 p_1_7 + 100000 z_1_10 + 100000 z_1_2 + 100000 z_1_5 + 100000 z_1_6 + 100000 z_1_7 <= 502175.04798214335
 c3737: 120 p_1_1 + 120 p_1_10 + 120 p_1_2 + 120 p_1_5 + 120 p_1_6 + 120 p_1_7 + 100000 z_1_1 + 100000 z_1_10 + 100000 z_1_2 + 100000 z_1_5 + 100000 z_1_6 + 100000 z_1_7 <= 602167.13461693202
 c3738: 120 p_1_10 + 120 p_1_3 + 120 p_1_5 + 120 p_1_6 + 120 p_1_7 + 100000 z_1_10 + 100000 z_1_3 + 100000 z_1_5 + 100000 z_1_6 + 100000 z_1_7 <= 502114.93279600586
 c3739: 120 p_1_1 + 120 p_1_10 + 120 p_1_3 + 120 p_1_5 + 120 p_1_6 + 120 p_1_7 + 100000 z_1_1 + 100000 z_1_10 + 100000 z_1_3 + 100000 z_1_5 + 100000 z_1_6 + 100000 z_1_7 <= 602102.99234583939
 c3740: 120 p_1_10 + 120 p_1_2 + 120 p_1_3 + 120 p_1_5 + 120 p_1_6 + 120 p_1_7 + 100000 z_1_10 + 100000 z_1_2 + 100000 z_1_3 + 100000 z_1_5 + 100000 z_1_6 + 100000 z_1_7 <= 602113.28238837759
 c3741: 120 p_1_1 + 120 p_1_10 + 120 p_1_2 + 120 p_1_3 + 120 p_1_5 + 120 p_1_6 + 120 p_1_7 + 100000 z_1_1 + 100000 z_1_10 + 100000 z_1_2 + 100000 z_1_3 + 100000 z_1_5 + 100000 z_1_6 + 100000 z_1_7 <= 702101.34193821112
 c3742: 120 p_1_10 + 120 p_1_4 + 120 p_1_5 + 120 p_1_6 + 120 p_1_7 + 100000 z_1_10 + 100000 z_1_4 + 100000 z_1_5 + 100000 z_1_6 + 100000 z_1_7 <= 502176.69576225278
 c3743: 120 p_1_1 + 120 p_1_10 + 120 p_1_4 + 120 p_1_5 + 120 p_1_6 + 120 p_1_7 + 100000 z_1_1 + 100000 z_1_10 + 100000 z_1_4 + 100000 z_1_5 + 100000 z_1_6 + 100000 z_1_7 <= 602168.78239704145
 c3744: 120 p_1_10 + 120 p_1_2 + 120 p_1_4 + 120 p_1_5 + 120 p_1_6 + 120 p_1_7 + 100000 z_1_10 + 100000 z_1_2 + 100000 z_1_4 + 100000 z_1_5 + 100000 z_1_6 + 100000 z_1_7 <= 602175.04535462451
 c3745: 120 p_1_1 + 120 p_1_10 + 120 p_1_2 + 120 p_1_4 + 120 p_1_5 + 120 p_1_6 + 120 p_1_7 + 100000 z_1_1 + 100000 z_1_10 + 100000 z_1_2 + 100000 z_1_4 + 100000 z_1_5 + 100000 z_1_6 + 100000 z_1_7 <= 702167.13198941317
 c3746: 120 p_1_10 + 120 p_1_3 + 120 p_1_4 + 120 p_1_5 + 120 p_1_6 + 120 p_1_7 + 100000 z_1_10 + 100000 z_1_3 + 100000 z_1_4 + 100000 z_1_5 + 100000 z_1_6 + 100000 z_1_7 <= 602114.93016848702
 c3747: 120 p_1_1 + 120 p_1_10 + 120 p_1_3 + 120 p_1_4 + 120 p_1_5 + 120 p_1_6 + 120 p_1_7 + 100000 z_1_1 + 100000 z_1_10 + 100000 z_1_3 + 100000 z_1_4 + 100000 z_1_5 + 100000 z_1_6 + 100000 z_1_7 <= 702102.98971832066
 c3748: 120 p_1_10 + 120 p_1_2 + 120 p_1_3 + 120 p_1_4 + 120 p_1_5 + 120 p_1_6 + 120 p_1_7 + 100000 z_1_10 + 100000 z_1_2 + 100000 z_1_3 + 100000 z_1_4 + 100000 z_1_5 + 100000 z_1_6 + 100000 z_1_7 <= 702113.27976085874
 c3749: 120 p_1_1 + 120 p_1_10 + 120 p_1_2 + 120 p_1_3 + 120 p_1_4 + 120 p_1_5 + 120 p_1_6 + 120 p_1_7 + 100000 z_1_1 + 100000 z_1_10 + 100000 z_1_2 + 100000 z_1_3 + 100000 z_1_4 + 100000 z_1_5 + 100000 z_1_6 + 100000 z_1_7 <= 802101.33931069239
 c3750: 120 p_1_10 + 120 p_1_8 + 100000 z_1_10 + 100000 z_1_8 <= 202703.95439060894
 c3751: 120 p_1_1 + 120 p_1_10 + 120 p_1_8 + 100000 z_1_1 + 100000 z_1_10 + 100000 z_1_8 <= 302696.67358823837
 c3752: 120 p_1_10 + 120 p_1_2 + 120 p_1_8 + 100000 z_1_10 + 100000 z_1_2 + 100000 z_1_8 <= 302702.41738981364
 c3753: 120 p_1_1 + 120 p_1_10 + 120 p_1_2 + 120 p_1_8 + 100000 z_1_1 + 100000 z_1_10 + 100000 z_1_2 + 100000 z_1_8 <= 402695.13658744306
 c3754: 120 p_1_10 + 120 p_1_3 + 120 p_1_8 + 100000 z_1_10 + 100000 z_1_3 + 100000 z_1_8 <= 302203.82041370746
 c3755: 120 p_1_1 + 120 p_1_10 + 120 p_1_3 + 120 p_1_8 + 100000 z_1_1 + 100000 z_1_10 + 100000 z_1_3 + 100000 z_1_8 <= 402196.53961133689
 c3756: 120 p_1_10 + 120 p_1_2 + 120 p_1_3 + 120 p_1_8 + 100000 z_1_10 + 100000 z_1_2 + 100000 z_1_3 + 100000 z_1_8 <= 402202.28341291216
 c3757: 120 p_1_1 + 120 p_1_10 + 120 p_1_2 + 120 p_1_3 + 120 p_1_8 + 100000 z_1_1 + 100000 z_1_10 + 100000 z_1_2 + 100000 z_1_3 + 100000 z_1_8 <= 502195.00261054159
 c3758: 120 p_1_10 + 120 p_1_4 + 120 p_1_8 + 100000 z_1_10 + 100000 z_1_4 + 100000 z_1_8 <= 302667.32742745953
 c3759: 120 p_1_1 + 120 p_1_10 + 120 p_1_4 + 120 p_1_8 + 100000 z_1_1 + 100000 z_1_10 + 100000 z_1_4 + 100000 z_1_8 <= 402666.53709737904
 c3760: 120 p_1_10 + 120 p_1_2 + 120 p_1_4 + 120 p_1_8 + 100000 z_1_10 + 100000 z_1_2 + 100000 z_1_4 + 100000 z_1_8 <= 402665.79042666423
 c3761: 120 p_1_1 + 120 p_1_10 + 120 p_1_2 + 120 p_1_4 + 120 p_1_8 + 100000 z_1_1 + 100000 z_1_10 + 100000 z_1_2 + 100000 z_1_4 + 100000 z_1_8 <= 502665.00009658374
 c3762: 120 p_1_10 + 120 p_1_3 + 120 p_1_4 + 120 p_1_8 + 100000 z_1_10 + 100000 z_1_3 + 100000 z_1_4 + 100000 z_1_8 <= 402167.19345055806
 c3763: 120 p_1_1 + 120 p_1_10 + 120 p_1_3 + 120 p_1_4 + 120 p_1_8 + 100000 z_1_1 + 100000 z_1_10 + 100000 z_1_3 + 100000 z_1_4 + 100000 z_1_8 <= 502166.40312047757
 c3764: 120 p_1_10 + 120 p_1_2 + 120 p_1_3 + 120 p_1_4 + 120 p_1_8 + 100000 z_1_10 + 100000 z_1_2 + 100000 z_1_3 + 100000 z_1_4 + 100000 z_1_8 <= 502165.65644976276
 c3765: 120 p_1_1 + 120 p_1_10 + 120 p_1_2 + 120 p_1_3 + 120 p_1_4 + 120 p_1_8 + 100000 z_1_1 + 100000 z_1_10 + 100000 z_1_2 + 100000 z_1_3 + 100000 z_1_4 + 100000 z_1_8 <= 602164.86611968221
 c3766: 120 p_1_10 + 120 p_1_5 + 120 p_1_8 + 100000 z_1_10 + 100000 z_1_5 + 100000 z_1_8 <= 302691.49438620295
 c3767: 120 p_1_1 + 120 p_1_10 + 120 p_1_5 + 120 p_1_8 + 100000 z_1_1 + 100000 z_1_10 + 100000 z_1_5 + 100000 z_1_8 <= 402684.21358383237
 c3768: 120 p_1_10 + 120 p_1_2 + 120 p_1_5 + 120 p_1_8 + 100000 z_1_10 + 100000 z_1_2 + 100000 z_1_5 + 100000 z_1_8 <= 402689.84397857467
 c3769: 120 p_1_1 + 120 p_1_10 + 120 p_1_2 + 120 p_1_5 + 120 p_1_8 + 100000 z_1_1 + 100000 z_1_10 + 100000 z_1_2 + 100000 z_1_5 + 100000 z_1_8 <= 502682.5631762041
 c3770: 120 p_1_10 + 120 p_1_3 + 120 p_1_5 + 120 p_1_8 + 100000 z_1_10 + 100000 z_1_3 + 100000 z_1_5 + 100000 z_1_8 <= 402199.39358654298
 c3771: 120 p_1_1 + 120 p_1_10 + 120 p_1_3 + 120 p_1_5 + 120 p_1_8 + 100000 z_1_1 + 100000 z_1_10 + 100000 z_1_3 + 100000 z_1_5 + 100000 z_1_8 <= 502184.0796069309
 c3772: 120 p_1_10 + 120 p_1_2 + 120 p_1_3 + 120 p_1_5 + 120 p_1_8 + 100000 z_1_10 + 100000 z_1_2 + 100000 z_1_3 + 100000 z_1_5 + 100000 z_1_8 <= 502197.85658574768
 c3773: 120 p_1_1 + 120 p_1_10 + 120 p_1_2 + 120 p_1_3 + 120 p_1_5 + 120 p_1_8 + 100000 z_1_1 + 100000 z_1_10 + 100000 z_1_2 + 100000 z_1_3 + 100000 z_1_5 + 100000 z_1_8 <= 602182.42919930269
 c3774: 120 p_1_10 + 120 p_1_4 + 120 p_1_5 + 120 p_1_8 + 100000 z_1_10 + 100000 z_1_4 + 100000 z_1_5 + 100000 z_1_8 <= 402654.86742305354
 c3775: 120 p_1_1 + 120 p_1_10 + 120 p_1_4 + 120 p_1_5 + 120 p_1_8 + 100000 z_1_1 + 100000 z_1_10 + 100000 z_1_4 + 100000 z_1_5 + 100000 z_1_8 <= 502654.07709297305
 c3776: 120 p_1_10 + 120 p_1_2 + 120 p_1_4 + 120 p_1_5 + 120 p_1_8 + 100000 z_1_10 + 100000 z_1_2 + 100000 z_1_4 + 100000 z_1_5 + 100000 z_1_8 <= 502653.21701542527
 c3777: 120 p_1_1 + 120 p_1_10 + 120 p_1_2 + 120 p_1_4 + 120 p_1_5 + 120 p_1_8 + 100000 z_1_1 + 100000 z_1_10 + 100000 z_1_2 + 100000 z_1_4 + 100000 z_1_5 + 100000 z_1_8 <= 602652.42668534478
 c3778: 120 p_1_10 + 120 p_1_3 + 120 p_1_4 + 120 p_1_5 + 120 p_1_8 + 100000 z_1_10 + 100000 z_1_3 + 100000 z_1_4 + 100000 z_1_5 + 100000 z_1_8 <= 502161.27121438517
 c3779: 120 p_1_1 + 120 p_1_10 + 120 p_1_3 + 120 p_1_4 + 120 p_1_5 + 120 p_1_8 + 100000 z_1_1 + 100000 z_1_10 + 100000 z_1_3 + 100000 z_1_4 + 100000 z_1_5 + 100000 z_1_8 <= 602153.94311607163
 c3780: 120 p_1_10 + 120 p_1_2 + 120 p_1_3 + 120 p_1_4 + 120 p_1_5 + 120 p_1_8 + 100000 z_1_10 + 100000 z_1_2 + 100000 z_1_3 + 100000 z_1_4 + 100000 z_1_5 + 100000 z_1_8 <= 602159.73421358981
 c3781: 120 p_1_1 + 120 p_1_10 + 120 p_1_2 + 120 p_1_3 + 120 p_1_4 + 120 p_1_5 + 120 p_1_8 + 100000 z_1_1 + 100000 z_1_10 + 100000 z_1_2 + 100000 z_1_3 + 100000 z_1_4 + 100000 z_1_5 + 100000 z_1_8 <= 702152.29270844336
 c3782: 120 p_1_10 + 120 p_1_6 + 120 p_1_8 + 100000 z_1_10 + 100000 z_1_6 + 100000 z_1_8 <= 302261.45725351915
 c3783: 120 p_1_1 + 120 p_1_10 + 120 p_1_6 + 120 p_1_8 + 100000 z_1_1 + 100000 z_1_10 + 100000 z_1_6 + 100000 z_1_8 <= 402253.55535663303
 c3784: 120 p_1_10 + 120 p_1_2 + 120 p_1_6 + 120 p_1_8 + 100000 z_1_10 + 100000 z_1_2 + 100000 z_1_6 + 100000 z_1_8 <= 402259.92025272385
 c3785: 120 p_1_1 + 120 p_1_10 + 120 p_1_2 + 120 p_1_6 + 120 p_1_8 + 100000 z_1_1 + 100000 z_1_10 + 100000 z_1_2 + 100000 z_1_6 + 100000 z_1_8 <= 502244.94030294381
 c3786: 120 p_1_10 + 120 p_1_3 + 120 p_1_6 + 120 p_1_8 + 100000 z_1_10 + 100000 z_1_3 + 100000 z_1_6 + 100000 z_1_8 <= 402195.66457479837
 c3787: 120 p_1_1 + 120 p_1_10 + 120 p_1_3 + 120 p_1_6 + 120 p_1_8 + 100000 z_1_1 + 100000 z_1_10 + 100000 z_1_3 + 100000 z_1_6 + 100000 z_1_8 <= 502177.35842849279
 c3788: 120 p_1_10 + 120 p_1_2 + 120 p_1_3 + 120 p_1_6 + 120 p_1_8 + 100000 z_1_10 + 100000 z_1_2 + 100000 z_1_3 + 100000 z_1_6 + 100000 z_1_8 <= 502194.12757400307
 c3789: 120 p_1_1 + 120 p_1_10 + 120 p_1_2 + 120 p_1_3 + 120 p_1_6 + 120 p_1_8 + 100000 z_1_1 + 100000 z_1_10 + 100000 z_1_2 + 100000 z_1_3 + 100000 z_1_6 + 100000 z_1_8 <= 602175.82142769743
 c3790: 120 p_1_10 + 120 p_1_4 + 120 p_1_6 + 120 p_1_8 + 100000 z_1_10 + 100000 z_1_4 + 100000 z_1_6 + 100000 z_1_8 <= 402224.2091958542
 c3791: 120 p_1_1 + 120 p_1_10 + 120 p_1_4 + 120 p_1_6 + 120 p_1_8 + 100000 z_1_1 + 100000 z_1_10 + 100000 z_1_4 + 100000 z_1_6 + 100000 z_1_8 <= 502223.41886577371
 c3792: 120 p_1_10 + 120 p_1_2 + 120 p_1_4 + 120 p_1_6 + 120 p_1_8 + 100000 z_1_10 + 100000 z_1_2 + 100000 z_1_4 + 100000 z_1_6 + 100000 z_1_8 <= 502220.78021272196
 c3793: 120 p_1_1 + 120 p_1_10 + 120 p_1_2 + 120 p_1_4 + 120 p_1_6 + 120 p_1_8 + 100000 z_1_1 + 100000 z_1_10 + 100000 z_1_2 + 100000 z_1_4 + 100000 z_1_6 + 100000 z_1_8 <= 602214.80381208449
 c3794: 120 p_1_10 + 120 p_1_3 + 120 p_1_4 + 120 p_1_6 + 120 p_1_8 + 100000 z_1_10 + 100000 z_1_3 + 100000 z_1_4 + 100000 z_1_6 + 100000 z_1_8 <= 502157.54220264056
 c3795: 120 p_1_1 + 120 p_1_10 + 120 p_1_3 + 120 p_1_4 + 120 p_1_6 + 120 p_1_8 + 100000 z_1_1 + 100000 z_1_10 + 100000 z_1_3 + 100000 z_1_4 + 100000 z_1_6 + 100000 z_1_8 <= 602147.22193763347
 c3796: 120 p_1_10 + 120 p_1_2 + 120 p_1_3 + 120 p_1_4 + 120 p_1_6 + 120 p_1_8 + 100000 z_1_10 + 100000 z_1_2 + 100000 z_1_3 + 100000 z_1_4 + 100000 z_1_6 + 100000 z_1_8 <= 602156.0052018452
 c3797: 120 p_1_1 + 120 p_1_10 + 120 p_1_2 + 120 p_1_3 + 120 p_1_4 + 120 p_1_6 + 120 p_1_8 + 100000 z_1_1 + 100000 z_1_10 + 100000 z_1_2 + 100000 z_1_3 + 100000 z_1_4 + 100000 z_1_6 + 100000 z_1_8 <= 702145.68493683811
 c3798: 120 p_1_10 + 120 p_1_5 + 120 p_1_6 + 120 p_1_8 + 100000 z_1_10 + 100000 z_1_5 + 100000 z_1_6 + 100000 z_1_8 <= 402261.27499657765
 c3799: 120 p_1_1 + 120 p_1_10 + 120 p_1_5 + 120 p_1_6 + 120 p_1_8 + 100000 z_1_1 + 100000 z_1_10 + 100000 z_1_5 + 100000 z_1_6 + 100000 z_1_8 <= 502253.37309969153
 c3800: 120 p_1_10 + 120 p_1_2 + 120 p_1_5 + 120 p_1_6 + 120 p_1_8 + 100000 z_1_10 + 100000 z_1_2 + 100000 z_1_5 + 100000 z_1_6 + 100000 z_1_8 <= 502259.73799578234
 c3801: 120 p_1_1 + 120 p_1_10 + 120 p_1_2 + 120 p_1_5 + 120 p_1_6 + 120 p_1_8 + 100000 z_1_1 + 100000 z_1_10 + 100000 z_1_2 + 100000 z_1_5 + 100000 z_1_6 + 100000 z_1_8 <= 602239.55759621086
 c3802: 120 p_1_10 + 120 p_1_3 + 120 p_1_5 + 120 p_1_6 + 120 p_1_8 + 100000 z_1_10 + 100000 z_1_3 + 100000 z_1_5 + 100000 z_1_6 + 100000 z_1_8 <= 502195.48231785686
 c3803: 120 p_1_1 + 120 p_1_10 + 120 p_1_3 + 120 p_1_5 + 120 p_1_6 + 120 p_1_8 + 100000 z_1_1 + 100000 z_1_10 + 100000 z_1_3 + 100000 z_1_5 + 100000 z_1_6 + 100000 z_1_8 <= 602175.30191828543
 c3804: 120 p_1_10 + 120 p_1_2 + 120 p_1_3 + 120 p_1_5 + 120 p_1_6 + 120 p_1_8 + 100000 z_1_10 + 100000 z_1_2 + 100000 z_1_3 + 100000 z_1_5 + 100000 z_1_6 + 100000 z_1_8 <= 602193.94531706162
 c3805: 120 p_1_1 + 120 p_1_10 + 120 p_1_2 + 120 p_1_3 + 120 p_1_5 + 120 p_1_6 + 120 p_1_8 + 100000 z_1_1 + 100000 z_1_10 + 100000 z_1_2 + 100000 z_1_3 + 100000 z_1_5 + 100000 z_1_6 + 100000 z_1_8 <= 702173.76491749007
 c3806: 120 p_1_10 + 120 p_1_4 + 120 p_1_5 + 120 p_1_6 + 120 p_1_8 + 100000 z_1_10 + 100000 z_1_4 + 100000 z_1_5 + 100000 z_1_6 + 100000 z_1_8 <= 502224.02693891269
 c3807: 120 p_1_1 + 120 p_1_10 + 120 p_1_4 + 120 p_1_5 + 120 p_1_6 + 120 p_1_8 + 100000 z_1_1 + 100000 z_1_10 + 100000 z_1_4 + 100000 z_1_5 + 100000 z_1_6 + 100000 z_1_8 <= 602223.23660883214
 c3808: 120 p_1_10 + 120 p_1_2 + 120 p_1_4 + 120 p_1_5 + 120 p_1_6 + 120 p_1_8 + 100000 z_1_10 + 100000 z_1_2 + 100000 z_1_4 + 100000 z_1_5 + 100000 z_1_6 + 100000 z_1_8 <= 602220.59795578045
 c3809: 120 p_1_1 + 120 p_1_10 + 120 p_1_2 + 120 p_1_4 + 120 p_1_5 + 120 p_1_6 + 120 p_1_8 + 100000 z_1_1 + 100000 z_1_10 + 100000 z_1_2 + 100000 z_1_4 + 100000 z_1_5 + 100000 z_1_6 + 100000 z_1_8 <= 702209.42110535153
 c3810: 120 p_1_10 + 120 p_1_3 + 120 p_1_4 + 120 p_1_5 + 120 p_1_6 + 120 p_1_8 + 100000 z_1_10 + 100000 z_1_3 + 100000 z_1_4 + 100000 z_1_5 + 100000 z_1_6 + 100000 z_1_8 <= 602157.35994569911
 c3811: 120 p_1_1 + 120 p_1_10 + 120 p_1_3 + 120 p_1_4 + 120 p_1_5 + 120 p_1_6 + 120 p_1_8 + 100000 z_1_1 + 100000 z_1_10 + 100000 z_1_3 + 100000 z_1_4 + 100000 z_1_5 + 100000 z_1_6 + 100000 z_1_8 <= 702145.16542742611
 c3812: 120 p_1_10 + 120 p_1_2 + 120 p_1_3 + 120 p_1_4 + 120 p_1_5 + 120 p_1_6 + 120 p_1_8 + 100000 z_1_10 + 100000 z_1_2 + 100000 z_1_3 + 100000 z_1_4 + 100000 z_1_5 + 100000 z_1_6 + 100000 z_1_8 <= 702155.82294490375
 c3813: 120 p_1_1 + 120 p_1_10 + 120 p_1_2 + 120 p_1_3 + 120 p_1_4 + 120 p_1_5 + 120 p_1_6 + 120 p_1_8 + 100000 z_1_1 + 100000 z_1_10 + 100000 z_1_2 + 100000 z_1_3 + 100000 z_1_4 + 100000 z_1_5 + 100000 z_1_6 + 100000 z_1_8 <= 802143.62842663075
 c3814: 120 p_1_10 + 120 p_1_7 + 120 p_1_8 + 100000 z_1_10 + 100000 z_1_7 + 100000 z_1_8 <= 302542.48710560752
 c3815: 120 p_1_1 + 120 p_1_10 + 120 p_1_7 + 120 p_1_8 + 100000 z_1_1 + 100000 z_1_10 + 100000 z_1_7 + 100000 z_1_8 <= 402538.96796092769
 c3816: 120 p_1_10 + 120 p_1_2 + 120 p_1_7 + 120 p_1_8 + 100000 z_1_10 + 100000 z_1_2 + 100000 z_1_7 + 100000 z_1_8 <= 402540.95010481216
 c3817: 120 p_1_1 + 120 p_1_10 + 120 p_1_2 + 120 p_1_7 + 120 p_1_8 + 100000 z_1_1 + 100000 z_1_10 + 100000 z_1_2 + 100000 z_1_7 + 100000 z_1_8 <= 502537.43096013233
 c3818: 120 p_1_10 + 120 p_1_3 + 120 p_1_7 + 120 p_1_8 + 100000 z_1_10 + 100000 z_1_3 + 100000 z_1_7 + 100000 z_1_8 <= 402042.35312870605
 c3819: 120 p_1_1 + 120 p_1_10 + 120 p_1_3 + 120 p_1_7 + 120 p_1_8 + 100000 z_1_1 + 100000 z_1_10 + 100000 z_1_3 + 100000 z_1_7 + 100000 z_1_8 <= 502038.83398402622
 c3820: 120 p_1_10 + 120 p_1_2 + 120 p_1_3 + 120 p_1_7 + 120 p_1_8 + 100000 z_1_10 + 100000 z_1_2 + 100000 z_1_3 + 100000 z_1_7 + 100000 z_1_8 <= 502040.81612791069
 c3821: 120 p_1_1 + 120 p_1_10 + 120 p_1_2 + 120 p_1_3 + 120 p_1_7 + 120 p_1_8 + 100000 z_1_1 + 100000 z_1_10 + 100000 z_1_2 + 100000 z_1_3 + 100000 z_1_7 + 100000 z_1_8 <= 602037.29698323086
 c3822: 120 p_1_10 + 120 p_1_4 + 120 p_1_7 + 120 p_1_8 + 100000 z_1_10 + 100000 z_1_4 + 100000 z_1_7 + 100000 z_1_8 <= 402542.48447808868
 c3823: 120 p_1_1 + 120 p_1_10 + 120 p_1_4 + 120 p_1_7 + 120 p_1_8 + 100000 z_1_1 + 100000 z_1_10 + 100000 z_1_4 + 100000 z_1_7 + 100000 z_1_8 <= 502538.96533340885
 c3824: 120 p_1_10 + 120 p_1_2 + 120 p_1_4 + 120 p_1_7 + 120 p_1_8 + 100000 z_1_10 + 100000 z_1_2 + 100000 z_1_4 + 100000 z_1_7 + 100000 z_1_8 <= 502540.94747729338
 c3825: 120 p_1_1 + 120 p_1_10 + 120 p_1_2 + 120 p_1_4 + 120 p_1_7 + 120 p_1_8 + 100000 z_1_1 + 100000 z_1_10 + 100000 z_1_2 + 100000 z_1_4 + 100000 z_1_7 + 100000 z_1_8 <= 602537.42833261355
 c3826: 120 p_1_10 + 120 p_1_3 + 120 p_1_4 + 120 p_1_7 + 120 p_1_8 + 100000 z_1_10 + 100000 z_1_3 + 100000 z_1_4 + 100000 z_1_7 + 100000 z_1_8 <= 502042.3505011872
 c3827: 120 p_1_1 + 120 p_1_10 + 120 p_1_3 + 120 p_1_4 + 120 p_1_7 + 120 p_1_8 + 100000 z_1_1 + 100000 z_1_10 + 100000 z_1_3 + 100000 z_1_4 + 100000 z_1_7 + 100000 z_1_8 <= 602038.83135650738
 c3828: 120 p_1_10 + 120 p_1_2 + 120 p_1_3 + 120 p_1_4 + 120 p_1_7 + 120 p_1_8 + 100000 z_1_10 + 100000 z_1_2 + 100000 z_1_3 + 100000 z_1_4 + 100000 z_1_7 + 100000 z_1_8 <= 602040.8135003919
 c3829: 120 p_1_1 + 120 p_1_10 + 120 p_1_2 + 120 p_1_3 + 120 p_1_4 + 120 p_1_7 + 120 p_1_8 + 100000 z_1_1 + 100000 z_1_10 + 100000 z_1_2 + 100000 z_1_3 + 100000 z_1_4 + 100000 z_1_7 + 100000 z_1_8 <= 702037.29435571202
 c3830: 120 p_1_10 + 120 p_1_5 + 120 p_1_7 + 120 p_1_8 + 100000 z_1_10 + 100000 z_1_5 + 100000 z_1_7 + 100000 z_1_8 <= 402530.02710120147
 c3831: 120 p_1_1 + 120 p_1_10 + 120 p_1_5 + 120 p_1_7 + 120 p_1_8 + 100000 z_1_1 + 100000 z_1_10 + 100000 z_1_5 + 100000 z_1_7 + 100000 z_1_8 <= 502526.50795652164
 c3832: 120 p_1_10 + 120 p_1_2 + 120 p_1_5 + 120 p_1_7 + 120 p_1_8 + 100000 z_1_10 + 100000 z_1_2 + 100000 z_1_5 + 100000 z_1_7 + 100000 z_1_8 <= 502528.37669357326
 c3833: 120 p_1_1 + 120 p_1_10 + 120 p_1_2 + 120 p_1_5 + 120 p_1_7 + 120 p_1_8 + 100000 z_1_1 + 100000 z_1_10 + 100000 z_1_2 + 100000 z_1_5 + 100000 z_1_7 + 100000 z_1_8 <= 602524.85754889343
 c3834: 120 p_1_10 + 120 p_1_3 + 120 p_1_5 + 120 p_1_7 + 120 p_1_8 + 100000 z_1_10 + 100000 z_1_3 + 100000 z_1_5 + 100000 z_1_7 + 100000 z_1_8 <= 502033.44800982717
 c3835: 120 p_1_1 + 120 p_1_10 + 120 p_1_3 + 120 p_1_5 + 120 p_1_7 + 120 p_1_8 + 100000 z_1_1 + 100000 z_1_10 + 100000 z_1_3 + 100000 z_1_5 + 100000 z_1_7 + 100000 z_1_8 <= 602026.37397962017
 c3836: 120 p_1_10 + 120 p_1_2 + 120 p_1_3 + 120 p_1_5 + 120 p_1_7 + 120 p_1_8 + 100000 z_1_10 + 100000 z_1_2 + 100000 z_1_3 + 100000 z_1_5 + 100000 z_1_7 + 100000 z_1_8 <= 602031.91100903181
 c3837: 120 p_1_1 + 120 p_1_10 + 120 p_1_2 + 120 p_1_3 + 120 p_1_5 + 120 p_1_7 + 120 p_1_8 + 100000 z_1_1 + 100000 z_1_10 + 100000 z_1_2 + 100000 z_1_3 + 100000 z_1_5 + 100000 z_1_7 + 100000 z_1_8 <= 702024.7235719919
 c3838: 120 p_1_10 + 120 p_1_4 + 120 p_1_5 + 120 p_1_7 + 120 p_1_8 + 100000 z_1_10 + 100000 z_1_4 + 100000 z_1_5 + 100000 z_1_7 + 100000 z_1_8 <= 502530.02447368269
 c3839: 120 p_1_1 + 120 p_1_10 + 120 p_1_4 + 120 p_1_5 + 120 p_1_7 + 120 p_1_8 + 100000 z_1_1 + 100000 z_1_10 + 100000 z_1_4 + 100000 z_1_5 + 100000 z_1_7 + 100000 z_1_8 <= 602526.50532900286
 c3840: 120 p_1_10 + 120 p_1_2 + 120 p_1_4 + 120 p_1_5 + 120 p_1_7 + 120 p_1_8 + 100000 z_1_10 + 100000 z_1_2 + 100000 z_1_4 + 100000 z_1_5 + 100000 z_1_7 + 100000 z_1_8 <= 602528.37406605447
 c3841: 120 p_1_1 + 120 p_1_10 + 120 p_1_2 + 120 p_1_4 + 120 p_1_5 + 120 p_1_7 + 120 p_1_8 + 100000 z_1_1 + 100000 z_1_10 + 100000 z_1_2 + 100000 z_1_4 + 100000 z_1_5 + 100000 z_1_7 + 100000 z_1_8 <= 702524.85492137459
 c3842: 120 p_1_10 + 120 p_1_3 + 120 p_1_4 + 120 p_1_5 + 120 p_1_7 + 120 p_1_8 + 100000 z_1_10 + 100000 z_1_3 + 100000 z_1_4 + 100000 z_1_5 + 100000 z_1_7 + 100000 z_1_8 <= 602033.44538230833
 c3843: 120 p_1_1 + 120 p_1_10 + 120 p_1_3 + 120 p_1_4 + 120 p_1_5 + 120 p_1_7 + 120 p_1_8 + 100000 z_1_1 + 100000 z_1_10 + 100000 z_1_3 + 100000 z_1_4 + 100000 z_1_5 + 100000 z_1_7 + 100000 z_1_8 <= 702026.37135210144
 c3844: 120 p_1_10 + 120 p_1_2 + 120 p_1_3 + 120 p_1_4 + 120 p_1_5 + 120 p_1_7 + 120 p_1_8 + 100000 z_1_10 + 100000 z_1_2 + 100000 z_1_3 + 100000 z_1_4 + 100000 z_1_5 + 100000 z_1_7 + 100000 z_1_8 <= 702031.90838151309
 c3845: 120 p_1_1 + 120 p_1_10 + 120 p_1_2 + 120 p_1_3 + 120 p_1_4 + 120 p_1_5 + 120 p_1_7 + 120 p_1_8 + 100000 z_1_1 + 100000 z_1_10 + 100000 z_1_2 + 100000 z_1_3 + 100000 z_1_4 + 100000 z_1_5 + 100000 z_1_7 + 100000 z_1_8 <= 802024.72094447317
 c3846: 120 p_1_10 + 120 p_1_6 + 120 p_1_7 + 120 p_1_8 + 100000 z_1_10 + 100000 z_1_6 + 100000 z_1_7 + 100000 z_1_8 <= 402099.36887400213
 c3847: 120 p_1_1 + 120 p_1_10 + 120 p_1_6 + 120 p_1_7 + 120 p_1_8 + 100000 z_1_1 + 100000 z_1_10 + 100000 z_1_6 + 100000 z_1_7 + 100000 z_1_8 <= 502095.8497293223
 c3848: 120 p_1_10 + 120 p_1_2 + 120 p_1_6 + 120 p_1_7 + 120 p_1_8 + 100000 z_1_10 + 100000 z_1_2 + 100000 z_1_6 + 100000 z_1_7 + 100000 z_1_8 <= 502090.75382031291
 c3849: 120 p_1_1 + 120 p_1_10 + 120 p_1_2 + 120 p_1_6 + 120 p_1_7 + 120 p_1_8 + 100000 z_1_1 + 100000 z_1_10 + 100000 z_1_2 + 100000 z_1_6 + 100000 z_1_7 + 100000 z_1_8 <= 602087.23467563302
 c3850: 120 p_1_10 + 120 p_1_3 + 120 p_1_6 + 120 p_1_7 + 120 p_1_8 + 100000 z_1_10 + 100000 z_1_3 + 100000 z_1_6 + 100000 z_1_7 + 100000 z_1_8 <= 502029.71899808262
 c3851: 120 p_1_1 + 120 p_1_10 + 120 p_1_3 + 120 p_1_6 + 120 p_1_7 + 120 p_1_8 + 100000 z_1_1 + 100000 z_1_10 + 100000 z_1_3 + 100000 z_1_6 + 100000 z_1_7 + 100000 z_1_8 <= 602019.65280118212
 c3852: 120 p_1_10 + 120 p_1_2 + 120 p_1_3 + 120 p_1_6 + 120 p_1_7 + 120 p_1_8 + 100000 z_1_10 + 100000 z_1_2 + 100000 z_1_3 + 100000 z_1_6 + 100000 z_1_7 + 100000 z_1_8 <= 602028.18199728732
 c3853: 120 p_1_1 + 120 p_1_10 + 120 p_1_2 + 120 p_1_3 + 120 p_1_6 + 120 p_1_7 + 120 p_1_8 + 100000 z_1_1 + 100000 z_1_10 + 100000 z_1_2 + 100000 z_1_3 + 100000 z_1_6 + 100000 z_1_7 + 100000 z_1_8 <= 702018.11580038676
 c3854: 120 p_1_10 + 120 p_1_4 + 120 p_1_6 + 120 p_1_7 + 120 p_1_8 + 100000 z_1_10 + 100000 z_1_4 + 100000 z_1_6 + 100000 z_1_7 + 100000 z_1_8 <= 502099.36624648335
 c3855: 120 p_1_1 + 120 p_1_10 + 120 p_1_4 + 120 p_1_6 + 120 p_1_7 + 120 p_1_8 + 100000 z_1_1 + 100000 z_1_10 + 100000 z_1_4 + 100000 z_1_6 + 100000 z_1_7 + 100000 z_1_8 <= 602095.84710180352
 c3856: 120 p_1_10 + 120 p_1_2 + 120 p_1_4 + 120 p_1_6 + 120 p_1_7 + 120 p_1_8 + 100000 z_1_10 + 100000 z_1_2 + 100000 z_1_4 + 100000 z_1_6 + 100000 z_1_7 + 100000 z_1_8 <= 602090.75119279406
 c3857: 120 p_1_1 + 120 p_1_10 + 120 p_1_2 + 120 p_1_4 + 120 p_1_6 + 120 p_1_7 + 120 p_1_8 + 100000 z_1_1 + 100000 z_1_10 + 100000 z_1_2 + 100000 z_1_4 + 100000 z_1_6 + 100000 z_1_7 + 100000 z_1_8 <= 702087.2320481143
 c3858: 120 p_1_10 + 120 p_1_3 + 120 p_1_4 + 120 p_1_6 + 120 p_1_7 + 120 p_1_8 + 100000 z_1_10 + 100000 z_1_3 + 100000 z_1_4 + 100000 z_1_6 + 100000 z_1_7 + 100000 z_1_8 <= 602029.71637056384
 c3859: 120 p_1_1 + 120 p_1_10 + 120 p_1_3 + 120 p_1_4 + 120 p_1_6 + 120 p_1_7 + 120 p_1_8 + 100000 z_1_1 + 100000 z_1_10 + 100000 z_1_3 + 100000 z_1_4 + 100000 z_1_6 + 100000 z_1_7 + 100000 z_1_8 <= 702019.65017366328
 c3860: 120 p_1_10 + 120 p_1_2 + 120 p_1_3 + 120 p_1_4 + 120 p_1_6 + 120 p_1_7 + 120 p_1_8 + 100000 z_1_10 + 100000 z_1_2 + 100000 z_1_3 + 100000 z_1_4 + 100000 z_1_6 + 100000 z_1_7 + 100000 z_1_8 <= 702028.17936976848
 c3861: 120 p_1_1 + 120 p_1_10 + 120 p_1_2 + 120 p_1_3 + 120 p_1_4 + 120 p_1_6 + 120 p_1_7 + 120 p_1_8 + 100000 z_1_1 + 100000 z_1_10 + 100000 z_1_2 + 100000 z_1_3 + 100000 z_1_4 + 100000 z_1_6 + 100000 z_1_7 + 100000 z_1_8 <= 802018.11317286792
 c3862: 120 p_1_10 + 120 p_1_5 + 120 p_1_6 + 120 p_1_7 + 120 p_1_8 + 100000 z_1_10 + 100000 z_1_5 + 100000 z_1_6 + 100000 z_1_7 + 100000 z_1_8 <= 502099.18661706062
 c3863: 120 p_1_1 + 120 p_1_10 + 120 p_1_5 + 120 p_1_6 + 120 p_1_7 + 120 p_1_8 + 100000 z_1_1 + 100000 z_1_10 + 100000 z_1_5 + 100000 z_1_6 + 100000 z_1_7 + 100000 z_1_8 <= 602095.6674723808
 c3864: 120 p_1_10 + 120 p_1_2 + 120 p_1_5 + 120 p_1_6 + 120 p_1_7 + 120 p_1_8 + 100000 z_1_10 + 100000 z_1_2 + 100000 z_1_5 + 100000 z_1_6 + 100000 z_1_7 + 100000 z_1_8 <= 602089.76533411152
 c3865: 120 p_1_1 + 120 p_1_10 + 120 p_1_2 + 120 p_1_5 + 120 p_1_6 + 120 p_1_7 + 120 p_1_8 + 100000 z_1_1 + 100000 z_1_10 + 100000 z_1_2 + 100000 z_1_5 + 100000 z_1_6 + 100000 z_1_7 + 100000 z_1_8 <= 702081.85196890018
 c3866: 120 p_1_10 + 120 p_1_3 + 120 p_1_5 + 120 p_1_6 + 120 p_1_7 + 120 p_1_8 + 100000 z_1_10 + 100000 z_1_3 + 100000 z_1_5 + 100000 z_1_6 + 100000 z_1_7 + 100000 z_1_8 <= 602029.53674114111
 c3867: 120 p_1_1 + 120 p_1_10 + 120 p_1_3 + 120 p_1_5 + 120 p_1_6 + 120 p_1_7 + 120 p_1_8 + 100000 z_1_1 + 100000 z_1_10 + 100000 z_1_3 + 100000 z_1_5 + 100000 z_1_6 + 100000 z_1_7 + 100000 z_1_8 <= 702017.59629097464
 c3868: 120 p_1_10 + 120 p_1_2 + 120 p_1_3 + 120 p_1_5 + 120 p_1_6 + 120 p_1_7 + 120 p_1_8 + 100000 z_1_10 + 100000 z_1_2 + 100000 z_1_3 + 100000 z_1_5 + 100000 z_1_6 + 100000 z_1_7 + 100000 z_1_8 <= 702027.99974034575
 c3869: 120 p_1_1 + 120 p_1_10 + 120 p_1_2 + 120 p_1_3 + 120 p_1_5 + 120 p_1_6 + 120 p_1_7 + 120 p_1_8 + 100000 z_1_1 + 100000 z_1_10 + 100000 z_1_2 + 100000 z_1_3 + 100000 z_1_5 + 100000 z_1_6 + 100000 z_1_7 + 100000 z_1_8 <= 802016.0592901794
 c3870: 120 p_1_10 + 120 p_1_4 + 120 p_1_5 + 120 p_1_6 + 120 p_1_7 + 120 p_1_8 + 100000 z_1_10 + 100000 z_1_4 + 100000 z_1_5 + 100000 z_1_6 + 100000 z_1_7 + 100000 z_1_8 <= 602099.18398954184
 c3871: 120 p_1_1 + 120 p_1_10 + 120 p_1_4 + 120 p_1_5 + 120 p_1_6 + 120 p_1_7 + 120 p_1_8 + 100000 z_1_1 + 100000 z_1_10 + 100000 z_1_4 + 100000 z_1_5 + 100000 z_1_6 + 100000 z_1_7 + 100000 z_1_8 <= 702095.66484486195
 c3872: 120 p_1_10 + 120 p_1_2 + 120 p_1_4 + 120 p_1_5 + 120 p_1_6 + 120 p_1_7 + 120 p_1_8 + 100000 z_1_10 + 100000 z_1_2 + 100000 z_1_4 + 100000 z_1_5 + 100000 z_1_6 + 100000 z_1_7 + 100000 z_1_8 <= 702089.76270659268
 c3873: 120 p_1_1 + 120 p_1_10 + 120 p_1_2 + 120 p_1_4 + 120 p_1_5 + 120 p_1_6 + 120 p_1_7 + 120 p_1_8 + 100000 z_1_1 + 100000 z_1_10 + 100000 z_1_2 + 100000 z_1_4 + 100000 z_1_5 + 100000 z_1_6 + 100000 z_1_7 + 100000 z_1_8 <= 802081.84934138134
 c3874: 120 p_1_10 + 120 p_1_3 + 120 p_1_4 + 120 p_1_5 + 120 p_1_6 + 120 p_1_7 + 120 p_1_8 + 100000 z_1_10 + 100000 z_1_3 + 100000 z_1_4 + 100000 z_1_5 + 100000 z_1_6 + 100000 z_1_7 + 100000 z_1_8 <= 702029.53411362227
 c3875: 120 p_1_1 + 120 p_1_10 + 120 p_1_3 + 120 p_1_4 + 120 p_1_5 + 120 p_1_6 + 120 p_1_7 + 120 p_1_8 + 100000 z_1_1 + 100000 z_1_10 + 100000 z_1_3 + 100000 z_1_4 + 100000 z_1_5 + 100000 z_1_6 + 100000 z_1_7 + 100000 z_1_8 <= 802017.59366345592
 c3876: 120 p_1_10 + 120 p_1_2 + 120 p_1_3 + 120 p_1_4 + 120 p_1_5 + 120 p_1_6 + 120 p_1_7 + 120 p_1_8 + 100000 z_1_10 + 100000 z_1_2 + 100000 z_1_3 + 100000 z_1_4 + 100000 z_1_5 + 100000 z_1_6 + 100000 z_1_7 + 100000 z_1_8 <= 802027.99711282691
 c3877: 120 p_1_1 + 120 p_1_10 + 120 p_1_2 + 120 p_1_3 + 120 p_1_4 + 120 p_1_5 + 120 p_1_6 + 120 p_1_7 + 120 p_1_8 + 100000 z_1_1 + 100000 z_1_10 + 100000 z_1_2 + 100000 z_1_3 + 100000 z_1_4 + 100000 z_1_5 + 100000 z_1_6 + 100000 z_1_7 + 100000 z_1_8 <= 902016.05666266056
 c3878: 120 p_1_10 + 120 p_1_9 + 100000 z_1_10 + 100000 z_1_9 <= 202645.46397222046
 c3879: 120 p_1_1 + 120 p_1_10 + 120 p_1_9 + 100000 z_1_1 + 100000 z_1_10 + 100000 z_1_9 <= 302625.28357264894
 c3880: 120 p_1_10 + 120 p_1_2 + 120 p_1_9 + 100000 z_1_10 + 100000 z_1_2 + 100000 z_1_9 <= 302418.16505539138
 c3881: 120 p_1_1 + 120 p_1_10 + 120 p_1_2 + 120 p_1_9 + 100000 z_1_1 + 100000 z_1_10 + 100000 z_1_2 + 100000 z_1_9 <= 402407.47833764029
 c3882: 120 p_1_10 + 120 p_1_3 + 120 p_1_9 + 100000 z_1_10 + 100000 z_1_3 + 100000 z_1_9 <= 302554.2535387791
 c3883: 120 p_1_1 + 120 p_1_10 + 120 p_1_3 + 120 p_1_9 + 100000 z_1_1 + 100000 z_1_10 + 100000 z_1_3 + 100000 z_1_9 <= 402534.07313920761
 c3884: 120 p_1_10 + 120 p_1_2 + 120 p_1_3 + 120 p_1_9 + 100000 z_1_10 + 100000 z_1_2 + 100000 z_1_3 + 100000 z_1_9 <= 402326.95462194999
 c3885: 120 p_1_1 + 120 p_1_10 + 120 p_1_2 + 120 p_1_3 + 120 p_1_9 + 100000 z_1_1 + 100000 z_1_10 + 100000 z_1_2 + 100000 z_1_3 + 100000 z_1_9 <= 502306.7742223785
 c3886: 120 p_1_10 + 120 p_1_4 + 120 p_1_9 + 100000 z_1_10 + 100000 z_1_4 + 100000 z_1_9 <= 302605.70384248602
 c3887: 120 p_1_1 + 120 p_1_10 + 120 p_1_4 + 120 p_1_9 + 100000 z_1_1 + 100000 z_1_10 + 100000 z_1_4 + 100000 z_1_9 <= 402595.14708178962
 c3888: 120 p_1_10 + 120 p_1_2 + 120 p_1_4 + 120 p_1_9 + 100000 z_1_10 + 100000 z_1_2 + 100000 z_1_4 + 100000 z_1_9 <= 402379.72103630065
 c3889: 120 p_1_1 + 120 p_1_10 + 120 p_1_2 + 120 p_1_4 + 120 p_1_9 + 100000 z_1_1 + 100000 z_1_10 + 100000 z_1_2 + 100000 z_1_4 + 100000 z_1_9 <= 502377.34184678097
 c3890: 120 p_1_10 + 120 p_1_3 + 120 p_1_4 + 120 p_1_9 + 100000 z_1_10 + 100000 z_1_3 + 100000 z_1_4 + 100000 z_1_9 <= 402516.13116662129
 c3891: 120 p_1_1 + 120 p_1_10 + 120 p_1_3 + 120 p_1_4 + 120 p_1_9 + 100000 z_1_1 + 100000 z_1_10 + 100000 z_1_3 + 100000 z_1_4 + 100000 z_1_9 <= 502503.93664834829
 c3892: 120 p_1_10 + 120 p_1_2 + 120 p_1_3 + 120 p_1_4 + 120 p_1_9 + 100000 z_1_10 + 100000 z_1_2 + 100000 z_1_3 + 100000 z_1_4 + 100000 z_1_9 <= 502288.83224979218
 c3893: 120 p_1_1 + 120 p_1_10 + 120 p_1_2 + 120 p_1_3 + 120 p_1_4 + 120 p_1_9 + 100000 z_1_1 + 100000 z_1_10 + 100000 z_1_2 + 100000 z_1_3 + 100000 z_1_4 + 100000 z_1_9 <= 602276.63773151918
 c3894: 120 p_1_10 + 120 p_1_5 + 120 p_1_9 + 100000 z_1_10 + 100000 z_1_5 + 100000 z_1_9 <= 302355.18059742119
 c3895: 120 p_1_1 + 120 p_1_10 + 120 p_1_5 + 120 p_1_9 + 100000 z_1_1 + 100000 z_1_10 + 100000 z_1_5 + 100000 z_1_9 <= 402345.1047758637
 c3896: 120 p_1_10 + 120 p_1_2 + 120 p_1_5 + 120 p_1_9 + 100000 z_1_10 + 100000 z_1_2 + 100000 z_1_5 + 100000 z_1_9 <= 402353.53018979297
 c3897: 120 p_1_1 + 120 p_1_10 + 120 p_1_2 + 120 p_1_5 + 120 p_1_9 + 100000 z_1_1 + 100000 z_1_10 + 100000 z_1_2 + 100000 z_1_5 + 100000 z_1_9 <= 502342.84347204189
 c3898: 120 p_1_10 + 120 p_1_3 + 120 p_1_5 + 120 p_1_9 + 100000 z_1_10 + 100000 z_1_3 + 100000 z_1_5 + 100000 z_1_9 <= 402263.97016397986
 c3899: 120 p_1_1 + 120 p_1_10 + 120 p_1_3 + 120 p_1_5 + 120 p_1_9 + 100000 z_1_1 + 100000 z_1_10 + 100000 z_1_3 + 100000 z_1_5 + 100000 z_1_9 <= 502243.78976440837
 c3900: 120 p_1_10 + 120 p_1_2 + 120 p_1_3 + 120 p_1_5 + 120 p_1_9 + 100000 z_1_10 + 100000 z_1_2 + 100000 z_1_3 + 100000 z_1_5 + 100000 z_1_9 <= 502262.31975635164
 c3901: 120 p_1_1 + 120 p_1_10 + 120 p_1_2 + 120 p_1_3 + 120 p_1_5 + 120 p_1_9 + 100000 z_1_1 + 100000 z_1_10 + 100000 z_1_2 + 100000 z_1_3 + 100000 z_1_5 + 100000 z_1_9 <= 602242.1393567801
 c3902: 120 p_1_10 + 120 p_1_4 + 120 p_1_5 + 120 p_1_9 + 100000 z_1_10 + 100000 z_1_4 + 100000 z_1_5 + 100000 z_1_9 <= 402316.89823181584
 c3903: 120 p_1_1 + 120 p_1_10 + 120 p_1_4 + 120 p_1_5 + 120 p_1_9 + 100000 z_1_1 + 100000 z_1_10 + 100000 z_1_4 + 100000 z_1_5 + 100000 z_1_9 <= 502314.96828500438
 c3904: 120 p_1_10 + 120 p_1_2 + 120 p_1_4 + 120 p_1_5 + 120 p_1_9 + 100000 z_1_10 + 100000 z_1_2 + 100000 z_1_4 + 100000 z_1_5 + 100000 z_1_9 <= 502315.0861707023
 c3905: 120 p_1_1 + 120 p_1_10 + 120 p_1_2 + 120 p_1_4 + 120 p_1_5 + 120 p_1_9 + 100000 z_1_1 + 100000 z_1_10 + 100000 z_1_2 + 100000 z_1_4 + 100000 z_1_5 + 100000 z_1_9 <= 602312.70698118256
 c3906: 120 p_1_10 + 120 p_1_3 + 120 p_1_4 + 120 p_1_5 + 120 p_1_9 + 100000 z_1_10 + 100000 z_1_3 + 100000 z_1_4 + 100000 z_1_5 + 100000 z_1_9 <= 502225.84779182205
 c3907: 120 p_1_1 + 120 p_1_10 + 120 p_1_3 + 120 p_1_4 + 120 p_1_5 + 120 p_1_9 + 100000 z_1_1 + 100000 z_1_10 + 100000 z_1_3 + 100000 z_1_4 + 100000 z_1_5 + 100000 z_1_9 <= 602213.65327354905
 c3908: 120 p_1_10 + 120 p_1_2 + 120 p_1_3 + 120 p_1_4 + 120 p_1_5 + 120 p_1_9 + 100000 z_1_10 + 100000 z_1_2 + 100000 z_1_3 + 100000 z_1_4 + 100000 z_1_5 + 100000 z_1_9 <= 602224.19738419377
 c3909: 120 p_1_1 + 120 p_1_10 + 120 p_1_2 + 120 p_1_3 + 120 p_1_4 + 120 p_1_5 + 120 p_1_9 + 100000 z_1_1 + 100000 z_1_10 + 100000 z_1_2 + 100000 z_1_3 + 100000 z_1_4 + 100000 z_1_5 + 100000 z_1_9 <= 702212.00286592077
 c3910: 120 p_1_10 + 120 p_1_6 + 120 p_1_9 + 100000 z_1_10 + 100000 z_1_6 + 100000 z_1_9 <= 302616.91331807023
 c3911: 120 p_1_1 + 120 p_1_10 + 120 p_1_6 + 120 p_1_9 + 100000 z_1_1 + 100000 z_1_10 + 100000 z_1_6 + 100000 z_1_9 <= 402596.73291849875
 c3912: 120 p_1_10 + 120 p_1_2 + 120 p_1_6 + 120 p_1_9 + 100000 z_1_10 + 100000 z_1_2 + 100000 z_1_6 + 100000 z_1_9 <= 402389.61440124112
 c3913: 120 p_1_1 + 120 p_1_10 + 120 p_1_2 + 120 p_1_6 + 120 p_1_9 + 100000 z_1_1 + 100000 z_1_10 + 100000 z_1_2 + 100000 z_1_6 + 100000 z_1_9 <= 502369.43400166964
 c3914: 120 p_1_10 + 120 p_1_3 + 120 p_1_6 + 120 p_1_9 + 100000 z_1_10 + 100000 z_1_3 + 100000 z_1_6 + 100000 z_1_9 <= 402551.12063934945
 c3915: 120 p_1_1 + 120 p_1_10 + 120 p_1_3 + 120 p_1_6 + 120 p_1_9 + 100000 z_1_1 + 100000 z_1_10 + 100000 z_1_3 + 100000 z_1_6 + 100000 z_1_9 <= 502530.94023977796
 c3916: 120 p_1_10 + 120 p_1_2 + 120 p_1_3 + 120 p_1_6 + 120 p_1_9 + 100000 z_1_10 + 100000 z_1_2 + 100000 z_1_3 + 100000 z_1_6 + 100000 z_1_9 <= 502323.82172252034
 c3917: 120 p_1_1 + 120 p_1_10 + 120 p_1_2 + 120 p_1_3 + 120 p_1_6 + 120 p_1_9 + 100000 z_1_1 + 100000 z_1_10 + 100000 z_1_2 + 100000 z_1_3 + 100000 z_1_6 + 100000 z_1_9 <= 602303.64132294885
 c3918: 120 p_1_10 + 120 p_1_4 + 120 p_1_6 + 120 p_1_9 + 100000 z_1_10 + 100000 z_1_4 + 100000 z_1_6 + 100000 z_1_9 <= 402577.7732780684
 c3919: 120 p_1_1 + 120 p_1_10 + 120 p_1_4 + 120 p_1_6 + 120 p_1_9 + 100000 z_1_1 + 100000 z_1_10 + 100000 z_1_4 + 100000 z_1_6 + 100000 z_1_9 <= 502566.59642763942
 c3920: 120 p_1_10 + 120 p_1_2 + 120 p_1_4 + 120 p_1_6 + 120 p_1_9 + 100000 z_1_10 + 100000 z_1_2 + 100000 z_1_4 + 100000 z_1_6 + 100000 z_1_9 <= 502350.47436123929
 c3921: 120 p_1_1 + 120 p_1_10 + 120 p_1_2 + 120 p_1_4 + 120 p_1_6 + 120 p_1_9 + 100000 z_1_1 + 100000 z_1_10 + 100000 z_1_2 + 100000 z_1_4 + 100000 z_1_6 + 100000 z_1_9 <= 602339.29751081031
 c3922: 120 p_1_10 + 120 p_1_3 + 120 p_1_4 + 120 p_1_6 + 120 p_1_9 + 100000 z_1_10 + 100000 z_1_3 + 100000 z_1_4 + 100000 z_1_6 + 100000 z_1_9 <= 502512.99826719164
 c3923: 120 p_1_1 + 120 p_1_10 + 120 p_1_3 + 120 p_1_4 + 120 p_1_6 + 120 p_1_9 + 100000 z_1_1 + 100000 z_1_10 + 100000 z_1_3 + 100000 z_1_4 + 100000 z_1_6 + 100000 z_1_9 <= 602500.8037489187
 c3924: 120 p_1_10 + 120 p_1_2 + 120 p_1_3 + 120 p_1_4 + 120 p_1_6 + 120 p_1_9 + 100000 z_1_10 + 100000 z_1_2 + 100000 z_1_3 + 100000 z_1_4 + 100000 z_1_6 + 100000 z_1_9 <= 602285.69935036253
 c3925: 120 p_1_1 + 120 p_1_10 + 120 p_1_2 + 120 p_1_3 + 120 p_1_4 + 120 p_1_6 + 120 p_1_9 + 100000 z_1_1 + 100000 z_1_10 + 100000 z_1_2 + 100000 z_1_3 + 100000 z_1_4 + 100000 z_1_6 + 100000 z_1_9 <= 702273.50483208953
 c3926: 120 p_1_10 + 120 p_1_5 + 120 p_1_6 + 120 p_1_9 + 100000 z_1_10 + 100000 z_1_5 + 100000 z_1_6 + 100000 z_1_9 <= 402326.62994327099
 c3927: 120 p_1_1 + 120 p_1_10 + 120 p_1_5 + 120 p_1_6 + 120 p_1_9 + 100000 z_1_1 + 100000 z_1_10 + 100000 z_1_5 + 100000 z_1_6 + 100000 z_1_9 <= 502306.44954369951
 c3928: 120 p_1_10 + 120 p_1_2 + 120 p_1_5 + 120 p_1_6 + 120 p_1_9 + 100000 z_1_10 + 100000 z_1_2 + 100000 z_1_5 + 100000 z_1_6 + 100000 z_1_9 <= 502324.97953564278
 c3929: 120 p_1_1 + 120 p_1_10 + 120 p_1_2 + 120 p_1_5 + 120 p_1_6 + 120 p_1_9 + 100000 z_1_1 + 100000 z_1_10 + 100000 z_1_2 + 100000 z_1_5 + 100000 z_1_6 + 100000 z_1_9 <= 602304.79913607123
 c3930: 120 p_1_10 + 120 p_1_3 + 120 p_1_5 + 120 p_1_6 + 120 p_1_9 + 100000 z_1_10 + 100000 z_1_3 + 100000 z_1_5 + 100000 z_1_6 + 100000 z_1_9 <= 502260.83726455021
 c3931: 120 p_1_1 + 120 p_1_10 + 120 p_1_3 + 120 p_1_5 + 120 p_1_6 + 120 p_1_9 + 100000 z_1_1 + 100000 z_1_10 + 100000 z_1_3 + 100000 z_1_5 + 100000 z_1_6 + 100000 z_1_9 <= 602240.65686497872
 c3932: 120 p_1_10 + 120 p_1_2 + 120 p_1_3 + 120 p_1_5 + 120 p_1_6 + 120 p_1_9 + 100000 z_1_10 + 100000 z_1_2 + 100000 z_1_3 + 100000 z_1_5 + 100000 z_1_6 + 100000 z_1_9 <= 602259.186856922
 c3933: 120 p_1_1 + 120 p_1_10 + 120 p_1_2 + 120 p_1_3 + 120 p_1_5 + 120 p_1_6 + 120 p_1_9 + 100000 z_1_1 + 100000 z_1_10 + 100000 z_1_2 + 100000 z_1_3 + 100000 z_1_5 + 100000 z_1_6 + 100000 z_1_9 <= 702239.00645735045
 c3934: 120 p_1_10 + 120 p_1_4 + 120 p_1_5 + 120 p_1_6 + 120 p_1_9 + 100000 z_1_10 + 100000 z_1_4 + 100000 z_1_5 + 100000 z_1_6 + 100000 z_1_9 <= 502287.48990326916
 c3935: 120 p_1_1 + 120 p_1_10 + 120 p_1_4 + 120 p_1_5 + 120 p_1_6 + 120 p_1_9 + 100000 z_1_1 + 100000 z_1_10 + 100000 z_1_4 + 100000 z_1_5 + 100000 z_1_6 + 100000 z_1_9 <= 602276.31305284018
 c3936: 120 p_1_10 + 120 p_1_2 + 120 p_1_4 + 120 p_1_5 + 120 p_1_6 + 120 p_1_9 + 100000 z_1_10 + 100000 z_1_2 + 100000 z_1_4 + 100000 z_1_5 + 100000 z_1_6 + 100000 z_1_9 <= 602285.83949564083
 c3937: 120 p_1_1 + 120 p_1_10 + 120 p_1_2 + 120 p_1_4 + 120 p_1_5 + 120 p_1_6 + 120 p_1_9 + 100000 z_1_1 + 100000 z_1_10 + 100000 z_1_2 + 100000 z_1_4 + 100000 z_1_5 + 100000 z_1_6 + 100000 z_1_9 <= 702274.66264521191
 c3938: 120 p_1_10 + 120 p_1_3 + 120 p_1_4 + 120 p_1_5 + 120 p_1_6 + 120 p_1_9 + 100000 z_1_10 + 100000 z_1_3 + 100000 z_1_4 + 100000 z_1_5 + 100000 z_1_6 + 100000 z_1_9 <= 602222.7148923924
 c3939: 120 p_1_1 + 120 p_1_10 + 120 p_1_3 + 120 p_1_4 + 120 p_1_5 + 120 p_1_6 + 120 p_1_9 + 100000 z_1_1 + 100000 z_1_10 + 100000 z_1_3 + 100000 z_1_4 + 100000 z_1_5 + 100000 z_1_6 + 100000 z_1_9 <= 702210.5203741194
 c3940: 120 p_1_10 + 120 p_1_2 + 120 p_1_3 + 120 p_1_4 + 120 p_1_5 + 120 p_1_6 + 120 p_1_9 + 100000 z_1_10 + 100000 z_1_2 + 100000 z_1_3 + 100000 z_1_4 + 100000 z_1_5 + 100000 z_1_6 + 100000 z_1_9 <= 702221.06448476412
 c3941: 120 p_1_1 + 120 p_1_10 + 120 p_1_2 + 120 p_1_3 + 120 p_1_4 + 120 p_1_5 + 120 p_1_6 + 120 p_1_9 + 100000 z_1_1 + 100000 z_1_10 + 100000 z_1_2 + 100000 z_1_3 + 100000 z_1_4 + 100000 z_1_5 + 100000 z_1_6 + 100000 z_1_9 <= 802208.86996649113
 c3942: 120 p_1_10 + 120 p_1_7 + 120 p_1_9 + 100000 z_1_10 + 100000 z_1_7 + 100000 z_1_9 <= 302473.05716380547
 c3943: 120 p_1_1 + 120 p_1_10 + 120 p_1_7 + 120 p_1_9 + 100000 z_1_1 + 100000 z_1_10 + 100000 z_1_7 + 100000 z_1_9 <= 402467.57794533827
 c3944: 120 p_1_10 + 120 p_1_2 + 120 p_1_7 + 120 p_1_9 + 100000 z_1_10 + 100000 z_1_2 + 100000 z_1_7 + 100000 z_1_9 <= 402250.51290480304
 c3945: 120 p_1_1 + 120 p_1_10 + 120 p_1_2 + 120 p_1_7 + 120 p_1_9 + 100000 z_1_1 + 100000 z_1_10 + 100000 z_1_2 + 100000 z_1_7 + 100000 z_1_9 <= 502249.77271032956
 c3946: 120 p_1_10 + 120 p_1_3 + 120 p_1_7 + 120 p_1_9 + 100000 z_1_10 + 100000 z_1_3 + 100000 z_1_7 + 100000 z_1_9 <= 402388.30796206335
 c3947: 120 p_1_1 + 120 p_1_10 + 120 p_1_3 + 120 p_1_7 + 120 p_1_9 + 100000 z_1_1 + 100000 z_1_10 + 100000 z_1_3 + 100000 z_1_7 + 100000 z_1_9 <= 502376.36751189688
 c3948: 120 p_1_10 + 120 p_1_2 + 120 p_1_3 + 120 p_1_7 + 120 p_1_9 + 100000 z_1_10 + 100000 z_1_2 + 100000 z_1_3 + 100000 z_1_7 + 100000 z_1_9 <= 502161.00904523424
 c3949: 120 p_1_1 + 120 p_1_10 + 120 p_1_2 + 120 p_1_3 + 120 p_1_7 + 120 p_1_9 + 100000 z_1_1 + 100000 z_1_10 + 100000 z_1_2 + 100000 z_1_3 + 100000 z_1_7 + 100000 z_1_9 <= 602149.06859506783
 c3950: 120 p_1_10 + 120 p_1_4 + 120 p_1_7 + 120 p_1_9 + 100000 z_1_10 + 100000 z_1_4 + 100000 z_1_7 + 100000 z_1_9 <= 402473.05453628668
 c3951: 120 p_1_1 + 120 p_1_10 + 120 p_1_4 + 120 p_1_7 + 120 p_1_9 + 100000 z_1_1 + 100000 z_1_10 + 100000 z_1_4 + 100000 z_1_7 + 100000 z_1_9 <= 502467.57531781943
 c3952: 120 p_1_10 + 120 p_1_2 + 120 p_1_4 + 120 p_1_7 + 120 p_1_9 + 100000 z_1_10 + 100000 z_1_2 + 100000 z_1_4 + 100000 z_1_7 + 100000 z_1_9 <= 502250.51027728425
 c3953: 120 p_1_1 + 120 p_1_10 + 120 p_1_2 + 120 p_1_4 + 120 p_1_7 + 120 p_1_9 + 100000 z_1_1 + 100000 z_1_10 + 100000 z_1_2 + 100000 z_1_4 + 100000 z_1_7 + 100000 z_1_9 <= 602249.77008281078
 c3954: 120 p_1_10 + 120 p_1_3 + 120 p_1_4 + 120 p_1_7 + 120 p_1_9 + 100000 z_1_10 + 100000 z_1_3 + 100000 z_1_4 + 100000 z_1_7 + 100000 z_1_9 <= 502388.30533454451
 c3955: 120 p_1_1 + 120 p_1_10 + 120 p_1_3 + 120 p_1_4 + 120 p_1_7 + 120 p_1_9 + 100000 z_1_1 + 100000 z_1_10 + 100000 z_1_3 + 100000 z_1_4 + 100000 z_1_7 + 100000 z_1_9 <= 602376.36488437816
 c3956: 120 p_1_10 + 120 p_1_2 + 120 p_1_3 + 120 p_1_4 + 120 p_1_7 + 120 p_1_9 + 100000 z_1_10 + 100000 z_1_2 + 100000 z_1_3 + 100000 z_1_4 + 100000 z_1_7 + 100000 z_1_9 <= 602161.00641771546
 c3957: 120 p_1_1 + 120 p_1_10 + 120 p_1_2 + 120 p_1_3 + 120 p_1_4 + 120 p_1_7 + 120 p_1_9 + 100000 z_1_1 + 100000 z_1_10 + 100000 z_1_2 + 100000 z_1_3 + 100000 z_1_4 + 100000 z_1_7 + 100000 z_1_9 <= 702149.06596754899
 c3958: 120 p_1_10 + 120 p_1_5 + 120 p_1_7 + 120 p_1_9 + 100000 z_1_10 + 100000 z_1_5 + 100000 z_1_7 + 100000 z_1_9 <= 402188.64489731006
 c3959: 120 p_1_1 + 120 p_1_10 + 120 p_1_5 + 120 p_1_7 + 120 p_1_9 + 100000 z_1_1 + 100000 z_1_10 + 100000 z_1_5 + 100000 z_1_7 + 100000 z_1_9 <= 502187.39914855303
 c3960: 120 p_1_10 + 120 p_1_2 + 120 p_1_5 + 120 p_1_7 + 120 p_1_9 + 100000 z_1_10 + 100000 z_1_2 + 100000 z_1_5 + 100000 z_1_7 + 100000 z_1_9 <= 502185.87803920463
 c3961: 120 p_1_1 + 120 p_1_10 + 120 p_1_2 + 120 p_1_5 + 120 p_1_7 + 120 p_1_9 + 100000 z_1_1 + 100000 z_1_10 + 100000 z_1_2 + 100000 z_1_5 + 100000 z_1_7 + 100000 z_1_9 <= 602185.13784473122
 c3962: 120 p_1_10 + 120 p_1_3 + 120 p_1_5 + 120 p_1_7 + 120 p_1_9 + 100000 z_1_10 + 100000 z_1_3 + 100000 z_1_5 + 100000 z_1_7 + 100000 z_1_9 <= 502098.02458726411
 c3963: 120 p_1_1 + 120 p_1_10 + 120 p_1_3 + 120 p_1_5 + 120 p_1_7 + 120 p_1_9 + 100000 z_1_1 + 100000 z_1_10 + 100000 z_1_3 + 100000 z_1_5 + 100000 z_1_7 + 100000 z_1_9 <= 602086.0841370977
 c3964: 120 p_1_10 + 120 p_1_2 + 120 p_1_3 + 120 p_1_5 + 120 p_1_7 + 120 p_1_9 + 100000 z_1_10 + 100000 z_1_2 + 100000 z_1_3 + 100000 z_1_5 + 100000 z_1_7 + 100000 z_1_9 <= 602096.37417963578
 c3965: 120 p_1_1 + 120 p_1_10 + 120 p_1_2 + 120 p_1_3 + 120 p_1_5 + 120 p_1_7 + 120 p_1_9 + 100000 z_1_1 + 100000 z_1_10 + 100000 z_1_2 + 100000 z_1_3 + 100000 z_1_5 + 100000 z_1_7 + 100000 z_1_9 <= 702084.43372946943
 c3966: 120 p_1_10 + 120 p_1_4 + 120 p_1_5 + 120 p_1_7 + 120 p_1_9 + 100000 z_1_10 + 100000 z_1_4 + 100000 z_1_5 + 100000 z_1_7 + 100000 z_1_9 <= 502188.64226979128
 c3967: 120 p_1_1 + 120 p_1_10 + 120 p_1_4 + 120 p_1_5 + 120 p_1_7 + 120 p_1_9 + 100000 z_1_1 + 100000 z_1_10 + 100000 z_1_4 + 100000 z_1_5 + 100000 z_1_7 + 100000 z_1_9 <= 602187.39652103418
 c3968: 120 p_1_10 + 120 p_1_2 + 120 p_1_4 + 120 p_1_5 + 120 p_1_7 + 120 p_1_9 + 100000 z_1_10 + 100000 z_1_2 + 100000 z_1_4 + 100000 z_1_5 + 100000 z_1_7 + 100000 z_1_9 <= 602185.87541168591
 c3969: 120 p_1_1 + 120 p_1_10 + 120 p_1_2 + 120 p_1_4 + 120 p_1_5 + 120 p_1_7 + 120 p_1_9 + 100000 z_1_1 + 100000 z_1_10 + 100000 z_1_2 + 100000 z_1_4 + 100000 z_1_5 + 100000 z_1_7 + 100000 z_1_9 <= 702185.13521721237
 c3970: 120 p_1_10 + 120 p_1_3 + 120 p_1_4 + 120 p_1_5 + 120 p_1_7 + 120 p_1_9 + 100000 z_1_10 + 100000 z_1_3 + 100000 z_1_4 + 100000 z_1_5 + 100000 z_1_7 + 100000 z_1_9 <= 602098.02195974533
 c3971: 120 p_1_1 + 120 p_1_10 + 120 p_1_3 + 120 p_1_4 + 120 p_1_5 + 120 p_1_7 + 120 p_1_9 + 100000 z_1_1 + 100000 z_1_10 + 100000 z_1_3 + 100000 z_1_4 + 100000 z_1_5 + 100000 z_1_7 + 100000 z_1_9 <= 702086.08150957886
 c3972: 120 p_1_10 + 120 p_1_2 + 120 p_1_3 + 120 p_1_4 + 120 p_1_5 + 120 p_1_7 + 120 p_1_9 + 100000 z_1_10 + 100000 z_1_2 + 100000 z_1_3 + 100000 z_1_4 + 100000 z_1_5 + 100000 z_1_7 + 100000 z_1_9 <= 702096.37155211705
 c3973: 120 p_1_1 + 120 p_1_10 + 120 p_1_2 + 120 p_1_3 + 120 p_1_4 + 120 p_1_5 + 120 p_1_7 + 120 p_1_9 + 100000 z_1_1 + 100000 z_1_10 + 100000 z_1_2 + 100000 z_1_3 + 100000 z_1_4 + 100000 z_1_5 + 100000 z_1_7 + 100000 z_1_9 <= 802084.43110195058
 c3974: 120 p_1_10 + 120 p_1_6 + 120 p_1_7 + 120 p_1_9 + 100000 z_1_10 + 100000 z_1_6 + 100000 z_1_7 + 100000 z_1_9 <= 402446.94065639941
 c3975: 120 p_1_1 + 120 p_1_10 + 120 p_1_6 + 120 p_1_7 + 120 p_1_9 + 100000 z_1_1 + 100000 z_1_10 + 100000 z_1_6 + 100000 z_1_7 + 100000 z_1_9 <= 502439.02729118802
 c3976: 120 p_1_10 + 120 p_1_2 + 120 p_1_6 + 120 p_1_7 + 120 p_1_9 + 100000 z_1_10 + 100000 z_1_2 + 100000 z_1_6 + 100000 z_1_7 + 100000 z_1_9 <= 502219.6417395703
 c3977: 120 p_1_1 + 120 p_1_10 + 120 p_1_2 + 120 p_1_6 + 120 p_1_7 + 120 p_1_9 + 100000 z_1_1 + 100000 z_1_10 + 100000 z_1_2 + 100000 z_1_6 + 100000 z_1_7 + 100000 z_1_9 <= 602211.72837435897
 c3978: 120 p_1_10 + 120 p_1_3 + 120 p_1_6 + 120 p_1_7 + 120 p_1_9 + 100000 z_1_10 + 100000 z_1_3 + 100000 z_1_6 + 100000 z_1_7 + 100000 z_1_9 <= 502385.1750626337
 c3979: 120 p_1_1 + 120 p_1_10 + 120 p_1_3 + 120 p_1_6 + 120 p_1_7 + 120 p_1_9 + 100000 z_1_1 + 100000 z_1_10 + 100000 z_1_3 + 100000 z_1_6 + 100000 z_1_7 + 100000 z_1_9 <= 602373.23461246723
 c3980: 120 p_1_10 + 120 p_1_2 + 120 p_1_3 + 120 p_1_6 + 120 p_1_7 + 120 p_1_9 + 100000 z_1_10 + 100000 z_1_2 + 100000 z_1_3 + 100000 z_1_6 + 100000 z_1_7 + 100000 z_1_9 <= 602157.87614580453
 c3981: 120 p_1_1 + 120 p_1_10 + 120 p_1_2 + 120 p_1_3 + 120 p_1_6 + 120 p_1_7 + 120 p_1_9 + 100000 z_1_1 + 100000 z_1_10 + 100000 z_1_2 + 100000 z_1_3 + 100000 z_1_6 + 100000 z_1_7 + 100000 z_1_9 <= 702145.93569563818
 c3982: 120 p_1_10 + 120 p_1_4 + 120 p_1_6 + 120 p_1_7 + 120 p_1_9 + 100000 z_1_10 + 100000 z_1_4 + 100000 z_1_6 + 100000 z_1_7 + 100000 z_1_9 <= 502446.93802888063
 c3983: 120 p_1_1 + 120 p_1_10 + 120 p_1_4 + 120 p_1_6 + 120 p_1_7 + 120 p_1_9 + 100000 z_1_1 + 100000 z_1_10 + 100000 z_1_4 + 100000 z_1_6 + 100000 z_1_7 + 100000 z_1_9 <= 602439.02466366929
 c3984: 120 p_1_10 + 120 p_1_2 + 120 p_1_4 + 120 p_1_6 + 120 p_1_7 + 120 p_1_9 + 100000 z_1_10 + 100000 z_1_2 + 100000 z_1_4 + 100000 z_1_6 + 100000 z_1_7 + 100000 z_1_9 <= 602219.63911205146
 c3985: 120 p_1_1 + 120 p_1_10 + 120 p_1_2 + 120 p_1_4 + 120 p_1_6 + 120 p_1_7 + 120 p_1_9 + 100000 z_1_1 + 100000 z_1_10 + 100000 z_1_2 + 100000 z_1_4 + 100000 z_1_6 + 100000 z_1_7 + 100000 z_1_9 <= 702211.72574684012
 c3986: 120 p_1_10 + 120 p_1_3 + 120 p_1_4 + 120 p_1_6 + 120 p_1_7 + 120 p_1_9 + 100000 z_1_10 + 100000 z_1_3 + 100000 z_1_4 + 100000 z_1_6 + 100000 z_1_7 + 100000 z_1_9 <= 602385.17243511486
 c3987: 120 p_1_1 + 120 p_1_10 + 120 p_1_3 + 120 p_1_4 + 120 p_1_6 + 120 p_1_7 + 120 p_1_9 + 100000 z_1_1 + 100000 z_1_10 + 100000 z_1_3 + 100000 z_1_4 + 100000 z_1_6 + 100000 z_1_7 + 100000 z_1_9 <= 702373.23198494851
 c3988: 120 p_1_10 + 120 p_1_2 + 120 p_1_3 + 120 p_1_4 + 120 p_1_6 + 120 p_1_7 + 120 p_1_9 + 100000 z_1_10 + 100000 z_1_2 + 100000 z_1_3 + 100000 z_1_4 + 100000 z_1_6 + 100000 z_1_7 + 100000 z_1_9 <= 702157.87351828581
 c3989: 120 p_1_1 + 120 p_1_10 + 120 p_1_2 + 120 p_1_3 + 120 p_1_4 + 120 p_1_6 + 120 p_1_7 + 120 p_1_9 + 100000 z_1_1 + 100000 z_1_10 + 100000 z_1_2 + 100000 z_1_3 + 100000 z_1_4 + 100000 z_1_6 + 100000 z_1_7 + 100000 z_1_9 <= 802145.93306811934
 c3990: 120 p_1_10 + 120 p_1_5 + 120 p_1_6 + 120 p_1_7 + 120 p_1_9 + 100000 z_1_10 + 100000 z_1_5 + 100000 z_1_6 + 100000 z_1_7 + 100000 z_1_9 <= 502156.65728160017
 c3991: 120 p_1_1 + 120 p_1_10 + 120 p_1_5 + 120 p_1_6 + 120 p_1_7 + 120 p_1_9 + 100000 z_1_1 + 100000 z_1_10 + 100000 z_1_5 + 100000 z_1_6 + 100000 z_1_7 + 100000 z_1_9 <= 602148.74391638883
 c3992: 120 p_1_10 + 120 p_1_2 + 120 p_1_5 + 120 p_1_6 + 120 p_1_7 + 120 p_1_9 + 100000 z_1_10 + 100000 z_1_2 + 100000 z_1_5 + 100000 z_1_6 + 100000 z_1_7 + 100000 z_1_9 <= 602155.0068739719
 c3993: 120 p_1_1 + 120 p_1_10 + 120 p_1_2 + 120 p_1_5 + 120 p_1_6 + 120 p_1_7 + 120 p_1_9 + 100000 z_1_1 + 100000 z_1_10 + 100000 z_1_2 + 100000 z_1_5 + 100000 z_1_6 + 100000 z_1_7 + 100000 z_1_9 <= 702147.09350876056
 c3994: 120 p_1_10 + 120 p_1_3 + 120 p_1_5 + 120 p_1_6 + 120 p_1_7 + 120 p_1_9 + 100000 z_1_10 + 100000 z_1_3 + 100000 z_1_5 + 100000 z_1_6 + 100000 z_1_7 + 100000 z_1_9 <= 602094.8916878344
 c3995: 120 p_1_1 + 120 p_1_10 + 120 p_1_3 + 120 p_1_5 + 120 p_1_6 + 120 p_1_7 + 120 p_1_9 + 100000 z_1_1 + 100000 z_1_10 + 100000 z_1_3 + 100000 z_1_5 + 100000 z_1_6 + 100000 z_1_7 + 100000 z_1_9 <= 702082.95123766805
 c3996: 120 p_1_10 + 120 p_1_2 + 120 p_1_3 + 120 p_1_5 + 120 p_1_6 + 120 p_1_7 + 120 p_1_9 + 100000 z_1_10 + 100000 z_1_2 + 100000 z_1_3 + 100000 z_1_5 + 100000 z_1_6 + 100000 z_1_7 + 100000 z_1_9 <= 702093.24128020613
 c3997: 120 p_1_1 + 120 p_1_10 + 120 p_1_2 + 120 p_1_3 + 120 p_1_5 + 120 p_1_6 + 120 p_1_7 + 120 p_1_9 + 100000 z_1_1 + 100000 z_1_10 + 100000 z_1_2 + 100000 z_1_3 + 100000 z_1_5 + 100000 z_1_6 + 100000 z_1_7 + 100000 z_1_9 <= 802081.30083003978
 c3998: 120 p_1_10 + 120 p_1_4 + 120 p_1_5 + 120 p_1_6 + 120 p_1_7 + 120 p_1_9 + 100000 z_1_10 + 100000 z_1_4 + 100000 z_1_5 + 100000 z_1_6 + 100000 z_1_7 + 100000 z_1_9 <= 602156.65465408133
 c3999: 120 p_1_1 + 120 p_1_10 + 120 p_1_4 + 120 p_1_5 + 120 p_1_6 + 120 p_1_7 + 120 p_1_9 + 100000 z_1_1 + 100000 z_1_10 + 100000 z_1_4 + 100000 z_1_5 + 100000 z_1_6 + 100000 z_1_7 + 100000 z_1_9 <= 702148.74128886999
 c4000: 120 p_1_10 + 120 p_1_2 + 120 p_1_4 + 120 p_1_5 + 120 p_1_6 + 120 p_1_7 + 120 p_1_9 + 100000 z_1_10 + 100000 z_1_2 + 100000 z_1_4 + 100000 z_1_5 + 100000 z_1_6 + 100000 z_1_7 + 100000 z_1_9 <= 702155.00424645306
 c4001: 120 p_1_1 + 120 p_1_10 + 120 p_1_2 + 120 p_1_4 + 120 p_1_5 + 120 p_1_6 + 120 p_1_7 + 120 p_1_9 + 100000 z_1_1 + 100000 z_1_10 + 100000 z_1_2 + 100000 z_1_4 + 100000 z_1_5 + 100000 z_1_6 + 100000 z_1_7 + 100000 z_1_9 <= 802147.09088124172
 c4002: 120 p_1_10 + 120 p_1_3 + 120 p_1_4 + 120 p_1_5 + 120 p_1_6 + 120 p_1_7 + 120 p_1_9 + 100000 z_1_10 + 100000 z_1_3 + 100000 z_1_4 + 100000 z_1_5 + 100000 z_1_6 + 100000 z_1_7 + 100000 z_1_9 <= 702094.88906031568
 c4003: 120 p_1_1 + 120 p_1_10 + 120 p_1_3 + 120 p_1_4 + 120 p_1_5 + 120 p_1_6 + 120 p_1_7 + 120 p_1_9 + 100000 z_1_1 + 100000 z_1_10 + 100000 z_1_3 + 100000 z_1_4 + 100000 z_1_5 + 100000 z_1_6 + 100000 z_1_7 + 100000 z_1_9 <= 802082.94861014921
 c4004: 120 p_1_10 + 120 p_1_2 + 120 p_1_3 + 120 p_1_4 + 120 p_1_5 + 120 p_1_6 + 120 p_1_7 + 120 p_1_9 + 100000 z_1_10 + 100000 z_1_2 + 100000 z_1_3 + 100000 z_1_4 + 100000 z_1_5 + 100000 z_1_6 + 100000 z_1_7 + 100000 z_1_9 <= 802093.2386526874
 c4005: 120 p_1_1 + 120 p_1_10 + 120 p_1_2 + 120 p_1_3 + 120 p_1_4 + 120 p_1_5 + 120 p_1_6 + 120 p_1_7 + 120 p_1_9 + 100000 z_1_1 + 100000 z_1_10 + 100000 z_1_2 + 100000 z_1_3 + 100000 z_1_4 + 100000 z_1_5 + 100000 z_1_6 + 100000 z_1_7 + 100000 z_1_9 <= 902081.29820252093
 c4006: 120 p_1_10 + 120 p_1_8 + 120 p_1_9 + 100000 z_1_10 + 100000 z_1_8 + 100000 z_1_9 <= 302289.68190438038
 c4007: 120 p_1_1 + 120 p_1_10 + 120 p_1_8 + 120 p_1_9 + 100000 z_1_1 + 100000 z_1_10 + 100000 z_1_8 + 100000 z_1_9 <= 402282.40110200981
 c4008: 120 p_1_10 + 120 p_1_2 + 120 p_1_8 + 120 p_1_9 + 100000 z_1_10 + 100000 z_1_2 + 100000 z_1_8 + 100000 z_1_9 <= 402276.70502780267
 c4009: 120 p_1_1 + 120 p_1_10 + 120 p_1_2 + 120 p_1_8 + 120 p_1_9 + 100000 z_1_1 + 100000 z_1_10 + 100000 z_1_2 + 100000 z_1_8 + 100000 z_1_9 <= 502269.4242254321
 c4010: 120 p_1_10 + 120 p_1_3 + 120 p_1_8 + 120 p_1_9 + 100000 z_1_10 + 100000 z_1_3 + 100000 z_1_8 + 100000 z_1_9 <= 402178.57936820516
 c4011: 120 p_1_1 + 120 p_1_10 + 120 p_1_3 + 120 p_1_8 + 120 p_1_9 + 100000 z_1_1 + 100000 z_1_10 + 100000 z_1_3 + 100000 z_1_8 + 100000 z_1_9 <= 502158.39896863361
 c4012: 120 p_1_10 + 120 p_1_2 + 120 p_1_3 + 120 p_1_8 + 120 p_1_9 + 100000 z_1_10 + 100000 z_1_2 + 100000 z_1_3 + 100000 z_1_8 + 100000 z_1_9 <= 502177.0423674098
 c4013: 120 p_1_1 + 120 p_1_10 + 120 p_1_2 + 120 p_1_3 + 120 p_1_8 + 120 p_1_9 + 100000 z_1_1 + 100000 z_1_10 + 100000 z_1_2 + 100000 z_1_3 + 100000 z_1_8 + 100000 z_1_9 <= 602156.86196783825
 c4014: 120 p_1_10 + 120 p_1_4 + 120 p_1_8 + 120 p_1_9 + 100000 z_1_10 + 100000 z_1_4 + 100000 z_1_8 + 100000 z_1_9 <= 402253.05494123098
 c4015: 120 p_1_1 + 120 p_1_10 + 120 p_1_4 + 120 p_1_8 + 120 p_1_9 + 100000 z_1_1 + 100000 z_1_10 + 100000 z_1_4 + 100000 z_1_8 + 100000 z_1_9 <= 502252.26461115049
 c4016: 120 p_1_10 + 120 p_1_2 + 120 p_1_4 + 120 p_1_8 + 120 p_1_9 + 100000 z_1_10 + 100000 z_1_2 + 100000 z_1_4 + 100000 z_1_8 + 100000 z_1_9 <= 502240.07806465327
 c4017: 120 p_1_1 + 120 p_1_10 + 120 p_1_2 + 120 p_1_4 + 120 p_1_8 + 120 p_1_9 + 100000 z_1_1 + 100000 z_1_10 + 100000 z_1_2 + 100000 z_1_4 + 100000 z_1_8 + 100000 z_1_9 <= 602239.28773457278
 c4018: 120 p_1_10 + 120 p_1_3 + 120 p_1_4 + 120 p_1_8 + 120 p_1_9 + 100000 z_1_10 + 100000 z_1_3 + 100000 z_1_4 + 100000 z_1_8 + 100000 z_1_9 <= 502140.45699604729
 c4019: 120 p_1_1 + 120 p_1_10 + 120 p_1_3 + 120 p_1_4 + 120 p_1_8 + 120 p_1_9 + 100000 z_1_1 + 100000 z_1_10 + 100000 z_1_3 + 100000 z_1_4 + 100000 z_1_8 + 100000 z_1_9 <= 602128.26247777429
 c4020: 120 p_1_10 + 120 p_1_2 + 120 p_1_3 + 120 p_1_4 + 120 p_1_8 + 120 p_1_9 + 100000 z_1_10 + 100000 z_1_2 + 100000 z_1_3 + 100000 z_1_4 + 100000 z_1_8 + 100000 z_1_9 <= 602138.91999525193
 c4021: 120 p_1_1 + 120 p_1_10 + 120 p_1_2 + 120 p_1_3 + 120 p_1_4 + 120 p_1_8 + 120 p_1_9 + 100000 z_1_1 + 100000 z_1_10 + 100000 z_1_2 + 100000 z_1_3 + 100000 z_1_4 + 100000 z_1_8 + 100000 z_1_9 <= 702126.72547697893
 c4022: 120 p_1_10 + 120 p_1_5 + 120 p_1_8 + 120 p_1_9 + 100000 z_1_10 + 100000 z_1_5 + 100000 z_1_8 + 100000 z_1_9 <= 402289.67664529034
 c4023: 120 p_1_1 + 120 p_1_10 + 120 p_1_5 + 120 p_1_8 + 120 p_1_9 + 100000 z_1_1 + 100000 z_1_10 + 100000 z_1_5 + 100000 z_1_8 + 100000 z_1_9 <= 502282.39584291977
 c4024: 120 p_1_10 + 120 p_1_2 + 120 p_1_5 + 120 p_1_8 + 120 p_1_9 + 100000 z_1_10 + 100000 z_1_2 + 100000 z_1_5 + 100000 z_1_8 + 100000 z_1_9 <= 502268.24754176114
 c4025: 120 p_1_1 + 120 p_1_10 + 120 p_1_2 + 120 p_1_5 + 120 p_1_8 + 120 p_1_9 + 100000 z_1_1 + 100000 z_1_10 + 100000 z_1_2 + 100000 z_1_5 + 100000 z_1_8 + 100000 z_1_9 <= 602257.56082401006
 c4026: 120 p_1_10 + 120 p_1_3 + 120 p_1_5 + 120 p_1_8 + 120 p_1_9 + 100000 z_1_10 + 100000 z_1_3 + 100000 z_1_5 + 100000 z_1_8 + 100000 z_1_9 <= 502178.57410911511
 c4027: 120 p_1_1 + 120 p_1_10 + 120 p_1_3 + 120 p_1_5 + 120 p_1_8 + 120 p_1_9 + 100000 z_1_1 + 100000 z_1_10 + 100000 z_1_3 + 100000 z_1_5 + 100000 z_1_8 + 100000 z_1_9 <= 602158.39370954363
 c4028: 120 p_1_10 + 120 p_1_2 + 120 p_1_3 + 120 p_1_5 + 120 p_1_8 + 120 p_1_9 + 100000 z_1_10 + 100000 z_1_2 + 100000 z_1_3 + 100000 z_1_5 + 100000 z_1_8 + 100000 z_1_9 <= 602177.03710831981
 c4029: 120 p_1_1 + 120 p_1_10 + 120 p_1_2 + 120 p_1_3 + 120 p_1_5 + 120 p_1_8 + 120 p_1_9 + 100000 z_1_1 + 100000 z_1_10 + 100000 z_1_2 + 100000 z_1_3 + 100000 z_1_5 + 100000 z_1_8 + 100000 z_1_9 <= 702156.85670874827
 c4030: 120 p_1_10 + 120 p_1_4 + 120 p_1_5 + 120 p_1_8 + 120 p_1_9 + 100000 z_1_10 + 100000 z_1_4 + 100000 z_1_5 + 100000 z_1_8 + 100000 z_1_9 <= 502253.04968214093
 c4031: 120 p_1_1 + 120 p_1_10 + 120 p_1_4 + 120 p_1_5 + 120 p_1_8 + 120 p_1_9 + 100000 z_1_1 + 100000 z_1_10 + 100000 z_1_4 + 100000 z_1_5 + 100000 z_1_8 + 100000 z_1_9 <= 602252.2593520605
 c4032: 120 p_1_10 + 120 p_1_2 + 120 p_1_4 + 120 p_1_5 + 120 p_1_8 + 120 p_1_9 + 100000 z_1_10 + 100000 z_1_2 + 100000 z_1_4 + 100000 z_1_5 + 100000 z_1_8 + 100000 z_1_9 <= 602229.80352267041
 c4033: 120 p_1_1 + 120 p_1_10 + 120 p_1_2 + 120 p_1_4 + 120 p_1_5 + 120 p_1_8 + 120 p_1_9 + 100000 z_1_1 + 100000 z_1_10 + 100000 z_1_2 + 100000 z_1_4 + 100000 z_1_5 + 100000 z_1_8 + 100000 z_1_9 <= 702227.42433315073
 c4034: 120 p_1_10 + 120 p_1_3 + 120 p_1_4 + 120 p_1_5 + 120 p_1_8 + 120 p_1_9 + 100000 z_1_10 + 100000 z_1_3 + 100000 z_1_4 + 100000 z_1_5 + 100000 z_1_8 + 100000 z_1_9 <= 602140.4517369573
 c4035: 120 p_1_1 + 120 p_1_10 + 120 p_1_3 + 120 p_1_4 + 120 p_1_5 + 120 p_1_8 + 120 p_1_9 + 100000 z_1_1 + 100000 z_1_10 + 100000 z_1_3 + 100000 z_1_4 + 100000 z_1_5 + 100000 z_1_8 + 100000 z_1_9 <= 702128.2572186843
 c4036: 120 p_1_10 + 120 p_1_2 + 120 p_1_3 + 120 p_1_4 + 120 p_1_5 + 120 p_1_8 + 120 p_1_9 + 100000 z_1_10 + 100000 z_1_2 + 100000 z_1_3 + 100000 z_1_4 + 100000 z_1_5 + 100000 z_1_8 + 100000 z_1_9 <= 702138.91473616194
 c4037: 120 p_1_1 + 120 p_1_10 + 120 p_1_2 + 120 p_1_3 + 120 p_1_4 + 120 p_1_5 + 120 p_1_8 + 120 p_1_9 + 100000 z_1_1 + 100000 z_1_10 + 100000 z_1_2 + 100000 z_1_3 + 100000 z_1_4 + 100000 z_1_5 + 100000 z_1_8 + 100000 z_1_9 <= 802126.72021788894
 c4038: 120 p_1_10 + 120 p_1_6 + 120 p_1_8 + 120 p_1_9 + 100000 z_1_10 + 100000 z_1_6 + 100000 z_1_8 + 100000 z_1_9 <= 402241.23914749629
 c4039: 120 p_1_1 + 120 p_1_10 + 120 p_1_6 + 120 p_1_8 + 120 p_1_9 + 100000 z_1_1 + 100000 z_1_10 + 100000 z_1_6 + 100000 z_1_8 + 100000 z_1_9 <= 502233.33725061012
 c4040: 120 p_1_10 + 120 p_1_2 + 120 p_1_6 + 120 p_1_8 + 120 p_1_9 + 100000 z_1_10 + 100000 z_1_2 + 100000 z_1_6 + 100000 z_1_8 + 100000 z_1_9 <= 502239.70214670093
 c4041: 120 p_1_1 + 120 p_1_10 + 120 p_1_2 + 120 p_1_6 + 120 p_1_8 + 120 p_1_9 + 100000 z_1_1 + 100000 z_1_10 + 100000 z_1_2 + 100000 z_1_6 + 100000 z_1_8 + 100000 z_1_9 <= 602220.3603740324
 c4042: 120 p_1_10 + 120 p_1_3 + 120 p_1_6 + 120 p_1_8 + 120 p_1_9 + 100000 z_1_10 + 100000 z_1_3 + 100000 z_1_6 + 100000 z_1_8 + 100000 z_1_9 <= 502175.44646877551
 c4043: 120 p_1_1 + 120 p_1_10 + 120 p_1_3 + 120 p_1_6 + 120 p_1_8 + 120 p_1_9 + 100000 z_1_1 + 100000 z_1_10 + 100000 z_1_3 + 100000 z_1_6 + 100000 z_1_8 + 100000 z_1_9 <= 602155.26606920396
 c4044: 120 p_1_10 + 120 p_1_2 + 120 p_1_3 + 120 p_1_6 + 120 p_1_8 + 120 p_1_9 + 100000 z_1_10 + 100000 z_1_2 + 100000 z_1_3 + 100000 z_1_6 + 100000 z_1_8 + 100000 z_1_9 <= 602173.90946798015
 c4045: 120 p_1_1 + 120 p_1_10 + 120 p_1_2 + 120 p_1_3 + 120 p_1_6 + 120 p_1_8 + 120 p_1_9 + 100000 z_1_1 + 100000 z_1_10 + 100000 z_1_2 + 100000 z_1_3 + 100000 z_1_6 + 100000 z_1_8 + 100000 z_1_9 <= 702153.7290684086
 c4046: 120 p_1_10 + 120 p_1_4 + 120 p_1_6 + 120 p_1_8 + 120 p_1_9 + 100000 z_1_10 + 100000 z_1_4 + 100000 z_1_6 + 100000 z_1_8 + 100000 z_1_9 <= 502203.99108983128
 c4047: 120 p_1_1 + 120 p_1_10 + 120 p_1_4 + 120 p_1_6 + 120 p_1_8 + 120 p_1_9 + 100000 z_1_1 + 100000 z_1_10 + 100000 z_1_4 + 100000 z_1_6 + 100000 z_1_8 + 100000 z_1_9 <= 602203.20075975079
 c4048: 120 p_1_10 + 120 p_1_2 + 120 p_1_4 + 120 p_1_6 + 120 p_1_8 + 120 p_1_9 + 100000 z_1_10 + 100000 z_1_2 + 100000 z_1_4 + 100000 z_1_6 + 100000 z_1_8 + 100000 z_1_9 <= 602200.5621066991
 c4049: 120 p_1_1 + 120 p_1_10 + 120 p_1_2 + 120 p_1_4 + 120 p_1_6 + 120 p_1_8 + 120 p_1_9 + 100000 z_1_1 + 100000 z_1_10 + 100000 z_1_2 + 100000 z_1_4 + 100000 z_1_6 + 100000 z_1_8 + 100000 z_1_9 <= 702190.22388317308
 c4050: 120 p_1_10 + 120 p_1_3 + 120 p_1_4 + 120 p_1_6 + 120 p_1_8 + 120 p_1_9 + 100000 z_1_10 + 100000 z_1_3 + 100000 z_1_4 + 100000 z_1_6 + 100000 z_1_8 + 100000 z_1_9 <= 602137.32409661764
 c4051: 120 p_1_1 + 120 p_1_10 + 120 p_1_3 + 120 p_1_4 + 120 p_1_6 + 120 p_1_8 + 120 p_1_9 + 100000 z_1_1 + 100000 z_1_10 + 100000 z_1_3 + 100000 z_1_4 + 100000 z_1_6 + 100000 z_1_8 + 100000 z_1_9 <= 702125.12957834464
 c4052: 120 p_1_10 + 120 p_1_2 + 120 p_1_3 + 120 p_1_4 + 120 p_1_6 + 120 p_1_8 + 120 p_1_9 + 100000 z_1_10 + 100000 z_1_2 + 100000 z_1_3 + 100000 z_1_4 + 100000 z_1_6 + 100000 z_1_8 + 100000 z_1_9 <= 702135.78709582239
 c4053: 120 p_1_1 + 120 p_1_10 + 120 p_1_2 + 120 p_1_3 + 120 p_1_4 + 120 p_1_6 + 120 p_1_8 + 120 p_1_9 + 100000 z_1_1 + 100000 z_1_10 + 100000 z_1_2 + 100000 z_1_3 + 100000 z_1_4 + 100000 z_1_6 + 100000 z_1_8 + 100000 z_1_9 <= 802123.59257754928
 c4054: 120 p_1_10 + 120 p_1_5 + 120 p_1_6 + 120 p_1_8 + 120 p_1_9 + 100000 z_1_10 + 100000 z_1_5 + 100000 z_1_6 + 100000 z_1_8 + 100000 z_1_9 <= 502241.23388840625
 c4055: 120 p_1_1 + 120 p_1_10 + 120 p_1_5 + 120 p_1_6 + 120 p_1_8 + 120 p_1_9 + 100000 z_1_1 + 100000 z_1_10 + 100000 z_1_5 + 100000 z_1_6 + 100000 z_1_8 + 100000 z_1_9 <= 602233.33199152013
 c4056: 120 p_1_10 + 120 p_1_2 + 120 p_1_5 + 120 p_1_6 + 120 p_1_8 + 120 p_1_9 + 100000 z_1_10 + 100000 z_1_2 + 100000 z_1_5 + 100000 z_1_6 + 100000 z_1_8 + 100000 z_1_9 <= 602239.69688761095
 c4057: 120 p_1_1 + 120 p_1_10 + 120 p_1_2 + 120 p_1_5 + 120 p_1_6 + 120 p_1_8 + 120 p_1_9 + 100000 z_1_1 + 100000 z_1_10 + 100000 z_1_2 + 100000 z_1_5 + 100000 z_1_6 + 100000 z_1_8 + 100000 z_1_9 <= 702219.5164880394
 c4058: 120 p_1_10 + 120 p_1_3 + 120 p_1_5 + 120 p_1_6 + 120 p_1_8 + 120 p_1_9 + 100000 z_1_10 + 100000 z_1_3 + 100000 z_1_5 + 100000 z_1_6 + 100000 z_1_8 + 100000 z_1_9 <= 602175.44120968552
 c4059: 120 p_1_1 + 120 p_1_10 + 120 p_1_3 + 120 p_1_5 + 120 p_1_6 + 120 p_1_8 + 120 p_1_9 + 100000 z_1_1 + 100000 z_1_10 + 100000 z_1_3 + 100000 z_1_5 + 100000 z_1_6 + 100000 z_1_8 + 100000 z_1_9 <= 702155.26081011398
 c4060: 120 p_1_10 + 120 p_1_2 + 120 p_1_3 + 120 p_1_5 + 120 p_1_6 + 120 p_1_8 + 120 p_1_9 + 100000 z_1_10 + 100000 z_1_2 + 100000 z_1_3 + 100000 z_1_5 + 100000 z_1_6 + 100000 z_1_8 + 100000 z_1_9 <= 702173.90420889016
 c4061: 120 p_1_1 + 120 p_1_10 + 120 p_1_2 + 120 p_1_3 + 120 p_1_5 + 120 p_1_6 + 120 p_1_8 + 120 p_1_9 + 100000 z_1_1 + 100000 z_1_10 + 100000 z_1_2 + 100000 z_1_3 + 100000 z_1_5 + 100000 z_1_6 + 100000 z_1_8 + 100000 z_1_9 <= 802153.72380931862
 c4062: 120 p_1_10 + 120 p_1_4 + 120 p_1_5 + 120 p_1_6 + 120 p_1_8 + 120 p_1_9 + 100000 z_1_10 + 100000 z_1_4 + 100000 z_1_5 + 100000 z_1_6 + 100000 z_1_8 + 100000 z_1_9 <= 602203.98583074124
 c4063: 120 p_1_1 + 120 p_1_10 + 120 p_1_4 + 120 p_1_5 + 120 p_1_6 + 120 p_1_8 + 120 p_1_9 + 100000 z_1_1 + 100000 z_1_10 + 100000 z_1_4 + 100000 z_1_5 + 100000 z_1_6 + 100000 z_1_8 + 100000 z_1_9 <= 702203.1955006608
 c4064: 120 p_1_10 + 120 p_1_2 + 120 p_1_4 + 120 p_1_5 + 120 p_1_6 + 120 p_1_8 + 120 p_1_9 + 100000 z_1_10 + 100000 z_1_2 + 100000 z_1_4 + 100000 z_1_5 + 100000 z_1_6 + 100000 z_1_8 + 100000 z_1_9 <= 702200.55684760911
 c4065: 120 p_1_1 + 120 p_1_10 + 120 p_1_2 + 120 p_1_4 + 120 p_1_5 + 120 p_1_6 + 120 p_1_8 + 120 p_1_9 + 100000 z_1_1 + 100000 z_1_10 + 100000 z_1_2 + 100000 z_1_4 + 100000 z_1_5 + 100000 z_1_6 + 100000 z_1_8 + 100000 z_1_9 <= 802189.37999718008
 c4066: 120 p_1_10 + 120 p_1_3 + 120 p_1_4 + 120 p_1_5 + 120 p_1_6 + 120 p_1_8 + 120 p_1_9 + 100000 z_1_10 + 100000 z_1_3 + 100000 z_1_4 + 100000 z_1_5 + 100000 z_1_6 + 100000 z_1_8 + 100000 z_1_9 <= 702137.31883752765
 c4067: 120 p_1_1 + 120 p_1_10 + 120 p_1_3 + 120 p_1_4 + 120 p_1_5 + 120 p_1_6 + 120 p_1_8 + 120 p_1_9 + 100000 z_1_1 + 100000 z_1_10 + 100000 z_1_3 + 100000 z_1_4 + 100000 z_1_5 + 100000 z_1_6 + 100000 z_1_8 + 100000 z_1_9 <= 802125.12431925465
 c4068: 120 p_1_10 + 120 p_1_2 + 120 p_1_3 + 120 p_1_4 + 120 p_1_5 + 120 p_1_6 + 120 p_1_8 + 120 p_1_9 + 100000 z_1_10 + 100000 z_1_2 + 100000 z_1_3 + 100000 z_1_4 + 100000 z_1_5 + 100000 z_1_6 + 100000 z_1_8 + 100000 z_1_9 <= 802135.78183673229
 c4069: 120 p_1_1 + 120 p_1_10 + 120 p_1_2 + 120 p_1_3 + 120 p_1_4 + 120 p_1_5 + 120 p_1_6 + 120 p_1_8 + 120 p_1_9 + 100000 z_1_1 + 100000 z_1_10 + 100000 z_1_2 + 100000 z_1_3 + 100000 z_1_4 + 100000 z_1_5 + 100000 z_1_6 + 100000 z_1_8 + 100000 z_1_9 <= 902123.58731845929
 c4070: 120 p_1_10 + 120 p_1_7 + 120 p_1_8 + 120 p_1_9 + 100000 z_1_10 + 100000 z_1_7 + 100000 z_1_8 + 100000 z_1_9 <= 402128.21461937891
 c4071: 120 p_1_1 + 120 p_1_10 + 120 p_1_7 + 120 p_1_8 + 120 p_1_9 + 100000 z_1_1 + 100000 z_1_10 + 100000 z_1_7 + 100000 z_1_8 + 100000 z_1_9 <= 502124.69547469908
 c4072: 120 p_1_10 + 120 p_1_2 + 120 p_1_7 + 120 p_1_8 + 120 p_1_9 + 100000 z_1_10 + 100000 z_1_2 + 100000 z_1_7 + 100000 z_1_8 + 100000 z_1_9 <= 502115.23774280126
 c4073: 120 p_1_1 + 120 p_1_10 + 120 p_1_2 + 120 p_1_7 + 120 p_1_8 + 120 p_1_9 + 100000 z_1_1 + 100000 z_1_10 + 100000 z_1_2 + 100000 z_1_7 + 100000 z_1_8 + 100000 z_1_9 <= 602111.71859812143
 c4074: 120 p_1_10 + 120 p_1_3 + 120 p_1_7 + 120 p_1_8 + 120 p_1_9 + 100000 z_1_10 + 100000 z_1_3 + 100000 z_1_7 + 100000 z_1_8 + 100000 z_1_9 <= 502012.63379148935
 c4075: 120 p_1_1 + 120 p_1_10 + 120 p_1_3 + 120 p_1_7 + 120 p_1_8 + 120 p_1_9 + 100000 z_1_1 + 100000 z_1_10 + 100000 z_1_3 + 100000 z_1_7 + 100000 z_1_8 + 100000 z_1_9 <= 602000.69334132294
 c4076: 120 p_1_10 + 120 p_1_2 + 120 p_1_3 + 120 p_1_7 + 120 p_1_8 + 120 p_1_9 + 100000 z_1_10 + 100000 z_1_2 + 100000 z_1_3 + 100000 z_1_7 + 100000 z_1_8 + 100000 z_1_9 <= 602011.09679069405
 c4077: 120 p_1_1 + 120 p_1_10 + 120 p_1_2 + 120 p_1_3 + 120 p_1_7 + 120 p_1_8 + 120 p_1_9 + 100000 z_1_1 + 100000 z_1_10 + 100000 z_1_2 + 100000 z_1_3 + 100000 z_1_7 + 100000 z_1_8 + 100000 z_1_9 <= 701999.15634052758
 c4078: 120 p_1_10 + 120 p_1_4 + 120 p_1_7 + 120 p_1_8 + 120 p_1_9 + 100000 z_1_10 + 100000 z_1_4 + 100000 z_1_7 + 100000 z_1_8 + 100000 z_1_9 <= 502128.21199186012
 c4079: 120 p_1_1 + 120 p_1_10 + 120 p_1_4 + 120 p_1_7 + 120 p_1_8 + 120 p_1_9 + 100000 z_1_1 + 100000 z_1_10 + 100000 z_1_4 + 100000 z_1_7 + 100000 z_1_8 + 100000 z_1_9 <= 602124.6928471803
 c4080: 120 p_1_10 + 120 p_1_2 + 120 p_1_4 + 120 p_1_7 + 120 p_1_8 + 120 p_1_9 + 100000 z_1_10 + 100000 z_1_2 + 100000 z_1_4 + 100000 z_1_7 + 100000 z_1_8 + 100000 z_1_9 <= 602115.23511528247
 c4081: 120 p_1_1 + 120 p_1_10 + 120 p_1_2 + 120 p_1_4 + 120 p_1_7 + 120 p_1_8 + 120 p_1_9 + 100000 z_1_1 + 100000 z_1_10 + 100000 z_1_2 + 100000 z_1_4 + 100000 z_1_7 + 100000 z_1_8 + 100000 z_1_9 <= 702111.71597060259
 c4082: 120 p_1_10 + 120 p_1_3 + 120 p_1_4 + 120 p_1_7 + 120 p_1_8 + 120 p_1_9 + 100000 z_1_10 + 100000 z_1_3 + 100000 z_1_4 + 100000 z_1_7 + 100000 z_1_8 + 100000 z_1_9 <= 602012.63116397057
 c4083: 120 p_1_1 + 120 p_1_10 + 120 p_1_3 + 120 p_1_4 + 120 p_1_7 + 120 p_1_8 + 120 p_1_9 + 100000 z_1_1 + 100000 z_1_10 + 100000 z_1_3 + 100000 z_1_4 + 100000 z_1_7 + 100000 z_1_8 + 100000 z_1_9 <= 702000.6907138041
 c4084: 120 p_1_10 + 120 p_1_2 + 120 p_1_3 + 120 p_1_4 + 120 p_1_7 + 120 p_1_8 + 120 p_1_9 + 100000 z_1_10 + 100000 z_1_2 + 100000 z_1_3 + 100000 z_1_4 + 100000 z_1_7 + 100000 z_1_8 + 100000 z_1_9 <= 702011.09416317521
 c4085: 120 p_1_1 + 120 p_1_10 + 120 p_1_2 + 120 p_1_3 + 120 p_1_4 + 120 p_1_7 + 120 p_1_8 + 120 p_1_9 + 100000 z_1_1 + 100000 z_1_10 + 100000 z_1_2 + 100000 z_1_3 + 100000 z_1_4 + 100000 z_1_7 + 100000 z_1_8 + 100000 z_1_9 <= 801999.15371300874
 c4086: 120 p_1_10 + 120 p_1_5 + 120 p_1_7 + 120 p_1_8 + 120 p_1_9 + 100000 z_1_10 + 100000 z_1_5 + 100000 z_1_7 + 100000 z_1_8 + 100000 z_1_9 <= 502128.20936028892
 c4087: 120 p_1_1 + 120 p_1_10 + 120 p_1_5 + 120 p_1_7 + 120 p_1_8 + 120 p_1_9 + 100000 z_1_1 + 100000 z_1_10 + 100000 z_1_5 + 100000 z_1_7 + 100000 z_1_8 + 100000 z_1_9 <= 602124.69021560904
 c4088: 120 p_1_10 + 120 p_1_2 + 120 p_1_5 + 120 p_1_7 + 120 p_1_8 + 120 p_1_9 + 100000 z_1_10 + 100000 z_1_2 + 100000 z_1_5 + 100000 z_1_7 + 100000 z_1_8 + 100000 z_1_9 <= 602102.66433156235
 c4089: 120 p_1_1 + 120 p_1_10 + 120 p_1_2 + 120 p_1_5 + 120 p_1_7 + 120 p_1_8 + 120 p_1_9 + 100000 z_1_1 + 100000 z_1_10 + 100000 z_1_2 + 100000 z_1_5 + 100000 z_1_7 + 100000 z_1_8 + 100000 z_1_9 <= 702099.85519669938
 c4090: 120 p_1_10 + 120 p_1_3 + 120 p_1_5 + 120 p_1_7 + 120 p_1_8 + 120 p_1_9 + 100000 z_1_10 + 100000 z_1_3 + 100000 z_1_5 + 100000 z_1_7 + 100000 z_1_8 + 100000 z_1_9 <= 602012.62853239931
 c4091: 120 p_1_1 + 120 p_1_10 + 120 p_1_3 + 120 p_1_5 + 120 p_1_7 + 120 p_1_8 + 120 p_1_9 + 100000 z_1_1 + 100000 z_1_10 + 100000 z_1_3 + 100000 z_1_5 + 100000 z_1_7 + 100000 z_1_8 + 100000 z_1_9 <= 702000.68808223295
 c4092: 120 p_1_10 + 120 p_1_2 + 120 p_1_3 + 120 p_1_5 + 120 p_1_7 + 120 p_1_8 + 120 p_1_9 + 100000 z_1_10 + 100000 z_1_2 + 100000 z_1_3 + 100000 z_1_5 + 100000 z_1_7 + 100000 z_1_8 + 100000 z_1_9 <= 702011.09153160395
 c4093: 120 p_1_1 + 120 p_1_10 + 120 p_1_2 + 120 p_1_3 + 120 p_1_5 + 120 p_1_7 + 120 p_1_8 + 120 p_1_9 + 100000 z_1_1 + 100000 z_1_10 + 100000 z_1_2 + 100000 z_1_3 + 100000 z_1_5 + 100000 z_1_7 + 100000 z_1_8 + 100000 z_1_9 <= 801999.15108143759
 c4094: 120 p_1_10 + 120 p_1_4 + 120 p_1_5 + 120 p_1_7 + 120 p_1_8 + 120 p_1_9 + 100000 z_1_10 + 100000 z_1_4 + 100000 z_1_5 + 100000 z_1_7 + 100000 z_1_8 + 100000 z_1_9 <= 602128.20673277008
 c4095: 120 p_1_1 + 120 p_1_10 + 120 p_1_4 + 120 p_1_5 + 120 p_1_7 + 120 p_1_8 + 120 p_1_9 + 100000 z_1_1 + 100000 z_1_10 + 100000 z_1_4 + 100000 z_1_5 + 100000 z_1_7 + 100000 z_1_8 + 100000 z_1_9 <= 702124.68758809031
 c4096: 120 p_1_10 + 120 p_1_2 + 120 p_1_4 + 120 p_1_5 + 120 p_1_7 + 120 p_1_8 + 120 p_1_9 + 100000 z_1_10 + 100000 z_1_2 + 100000 z_1_4 + 100000 z_1_5 + 100000 z_1_7 + 100000 z_1_8 + 100000 z_1_9 <= 702102.66170404351
 c4097: 120 p_1_1 + 120 p_1_10 + 120 p_1_2 + 120 p_1_4 + 120 p_1_5 + 120 p_1_7 + 120 p_1_8 + 120 p_1_9 + 100000 z_1_1 + 100000 z_1_10 + 100000 z_1_2 + 100000 z_1_4 + 100000 z_1_5 + 100000 z_1_7 + 100000 z_1_8 + 100000 z_1_9 <= 802099.85256918054
 c4098: 120 p_1_10 + 120 p_1_3 + 120 p_1_4 + 120 p_1_5 + 120 p_1_7 + 120 p_1_8 + 120 p_1_9 + 100000 z_1_10 + 100000 z_1_3 + 100000 z_1_4 + 100000 z_1_5 + 100000 z_1_7 + 100000 z_1_8 + 100000 z_1_9 <= 702012.62590488046
 c4099: 120 p_1_1 + 120 p_1_10 + 120 p_1_3 + 120 p_1_4 + 120 p_1_5 + 120 p_1_7 + 120 p_1_8 + 120 p_1_9 + 100000 z_1_1 + 100000 z_1_10 + 100000 z_1_3 + 100000 z_1_4 + 100000 z_1_5 + 100000 z_1_7 + 100000 z_1_8 + 100000 z_1_9 <= 802000.68545471411
 c4100: 120 p_1_10 + 120 p_1_2 + 120 p_1_3 + 120 p_1_4 + 120 p_1_5 + 120 p_1_7 + 120 p_1_8 + 120 p_1_9 + 100000 z_1_10 + 100000 z_1_2 + 100000 z_1_3 + 100000 z_1_4 + 100000 z_1_5 + 100000 z_1_7 + 100000 z_1_8 + 100000 z_1_9 <= 802011.08890408522
 c4101: 120 p_1_1 + 120 p_1_10 + 120 p_1_2 + 120 p_1_3 + 120 p_1_4 + 120 p_1_5 + 120 p_1_7 + 120 p_1_8 + 120 p_1_9 + 100000 z_1_1 + 100000 z_1_10 + 100000 z_1_2 + 100000 z_1_3 + 100000 z_1_4 + 100000 z_1_5 + 100000 z_1_7 + 100000 z_1_8 + 100000 z_1_9 <= 901999.14845391875
 c4102: 120 p_1_10 + 120 p_1_6 + 120 p_1_7 + 120 p_1_8 + 120 p_1_9 + 100000 z_1_10 + 100000 z_1_6 + 100000 z_1_7 + 100000 z_1_8 + 100000 z_1_9 <= 502079.15076797927
 c4103: 120 p_1_1 + 120 p_1_10 + 120 p_1_6 + 120 p_1_7 + 120 p_1_8 + 120 p_1_9 + 100000 z_1_1 + 100000 z_1_10 + 100000 z_1_6 + 100000 z_1_7 + 100000 z_1_8 + 100000 z_1_9 <= 602075.63162329944
 c4104: 120 p_1_10 + 120 p_1_2 + 120 p_1_6 + 120 p_1_7 + 120 p_1_8 + 120 p_1_9 + 100000 z_1_10 + 100000 z_1_2 + 100000 z_1_6 + 100000 z_1_7 + 100000 z_1_8 + 100000 z_1_9 <= 602069.72948503005
 c4105: 120 p_1_1 + 120 p_1_10 + 120 p_1_2 + 120 p_1_6 + 120 p_1_7 + 120 p_1_8 + 120 p_1_9 + 100000 z_1_1 + 100000 z_1_10 + 100000 z_1_2 + 100000 z_1_6 + 100000 z_1_7 + 100000 z_1_8 + 100000 z_1_9 <= 702062.65474672173
 c4106: 120 p_1_10 + 120 p_1_3 + 120 p_1_6 + 120 p_1_7 + 120 p_1_8 + 120 p_1_9 + 100000 z_1_10 + 100000 z_1_3 + 100000 z_1_6 + 100000 z_1_7 + 100000 z_1_8 + 100000 z_1_9 <= 602009.50089205964
 c4107: 120 p_1_1 + 120 p_1_10 + 120 p_1_3 + 120 p_1_6 + 120 p_1_7 + 120 p_1_8 + 120 p_1_9 + 100000 z_1_1 + 100000 z_1_10 + 100000 z_1_3 + 100000 z_1_6 + 100000 z_1_7 + 100000 z_1_8 + 100000 z_1_9 <= 701997.56044189329
 c4108: 120 p_1_10 + 120 p_1_2 + 120 p_1_3 + 120 p_1_6 + 120 p_1_7 + 120 p_1_8 + 120 p_1_9 + 100000 z_1_10 + 100000 z_1_2 + 100000 z_1_3 + 100000 z_1_6 + 100000 z_1_7 + 100000 z_1_8 + 100000 z_1_9 <= 702007.9638912644
 c4109: 120 p_1_1 + 120 p_1_10 + 120 p_1_2 + 120 p_1_3 + 120 p_1_6 + 120 p_1_7 + 120 p_1_8 + 120 p_1_9 + 100000 z_1_1 + 100000 z_1_10 + 100000 z_1_2 + 100000 z_1_3 + 100000 z_1_6 + 100000 z_1_7 + 100000 z_1_8 + 100000 z_1_9 <= 801996.02344109793
 c4110: 120 p_1_10 + 120 p_1_4 + 120 p_1_6 + 120 p_1_7 + 120 p_1_8 + 120 p_1_9 + 100000 z_1_10 + 100000 z_1_4 + 100000 z_1_6 + 100000 z_1_7 + 100000 z_1_8 + 100000 z_1_9 <= 602079.14814046049
 c4111: 120 p_1_1 + 120 p_1_10 + 120 p_1_4 + 120 p_1_6 + 120 p_1_7 + 120 p_1_8 + 120 p_1_9 + 100000 z_1_1 + 100000 z_1_10 + 100000 z_1_4 + 100000 z_1_6 + 100000 z_1_7 + 100000 z_1_8 + 100000 z_1_9 <= 702075.6289957806
 c4112: 120 p_1_10 + 120 p_1_2 + 120 p_1_4 + 120 p_1_6 + 120 p_1_7 + 120 p_1_8 + 120 p_1_9 + 100000 z_1_10 + 100000 z_1_2 + 100000 z_1_4 + 100000 z_1_6 + 100000 z_1_7 + 100000 z_1_8 + 100000 z_1_9 <= 702069.72685751133
 c4113: 120 p_1_1 + 120 p_1_10 + 120 p_1_2 + 120 p_1_4 + 120 p_1_6 + 120 p_1_7 + 120 p_1_8 + 120 p_1_9 + 100000 z_1_1 + 100000 z_1_10 + 100000 z_1_2 + 100000 z_1_4 + 100000 z_1_6 + 100000 z_1_7 + 100000 z_1_8 + 100000 z_1_9 <= 802062.65211920289
 c4114: 120 p_1_10 + 120 p_1_3 + 120 p_1_4 + 120 p_1_6 + 120 p_1_7 + 120 p_1_8 + 120 p_1_9 + 100000 z_1_10 + 100000 z_1_3 + 100000 z_1_4 + 100000 z_1_6 + 100000 z_1_7 + 100000 z_1_8 + 100000 z_1_9 <= 702009.49826454092
 c4115: 120 p_1_1 + 120 p_1_10 + 120 p_1_3 + 120 p_1_4 + 120 p_1_6 + 120 p_1_7 + 120 p_1_8 + 120 p_1_9 + 100000 z_1_1 + 100000 z_1_10 + 100000 z_1_3 + 100000 z_1_4 + 100000 z_1_6 + 100000 z_1_7 + 100000 z_1_8 + 100000 z_1_9 <= 801997.55781437445
 c4116: 120 p_1_10 + 120 p_1_2 + 120 p_1_3 + 120 p_1_4 + 120 p_1_6 + 120 p_1_7 + 120 p_1_8 + 120 p_1_9 + 100000 z_1_10 + 100000 z_1_2 + 100000 z_1_3 + 100000 z_1_4 + 100000 z_1_6 + 100000 z_1_7 + 100000 z_1_8 + 100000 z_1_9 <= 802007.96126374556
 c4117: 120 p_1_1 + 120 p_1_10 + 120 p_1_2 + 120 p_1_3 + 120 p_1_4 + 120 p_1_6 + 120 p_1_7 + 120 p_1_8 + 120 p_1_9 + 100000 z_1_1 + 100000 z_1_10 + 100000 z_1_2 + 100000 z_1_3 + 100000 z_1_4 + 100000 z_1_6 + 100000 z_1_7 + 100000 z_1_8 + 100000 z_1_9 <= 901996.02081357909
 c4118: 120 p_1_10 + 120 p_1_5 + 120 p_1_6 + 120 p_1_7 + 120 p_1_8 + 120 p_1_9 + 100000 z_1_10 + 100000 z_1_5 + 100000 z_1_6 + 100000 z_1_7 + 100000 z_1_8 + 100000 z_1_9 <= 602079.14550888923
 c4119: 120 p_1_1 + 120 p_1_10 + 120 p_1_5 + 120 p_1_6 + 120 p_1_7 + 120 p_1_8 + 120 p_1_9 + 100000 z_1_1 + 100000 z_1_10 + 100000 z_1_5 + 100000 z_1_6 + 100000 z_1_7 + 100000 z_1_8 + 100000 z_1_9 <= 702075.62636420934
 c4120: 120 p_1_10 + 120 p_1_2 + 120 p_1_5 + 120 p_1_6 + 120 p_1_7 + 120 p_1_8 + 120 p_1_9 + 100000 z_1_10 + 100000 z_1_2 + 100000 z_1_5 + 100000 z_1_6 + 100000 z_1_7 + 100000 z_1_8 + 100000 z_1_9 <= 702069.72422594007
 c4121: 120 p_1_1 + 120 p_1_10 + 120 p_1_2 + 120 p_1_5 + 120 p_1_6 + 120 p_1_7 + 120 p_1_8 + 120 p_1_9 + 100000 z_1_1 + 100000 z_1_10 + 100000 z_1_2 + 100000 z_1_5 + 100000 z_1_6 + 100000 z_1_7 + 100000 z_1_8 + 100000 z_1_9 <= 802061.81086072873
 c4122: 120 p_1_10 + 120 p_1_3 + 120 p_1_5 + 120 p_1_6 + 120 p_1_7 + 120 p_1_8 + 120 p_1_9 + 100000 z_1_10 + 100000 z_1_3 + 100000 z_1_5 + 100000 z_1_6 + 100000 z_1_7 + 100000 z_1_8 + 100000 z_1_9 <= 702009.49563296966
 c4123: 120 p_1_1 + 120 p_1_10 + 120 p_1_3 + 120 p_1_5 + 120 p_1_6 + 120 p_1_7 + 120 p_1_8 + 120 p_1_9 + 100000 z_1_1 + 100000 z_1_10 + 100000 z_1_3 + 100000 z_1_5 + 100000 z_1_6 + 100000 z_1_7 + 100000 z_1_8 + 100000 z_1_9 <= 801997.55518280331
 c4124: 120 p_1_10 + 120 p_1_2 + 120 p_1_3 + 120 p_1_5 + 120 p_1_6 + 120 p_1_7 + 120 p_1_8 + 120 p_1_9 + 100000 z_1_10 + 100000 z_1_2 + 100000 z_1_3 + 100000 z_1_5 + 100000 z_1_6 + 100000 z_1_7 + 100000 z_1_8 + 100000 z_1_9 <= 802007.9586321743
 c4125: 120 p_1_1 + 120 p_1_10 + 120 p_1_2 + 120 p_1_3 + 120 p_1_5 + 120 p_1_6 + 120 p_1_7 + 120 p_1_8 + 120 p_1_9 + 100000 z_1_1 + 100000 z_1_10 + 100000 z_1_2 + 100000 z_1_3 + 100000 z_1_5 + 100000 z_1_6 + 100000 z_1_7 + 100000 z_1_8 + 100000 z_1_9 <= 901996.01818200795
 c4126: 120 p_1_10 + 120 p_1_4 + 120 p_1_5 + 120 p_1_6 + 120 p_1_7 + 120 p_1_8 + 120 p_1_9 + 100000 z_1_10 + 100000 z_1_4 + 100000 z_1_5 + 100000 z_1_6 + 100000 z_1_7 + 100000 z_1_8 + 100000 z_1_9 <= 702079.14288137038
 c4127: 120 p_1_1 + 120 p_1_10 + 120 p_1_4 + 120 p_1_5 + 120 p_1_6 + 120 p_1_7 + 120 p_1_8 + 120 p_1_9 + 100000 z_1_1 + 100000 z_1_10 + 100000 z_1_4 + 100000 z_1_5 + 100000 z_1_6 + 100000 z_1_7 + 100000 z_1_8 + 100000 z_1_9 <= 802075.62373669061
 c4128: 120 p_1_10 + 120 p_1_2 + 120 p_1_4 + 120 p_1_5 + 120 p_1_6 + 120 p_1_7 + 120 p_1_8 + 120 p_1_9 + 100000 z_1_10 + 100000 z_1_2 + 100000 z_1_4 + 100000 z_1_5 + 100000 z_1_6 + 100000 z_1_7 + 100000 z_1_8 + 100000 z_1_9 <= 802069.72159842122
 c4129: 120 p_1_1 + 120 p_1_10 + 120 p_1_2 + 120 p_1_4 + 120 p_1_5 + 120 p_1_6 + 120 p_1_7 + 120 p_1_8 + 120 p_1_9 + 100000 z_1_1 + 100000 z_1_10 + 100000 z_1_2 + 100000 z_1_4 + 100000 z_1_5 + 100000 z_1_6 + 100000 z_1_7 + 100000 z_1_8 + 100000 z_1_9 <= 902061.80823320989
 c4130: 120 p_1_10 + 120 p_1_3 + 120 p_1_4 + 120 p_1_5 + 120 p_1_6 + 120 p_1_7 + 120 p_1_8 + 120 p_1_9 + 100000 z_1_10 + 100000 z_1_3 + 100000 z_1_4 + 100000 z_1_5 + 100000 z_1_6 + 100000 z_1_7 + 100000 z_1_8 + 100000 z_1_9 <= 802009.49300545081
 c4131: 120 p_1_1 + 120 p_1_10 + 120 p_1_3 + 120 p_1_4 + 120 p_1_5 + 120 p_1_6 + 120 p_1_7 + 120 p_1_8 + 120 p_1_9 + 100000 z_1_1 + 100000 z_1_10 + 100000 z_1_3 + 100000 z_1_4 + 100000 z_1_5 + 100000 z_1_6 + 100000 z_1_7 + 100000 z_1_8 + 100000 z_1_9 <= 901997.55255528446
 c4132: 120 p_1_10 + 120 p_1_2 + 120 p_1_3 + 120 p_1_4 + 120 p_1_5 + 120 p_1_6 + 120 p_1_7 + 120 p_1_8 + 120 p_1_9 + 100000 z_1_10 + 100000 z_1_2 + 100000 z_1_3 + 100000 z_1_4 + 100000 z_1_5 + 100000 z_1_6 + 100000 z_1_7 + 100000 z_1_8 + 100000 z_1_9 <= 902007.95600465557
 c4133: 120 p_1_1 + 120 p_1_10 + 120 p_1_2 + 120 p_1_3 + 120 p_1_4 + 120 p_1_5 + 120 p_1_6 + 120 p_1_7 + 120 p_1_8 + 120 p_1_9 + 100000 z_1_1 + 100000 z_1_10 + 100000 z_1_2 + 100000 z_1_3 + 100000 z_1_4 + 100000 z_1_5 + 100000 z_1_6 + 100000 z_1_7 + 100000 z_1_8 + 100000 z_1_9 <= 1001996.0155544891
 c4134: 120 p_2_1 + 100000 z_2_1 <= 103132.68113812628
 c4135: 120 p_2_2 + 100000 z_2_2 <= 103286.01272538165
 c4136: 120 p_2_1 + 120 p_2_2 + 100000 z_2_1 + 100000 z_2_2 <= 202870.26056762715
 c4137: 120 p_2_3 + 100000 z_2_3 <= 103012.66522415946
 c4138: 120 p_2_1 + 120 p_2_3 + 100000 z_2_1 + 100000 z_2_3 <= 202615.13899200119
 c4139: 120 p_2_2 + 120 p_2_3 + 100000 z_2_2 + 100000 z_2_3 <= 202751.53219278928
 c4140: 120 p_2_1 + 120 p_2_2 + 120 p_2_3 + 100000 z_2_1 + 100000 z_2_2 + 100000 z_2_3 <= 302354.00596063101
 c4141: 120 p_2_4 + 100000 z_2_4 <= 103075.59662162802
 c4142: 120 p_2_1 + 120 p_2_4 + 100000 z_2_1 + 100000 z_2_4 <= 203065.65567439151
 c4143: 120 p_2_2 + 120 p_2_4 + 100000 z_2_2 + 100000 z_2_4 <= 202805.6142934121
 c4144: 120 p_2_1 + 120 p_2_2 + 120 p_2_4 + 100000 z_2_1 + 100000 z_2_2 + 100000 z_2_4 <= 302803.2351038924
 c4145: 120 p_2_3 + 120 p_2_4 + 100000 z_2_3 + 100000 z_2_4 <= 202577.71621576307
 c4146: 120 p_2_1 + 120 p_2_3 + 120 p_2_4 + 100000 z_2_1 + 100000 z_2_3 + 100000 z_2_4 <= 302567.77526852657
 c4147: 120 p_2_2 + 120 p_2_3 + 120 p_2_4 + 100000 z_2_2 + 100000 z_2_3 + 100000 z_2_4 <= 302316.58318439289
 c4148: 120 p_2_1 + 120 p_2_2 + 120 p_2_3 + 120 p_2_4 + 100000 z_2_1 + 100000 z_2_2 + 100000 z_2_3 + 100000 z_2_4 <= 402306.6422371564
 c4149: 120 p_2_5 + 100000 z_2_5 <= 103199.13364631316
 c4150: 120 p_2_1 + 120 p_2_5 + 100000 z_2_1 + 100000 z_2_5 <= 202783.99238475226
 c4151: 120 p_2_2 + 120 p_2_5 + 100000 z_2_2 + 100000 z_2_5 <= 203197.48323868492
 c4152: 120 p_2_1 + 120 p_2_2 + 120 p_2_5 + 100000 z_2_1 + 100000 z_2_2 + 100000 z_2_5 <= 302782.34197712399
 c4153: 120 p_2_3 + 120 p_2_5 + 100000 z_2_3 + 100000 z_2_5 <= 202681.7971727468
 c4154: 120 p_2_1 + 120 p_2_3 + 120 p_2_5 + 100000 z_2_1 + 100000 z_2_3 + 100000 z_2_5 <= 302284.27094058855
 c4155: 120 p_2_2 + 120 p_2_3 + 120 p_2_5 + 100000 z_2_2 + 100000 z_2_3 + 100000 z_2_5 <= 302680.14676511858
 c4156: 120 p_2_1 + 120 p_2_2 + 120 p_2_3 + 120 p_2_5 + 100000 z_2_1 + 100000 z_2_2 + 100000 z_2_3 + 100000 z_2_5 <= 402282.62053296028
 c4157: 120 p_2_4 + 120 p_2_5 + 100000 z_2_4 + 100000 z_2_5 <= 202718.89686782894
 c4158: 120 p_2_1 + 120 p_2_4 + 120 p_2_5 + 100000 z_2_1 + 100000 z_2_4 + 100000 z_2_5 <= 302716.96692101751
 c4159: 120 p_2_2 + 120 p_2_4 + 120 p_2_5 + 100000 z_2_2 + 100000 z_2_4 + 100000 z_2_5 <= 302717.24646020069
 c4160: 120 p_2_1 + 120 p_2_2 + 120 p_2_4 + 120 p_2_5 + 100000 z_2_1 + 100000 z_2_2 + 100000 z_2_4 + 100000 z_2_5 <= 402715.31651338923
 c4161: 120 p_2_3 + 120 p_2_4 + 120 p_2_5 + 100000 z_2_3 + 100000 z_2_4 + 100000 z_2_5 <= 302246.84816435043
 c4162: 120 p_2_1 + 120 p_2_3 + 120 p_2_4 + 120 p_2_5 + 100000 z_2_1 + 100000 z_2_3 + 100000 z_2_4 + 100000 z_2_5 <= 402236.90721711394
 c4163: 120 p_2_2 + 120 p_2_3 + 120 p_2_4 + 120 p_2_5 + 100000 z_2_2 + 100000 z_2_3 + 100000 z_2_4 + 100000 z_2_5 <= 402245.19775672216
 c4164: 120 p_2_1 + 120 p_2_2 + 120 p_2_3 + 120 p_2_4 + 120 p_2_5 + 100000 z_2_1 + 100000 z_2_2 + 100000 z_2_3 + 100000 z_2_4 + 100000 z_2_5 <= 502235.25680948567
 c4165: 120 p_2_6 + 100000 z_2_6 <= 103083.89129942696
 c4166: 120 p_2_1 + 120 p_2_6 + 100000 z_2_1 + 100000 z_2_6 <= 202665.05331962419
 c4167: 120 p_2_2 + 120 p_2_6 + 100000 z_2_2 + 100000 z_2_6 <= 202835.81644088239
 c4168: 120 p_2_1 + 120 p_2_2 + 120 p_2_6 + 100000 z_2_1 + 100000 z_2_2 + 100000 z_2_6 <= 302420.0642831279
 c4169: 120 p_2_3 + 120 p_2_6 + 100000 z_2_3 + 100000 z_2_6 <= 202993.48404131536
 c4170: 120 p_2_1 + 120 p_2_3 + 120 p_2_6 + 100000 z_2_1 + 100000 z_2_3 + 100000 z_2_6 <= 302595.95780915709
 c4171: 120 p_2_2 + 120 p_2_3 + 120 p_2_6 + 100000 z_2_2 + 100000 z_2_3 + 100000 z_2_6 <= 302745.40918277082
 c4172: 120 p_2_1 + 120 p_2_2 + 120 p_2_3 + 120 p_2_6 + 100000 z_2_1 + 100000 z_2_2 + 100000 z_2_3 + 100000 z_2_6 <= 402347.88295061252
 c4173: 120 p_2_4 + 120 p_2_6 + 100000 z_2_4 + 100000 z_2_6 <= 202623.3100437957
 c4174: 120 p_2_1 + 120 p_2_4 + 120 p_2_6 + 100000 z_2_1 + 100000 z_2_4 + 100000 z_2_6 <= 302613.36909655924
 c4175: 120 p_2_2 + 120 p_2_4 + 120 p_2_6 + 100000 z_2_2 + 100000 z_2_4 + 100000 z_2_6 <= 302375.23518525111
 c4176: 120 p_2_1 + 120 p_2_2 + 120 p_2_4 + 120 p_2_6 + 100000 z_2_1 + 100000 z_2_2 + 100000 z_2_4 + 100000 z_2_6 <= 402365.29423801467
 c4177: 120 p_2_3 + 120 p_2_4 + 120 p_2_6 + 100000 z_2_3 + 100000 z_2_4 + 100000 z_2_6 <= 302558.53503291897
 c4178: 120 p_2_1 + 120 p_2_3 + 120 p_2_4 + 120 p_2_6 + 100000 z_2_1 + 100000 z_2_3 + 100000 z_2_4 + 100000 z_2_6 <= 402548.59408568247
 c4179: 120 p_2_2 + 120 p_2_3 + 120 p_2_4 + 120 p_2_6 + 100000 z_2_2 + 100000 z_2_3 + 100000 z_2_4 + 100000 z_2_6 <= 402310.4601743744
 c4180: 120 p_2_1 + 120 p_2_2 + 120 p_2_3 + 120 p_2_4 + 120 p_2_6 + 100000 z_2_1 + 100000 z_2_2 + 100000 z_2_3 + 100000 z_2_4 + 100000 z_2_6 <= 502300.51922713791
 c4181: 120 p_2_5 + 120 p_2_6 + 100000 z_2_5 + 100000 z_2_6 <= 202768.29316217231
 c4182: 120 p_2_1 + 120 p_2_5 + 120 p_2_6 + 100000 z_2_1 + 100000 z_2_5 + 100000 z_2_6 <= 302353.15190061141
 c4183: 120 p_2_2 + 120 p_2_5 + 120 p_2_6 + 100000 z_2_2 + 100000 z_2_5 + 100000 z_2_6 <= 302766.64275454404
 c4184: 120 p_2_1 + 120 p_2_2 + 120 p_2_5 + 120 p_2_6 + 100000 z_2_1 + 100000 z_2_2 + 100000 z_2_5 + 100000 z_2_6 <= 402350.89059678954
 c4185: 120 p_2_3 + 120 p_2_5 + 120 p_2_6 + 100000 z_2_3 + 100000 z_2_5 + 100000 z_2_6 <= 302677.88590406073
 c4186: 120 p_2_1 + 120 p_2_3 + 120 p_2_5 + 120 p_2_6 + 100000 z_2_1 + 100000 z_2_3 + 100000 z_2_5 + 100000 z_2_6 <= 402280.35967190244
 c4187: 120 p_2_2 + 120 p_2_3 + 120 p_2_5 + 120 p_2_6 + 100000 z_2_2 + 100000 z_2_3 + 100000 z_2_5 + 100000 z_2_6 <= 402676.23549643246
 c4188: 120 p_2_1 + 120 p_2_2 + 120 p_2_3 + 120 p_2_5 + 120 p_2_6 + 100000 z_2_1 + 100000 z_2_2 + 100000 z_2_3 + 100000 z_2_5 + 100000 z_2_6 <= 502278.70926427422
 c4189: 120 p_2_4 + 120 p_2_5 + 120 p_2_6 + 100000 z_2_4 + 100000 z_2_5 + 100000 z_2_6 <= 302307.71190654108
 c4190: 120 p_2_1 + 120 p_2_4 + 120 p_2_5 + 120 p_2_6 + 100000 z_2_1 + 100000 z_2_4 + 100000 z_2_5 + 100000 z_2_6 <= 402297.77095930459
 c4191: 120 p_2_2 + 120 p_2_4 + 120 p_2_5 + 120 p_2_6 + 100000 z_2_2 + 100000 z_2_4 + 100000 z_2_5 + 100000 z_2_6 <= 402306.06149891281
 c4192: 120 p_2_1 + 120 p_2_2 + 120 p_2_4 + 120 p_2_5 + 120 p_2_6 + 100000 z_2_1 + 100000 z_2_2 + 100000 z_2_4 + 100000 z_2_5 + 100000 z_2_6 <= 502296.12055167631
 c4193: 120 p_2_3 + 120 p_2_4 + 120 p_2_5 + 120 p_2_6 + 100000 z_2_3 + 100000 z_2_4 + 100000 z_2_5 + 100000 z_2_6 <= 402242.93689566432
 c4194: 120 p_2_1 + 120 p_2_3 + 120 p_2_4 + 120 p_2_5 + 120 p_2_6 + 100000 z_2_1 + 100000 z_2_3 + 100000 z_2_4 + 100000 z_2_5 + 100000 z_2_6 <= 502232.99594842782
 c4195: 120 p_2_2 + 120 p_2_3 + 120 p_2_4 + 120 p_2_5 + 120 p_2_6 + 100000 z_2_2 + 100000 z_2_3 + 100000 z_2_4 + 100000 z_2_5 + 100000 z_2_6 <= 502241.2864880361
 c4196: 120 p_2_1 + 120 p_2_2 + 120 p_2_3 + 120 p_2_4 + 120 p_2_5 + 120 p_2_6 + 100000 z_2_1 + 100000 z_2_2 + 100000 z_2_3 + 100000 z_2_4 + 100000 z_2_5 + 100000 z_2_6 <= 602231.34554079955
 c4197: 120 p_2_7 + 100000 z_2_7 <= 102941.05906740543
 c4198: 120 p_2_1 + 120 p_2_7 + 100000 z_2_1 + 100000 z_2_7 <= 202938.40922094753
 c4199: 120 p_2_2 + 120 p_2_7 + 100000 z_2_2 + 100000 z_2_7 <= 202676.72884492189
 c4200: 120 p_2_1 + 120 p_2_2 + 120 p_2_7 + 100000 z_2_1 + 100000 z_2_2 + 100000 z_2_7 <= 302675.98865044839
 c4201: 120 p_2_3 + 120 p_2_7 + 100000 z_2_3 + 100000 z_2_7 <= 202450.21569421247
 c4202: 120 p_2_1 + 120 p_2_3 + 120 p_2_7 + 100000 z_2_1 + 100000 z_2_3 + 100000 z_2_7 <= 302447.56584775459
 c4203: 120 p_2_2 + 120 p_2_3 + 120 p_2_7 + 100000 z_2_2 + 100000 z_2_3 + 100000 z_2_7 <= 302189.08266284229
 c4204: 120 p_2_1 + 120 p_2_2 + 120 p_2_3 + 120 p_2_7 + 100000 z_2_1 + 100000 z_2_2 + 100000 z_2_3 + 100000 z_2_7 <= 402186.43281638442
 c4205: 120 p_2_4 + 120 p_2_7 + 100000 z_2_4 + 100000 z_2_7 <= 202940.73375687923
 c4206: 120 p_2_1 + 120 p_2_4 + 120 p_2_7 + 100000 z_2_1 + 100000 z_2_4 + 100000 z_2_7 <= 302938.08391042135
 c4207: 120 p_2_2 + 120 p_2_4 + 120 p_2_7 + 100000 z_2_2 + 100000 z_2_4 + 100000 z_2_7 <= 302676.40353439568
 c4208: 120 p_2_1 + 120 p_2_2 + 120 p_2_4 + 120 p_2_7 + 100000 z_2_1 + 100000 z_2_2 + 100000 z_2_4 + 100000 z_2_7 <= 402675.6633399222
 c4209: 120 p_2_3 + 120 p_2_4 + 120 p_2_7 + 100000 z_2_3 + 100000 z_2_4 + 100000 z_2_7 <= 302449.89038368629
 c4210: 120 p_2_1 + 120 p_2_3 + 120 p_2_4 + 120 p_2_7 + 100000 z_2_1 + 100000 z_2_3 + 100000 z_2_4 + 100000 z_2_7 <= 402440.20350455638
 c4211: 120 p_2_2 + 120 p_2_3 + 120 p_2_4 + 120 p_2_7 + 100000 z_2_2 + 100000 z_2_3 + 100000 z_2_4 + 100000 z_2_7 <= 402188.75735231611
 c4212: 120 p_2_1 + 120 p_2_2 + 120 p_2_3 + 120 p_2_4 + 120 p_2_7 + 100000 z_2_1 + 100000 z_2_2 + 100000 z_2_3 + 100000 z_2_4 + 100000 z_2_7 <= 502179.07047318621
 c4213: 120 p_2_5 + 120 p_2_7 + 100000 z_2_5 + 100000 z_2_7 <= 202590.96621633053
 c4214: 120 p_2_1 + 120 p_2_5 + 120 p_2_7 + 100000 z_2_1 + 100000 z_2_5 + 100000 z_2_7 <= 302589.7204675735
 c4215: 120 p_2_2 + 120 p_2_5 + 120 p_2_7 + 100000 z_2_2 + 100000 z_2_5 + 100000 z_2_7 <= 302589.31580870232
 c4216: 120 p_2_1 + 120 p_2_2 + 120 p_2_5 + 120 p_2_7 + 100000 z_2_1 + 100000 z_2_2 + 100000 z_2_5 + 100000 z_2_7 <= 402588.07005994522
 c4217: 120 p_2_3 + 120 p_2_5 + 120 p_2_7 + 100000 z_2_3 + 100000 z_2_5 + 100000 z_2_7 <= 302119.34764279984
 c4218: 120 p_2_1 + 120 p_2_3 + 120 p_2_5 + 120 p_2_7 + 100000 z_2_1 + 100000 z_2_3 + 100000 z_2_5 + 100000 z_2_7 <= 402116.69779634196
 c4219: 120 p_2_2 + 120 p_2_3 + 120 p_2_5 + 120 p_2_7 + 100000 z_2_2 + 100000 z_2_3 + 100000 z_2_5 + 100000 z_2_7 <= 402117.69723517157
 c4220: 120 p_2_1 + 120 p_2_2 + 120 p_2_3 + 120 p_2_5 + 120 p_2_7 + 100000 z_2_1 + 100000 z_2_2 + 100000 z_2_3 + 100000 z_2_5 + 100000 z_2_7 <= 502115.04738871369
 c4221: 120 p_2_4 + 120 p_2_5 + 120 p_2_7 + 100000 z_2_4 + 100000 z_2_5 + 100000 z_2_7 <= 302590.64090580435
 c4222: 120 p_2_1 + 120 p_2_4 + 120 p_2_5 + 120 p_2_7 + 100000 z_2_1 + 100000 z_2_4 + 100000 z_2_5 + 100000 z_2_7 <= 402589.39515704731
 c4223: 120 p_2_2 + 120 p_2_4 + 120 p_2_5 + 120 p_2_7 + 100000 z_2_2 + 100000 z_2_4 + 100000 z_2_5 + 100000 z_2_7 <= 402588.99049817608
 c4224: 120 p_2_1 + 120 p_2_2 + 120 p_2_4 + 120 p_2_5 + 120 p_2_7 + 100000 z_2_1 + 100000 z_2_2 + 100000 z_2_4 + 100000 z_2_5 + 100000 z_2_7 <= 502587.74474941904
 c4225: 120 p_2_3 + 120 p_2_4 + 120 p_2_5 + 120 p_2_7 + 100000 z_2_3 + 100000 z_2_4 + 100000 z_2_5 + 100000 z_2_7 <= 402119.02233227366
 c4226: 120 p_2_1 + 120 p_2_3 + 120 p_2_4 + 120 p_2_5 + 120 p_2_7 + 100000 z_2_1 + 100000 z_2_3 + 100000 z_2_4 + 100000 z_2_5 + 100000 z_2_7 <= 502109.33545314375
 c4227: 120 p_2_2 + 120 p_2_3 + 120 p_2_4 + 120 p_2_5 + 120 p_2_7 + 100000 z_2_2 + 100000 z_2_3 + 100000 z_2_4 + 100000 z_2_5 + 100000 z_2_7 <= 502117.37192464538
 c4228: 120 p_2_1 + 120 p_2_2 + 120 p_2_3 + 120 p_2_4 + 120 p_2_5 + 120 p_2_7 + 100000 z_2_1 + 100000 z_2_2 + 100000 z_2_3 + 100000 z_2_4 + 100000 z_2_5 + 100000 z_2_7 <= 602107.68504551554
 c4229: 120 p_2_6 + 120 p_2_7 + 100000 z_2_6 + 100000 z_2_7 <= 202492.80010513411
 c4230: 120 p_2_1 + 120 p_2_6 + 120 p_2_7 + 100000 z_2_1 + 100000 z_2_6 + 100000 z_2_7 <= 302490.15025867621
 c4231: 120 p_2_2 + 120 p_2_6 + 120 p_2_7 + 100000 z_2_2 + 100000 z_2_6 + 100000 z_2_7 <= 302244.72524658957
 c4232: 120 p_2_1 + 120 p_2_2 + 120 p_2_6 + 120 p_2_7 + 100000 z_2_1 + 100000 z_2_2 + 100000 z_2_6 + 100000 z_2_7 <= 402242.07540013164
 c4233: 120 p_2_3 + 120 p_2_6 + 120 p_2_7 + 100000 z_2_3 + 100000 z_2_6 + 100000 z_2_7 <= 302431.03451136837
 c4234: 120 p_2_1 + 120 p_2_3 + 120 p_2_6 + 120 p_2_7 + 100000 z_2_1 + 100000 z_2_3 + 100000 z_2_6 + 100000 z_2_7 <= 402428.3846649105
 c4235: 120 p_2_2 + 120 p_2_3 + 120 p_2_6 + 120 p_2_7 + 100000 z_2_2 + 100000 z_2_3 + 100000 z_2_6 + 100000 z_2_7 <= 402182.9596528238
 c4236: 120 p_2_1 + 120 p_2_2 + 120 p_2_3 + 120 p_2_6 + 120 p_2_7 + 100000 z_2_1 + 100000 z_2_2 + 100000 z_2_3 + 100000 z_2_6 + 100000 z_2_7 <= 502180.30980636593
 c4237: 120 p_2_4 + 120 p_2_6 + 120 p_2_7 + 100000 z_2_4 + 100000 z_2_6 + 100000 z_2_7 <= 302492.4747946079
 c4238: 120 p_2_1 + 120 p_2_4 + 120 p_2_6 + 120 p_2_7 + 100000 z_2_1 + 100000 z_2_4 + 100000 z_2_6 + 100000 z_2_7 <= 402485.79733258905
 c4239: 120 p_2_2 + 120 p_2_4 + 120 p_2_6 + 120 p_2_7 + 100000 z_2_2 + 100000 z_2_4 + 100000 z_2_6 + 100000 z_2_7 <= 402244.39993606333
 c4240: 120 p_2_1 + 120 p_2_2 + 120 p_2_4 + 120 p_2_6 + 120 p_2_7 + 100000 z_2_1 + 100000 z_2_2 + 100000 z_2_4 + 100000 z_2_6 + 100000 z_2_7 <= 502237.72247404448
 c4241: 120 p_2_3 + 120 p_2_4 + 120 p_2_6 + 120 p_2_7 + 100000 z_2_3 + 100000 z_2_4 + 100000 z_2_6 + 100000 z_2_7 <= 402430.70920084219
 c4242: 120 p_2_1 + 120 p_2_3 + 120 p_2_4 + 120 p_2_6 + 120 p_2_7 + 100000 z_2_1 + 100000 z_2_3 + 100000 z_2_4 + 100000 z_2_6 + 100000 z_2_7 <= 502421.02232171228
 c4243: 120 p_2_2 + 120 p_2_3 + 120 p_2_4 + 120 p_2_6 + 120 p_2_7 + 100000 z_2_2 + 100000 z_2_3 + 100000 z_2_4 + 100000 z_2_6 + 100000 z_2_7 <= 502182.63434229762
 c4244: 120 p_2_1 + 120 p_2_2 + 120 p_2_3 + 120 p_2_4 + 120 p_2_6 + 120 p_2_7 + 100000 z_2_1 + 100000 z_2_2 + 100000 z_2_3 + 100000 z_2_4 + 100000 z_2_6 + 100000 z_2_7 <= 602172.94746316771
 c4245: 120 p_2_5 + 120 p_2_6 + 120 p_2_7 + 100000 z_2_5 + 100000 z_2_6 + 100000 z_2_7 <= 302177.20196787949
 c4246: 120 p_2_1 + 120 p_2_5 + 120 p_2_6 + 120 p_2_7 + 100000 z_2_1 + 100000 z_2_5 + 100000 z_2_6 + 100000 z_2_7 <= 402174.55212142156
 c4247: 120 p_2_2 + 120 p_2_5 + 120 p_2_6 + 120 p_2_7 + 100000 z_2_2 + 100000 z_2_5 + 100000 z_2_6 + 100000 z_2_7 <= 402175.55156025122
 c4248: 120 p_2_1 + 120 p_2_2 + 120 p_2_5 + 120 p_2_6 + 120 p_2_7 + 100000 z_2_1 + 100000 z_2_2 + 100000 z_2_5 + 100000 z_2_6 + 100000 z_2_7 <= 502172.90171379334
 c4249: 120 p_2_3 + 120 p_2_5 + 120 p_2_6 + 120 p_2_7 + 100000 z_2_3 + 100000 z_2_5 + 100000 z_2_6 + 100000 z_2_7 <= 402115.43637411372
 c4250: 120 p_2_1 + 120 p_2_3 + 120 p_2_5 + 120 p_2_6 + 120 p_2_7 + 100000 z_2_1 + 100000 z_2_3 + 100000 z_2_5 + 100000 z_2_6 + 100000 z_2_7 <= 502112.78652765584
 c4251: 120 p_2_2 + 120 p_2_3 + 120 p_2_5 + 120 p_2_6 + 120 p_2_7 + 100000 z_2_2 + 100000 z_2_3 + 100000 z_2_5 + 100000 z_2_6 + 100000 z_2_7 <= 502113.78596648551
 c4252: 120 p_2_1 + 120 p_2_2 + 120 p_2_3 + 120 p_2_5 + 120 p_2_6 + 120 p_2_7 + 100000 z_2_1 + 100000 z_2_2 + 100000 z_2_3 + 100000 z_2_5 + 100000 z_2_6 + 100000 z_2_7 <= 602111.13612002763
 c4253: 120 p_2_4 + 120 p_2_5 + 120 p_2_6 + 120 p_2_7 + 100000 z_2_4 + 100000 z_2_5 + 100000 z_2_6 + 100000 z_2_7 <= 402176.87665735331
 c4254: 120 p_2_1 + 120 p_2_4 + 120 p_2_5 + 120 p_2_6 + 120 p_2_7 + 100000 z_2_1 + 100000 z_2_4 + 100000 z_2_5 + 100000 z_2_6 + 100000 z_2_7 <= 502170.1991953344
 c4255: 120 p_2_2 + 120 p_2_4 + 120 p_2_5 + 120 p_2_6 + 120 p_2_7 + 100000 z_2_2 + 100000 z_2_4 + 100000 z_2_5 + 100000 z_2_6 + 100000 z_2_7 <= 502175.22624972503
 c4256: 120 p_2_1 + 120 p_2_2 + 120 p_2_4 + 120 p_2_5 + 120 p_2_6 + 120 p_2_7 + 100000 z_2_1 + 100000 z_2_2 + 100000 z_2_4 + 100000 z_2_5 + 100000 z_2_6 + 100000 z_2_7 <= 602168.54878770618
 c4257: 120 p_2_3 + 120 p_2_4 + 120 p_2_5 + 120 p_2_6 + 120 p_2_7 + 100000 z_2_3 + 100000 z_2_4 + 100000 z_2_5 + 100000 z_2_6 + 100000 z_2_7 <= 502115.11106358754
 c4258: 120 p_2_1 + 120 p_2_3 + 120 p_2_4 + 120 p_2_5 + 120 p_2_6 + 120 p_2_7 + 100000 z_2_1 + 100000 z_2_3 + 100000 z_2_4 + 100000 z_2_5 + 100000 z_2_6 + 100000 z_2_7 <= 602105.42418445763
 c4259: 120 p_2_2 + 120 p_2_3 + 120 p_2_4 + 120 p_2_5 + 120 p_2_6 + 120 p_2_7 + 100000 z_2_2 + 100000 z_2_3 + 100000 z_2_4 + 100000 z_2_5 + 100000 z_2_6 + 100000 z_2_7 <= 602113.46065595932
 c4260: 120 p_2_1 + 120 p_2_2 + 120 p_2_3 + 120 p_2_4 + 120 p_2_5 + 120 p_2_6 + 120 p_2_7 + 100000 z_2_1 + 100000 z_2_2 + 100000 z_2_3 + 100000 z_2_4 + 100000 z_2_5 + 100000 z_2_6 + 100000 z_2_7 <= 702103.77377682936
 c4261: 120 p_2_8 + 100000 z_2_8 <= 103126.19759585442
 c4262: 120 p_2_1 + 120 p_2_8 + 100000 z_2_1 + 100000 z_2_8 <= 202733.74345621432
 c4263: 120 p_2_2 + 120 p_2_8 + 100000 z_2_2 + 100000 z_2_8 <= 203124.66059505907
 c4264: 120 p_2_1 + 120 p_2_2 + 120 p_2_8 + 100000 z_2_1 + 100000 z_2_2 + 100000 z_2_8 <= 302732.20645541901
 c4265: 120 p_2_3 + 120 p_2_8 + 100000 z_2_3 + 100000 z_2_8 <= 202596.84862379832
 c4266: 120 p_2_1 + 120 p_2_3 + 120 p_2_8 + 100000 z_2_1 + 100000 z_2_3 + 100000 z_2_8 <= 302216.20131008921
 c4267: 120 p_2_2 + 120 p_2_3 + 120 p_2_8 + 100000 z_2_2 + 100000 z_2_3 + 100000 z_2_8 <= 302595.31162300298
 c4268: 120 p_2_1 + 120 p_2_2 + 120 p_2_3 + 120 p_2_8 + 100000 z_2_1 + 100000 z_2_2 + 100000 z_2_3 + 100000 z_2_8 <= 402214.6643092939
 c4269: 120 p_2_4 + 120 p_2_8 + 100000 z_2_4 + 100000 z_2_8 <= 202667.50832256005
 c4270: 120 p_2_1 + 120 p_2_4 + 120 p_2_8 + 100000 z_2_1 + 100000 z_2_4 + 100000 z_2_8 <= 302666.71799247956
 c4271: 120 p_2_2 + 120 p_2_4 + 120 p_2_8 + 100000 z_2_2 + 100000 z_2_4 + 100000 z_2_8 <= 302665.97132176469
 c4272: 120 p_2_1 + 120 p_2_2 + 120 p_2_4 + 120 p_2_8 + 100000 z_2_1 + 100000 z_2_2 + 100000 z_2_4 + 100000 z_2_8 <= 402665.1809916842
 c4273: 120 p_2_3 + 120 p_2_4 + 120 p_2_8 + 100000 z_2_3 + 100000 z_2_4 + 100000 z_2_8 <= 302169.62791669508
 c4274: 120 p_2_1 + 120 p_2_3 + 120 p_2_4 + 120 p_2_8 + 100000 z_2_1 + 100000 z_2_3 + 100000 z_2_4 + 100000 z_2_8 <= 402168.83758661459
 c4275: 120 p_2_2 + 120 p_2_3 + 120 p_2_4 + 120 p_2_8 + 100000 z_2_2 + 100000 z_2_3 + 100000 z_2_4 + 100000 z_2_8 <= 402168.09091589978
 c4276: 120 p_2_1 + 120 p_2_2 + 120 p_2_3 + 120 p_2_4 + 120 p_2_8 + 100000 z_2_1 + 100000 z_2_2 + 100000 z_2_3 + 100000 z_2_4 + 100000 z_2_8 <= 502167.30058581929
 c4277: 120 p_2_5 + 120 p_2_8 + 100000 z_2_5 + 100000 z_2_8 <= 203113.73759144841
 c4278: 120 p_2_1 + 120 p_2_5 + 120 p_2_8 + 100000 z_2_1 + 100000 z_2_5 + 100000 z_2_8 <= 302721.28345180833
 c4279: 120 p_2_2 + 120 p_2_5 + 120 p_2_8 + 100000 z_2_2 + 100000 z_2_5 + 100000 z_2_8 <= 303112.20059065311
 c4280: 120 p_2_1 + 120 p_2_2 + 120 p_2_5 + 120 p_2_8 + 100000 z_2_1 + 100000 z_2_2 + 100000 z_2_5 + 100000 z_2_8 <= 402719.63304418005
 c4281: 120 p_2_3 + 120 p_2_5 + 120 p_2_8 + 100000 z_2_3 + 100000 z_2_5 + 100000 z_2_8 <= 302596.40111788205
 c4282: 120 p_2_1 + 120 p_2_3 + 120 p_2_5 + 120 p_2_8 + 100000 z_2_1 + 100000 z_2_3 + 100000 z_2_5 + 100000 z_2_8 <= 402203.94697824196
 c4283: 120 p_2_2 + 120 p_2_3 + 120 p_2_5 + 120 p_2_8 + 100000 z_2_2 + 100000 z_2_3 + 100000 z_2_5 + 100000 z_2_8 <= 402594.86411708675
 c4284: 120 p_2_1 + 120 p_2_2 + 120 p_2_3 + 120 p_2_5 + 120 p_2_8 + 100000 z_2_1 + 100000 z_2_2 + 100000 z_2_3 + 100000 z_2_5 + 100000 z_2_8 <= 502202.09089805494
 c4285: 120 p_2_4 + 120 p_2_5 + 120 p_2_8 + 100000 z_2_4 + 100000 z_2_5 + 100000 z_2_8 <= 302655.04831815406
 c4286: 120 p_2_1 + 120 p_2_4 + 120 p_2_5 + 120 p_2_8 + 100000 z_2_1 + 100000 z_2_4 + 100000 z_2_5 + 100000 z_2_8 <= 402654.25798807357
 c4287: 120 p_2_2 + 120 p_2_4 + 120 p_2_5 + 120 p_2_8 + 100000 z_2_2 + 100000 z_2_4 + 100000 z_2_5 + 100000 z_2_8 <= 402653.39791052579
 c4288: 120 p_2_1 + 120 p_2_2 + 120 p_2_4 + 120 p_2_5 + 120 p_2_8 + 100000 z_2_1 + 100000 z_2_2 + 100000 z_2_4 + 100000 z_2_5 + 100000 z_2_8 <= 502652.6075804453
 c4289: 120 p_2_3 + 120 p_2_4 + 120 p_2_5 + 120 p_2_8 + 100000 z_2_3 + 100000 z_2_4 + 100000 z_2_5 + 100000 z_2_8 <= 402161.45210948569
 c4290: 120 p_2_1 + 120 p_2_3 + 120 p_2_4 + 120 p_2_5 + 120 p_2_8 + 100000 z_2_1 + 100000 z_2_3 + 100000 z_2_4 + 100000 z_2_5 + 100000 z_2_8 <= 502156.3775822086
 c4291: 120 p_2_2 + 120 p_2_3 + 120 p_2_4 + 120 p_2_5 + 120 p_2_8 + 100000 z_2_2 + 100000 z_2_3 + 100000 z_2_4 + 100000 z_2_5 + 100000 z_2_8 <= 502159.91510869033
 c4292: 120 p_2_1 + 120 p_2_2 + 120 p_2_3 + 120 p_2_4 + 120 p_2_5 + 120 p_2_8 + 100000 z_2_1 + 100000 z_2_2 + 100000 z_2_3 + 100000 z_2_4 + 100000 z_2_5 + 100000 z_2_8 <= 602154.72717458033
 c4293: 120 p_2_6 + 120 p_2_8 + 100000 z_2_6 + 100000 z_2_8 <= 202683.07936424908
 c4294: 120 p_2_1 + 120 p_2_6 + 120 p_2_8 + 100000 z_2_1 + 100000 z_2_6 + 100000 z_2_8 <= 302290.62522460899
 c4295: 120 p_2_2 + 120 p_2_6 + 120 p_2_8 + 100000 z_2_2 + 100000 z_2_6 + 100000 z_2_8 <= 302681.54236345371
 c4296: 120 p_2_1 + 120 p_2_2 + 120 p_2_6 + 120 p_2_8 + 100000 z_2_1 + 100000 z_2_2 + 100000 z_2_6 + 100000 z_2_8 <= 402282.0101709197
 c4297: 120 p_2_3 + 120 p_2_6 + 120 p_2_8 + 100000 z_2_3 + 100000 z_2_6 + 100000 z_2_8 <= 302592.6721061375
 c4298: 120 p_2_1 + 120 p_2_3 + 120 p_2_6 + 120 p_2_8 + 100000 z_2_1 + 100000 z_2_3 + 100000 z_2_6 + 100000 z_2_8 <= 402200.21796649735
 c4299: 120 p_2_2 + 120 p_2_3 + 120 p_2_6 + 120 p_2_8 + 100000 z_2_2 + 100000 z_2_3 + 100000 z_2_6 + 100000 z_2_8 <= 402591.13510534214
 c4300: 120 p_2_1 + 120 p_2_2 + 120 p_2_3 + 120 p_2_6 + 120 p_2_8 + 100000 z_2_1 + 100000 z_2_2 + 100000 z_2_3 + 100000 z_2_6 + 100000 z_2_8 <= 502195.48312644981
 c4301: 120 p_2_4 + 120 p_2_6 + 120 p_2_8 + 100000 z_2_4 + 100000 z_2_6 + 100000 z_2_8 <= 302224.39009095472
 c4302: 120 p_2_1 + 120 p_2_4 + 120 p_2_6 + 120 p_2_8 + 100000 z_2_1 + 100000 z_2_4 + 100000 z_2_6 + 100000 z_2_8 <= 402223.59976087423
 c4303: 120 p_2_2 + 120 p_2_4 + 120 p_2_6 + 120 p_2_8 + 100000 z_2_2 + 100000 z_2_4 + 100000 z_2_6 + 100000 z_2_8 <= 402220.96110782248
 c4304: 120 p_2_1 + 120 p_2_2 + 120 p_2_4 + 120 p_2_6 + 120 p_2_8 + 100000 z_2_1 + 100000 z_2_2 + 100000 z_2_4 + 100000 z_2_6 + 100000 z_2_8 <= 502214.98470718495
 c4305: 120 p_2_3 + 120 p_2_4 + 120 p_2_6 + 120 p_2_8 + 100000 z_2_3 + 100000 z_2_4 + 100000 z_2_6 + 100000 z_2_8 <= 402157.72309774108
 c4306: 120 p_2_1 + 120 p_2_3 + 120 p_2_4 + 120 p_2_6 + 120 p_2_8 + 100000 z_2_1 + 100000 z_2_3 + 100000 z_2_4 + 100000 z_2_6 + 100000 z_2_8 <= 502149.6564037705
 c4307: 120 p_2_2 + 120 p_2_3 + 120 p_2_4 + 120 p_2_6 + 120 p_2_8 + 100000 z_2_2 + 100000 z_2_3 + 100000 z_2_4 + 100000 z_2_6 + 100000 z_2_8 <= 502156.18609694578
 c4308: 120 p_2_1 + 120 p_2_2 + 120 p_2_3 + 120 p_2_4 + 120 p_2_6 + 120 p_2_8 + 100000 z_2_1 + 100000 z_2_2 + 100000 z_2_3 + 100000 z_2_4 + 100000 z_2_6 + 100000 z_2_8 <= 602148.11940297519
 c4309: 120 p_2_5 + 120 p_2_6 + 120 p_2_8 + 100000 z_2_5 + 100000 z_2_6 + 100000 z_2_8 <= 302682.89710730757
 c4310: 120 p_2_1 + 120 p_2_5 + 120 p_2_6 + 120 p_2_8 + 100000 z_2_1 + 100000 z_2_5 + 100000 z_2_6 + 100000 z_2_8 <= 402290.44296766748
 c4311: 120 p_2_2 + 120 p_2_5 + 120 p_2_6 + 120 p_2_8 + 100000 z_2_2 + 100000 z_2_5 + 100000 z_2_6 + 100000 z_2_8 <= 402681.36010651221
 c4312: 120 p_2_1 + 120 p_2_2 + 120 p_2_5 + 120 p_2_6 + 120 p_2_8 + 100000 z_2_1 + 100000 z_2_2 + 100000 z_2_5 + 100000 z_2_6 + 100000 z_2_8 <= 502269.4367596808
 c4313: 120 p_2_3 + 120 p_2_5 + 120 p_2_6 + 120 p_2_8 + 100000 z_2_3 + 100000 z_2_5 + 100000 z_2_6 + 100000 z_2_8 <= 402592.48984919599
 c4314: 120 p_2_1 + 120 p_2_3 + 120 p_2_5 + 120 p_2_6 + 120 p_2_8 + 100000 z_2_1 + 100000 z_2_3 + 100000 z_2_5 + 100000 z_2_6 + 100000 z_2_8 <= 502200.03570955584
 c4315: 120 p_2_2 + 120 p_2_3 + 120 p_2_5 + 120 p_2_6 + 120 p_2_8 + 100000 z_2_2 + 100000 z_2_3 + 100000 z_2_5 + 100000 z_2_6 + 100000 z_2_8 <= 502590.95284840063
 c4316: 120 p_2_1 + 120 p_2_2 + 120 p_2_3 + 120 p_2_5 + 120 p_2_6 + 120 p_2_8 + 100000 z_2_1 + 100000 z_2_2 + 100000 z_2_3 + 100000 z_2_5 + 100000 z_2_6 + 100000 z_2_8 <= 602193.42661624239
 c4317: 120 p_2_4 + 120 p_2_5 + 120 p_2_6 + 120 p_2_8 + 100000 z_2_4 + 100000 z_2_5 + 100000 z_2_6 + 100000 z_2_8 <= 402224.20783401321
 c4318: 120 p_2_1 + 120 p_2_4 + 120 p_2_5 + 120 p_2_6 + 120 p_2_8 + 100000 z_2_1 + 100000 z_2_4 + 100000 z_2_5 + 100000 z_2_6 + 100000 z_2_8 <= 502223.41750393272
 c4319: 120 p_2_2 + 120 p_2_4 + 120 p_2_5 + 120 p_2_6 + 120 p_2_8 + 100000 z_2_2 + 100000 z_2_4 + 100000 z_2_5 + 100000 z_2_6 + 100000 z_2_8 <= 502220.77885088098
 c4320: 120 p_2_1 + 120 p_2_2 + 120 p_2_4 + 120 p_2_5 + 120 p_2_6 + 120 p_2_8 + 100000 z_2_1 + 100000 z_2_2 + 100000 z_2_4 + 100000 z_2_5 + 100000 z_2_6 + 100000 z_2_8 <= 602210.83790364454
 c4321: 120 p_2_3 + 120 p_2_4 + 120 p_2_5 + 120 p_2_6 + 120 p_2_8 + 100000 z_2_3 + 100000 z_2_4 + 100000 z_2_5 + 100000 z_2_6 + 100000 z_2_8 <= 502157.54084079957
 c4322: 120 p_2_1 + 120 p_2_3 + 120 p_2_4 + 120 p_2_5 + 120 p_2_6 + 120 p_2_8 + 100000 z_2_1 + 100000 z_2_3 + 100000 z_2_4 + 100000 z_2_5 + 100000 z_2_6 + 100000 z_2_8 <= 602147.59989356308
 c4323: 120 p_2_2 + 120 p_2_3 + 120 p_2_4 + 120 p_2_5 + 120 p_2_6 + 120 p_2_8 + 100000 z_2_2 + 100000 z_2_3 + 100000 z_2_4 + 100000 z_2_5 + 100000 z_2_6 + 100000 z_2_8 <= 602156.00384000421
 c4324: 120 p_2_1 + 120 p_2_2 + 120 p_2_3 + 120 p_2_4 + 120 p_2_5 + 120 p_2_6 + 120 p_2_8 + 100000 z_2_1 + 100000 z_2_2 + 100000 z_2_3 + 100000 z_2_4 + 100000 z_2_5 + 100000 z_2_6 + 100000 z_2_8 <= 702146.06289276772
 c4325: 120 p_2_7 + 120 p_2_8 + 100000 z_2_7 + 100000 z_2_8 <= 202542.99068371538
 c4326: 120 p_2_1 + 120 p_2_7 + 120 p_2_8 + 100000 z_2_1 + 100000 z_2_7 + 100000 z_2_8 <= 302540.34083725751
 c4327: 120 p_2_2 + 120 p_2_7 + 120 p_2_8 + 100000 z_2_2 + 100000 z_2_7 + 100000 z_2_8 <= 302541.45368292008
 c4328: 120 p_2_1 + 120 p_2_2 + 120 p_2_7 + 120 p_2_8 + 100000 z_2_1 + 100000 z_2_2 + 100000 z_2_7 + 100000 z_2_8 <= 402538.80383646215
 c4329: 120 p_2_3 + 120 p_2_7 + 120 p_2_8 + 100000 z_2_3 + 100000 z_2_7 + 100000 z_2_8 <= 302052.14731052244
 c4330: 120 p_2_1 + 120 p_2_3 + 120 p_2_7 + 120 p_2_8 + 100000 z_2_1 + 100000 z_2_3 + 100000 z_2_7 + 100000 z_2_8 <= 402048.62816584262
 c4331: 120 p_2_2 + 120 p_2_3 + 120 p_2_7 + 120 p_2_8 + 100000 z_2_2 + 100000 z_2_3 + 100000 z_2_7 + 100000 z_2_8 <= 402050.61030972714
 c4332: 120 p_2_1 + 120 p_2_2 + 120 p_2_3 + 120 p_2_7 + 120 p_2_8 + 100000 z_2_1 + 100000 z_2_2 + 100000 z_2_3 + 100000 z_2_7 + 100000 z_2_8 <= 502047.09116504731
 c4333: 120 p_2_4 + 120 p_2_7 + 120 p_2_8 + 100000 z_2_4 + 100000 z_2_7 + 100000 z_2_8 <= 302542.6653731892
 c4334: 120 p_2_1 + 120 p_2_4 + 120 p_2_7 + 120 p_2_8 + 100000 z_2_1 + 100000 z_2_4 + 100000 z_2_7 + 100000 z_2_8 <= 402539.14622850937
 c4335: 120 p_2_2 + 120 p_2_4 + 120 p_2_7 + 120 p_2_8 + 100000 z_2_2 + 100000 z_2_4 + 100000 z_2_7 + 100000 z_2_8 <= 402541.1283723939
 c4336: 120 p_2_1 + 120 p_2_2 + 120 p_2_4 + 120 p_2_7 + 120 p_2_8 + 100000 z_2_1 + 100000 z_2_2 + 100000 z_2_4 + 100000 z_2_7 + 100000 z_2_8 <= 502537.60922771401
 c4337: 120 p_2_3 + 120 p_2_4 + 120 p_2_7 + 120 p_2_8 + 100000 z_2_3 + 100000 z_2_4 + 100000 z_2_7 + 100000 z_2_8 <= 402044.78496732423
 c4338: 120 p_2_1 + 120 p_2_3 + 120 p_2_4 + 120 p_2_7 + 120 p_2_8 + 100000 z_2_1 + 100000 z_2_3 + 100000 z_2_4 + 100000 z_2_7 + 100000 z_2_8 <= 502041.2658226444
 c4339: 120 p_2_2 + 120 p_2_3 + 120 p_2_4 + 120 p_2_7 + 120 p_2_8 + 100000 z_2_2 + 100000 z_2_3 + 100000 z_2_4 + 100000 z_2_7 + 100000 z_2_8 <= 502043.24796652893
 c4340: 120 p_2_1 + 120 p_2_2 + 120 p_2_3 + 120 p_2_4 + 120 p_2_7 + 120 p_2_8 + 100000 z_2_1 + 100000 z_2_2 + 100000 z_2_3 + 100000 z_2_4 + 100000 z_2_7 + 100000 z_2_8 <= 602039.7288218491
 c4341: 120 p_2_5 + 120 p_2_7 + 120 p_2_8 + 100000 z_2_5 + 100000 z_2_7 + 100000 z_2_8 <= 302530.53067930939
 c4342: 120 p_2_1 + 120 p_2_5 + 120 p_2_7 + 120 p_2_8 + 100000 z_2_1 + 100000 z_2_5 + 100000 z_2_7 + 100000 z_2_8 <= 402527.88083285152
 c4343: 120 p_2_2 + 120 p_2_5 + 120 p_2_7 + 120 p_2_8 + 100000 z_2_2 + 100000 z_2_5 + 100000 z_2_7 + 100000 z_2_8 <= 402528.88027168112
 c4344: 120 p_2_1 + 120 p_2_2 + 120 p_2_5 + 120 p_2_7 + 120 p_2_8 + 100000 z_2_1 + 100000 z_2_2 + 100000 z_2_5 + 100000 z_2_7 + 100000 z_2_8 <= 502526.23042522324
 c4345: 120 p_2_3 + 120 p_2_5 + 120 p_2_7 + 120 p_2_8 + 100000 z_2_3 + 100000 z_2_5 + 100000 z_2_7 + 100000 z_2_8 <= 402039.68730611645
 c4346: 120 p_2_1 + 120 p_2_3 + 120 p_2_5 + 120 p_2_7 + 120 p_2_8 + 100000 z_2_1 + 100000 z_2_3 + 100000 z_2_5 + 100000 z_2_7 + 100000 z_2_8 <= 502036.16816143662
 c4347: 120 p_2_2 + 120 p_2_3 + 120 p_2_5 + 120 p_2_7 + 120 p_2_8 + 100000 z_2_2 + 100000 z_2_3 + 100000 z_2_5 + 100000 z_2_7 + 100000 z_2_8 <= 502038.03689848818
 c4348: 120 p_2_1 + 120 p_2_2 + 120 p_2_3 + 120 p_2_5 + 120 p_2_7 + 120 p_2_8 + 100000 z_2_1 + 100000 z_2_2 + 100000 z_2_3 + 100000 z_2_5 + 100000 z_2_7 + 100000 z_2_8 <= 602034.51775380841
 c4349: 120 p_2_4 + 120 p_2_5 + 120 p_2_7 + 120 p_2_8 + 100000 z_2_4 + 100000 z_2_5 + 100000 z_2_7 + 100000 z_2_8 <= 402530.20536878321
 c4350: 120 p_2_1 + 120 p_2_4 + 120 p_2_5 + 120 p_2_7 + 120 p_2_8 + 100000 z_2_1 + 100000 z_2_4 + 100000 z_2_5 + 100000 z_2_7 + 100000 z_2_8 <= 502526.68622410338
 c4351: 120 p_2_2 + 120 p_2_4 + 120 p_2_5 + 120 p_2_7 + 120 p_2_8 + 100000 z_2_2 + 100000 z_2_4 + 100000 z_2_5 + 100000 z_2_7 + 100000 z_2_8 <= 502528.55496115494
 c4352: 120 p_2_1 + 120 p_2_2 + 120 p_2_4 + 120 p_2_5 + 120 p_2_7 + 120 p_2_8 + 100000 z_2_1 + 100000 z_2_2 + 100000 z_2_4 + 100000 z_2_5 + 100000 z_2_7 + 100000 z_2_8 <= 602525.03581647517
 c4353: 120 p_2_3 + 120 p_2_4 + 120 p_2_5 + 120 p_2_7 + 120 p_2_8 + 100000 z_2_3 + 100000 z_2_4 + 100000 z_2_5 + 100000 z_2_7 + 100000 z_2_8 <= 502033.62627740891
 c4354: 120 p_2_1 + 120 p_2_3 + 120 p_2_4 + 120 p_2_5 + 120 p_2_7 + 120 p_2_8 + 100000 z_2_1 + 100000 z_2_3 + 100000 z_2_4 + 100000 z_2_5 + 100000 z_2_7 + 100000 z_2_8 <= 602028.80581823841
 c4355: 120 p_2_2 + 120 p_2_3 + 120 p_2_4 + 120 p_2_5 + 120 p_2_7 + 120 p_2_8 + 100000 z_2_2 + 100000 z_2_3 + 100000 z_2_4 + 100000 z_2_5 + 100000 z_2_7 + 100000 z_2_8 <= 602032.08927661355
 c4356: 120 p_2_1 + 120 p_2_2 + 120 p_2_3 + 120 p_2_4 + 120 p_2_5 + 120 p_2_7 + 120 p_2_8 + 100000 z_2_1 + 100000 z_2_2 + 100000 z_2_3 + 100000 z_2_4 + 100000 z_2_5 + 100000 z_2_7 + 100000 z_2_8 <= 702027.15541061014
 c4357: 120 p_2_6 + 120 p_2_7 + 120 p_2_8 + 100000 z_2_6 + 100000 z_2_7 + 100000 z_2_8 <= 302099.87245211005
 c4358: 120 p_2_1 + 120 p_2_6 + 120 p_2_7 + 120 p_2_8 + 100000 z_2_1 + 100000 z_2_6 + 100000 z_2_7 + 100000 z_2_8 <= 402097.22260565218
 c4359: 120 p_2_2 + 120 p_2_6 + 120 p_2_7 + 120 p_2_8 + 100000 z_2_2 + 100000 z_2_6 + 100000 z_2_7 + 100000 z_2_8 <= 402093.19472064875
 c4360: 120 p_2_1 + 120 p_2_2 + 120 p_2_6 + 120 p_2_7 + 120 p_2_8 + 100000 z_2_1 + 100000 z_2_2 + 100000 z_2_6 + 100000 z_2_7 + 100000 z_2_8 <= 502089.67557596893
 c4361: 120 p_2_3 + 120 p_2_6 + 120 p_2_7 + 120 p_2_8 + 100000 z_2_3 + 100000 z_2_6 + 100000 z_2_7 + 100000 z_2_8 <= 402032.96612767834
 c4362: 120 p_2_1 + 120 p_2_3 + 120 p_2_6 + 120 p_2_7 + 120 p_2_8 + 100000 z_2_1 + 100000 z_2_3 + 100000 z_2_6 + 100000 z_2_7 + 100000 z_2_8 <= 502029.44698299852
 c4363: 120 p_2_2 + 120 p_2_3 + 120 p_2_6 + 120 p_2_7 + 120 p_2_8 + 100000 z_2_2 + 100000 z_2_3 + 100000 z_2_6 + 100000 z_2_7 + 100000 z_2_8 <= 502031.42912688304
 c4364: 120 p_2_1 + 120 p_2_2 + 120 p_2_3 + 120 p_2_6 + 120 p_2_7 + 120 p_2_8 + 100000 z_2_1 + 100000 z_2_2 + 100000 z_2_3 + 100000 z_2_6 + 100000 z_2_7 + 100000 z_2_8 <= 602027.90998220316
 c4365: 120 p_2_4 + 120 p_2_6 + 120 p_2_7 + 120 p_2_8 + 100000 z_2_4 + 100000 z_2_6 + 100000 z_2_7 + 100000 z_2_8 <= 402099.54714158387
 c4366: 120 p_2_1 + 120 p_2_4 + 120 p_2_6 + 120 p_2_7 + 120 p_2_8 + 100000 z_2_1 + 100000 z_2_4 + 100000 z_2_6 + 100000 z_2_7 + 100000 z_2_8 <= 502096.02799690404
 c4367: 120 p_2_2 + 120 p_2_4 + 120 p_2_6 + 120 p_2_7 + 120 p_2_8 + 100000 z_2_2 + 100000 z_2_4 + 100000 z_2_6 + 100000 z_2_7 + 100000 z_2_8 <= 502090.93208789459
 c4368: 120 p_2_1 + 120 p_2_2 + 120 p_2_4 + 120 p_2_6 + 120 p_2_7 + 120 p_2_8 + 100000 z_2_1 + 100000 z_2_2 + 100000 z_2_4 + 100000 z_2_6 + 100000 z_2_7 + 100000 z_2_8 <= 602087.41294321476
 c4369: 120 p_2_3 + 120 p_2_4 + 120 p_2_6 + 120 p_2_7 + 120 p_2_8 + 100000 z_2_3 + 100000 z_2_4 + 100000 z_2_6 + 100000 z_2_7 + 100000 z_2_8 <= 502029.8972656643
 c4370: 120 p_2_1 + 120 p_2_3 + 120 p_2_4 + 120 p_2_6 + 120 p_2_7 + 120 p_2_8 + 100000 z_2_1 + 100000 z_2_3 + 100000 z_2_4 + 100000 z_2_6 + 100000 z_2_7 + 100000 z_2_8 <= 602022.08463980036
 c4371: 120 p_2_2 + 120 p_2_3 + 120 p_2_4 + 120 p_2_6 + 120 p_2_7 + 120 p_2_8 + 100000 z_2_2 + 100000 z_2_3 + 100000 z_2_4 + 100000 z_2_6 + 100000 z_2_7 + 100000 z_2_8 <= 602028.36026486894
 c4372: 120 p_2_1 + 120 p_2_2 + 120 p_2_3 + 120 p_2_4 + 120 p_2_6 + 120 p_2_7 + 120 p_2_8 + 100000 z_2_1 + 100000 z_2_2 + 100000 z_2_3 + 100000 z_2_4 + 100000 z_2_6 + 100000 z_2_7 + 100000 z_2_8 <= 702020.547639005
 c4373: 120 p_2_5 + 120 p_2_6 + 120 p_2_7 + 120 p_2_8 + 100000 z_2_5 + 100000 z_2_6 + 100000 z_2_7 + 100000 z_2_8 <= 402099.69019516854
 c4374: 120 p_2_1 + 120 p_2_5 + 120 p_2_6 + 120 p_2_7 + 120 p_2_8 + 100000 z_2_1 + 100000 z_2_5 + 100000 z_2_6 + 100000 z_2_7 + 100000 z_2_8 <= 502097.04034871067
 c4375: 120 p_2_2 + 120 p_2_5 + 120 p_2_6 + 120 p_2_7 + 120 p_2_8 + 100000 z_2_2 + 100000 z_2_5 + 100000 z_2_6 + 100000 z_2_7 + 100000 z_2_8 <= 502090.26891221938
 c4376: 120 p_2_1 + 120 p_2_2 + 120 p_2_5 + 120 p_2_6 + 120 p_2_7 + 120 p_2_8 + 100000 z_2_1 + 100000 z_2_2 + 100000 z_2_5 + 100000 z_2_6 + 100000 z_2_7 + 100000 z_2_8 <= 602087.61906576145
 c4377: 120 p_2_3 + 120 p_2_5 + 120 p_2_6 + 120 p_2_7 + 120 p_2_8 + 100000 z_2_3 + 100000 z_2_5 + 100000 z_2_6 + 100000 z_2_7 + 100000 z_2_8 <= 502030.04031924898
 c4378: 120 p_2_1 + 120 p_2_3 + 120 p_2_5 + 120 p_2_6 + 120 p_2_7 + 120 p_2_8 + 100000 z_2_1 + 100000 z_2_3 + 100000 z_2_5 + 100000 z_2_6 + 100000 z_2_7 + 100000 z_2_8 <= 602027.39047279104
 c4379: 120 p_2_2 + 120 p_2_3 + 120 p_2_5 + 120 p_2_6 + 120 p_2_7 + 120 p_2_8 + 100000 z_2_2 + 100000 z_2_3 + 100000 z_2_5 + 100000 z_2_6 + 100000 z_2_7 + 100000 z_2_8 <= 602028.50331845367
 c4380: 120 p_2_1 + 120 p_2_2 + 120 p_2_3 + 120 p_2_5 + 120 p_2_6 + 120 p_2_7 + 120 p_2_8 + 100000 z_2_1 + 100000 z_2_2 + 100000 z_2_3 + 100000 z_2_5 + 100000 z_2_6 + 100000 z_2_7 + 100000 z_2_8 <= 702025.8534719958
 c4381: 120 p_2_4 + 120 p_2_5 + 120 p_2_6 + 120 p_2_7 + 120 p_2_8 + 100000 z_2_4 + 100000 z_2_5 + 100000 z_2_6 + 100000 z_2_7 + 100000 z_2_8 <= 502099.36488464236
 c4382: 120 p_2_1 + 120 p_2_4 + 120 p_2_5 + 120 p_2_6 + 120 p_2_7 + 120 p_2_8 + 100000 z_2_1 + 100000 z_2_4 + 100000 z_2_5 + 100000 z_2_6 + 100000 z_2_7 + 100000 z_2_8 <= 602095.84573996253
 c4383: 120 p_2_2 + 120 p_2_4 + 120 p_2_5 + 120 p_2_6 + 120 p_2_7 + 120 p_2_8 + 100000 z_2_2 + 100000 z_2_4 + 100000 z_2_5 + 100000 z_2_6 + 100000 z_2_7 + 100000 z_2_8 <= 602089.94360169326
 c4384: 120 p_2_1 + 120 p_2_2 + 120 p_2_4 + 120 p_2_5 + 120 p_2_6 + 120 p_2_7 + 120 p_2_8 + 100000 z_2_1 + 100000 z_2_2 + 100000 z_2_4 + 100000 z_2_5 + 100000 z_2_6 + 100000 z_2_7 + 100000 z_2_8 <= 702083.26613967435
 c4385: 120 p_2_3 + 120 p_2_4 + 120 p_2_5 + 120 p_2_6 + 120 p_2_7 + 120 p_2_8 + 100000 z_2_3 + 100000 z_2_4 + 100000 z_2_5 + 100000 z_2_6 + 100000 z_2_7 + 100000 z_2_8 <= 602029.71500872285
 c4386: 120 p_2_1 + 120 p_2_3 + 120 p_2_4 + 120 p_2_5 + 120 p_2_6 + 120 p_2_7 + 120 p_2_8 + 100000 z_2_1 + 100000 z_2_3 + 100000 z_2_4 + 100000 z_2_5 + 100000 z_2_6 + 100000 z_2_7 + 100000 z_2_8 <= 702020.02812959289
 c4387: 120 p_2_2 + 120 p_2_3 + 120 p_2_4 + 120 p_2_5 + 120 p_2_6 + 120 p_2_7 + 120 p_2_8 + 100000 z_2_2 + 100000 z_2_3 + 100000 z_2_4 + 100000 z_2_5 + 100000 z_2_6 + 100000 z_2_7 + 100000 z_2_8 <= 702028.17800792749
 c4388: 120 p_2_1 + 120 p_2_2 + 120 p_2_3 + 120 p_2_4 + 120 p_2_5 + 120 p_2_6 + 120 p_2_7 + 120 p_2_8 + 100000 z_2_1 + 100000 z_2_2 + 100000 z_2_3 + 100000 z_2_4 + 100000 z_2_5 + 100000 z_2_6 + 100000 z_2_7 + 100000 z_2_8 <= 802018.49112879753
 c4389: 120 p_2_9 + 100000 z_2_9 <= 103087.59928019982
 c4390: 120 p_2_1 + 120 p_2_9 + 100000 z_2_1 + 100000 z_2_9 <= 202651.01774004567
 c4391: 120 p_2_2 + 120 p_2_9 + 100000 z_2_2 + 100000 z_2_9 <= 202860.30036337071
 c4392: 120 p_2_1 + 120 p_2_2 + 120 p_2_9 + 100000 z_2_1 + 100000 z_2_2 + 100000 z_2_9 <= 302444.54820561619
 c4393: 120 p_2_3 + 120 p_2_9 + 100000 z_2_3 + 100000 z_2_9 <= 202951.2610701182
 c4394: 120 p_2_1 + 120 p_2_3 + 120 p_2_9 + 100000 z_2_1 + 100000 z_2_3 + 100000 z_2_9 <= 302553.73483795993
 c4395: 120 p_2_2 + 120 p_2_3 + 120 p_2_9 + 100000 z_2_2 + 100000 z_2_3 + 100000 z_2_9 <= 302723.96215328912
 c4396: 120 p_2_1 + 120 p_2_2 + 120 p_2_3 + 120 p_2_9 + 100000 z_2_1 + 100000 z_2_2 + 100000 z_2_3 + 100000 z_2_9 <= 402326.43592113082
 c4397: 120 p_2_4 + 120 p_2_9 + 100000 z_2_4 + 100000 z_2_9 <= 202605.88473758652
 c4398: 120 p_2_1 + 120 p_2_4 + 120 p_2_9 + 100000 z_2_1 + 100000 z_2_4 + 100000 z_2_9 <= 302595.94379035005
 c4399: 120 p_2_2 + 120 p_2_4 + 120 p_2_9 + 100000 z_2_2 + 100000 z_2_4 + 100000 z_2_9 <= 302379.90193140117
 c4400: 120 p_2_1 + 120 p_2_2 + 120 p_2_4 + 120 p_2_9 + 100000 z_2_1 + 100000 z_2_2 + 100000 z_2_4 + 100000 z_2_9 <= 402377.52274188143
 c4401: 120 p_2_3 + 120 p_2_4 + 120 p_2_9 + 100000 z_2_3 + 100000 z_2_4 + 100000 z_2_9 <= 302516.31206172181
 c4402: 120 p_2_1 + 120 p_2_3 + 120 p_2_4 + 120 p_2_9 + 100000 z_2_1 + 100000 z_2_3 + 100000 z_2_4 + 100000 z_2_9 <= 402506.37111448532
 c4403: 120 p_2_2 + 120 p_2_3 + 120 p_2_4 + 120 p_2_9 + 100000 z_2_2 + 100000 z_2_3 + 100000 z_2_4 + 100000 z_2_9 <= 402289.0131448927
 c4404: 120 p_2_1 + 120 p_2_2 + 120 p_2_3 + 120 p_2_4 + 120 p_2_9 + 100000 z_2_1 + 100000 z_2_2 + 100000 z_2_3 + 100000 z_2_4 + 100000 z_2_9 <= 502279.07219765621
 c4405: 120 p_2_5 + 120 p_2_9 + 100000 z_2_5 + 100000 z_2_9 <= 202797.31590540058
 c4406: 120 p_2_1 + 120 p_2_5 + 120 p_2_9 + 100000 z_2_1 + 100000 z_2_5 + 100000 z_2_9 <= 302382.17464383965
 c4407: 120 p_2_2 + 120 p_2_5 + 120 p_2_9 + 100000 z_2_2 + 100000 z_2_5 + 100000 z_2_9 <= 302795.66549777234
 c4408: 120 p_2_1 + 120 p_2_2 + 120 p_2_5 + 120 p_2_9 + 100000 z_2_1 + 100000 z_2_2 + 100000 z_2_5 + 100000 z_2_9 <= 402379.91334001778
 c4409: 120 p_2_3 + 120 p_2_5 + 120 p_2_9 + 100000 z_2_3 + 100000 z_2_5 + 100000 z_2_9 <= 302660.97769531893
 c4410: 120 p_2_1 + 120 p_2_3 + 120 p_2_5 + 120 p_2_9 + 100000 z_2_1 + 100000 z_2_3 + 100000 z_2_5 + 100000 z_2_9 <= 402263.45146316069
 c4411: 120 p_2_2 + 120 p_2_3 + 120 p_2_5 + 120 p_2_9 + 100000 z_2_2 + 100000 z_2_3 + 100000 z_2_5 + 100000 z_2_9 <= 402659.32728769071
 c4412: 120 p_2_1 + 120 p_2_2 + 120 p_2_3 + 120 p_2_5 + 120 p_2_9 + 100000 z_2_1 + 100000 z_2_2 + 100000 z_2_3 + 100000 z_2_5 + 100000 z_2_9 <= 502261.80105553241
 c4413: 120 p_2_4 + 120 p_2_5 + 120 p_2_9 + 100000 z_2_4 + 100000 z_2_5 + 100000 z_2_9 <= 302317.07912691636
 c4414: 120 p_2_1 + 120 p_2_4 + 120 p_2_5 + 120 p_2_9 + 100000 z_2_1 + 100000 z_2_4 + 100000 z_2_5 + 100000 z_2_9 <= 402315.1491801049
 c4415: 120 p_2_2 + 120 p_2_4 + 120 p_2_5 + 120 p_2_9 + 100000 z_2_2 + 100000 z_2_4 + 100000 z_2_5 + 100000 z_2_9 <= 402315.26706580276
 c4416: 120 p_2_1 + 120 p_2_2 + 120 p_2_4 + 120 p_2_5 + 120 p_2_9 + 100000 z_2_1 + 100000 z_2_2 + 100000 z_2_4 + 100000 z_2_5 + 100000 z_2_9 <= 502312.88787628303
 c4417: 120 p_2_3 + 120 p_2_4 + 120 p_2_5 + 120 p_2_9 + 100000 z_2_3 + 100000 z_2_4 + 100000 z_2_5 + 100000 z_2_9 <= 402226.02868692257
 c4418: 120 p_2_1 + 120 p_2_3 + 120 p_2_4 + 120 p_2_5 + 120 p_2_9 + 100000 z_2_1 + 100000 z_2_3 + 100000 z_2_4 + 100000 z_2_5 + 100000 z_2_9 <= 502216.08773968607
 c4419: 120 p_2_2 + 120 p_2_3 + 120 p_2_4 + 120 p_2_5 + 120 p_2_9 + 100000 z_2_2 + 100000 z_2_3 + 100000 z_2_4 + 100000 z_2_5 + 100000 z_2_9 <= 502224.37827929429
 c4420: 120 p_2_1 + 120 p_2_2 + 120 p_2_3 + 120 p_2_4 + 120 p_2_5 + 120 p_2_9 + 100000 z_2_1 + 100000 z_2_2 + 100000 z_2_3 + 100000 z_2_4 + 100000 z_2_5 + 100000 z_2_9 <= 602214.43733205786
 c4421: 120 p_2_6 + 120 p_2_9 + 100000 z_2_6 + 100000 z_2_9 <= 203038.53542880015
 c4422: 120 p_2_1 + 120 p_2_6 + 120 p_2_9 + 100000 z_2_1 + 100000 z_2_6 + 100000 z_2_9 <= 302619.69744899735
 c4423: 120 p_2_2 + 120 p_2_6 + 120 p_2_9 + 100000 z_2_2 + 100000 z_2_6 + 100000 z_2_9 <= 302811.23651197104
 c4424: 120 p_2_1 + 120 p_2_2 + 120 p_2_6 + 120 p_2_9 + 100000 z_2_1 + 100000 z_2_2 + 100000 z_2_6 + 100000 z_2_9 <= 402395.48435421655
 c4425: 120 p_2_3 + 120 p_2_6 + 120 p_2_9 + 100000 z_2_3 + 100000 z_2_6 + 100000 z_2_9 <= 302948.12817068852
 c4426: 120 p_2_1 + 120 p_2_3 + 120 p_2_6 + 120 p_2_9 + 100000 z_2_1 + 100000 z_2_3 + 100000 z_2_6 + 100000 z_2_9 <= 402550.60193853028
 c4427: 120 p_2_2 + 120 p_2_3 + 120 p_2_6 + 120 p_2_9 + 100000 z_2_2 + 100000 z_2_3 + 100000 z_2_6 + 100000 z_2_9 <= 402720.82925385947
 c4428: 120 p_2_1 + 120 p_2_2 + 120 p_2_3 + 120 p_2_6 + 120 p_2_9 + 100000 z_2_1 + 100000 z_2_2 + 100000 z_2_3 + 100000 z_2_6 + 100000 z_2_9 <= 502323.30302170117
 c4429: 120 p_2_4 + 120 p_2_6 + 120 p_2_9 + 100000 z_2_4 + 100000 z_2_6 + 100000 z_2_9 <= 302577.95417316887
 c4430: 120 p_2_1 + 120 p_2_4 + 120 p_2_6 + 120 p_2_9 + 100000 z_2_1 + 100000 z_2_4 + 100000 z_2_6 + 100000 z_2_9 <= 402568.01322593237
 c4431: 120 p_2_2 + 120 p_2_4 + 120 p_2_6 + 120 p_2_9 + 100000 z_2_2 + 100000 z_2_4 + 100000 z_2_6 + 100000 z_2_9 <= 402350.65525633976
 c4432: 120 p_2_1 + 120 p_2_2 + 120 p_2_4 + 120 p_2_6 + 120 p_2_9 + 100000 z_2_1 + 100000 z_2_2 + 100000 z_2_4 + 100000 z_2_6 + 100000 z_2_9 <= 502340.71430910332
 c4433: 120 p_2_3 + 120 p_2_4 + 120 p_2_6 + 120 p_2_9 + 100000 z_2_3 + 100000 z_2_4 + 100000 z_2_6 + 100000 z_2_9 <= 402513.17916229216
 c4434: 120 p_2_1 + 120 p_2_3 + 120 p_2_4 + 120 p_2_6 + 120 p_2_9 + 100000 z_2_1 + 100000 z_2_3 + 100000 z_2_4 + 100000 z_2_6 + 100000 z_2_9 <= 502503.23821505567
 c4435: 120 p_2_2 + 120 p_2_3 + 120 p_2_4 + 120 p_2_6 + 120 p_2_9 + 100000 z_2_2 + 100000 z_2_3 + 100000 z_2_4 + 100000 z_2_6 + 100000 z_2_9 <= 502285.88024546305
 c4436: 120 p_2_1 + 120 p_2_2 + 120 p_2_3 + 120 p_2_4 + 120 p_2_6 + 120 p_2_9 + 100000 z_2_1 + 100000 z_2_2 + 100000 z_2_3 + 100000 z_2_4 + 100000 z_2_6 + 100000 z_2_9 <= 602275.93929822661
 c4437: 120 p_2_5 + 120 p_2_6 + 120 p_2_9 + 100000 z_2_5 + 100000 z_2_6 + 100000 z_2_9 <= 302748.25205400091
 c4438: 120 p_2_1 + 120 p_2_5 + 120 p_2_6 + 120 p_2_9 + 100000 z_2_1 + 100000 z_2_5 + 100000 z_2_6 + 100000 z_2_9 <= 402333.11079243995
 c4439: 120 p_2_2 + 120 p_2_5 + 120 p_2_6 + 120 p_2_9 + 100000 z_2_2 + 100000 z_2_5 + 100000 z_2_6 + 100000 z_2_9 <= 402746.60164637264
 c4440: 120 p_2_1 + 120 p_2_2 + 120 p_2_5 + 120 p_2_6 + 120 p_2_9 + 100000 z_2_1 + 100000 z_2_2 + 100000 z_2_5 + 100000 z_2_6 + 100000 z_2_9 <= 502330.84948861814
 c4441: 120 p_2_3 + 120 p_2_5 + 120 p_2_6 + 120 p_2_9 + 100000 z_2_3 + 100000 z_2_5 + 100000 z_2_6 + 100000 z_2_9 <= 402657.84479588928
 c4442: 120 p_2_1 + 120 p_2_3 + 120 p_2_5 + 120 p_2_6 + 120 p_2_9 + 100000 z_2_1 + 100000 z_2_3 + 100000 z_2_5 + 100000 z_2_6 + 100000 z_2_9 <= 502260.31856373104
 c4443: 120 p_2_2 + 120 p_2_3 + 120 p_2_5 + 120 p_2_6 + 120 p_2_9 + 100000 z_2_2 + 100000 z_2_3 + 100000 z_2_5 + 100000 z_2_6 + 100000 z_2_9 <= 502656.19438826106
 c4444: 120 p_2_1 + 120 p_2_2 + 120 p_2_3 + 120 p_2_5 + 120 p_2_6 + 120 p_2_9 + 100000 z_2_1 + 100000 z_2_2 + 100000 z_2_3 + 100000 z_2_5 + 100000 z_2_6 + 100000 z_2_9 <= 602258.66815610277
 c4445: 120 p_2_4 + 120 p_2_5 + 120 p_2_6 + 120 p_2_9 + 100000 z_2_4 + 100000 z_2_5 + 100000 z_2_6 + 100000 z_2_9 <= 402287.67079836963
 c4446: 120 p_2_1 + 120 p_2_4 + 120 p_2_5 + 120 p_2_6 + 120 p_2_9 + 100000 z_2_1 + 100000 z_2_4 + 100000 z_2_5 + 100000 z_2_6 + 100000 z_2_9 <= 502277.72985113313
 c4447: 120 p_2_2 + 120 p_2_4 + 120 p_2_5 + 120 p_2_6 + 120 p_2_9 + 100000 z_2_2 + 100000 z_2_4 + 100000 z_2_5 + 100000 z_2_6 + 100000 z_2_9 <= 502286.02039074141
 c4448: 120 p_2_1 + 120 p_2_2 + 120 p_2_4 + 120 p_2_5 + 120 p_2_6 + 120 p_2_9 + 100000 z_2_1 + 100000 z_2_2 + 100000 z_2_4 + 100000 z_2_5 + 100000 z_2_6 + 100000 z_2_9 <= 602276.07944350492
 c4449: 120 p_2_3 + 120 p_2_4 + 120 p_2_5 + 120 p_2_6 + 120 p_2_9 + 100000 z_2_3 + 100000 z_2_4 + 100000 z_2_5 + 100000 z_2_6 + 100000 z_2_9 <= 502222.89578749292
 c4450: 120 p_2_1 + 120 p_2_3 + 120 p_2_4 + 120 p_2_5 + 120 p_2_6 + 120 p_2_9 + 100000 z_2_1 + 100000 z_2_3 + 100000 z_2_4 + 100000 z_2_5 + 100000 z_2_6 + 100000 z_2_9 <= 602212.95484025637
 c4451: 120 p_2_2 + 120 p_2_3 + 120 p_2_4 + 120 p_2_5 + 120 p_2_6 + 120 p_2_9 + 100000 z_2_2 + 100000 z_2_3 + 100000 z_2_4 + 100000 z_2_5 + 100000 z_2_6 + 100000 z_2_9 <= 602221.2453798647
 c4452: 120 p_2_1 + 120 p_2_2 + 120 p_2_3 + 120 p_2_4 + 120 p_2_5 + 120 p_2_6 + 120 p_2_9 + 100000 z_2_1 + 100000 z_2_2 + 100000 z_2_3 + 100000 z_2_4 + 100000 z_2_5 + 100000 z_2_6 + 100000 z_2_9 <= 702211.30443262821
 c4453: 120 p_2_7 + 120 p_2_9 + 100000 z_2_7 + 100000 z_2_9 <= 202473.56074191336
 c4454: 120 p_2_1 + 120 p_2_7 + 120 p_2_9 + 100000 z_2_1 + 100000 z_2_7 + 100000 z_2_9 <= 302470.91089545545
 c4455: 120 p_2_2 + 120 p_2_7 + 120 p_2_9 + 100000 z_2_2 + 100000 z_2_7 + 100000 z_2_9 <= 302251.01648291096
 c4456: 120 p_2_1 + 120 p_2_2 + 120 p_2_7 + 120 p_2_9 + 100000 z_2_1 + 100000 z_2_2 + 100000 z_2_7 + 100000 z_2_9 <= 402250.27628843742
 c4457: 120 p_2_3 + 120 p_2_7 + 120 p_2_9 + 100000 z_2_3 + 100000 z_2_7 + 100000 z_2_9 <= 302388.81154017121
 c4458: 120 p_2_1 + 120 p_2_3 + 120 p_2_7 + 120 p_2_9 + 100000 z_2_1 + 100000 z_2_3 + 100000 z_2_7 + 100000 z_2_9 <= 402386.16169371334
 c4459: 120 p_2_2 + 120 p_2_3 + 120 p_2_7 + 120 p_2_9 + 100000 z_2_2 + 100000 z_2_3 + 100000 z_2_7 + 100000 z_2_9 <= 402161.5126233421
 c4460: 120 p_2_1 + 120 p_2_2 + 120 p_2_3 + 120 p_2_7 + 120 p_2_9 + 100000 z_2_1 + 100000 z_2_2 + 100000 z_2_3 + 100000 z_2_7 + 100000 z_2_9 <= 502158.86277688423
 c4461: 120 p_2_4 + 120 p_2_7 + 120 p_2_9 + 100000 z_2_4 + 100000 z_2_7 + 100000 z_2_9 <= 302473.23543138715
 c4462: 120 p_2_1 + 120 p_2_4 + 120 p_2_7 + 120 p_2_9 + 100000 z_2_1 + 100000 z_2_4 + 100000 z_2_7 + 100000 z_2_9 <= 402468.37202637986
 c4463: 120 p_2_2 + 120 p_2_4 + 120 p_2_7 + 120 p_2_9 + 100000 z_2_2 + 100000 z_2_4 + 100000 z_2_7 + 100000 z_2_9 <= 402250.69117238477
 c4464: 120 p_2_1 + 120 p_2_2 + 120 p_2_4 + 120 p_2_7 + 120 p_2_9 + 100000 z_2_1 + 100000 z_2_2 + 100000 z_2_4 + 100000 z_2_7 + 100000 z_2_9 <= 502249.95097791124
 c4465: 120 p_2_3 + 120 p_2_4 + 120 p_2_7 + 120 p_2_9 + 100000 z_2_3 + 100000 z_2_4 + 100000 z_2_7 + 100000 z_2_9 <= 402388.48622964503
 c4466: 120 p_2_1 + 120 p_2_3 + 120 p_2_4 + 120 p_2_7 + 120 p_2_9 + 100000 z_2_1 + 100000 z_2_3 + 100000 z_2_4 + 100000 z_2_7 + 100000 z_2_9 <= 502378.79935051512
 c4467: 120 p_2_2 + 120 p_2_3 + 120 p_2_4 + 120 p_2_7 + 120 p_2_9 + 100000 z_2_2 + 100000 z_2_3 + 100000 z_2_4 + 100000 z_2_7 + 100000 z_2_9 <= 502161.18731281592
 c4468: 120 p_2_1 + 120 p_2_2 + 120 p_2_3 + 120 p_2_4 + 120 p_2_7 + 120 p_2_9 + 100000 z_2_1 + 100000 z_2_2 + 100000 z_2_3 + 100000 z_2_4 + 100000 z_2_7 + 100000 z_2_9 <= 602151.50043368607
 c4469: 120 p_2_5 + 120 p_2_7 + 120 p_2_9 + 100000 z_2_5 + 100000 z_2_7 + 100000 z_2_9 <= 302189.14847541793
 c4470: 120 p_2_1 + 120 p_2_5 + 120 p_2_7 + 120 p_2_9 + 100000 z_2_1 + 100000 z_2_5 + 100000 z_2_7 + 100000 z_2_9 <= 402187.90272666089
 c4471: 120 p_2_2 + 120 p_2_5 + 120 p_2_7 + 120 p_2_9 + 100000 z_2_2 + 100000 z_2_5 + 100000 z_2_7 + 100000 z_2_9 <= 402186.38161731255
 c4472: 120 p_2_1 + 120 p_2_2 + 120 p_2_5 + 120 p_2_7 + 120 p_2_9 + 100000 z_2_1 + 100000 z_2_2 + 100000 z_2_5 + 100000 z_2_7 + 100000 z_2_9 <= 502185.64142283908
 c4473: 120 p_2_3 + 120 p_2_5 + 120 p_2_7 + 120 p_2_9 + 100000 z_2_3 + 100000 z_2_5 + 100000 z_2_7 + 100000 z_2_9 <= 402098.52816537197
 c4474: 120 p_2_1 + 120 p_2_3 + 120 p_2_5 + 120 p_2_7 + 120 p_2_9 + 100000 z_2_1 + 100000 z_2_3 + 100000 z_2_5 + 100000 z_2_7 + 100000 z_2_9 <= 502095.8783189141
 c4475: 120 p_2_2 + 120 p_2_3 + 120 p_2_5 + 120 p_2_7 + 120 p_2_9 + 100000 z_2_2 + 100000 z_2_3 + 100000 z_2_5 + 100000 z_2_7 + 100000 z_2_9 <= 502096.8777577437
 c4476: 120 p_2_1 + 120 p_2_2 + 120 p_2_3 + 120 p_2_5 + 120 p_2_7 + 120 p_2_9 + 100000 z_2_1 + 100000 z_2_2 + 100000 z_2_3 + 100000 z_2_5 + 100000 z_2_7 + 100000 z_2_9 <= 602094.22791128582
 c4477: 120 p_2_4 + 120 p_2_5 + 120 p_2_7 + 120 p_2_9 + 100000 z_2_4 + 100000 z_2_5 + 100000 z_2_7 + 100000 z_2_9 <= 402188.82316489174
 c4478: 120 p_2_1 + 120 p_2_4 + 120 p_2_5 + 120 p_2_7 + 120 p_2_9 + 100000 z_2_1 + 100000 z_2_4 + 100000 z_2_5 + 100000 z_2_7 + 100000 z_2_9 <= 502187.57741613471
 c4479: 120 p_2_2 + 120 p_2_4 + 120 p_2_5 + 120 p_2_7 + 120 p_2_9 + 100000 z_2_2 + 100000 z_2_4 + 100000 z_2_5 + 100000 z_2_7 + 100000 z_2_9 <= 502186.05630678637
 c4480: 120 p_2_1 + 120 p_2_2 + 120 p_2_4 + 120 p_2_5 + 120 p_2_7 + 120 p_2_9 + 100000 z_2_1 + 100000 z_2_2 + 100000 z_2_4 + 100000 z_2_5 + 100000 z_2_7 + 100000 z_2_9 <= 602185.31611231284
 c4481: 120 p_2_3 + 120 p_2_4 + 120 p_2_5 + 120 p_2_7 + 120 p_2_9 + 100000 z_2_3 + 100000 z_2_4 + 100000 z_2_5 + 100000 z_2_7 + 100000 z_2_9 <= 502098.20285484579
 c4482: 120 p_2_1 + 120 p_2_3 + 120 p_2_4 + 120 p_2_5 + 120 p_2_7 + 120 p_2_9 + 100000 z_2_1 + 100000 z_2_3 + 100000 z_2_4 + 100000 z_2_5 + 100000 z_2_7 + 100000 z_2_9 <= 602088.51597571583
 c4483: 120 p_2_2 + 120 p_2_3 + 120 p_2_4 + 120 p_2_5 + 120 p_2_7 + 120 p_2_9 + 100000 z_2_2 + 100000 z_2_3 + 100000 z_2_4 + 100000 z_2_5 + 100000 z_2_7 + 100000 z_2_9 <= 602096.55244721752
 c4484: 120 p_2_1 + 120 p_2_2 + 120 p_2_3 + 120 p_2_4 + 120 p_2_5 + 120 p_2_7 + 120 p_2_9 + 100000 z_2_1 + 100000 z_2_2 + 100000 z_2_3 + 100000 z_2_4 + 100000 z_2_5 + 100000 z_2_7 + 100000 z_2_9 <= 702086.86556808767
 c4485: 120 p_2_6 + 120 p_2_7 + 120 p_2_9 + 100000 z_2_6 + 100000 z_2_7 + 100000 z_2_9 <= 302447.44423450733
 c4486: 120 p_2_1 + 120 p_2_6 + 120 p_2_7 + 120 p_2_9 + 100000 z_2_1 + 100000 z_2_6 + 100000 z_2_7 + 100000 z_2_9 <= 402444.7943880494
 c4487: 120 p_2_2 + 120 p_2_6 + 120 p_2_7 + 120 p_2_9 + 100000 z_2_2 + 100000 z_2_6 + 100000 z_2_7 + 100000 z_2_9 <= 402220.14531767822
 c4488: 120 p_2_1 + 120 p_2_2 + 120 p_2_6 + 120 p_2_7 + 120 p_2_9 + 100000 z_2_1 + 100000 z_2_2 + 100000 z_2_6 + 100000 z_2_7 + 100000 z_2_9 <= 502217.49547122029
 c4489: 120 p_2_3 + 120 p_2_6 + 120 p_2_7 + 120 p_2_9 + 100000 z_2_3 + 100000 z_2_6 + 100000 z_2_7 + 100000 z_2_9 <= 402385.67864074156
 c4490: 120 p_2_1 + 120 p_2_3 + 120 p_2_6 + 120 p_2_7 + 120 p_2_9 + 100000 z_2_1 + 100000 z_2_3 + 100000 z_2_6 + 100000 z_2_7 + 100000 z_2_9 <= 502383.02879428369
 c4491: 120 p_2_2 + 120 p_2_3 + 120 p_2_6 + 120 p_2_7 + 120 p_2_9 + 100000 z_2_2 + 100000 z_2_3 + 100000 z_2_6 + 100000 z_2_7 + 100000 z_2_9 <= 502158.37972391245
 c4492: 120 p_2_1 + 120 p_2_2 + 120 p_2_3 + 120 p_2_6 + 120 p_2_7 + 120 p_2_9 + 100000 z_2_1 + 100000 z_2_2 + 100000 z_2_3 + 100000 z_2_6 + 100000 z_2_7 + 100000 z_2_9 <= 602155.72987745458
 c4493: 120 p_2_4 + 120 p_2_6 + 120 p_2_7 + 120 p_2_9 + 100000 z_2_4 + 100000 z_2_6 + 100000 z_2_7 + 100000 z_2_9 <= 402447.11892398109
 c4494: 120 p_2_1 + 120 p_2_4 + 120 p_2_6 + 120 p_2_7 + 120 p_2_9 + 100000 z_2_1 + 100000 z_2_4 + 100000 z_2_6 + 100000 z_2_7 + 100000 z_2_9 <= 502440.44146196218
 c4495: 120 p_2_2 + 120 p_2_4 + 120 p_2_6 + 120 p_2_7 + 120 p_2_9 + 100000 z_2_2 + 100000 z_2_4 + 100000 z_2_6 + 100000 z_2_7 + 100000 z_2_9 <= 502219.82000715198
 c4496: 120 p_2_1 + 120 p_2_2 + 120 p_2_4 + 120 p_2_6 + 120 p_2_7 + 120 p_2_9 + 100000 z_2_1 + 100000 z_2_2 + 100000 z_2_4 + 100000 z_2_6 + 100000 z_2_7 + 100000 z_2_9 <= 602213.14254513313
 c4497: 120 p_2_3 + 120 p_2_4 + 120 p_2_6 + 120 p_2_7 + 120 p_2_9 + 100000 z_2_3 + 100000 z_2_4 + 100000 z_2_6 + 100000 z_2_7 + 100000 z_2_9 <= 502385.35333021538
 c4498: 120 p_2_1 + 120 p_2_3 + 120 p_2_4 + 120 p_2_6 + 120 p_2_7 + 120 p_2_9 + 100000 z_2_1 + 100000 z_2_3 + 100000 z_2_4 + 100000 z_2_6 + 100000 z_2_7 + 100000 z_2_9 <= 602375.66645108548
 c4499: 120 p_2_2 + 120 p_2_3 + 120 p_2_4 + 120 p_2_6 + 120 p_2_7 + 120 p_2_9 + 100000 z_2_2 + 100000 z_2_3 + 100000 z_2_4 + 100000 z_2_6 + 100000 z_2_7 + 100000 z_2_9 <= 602158.05441338627
 c4500: 120 p_2_1 + 120 p_2_2 + 120 p_2_3 + 120 p_2_4 + 120 p_2_6 + 120 p_2_7 + 120 p_2_9 + 100000 z_2_1 + 100000 z_2_2 + 100000 z_2_3 + 100000 z_2_4 + 100000 z_2_6 + 100000 z_2_7 + 100000 z_2_9 <= 702148.36753425642
 c4501: 120 p_2_5 + 120 p_2_6 + 120 p_2_7 + 120 p_2_9 + 100000 z_2_5 + 100000 z_2_6 + 100000 z_2_7 + 100000 z_2_9 <= 402157.16085970803
 c4502: 120 p_2_1 + 120 p_2_5 + 120 p_2_6 + 120 p_2_7 + 120 p_2_9 + 100000 z_2_1 + 100000 z_2_5 + 100000 z_2_6 + 100000 z_2_7 + 100000 z_2_9 <= 502154.51101325016
 c4503: 120 p_2_2 + 120 p_2_5 + 120 p_2_6 + 120 p_2_7 + 120 p_2_9 + 100000 z_2_2 + 100000 z_2_5 + 100000 z_2_6 + 100000 z_2_7 + 100000 z_2_9 <= 502155.51045207982
 c4504: 120 p_2_1 + 120 p_2_2 + 120 p_2_5 + 120 p_2_6 + 120 p_2_7 + 120 p_2_9 + 100000 z_2_1 + 100000 z_2_2 + 100000 z_2_5 + 100000 z_2_6 + 100000 z_2_7 + 100000 z_2_9 <= 602152.86060562194
 c4505: 120 p_2_3 + 120 p_2_5 + 120 p_2_6 + 120 p_2_7 + 120 p_2_9 + 100000 z_2_3 + 100000 z_2_5 + 100000 z_2_6 + 100000 z_2_7 + 100000 z_2_9 <= 502095.39526594232
 c4506: 120 p_2_1 + 120 p_2_3 + 120 p_2_5 + 120 p_2_6 + 120 p_2_7 + 120 p_2_9 + 100000 z_2_1 + 100000 z_2_3 + 100000 z_2_5 + 100000 z_2_6 + 100000 z_2_7 + 100000 z_2_9 <= 602092.74541948445
 c4507: 120 p_2_2 + 120 p_2_3 + 120 p_2_5 + 120 p_2_6 + 120 p_2_7 + 120 p_2_9 + 100000 z_2_2 + 100000 z_2_3 + 100000 z_2_5 + 100000 z_2_6 + 100000 z_2_7 + 100000 z_2_9 <= 602093.74485831405
 c4508: 120 p_2_1 + 120 p_2_2 + 120 p_2_3 + 120 p_2_5 + 120 p_2_6 + 120 p_2_7 + 120 p_2_9 + 100000 z_2_1 + 100000 z_2_2 + 100000 z_2_3 + 100000 z_2_5 + 100000 z_2_6 + 100000 z_2_7 + 100000 z_2_9 <= 702091.09501185617
 c4509: 120 p_2_4 + 120 p_2_5 + 120 p_2_6 + 120 p_2_7 + 120 p_2_9 + 100000 z_2_4 + 100000 z_2_5 + 100000 z_2_6 + 100000 z_2_7 + 100000 z_2_9 <= 502156.83554918185
 c4510: 120 p_2_1 + 120 p_2_4 + 120 p_2_5 + 120 p_2_6 + 120 p_2_7 + 120 p_2_9 + 100000 z_2_1 + 100000 z_2_4 + 100000 z_2_5 + 100000 z_2_6 + 100000 z_2_7 + 100000 z_2_9 <= 602150.158087163
 c4511: 120 p_2_2 + 120 p_2_4 + 120 p_2_5 + 120 p_2_6 + 120 p_2_7 + 120 p_2_9 + 100000 z_2_2 + 100000 z_2_4 + 100000 z_2_5 + 100000 z_2_6 + 100000 z_2_7 + 100000 z_2_9 <= 602155.18514155364
 c4512: 120 p_2_1 + 120 p_2_2 + 120 p_2_4 + 120 p_2_5 + 120 p_2_6 + 120 p_2_7 + 120 p_2_9 + 100000 z_2_1 + 100000 z_2_2 + 100000 z_2_4 + 100000 z_2_5 + 100000 z_2_6 + 100000 z_2_7 + 100000 z_2_9 <= 702148.50767953473
 c4513: 120 p_2_3 + 120 p_2_4 + 120 p_2_5 + 120 p_2_6 + 120 p_2_7 + 120 p_2_9 + 100000 z_2_3 + 100000 z_2_4 + 100000 z_2_5 + 100000 z_2_6 + 100000 z_2_7 + 100000 z_2_9 <= 602095.06995541614
 c4514: 120 p_2_1 + 120 p_2_3 + 120 p_2_4 + 120 p_2_5 + 120 p_2_6 + 120 p_2_7 + 120 p_2_9 + 100000 z_2_1 + 100000 z_2_3 + 100000 z_2_4 + 100000 z_2_5 + 100000 z_2_6 + 100000 z_2_7 + 100000 z_2_9 <= 702085.38307628618
 c4515: 120 p_2_2 + 120 p_2_3 + 120 p_2_4 + 120 p_2_5 + 120 p_2_6 + 120 p_2_7 + 120 p_2_9 + 100000 z_2_2 + 100000 z_2_3 + 100000 z_2_4 + 100000 z_2_5 + 100000 z_2_6 + 100000 z_2_7 + 100000 z_2_9 <= 702093.41954778787
 c4516: 120 p_2_1 + 120 p_2_2 + 120 p_2_3 + 120 p_2_4 + 120 p_2_5 + 120 p_2_6 + 120 p_2_7 + 120 p_2_9 + 100000 z_2_1 + 100000 z_2_2 + 100000 z_2_3 + 100000 z_2_4 + 100000 z_2_5 + 100000 z_2_6 + 100000 z_2_7 + 100000 z_2_9 <= 802083.73266865802
 c4517: 120 p_2_8 + 120 p_2_9 + 100000 z_2_8 + 100000 z_2_9 <= 202711.92510962582
 c4518: 120 p_2_1 + 120 p_2_8 + 120 p_2_9 + 100000 z_2_1 + 100000 z_2_8 + 100000 z_2_9 <= 302319.4709699857
 c4519: 120 p_2_2 + 120 p_2_8 + 120 p_2_9 + 100000 z_2_2 + 100000 z_2_8 + 100000 z_2_9 <= 302710.38810883049
 c4520: 120 p_2_1 + 120 p_2_2 + 120 p_2_8 + 120 p_2_9 + 100000 z_2_1 + 100000 z_2_2 + 100000 z_2_8 + 100000 z_2_9 <= 402306.49409340805
 c4521: 120 p_2_3 + 120 p_2_8 + 120 p_2_9 + 100000 z_2_3 + 100000 z_2_8 + 100000 z_2_9 <= 302575.58689954423
 c4522: 120 p_2_1 + 120 p_2_3 + 120 p_2_8 + 120 p_2_9 + 100000 z_2_1 + 100000 z_2_3 + 100000 z_2_8 + 100000 z_2_9 <= 402183.13275990408
 c4523: 120 p_2_2 + 120 p_2_3 + 120 p_2_8 + 120 p_2_9 + 100000 z_2_2 + 100000 z_2_3 + 100000 z_2_8 + 100000 z_2_9 <= 402574.04989874887
 c4524: 120 p_2_1 + 120 p_2_2 + 120 p_2_3 + 120 p_2_8 + 120 p_2_9 + 100000 z_2_1 + 100000 z_2_2 + 100000 z_2_3 + 100000 z_2_8 + 100000 z_2_9 <= 502176.52366659063
 c4525: 120 p_2_4 + 120 p_2_8 + 120 p_2_9 + 100000 z_2_4 + 100000 z_2_8 + 100000 z_2_9 <= 302253.23583633144
 c4526: 120 p_2_1 + 120 p_2_4 + 120 p_2_8 + 120 p_2_9 + 100000 z_2_1 + 100000 z_2_4 + 100000 z_2_8 + 100000 z_2_9 <= 402252.44550625095
 c4527: 120 p_2_2 + 120 p_2_4 + 120 p_2_8 + 120 p_2_9 + 100000 z_2_2 + 100000 z_2_4 + 100000 z_2_8 + 100000 z_2_9 <= 402240.25895975379
 c4528: 120 p_2_1 + 120 p_2_2 + 120 p_2_4 + 120 p_2_8 + 120 p_2_9 + 100000 z_2_1 + 100000 z_2_2 + 100000 z_2_4 + 100000 z_2_8 + 100000 z_2_9 <= 502239.4686296733
 c4529: 120 p_2_3 + 120 p_2_4 + 120 p_2_8 + 120 p_2_9 + 100000 z_2_3 + 100000 z_2_4 + 100000 z_2_8 + 100000 z_2_9 <= 402140.63789114781
 c4530: 120 p_2_1 + 120 p_2_3 + 120 p_2_4 + 120 p_2_8 + 120 p_2_9 + 100000 z_2_1 + 100000 z_2_3 + 100000 z_2_4 + 100000 z_2_8 + 100000 z_2_9 <= 502130.69694391132
 c4531: 120 p_2_2 + 120 p_2_3 + 120 p_2_4 + 120 p_2_8 + 120 p_2_9 + 100000 z_2_2 + 100000 z_2_3 + 100000 z_2_4 + 100000 z_2_8 + 100000 z_2_9 <= 502139.10089035251
 c4532: 120 p_2_1 + 120 p_2_2 + 120 p_2_3 + 120 p_2_4 + 120 p_2_8 + 120 p_2_9 + 100000 z_2_1 + 100000 z_2_2 + 100000 z_2_3 + 100000 z_2_4 + 100000 z_2_8 + 100000 z_2_9 <= 602129.15994311601
 c4533: 120 p_2_5 + 120 p_2_8 + 120 p_2_9 + 100000 z_2_5 + 100000 z_2_8 + 100000 z_2_9 <= 302711.91985053581
 c4534: 120 p_2_1 + 120 p_2_5 + 120 p_2_8 + 120 p_2_9 + 100000 z_2_1 + 100000 z_2_5 + 100000 z_2_8 + 100000 z_2_9 <= 402319.46571089572
 c4535: 120 p_2_2 + 120 p_2_5 + 120 p_2_8 + 120 p_2_9 + 100000 z_2_2 + 100000 z_2_5 + 100000 z_2_8 + 100000 z_2_9 <= 402710.3828497405
 c4536: 120 p_2_1 + 120 p_2_2 + 120 p_2_5 + 120 p_2_8 + 120 p_2_9 + 100000 z_2_1 + 100000 z_2_2 + 100000 z_2_5 + 100000 z_2_8 + 100000 z_2_9 <= 502294.63069198601
 c4537: 120 p_2_3 + 120 p_2_5 + 120 p_2_8 + 120 p_2_9 + 100000 z_2_3 + 100000 z_2_5 + 100000 z_2_8 + 100000 z_2_9 <= 402575.58164045418
 c4538: 120 p_2_1 + 120 p_2_3 + 120 p_2_5 + 120 p_2_8 + 120 p_2_9 + 100000 z_2_1 + 100000 z_2_3 + 100000 z_2_5 + 100000 z_2_8 + 100000 z_2_9 <= 502183.12750081409
 c4539: 120 p_2_2 + 120 p_2_3 + 120 p_2_5 + 120 p_2_8 + 120 p_2_9 + 100000 z_2_2 + 100000 z_2_3 + 100000 z_2_5 + 100000 z_2_8 + 100000 z_2_9 <= 502574.04463965888
 c4540: 120 p_2_1 + 120 p_2_2 + 120 p_2_3 + 120 p_2_5 + 120 p_2_8 + 120 p_2_9 + 100000 z_2_1 + 100000 z_2_2 + 100000 z_2_3 + 100000 z_2_5 + 100000 z_2_8 + 100000 z_2_9 <= 602176.51840750058
 c4541: 120 p_2_4 + 120 p_2_5 + 120 p_2_8 + 120 p_2_9 + 100000 z_2_4 + 100000 z_2_5 + 100000 z_2_8 + 100000 z_2_9 <= 402253.23057724145
 c4542: 120 p_2_1 + 120 p_2_4 + 120 p_2_5 + 120 p_2_8 + 120 p_2_9 + 100000 z_2_1 + 100000 z_2_4 + 100000 z_2_5 + 100000 z_2_8 + 100000 z_2_9 <= 502252.44024716096
 c4543: 120 p_2_2 + 120 p_2_4 + 120 p_2_5 + 120 p_2_8 + 120 p_2_9 + 100000 z_2_2 + 100000 z_2_4 + 100000 z_2_5 + 100000 z_2_8 + 100000 z_2_9 <= 502229.98441777093
 c4544: 120 p_2_1 + 120 p_2_2 + 120 p_2_4 + 120 p_2_5 + 120 p_2_8 + 120 p_2_9 + 100000 z_2_1 + 100000 z_2_2 + 100000 z_2_4 + 100000 z_2_5 + 100000 z_2_8 + 100000 z_2_9 <= 602227.6052282512
 c4545: 120 p_2_3 + 120 p_2_4 + 120 p_2_5 + 120 p_2_8 + 120 p_2_9 + 100000 z_2_3 + 100000 z_2_4 + 100000 z_2_5 + 100000 z_2_8 + 100000 z_2_9 <= 502140.63263205782
 c4546: 120 p_2_1 + 120 p_2_3 + 120 p_2_4 + 120 p_2_5 + 120 p_2_8 + 120 p_2_9 + 100000 z_2_1 + 100000 z_2_3 + 100000 z_2_4 + 100000 z_2_5 + 100000 z_2_8 + 100000 z_2_9 <= 602130.69168482127
 c4547: 120 p_2_2 + 120 p_2_3 + 120 p_2_4 + 120 p_2_5 + 120 p_2_8 + 120 p_2_9 + 100000 z_2_2 + 100000 z_2_3 + 100000 z_2_4 + 100000 z_2_5 + 100000 z_2_8 + 100000 z_2_9 <= 602139.09563126252
 c4548: 120 p_2_1 + 120 p_2_2 + 120 p_2_3 + 120 p_2_4 + 120 p_2_5 + 120 p_2_8 + 120 p_2_9 + 100000 z_2_1 + 100000 z_2_2 + 100000 z_2_3 + 100000 z_2_4 + 100000 z_2_5 + 100000 z_2_8 + 100000 z_2_9 <= 702129.15468402603
 c4549: 120 p_2_6 + 120 p_2_8 + 120 p_2_9 + 100000 z_2_6 + 100000 z_2_8 + 100000 z_2_9 <= 302662.86125822616
 c4550: 120 p_2_1 + 120 p_2_6 + 120 p_2_8 + 120 p_2_9 + 100000 z_2_1 + 100000 z_2_6 + 100000 z_2_8 + 100000 z_2_9 <= 402270.40711858607
 c4551: 120 p_2_2 + 120 p_2_6 + 120 p_2_8 + 120 p_2_9 + 100000 z_2_2 + 100000 z_2_6 + 100000 z_2_8 + 100000 z_2_9 <= 402661.32425743085
 c4552: 120 p_2_1 + 120 p_2_2 + 120 p_2_6 + 120 p_2_8 + 120 p_2_9 + 100000 z_2_1 + 100000 z_2_2 + 100000 z_2_6 + 100000 z_2_8 + 100000 z_2_9 <= 502257.43024200835
 c4553: 120 p_2_3 + 120 p_2_6 + 120 p_2_8 + 120 p_2_9 + 100000 z_2_3 + 100000 z_2_6 + 100000 z_2_8 + 100000 z_2_9 <= 402572.45400011458
 c4554: 120 p_2_1 + 120 p_2_3 + 120 p_2_6 + 120 p_2_8 + 120 p_2_9 + 100000 z_2_1 + 100000 z_2_3 + 100000 z_2_6 + 100000 z_2_8 + 100000 z_2_9 <= 502179.99986047443
 c4555: 120 p_2_2 + 120 p_2_3 + 120 p_2_6 + 120 p_2_8 + 120 p_2_9 + 100000 z_2_2 + 100000 z_2_3 + 100000 z_2_6 + 100000 z_2_8 + 100000 z_2_9 <= 502570.91699931922
 c4556: 120 p_2_1 + 120 p_2_2 + 120 p_2_3 + 120 p_2_6 + 120 p_2_8 + 120 p_2_9 + 100000 z_2_1 + 100000 z_2_2 + 100000 z_2_3 + 100000 z_2_6 + 100000 z_2_8 + 100000 z_2_9 <= 602173.39076716092
 c4557: 120 p_2_4 + 120 p_2_6 + 120 p_2_8 + 120 p_2_9 + 100000 z_2_4 + 100000 z_2_6 + 100000 z_2_8 + 100000 z_2_9 <= 402204.1719849318
 c4558: 120 p_2_1 + 120 p_2_4 + 120 p_2_6 + 120 p_2_8 + 120 p_2_9 + 100000 z_2_1 + 100000 z_2_4 + 100000 z_2_6 + 100000 z_2_8 + 100000 z_2_9 <= 502203.38165485131
 c4559: 120 p_2_2 + 120 p_2_4 + 120 p_2_6 + 120 p_2_8 + 120 p_2_9 + 100000 z_2_2 + 100000 z_2_4 + 100000 z_2_6 + 100000 z_2_8 + 100000 z_2_9 <= 502200.74300179956
 c4560: 120 p_2_1 + 120 p_2_2 + 120 p_2_4 + 120 p_2_6 + 120 p_2_8 + 120 p_2_9 + 100000 z_2_1 + 100000 z_2_2 + 100000 z_2_4 + 100000 z_2_6 + 100000 z_2_8 + 100000 z_2_9 <= 602190.80205456307
 c4561: 120 p_2_3 + 120 p_2_4 + 120 p_2_6 + 120 p_2_8 + 120 p_2_9 + 100000 z_2_3 + 100000 z_2_4 + 100000 z_2_6 + 100000 z_2_8 + 100000 z_2_9 <= 502137.50499171816
 c4562: 120 p_2_1 + 120 p_2_3 + 120 p_2_4 + 120 p_2_6 + 120 p_2_8 + 120 p_2_9 + 100000 z_2_1 + 100000 z_2_3 + 100000 z_2_4 + 100000 z_2_6 + 100000 z_2_8 + 100000 z_2_9 <= 602127.56404448173
 c4563: 120 p_2_2 + 120 p_2_3 + 120 p_2_4 + 120 p_2_6 + 120 p_2_8 + 120 p_2_9 + 100000 z_2_2 + 100000 z_2_3 + 100000 z_2_4 + 100000 z_2_6 + 100000 z_2_8 + 100000 z_2_9 <= 602135.96799092286
 c4564: 120 p_2_1 + 120 p_2_2 + 120 p_2_3 + 120 p_2_4 + 120 p_2_6 + 120 p_2_8 + 120 p_2_9 + 100000 z_2_1 + 100000 z_2_2 + 100000 z_2_3 + 100000 z_2_4 + 100000 z_2_6 + 100000 z_2_8 + 100000 z_2_9 <= 702126.02704368636
 c4565: 120 p_2_5 + 120 p_2_6 + 120 p_2_8 + 120 p_2_9 + 100000 z_2_5 + 100000 z_2_6 + 100000 z_2_8 + 100000 z_2_9 <= 402662.85599913617
 c4566: 120 p_2_1 + 120 p_2_5 + 120 p_2_6 + 120 p_2_8 + 120 p_2_9 + 100000 z_2_1 + 100000 z_2_5 + 100000 z_2_6 + 100000 z_2_8 + 100000 z_2_9 <= 502270.40185949602
 c4567: 120 p_2_2 + 120 p_2_5 + 120 p_2_6 + 120 p_2_8 + 120 p_2_9 + 100000 z_2_2 + 100000 z_2_5 + 100000 z_2_6 + 100000 z_2_8 + 100000 z_2_9 <= 502661.31899834081
 c4568: 120 p_2_1 + 120 p_2_2 + 120 p_2_5 + 120 p_2_6 + 120 p_2_8 + 120 p_2_9 + 100000 z_2_1 + 100000 z_2_2 + 100000 z_2_5 + 100000 z_2_6 + 100000 z_2_8 + 100000 z_2_9 <= 602245.56684058625
 c4569: 120 p_2_3 + 120 p_2_5 + 120 p_2_6 + 120 p_2_8 + 120 p_2_9 + 100000 z_2_3 + 100000 z_2_5 + 100000 z_2_6 + 100000 z_2_8 + 100000 z_2_9 <= 502572.44874102453
 c4570: 120 p_2_1 + 120 p_2_3 + 120 p_2_5 + 120 p_2_6 + 120 p_2_8 + 120 p_2_9 + 100000 z_2_1 + 100000 z_2_3 + 100000 z_2_5 + 100000 z_2_6 + 100000 z_2_8 + 100000 z_2_9 <= 602179.9946013845
 c4571: 120 p_2_2 + 120 p_2_3 + 120 p_2_5 + 120 p_2_6 + 120 p_2_8 + 120 p_2_9 + 100000 z_2_2 + 100000 z_2_3 + 100000 z_2_5 + 100000 z_2_6 + 100000 z_2_8 + 100000 z_2_9 <= 602570.91174022923
 c4572: 120 p_2_1 + 120 p_2_2 + 120 p_2_3 + 120 p_2_5 + 120 p_2_6 + 120 p_2_8 + 120 p_2_9 + 100000 z_2_1 + 100000 z_2_2 + 100000 z_2_3 + 100000 z_2_5 + 100000 z_2_6 + 100000 z_2_8 + 100000 z_2_9 <= 702173.38550807093
 c4573: 120 p_2_4 + 120 p_2_5 + 120 p_2_6 + 120 p_2_8 + 120 p_2_9 + 100000 z_2_4 + 100000 z_2_5 + 100000 z_2_6 + 100000 z_2_8 + 100000 z_2_9 <= 502204.16672584176
 c4574: 120 p_2_1 + 120 p_2_4 + 120 p_2_5 + 120 p_2_6 + 120 p_2_8 + 120 p_2_9 + 100000 z_2_1 + 100000 z_2_4 + 100000 z_2_5 + 100000 z_2_6 + 100000 z_2_8 + 100000 z_2_9 <= 602203.37639576127
 c4575: 120 p_2_2 + 120 p_2_4 + 120 p_2_5 + 120 p_2_6 + 120 p_2_8 + 120 p_2_9 + 100000 z_2_2 + 100000 z_2_4 + 100000 z_2_5 + 100000 z_2_6 + 100000 z_2_8 + 100000 z_2_9 <= 602200.73774270958
 c4576: 120 p_2_1 + 120 p_2_2 + 120 p_2_4 + 120 p_2_5 + 120 p_2_6 + 120 p_2_8 + 120 p_2_9 + 100000 z_2_1 + 100000 z_2_2 + 100000 z_2_4 + 100000 z_2_5 + 100000 z_2_6 + 100000 z_2_8 + 100000 z_2_9 <= 702190.79679547308
 c4577: 120 p_2_3 + 120 p_2_4 + 120 p_2_5 + 120 p_2_6 + 120 p_2_8 + 120 p_2_9 + 100000 z_2_3 + 100000 z_2_4 + 100000 z_2_5 + 100000 z_2_6 + 100000 z_2_8 + 100000 z_2_9 <= 602137.49973262812
 c4578: 120 p_2_1 + 120 p_2_3 + 120 p_2_4 + 120 p_2_5 + 120 p_2_6 + 120 p_2_8 + 120 p_2_9 + 100000 z_2_1 + 100000 z_2_3 + 100000 z_2_4 + 100000 z_2_5 + 100000 z_2_6 + 100000 z_2_8 + 100000 z_2_9 <= 702127.55878539162
 c4579: 120 p_2_2 + 120 p_2_3 + 120 p_2_4 + 120 p_2_5 + 120 p_2_6 + 120 p_2_8 + 120 p_2_9 + 100000 z_2_2 + 100000 z_2_3 + 100000 z_2_4 + 100000 z_2_5 + 100000 z_2_6 + 100000 z_2_8 + 100000 z_2_9 <= 702135.96273183287
 c4580: 120 p_2_1 + 120 p_2_2 + 120 p_2_3 + 120 p_2_4 + 120 p_2_5 + 120 p_2_6 + 120 p_2_8 + 120 p_2_9 + 100000 z_2_1 + 100000 z_2_2 + 100000 z_2_3 + 100000 z_2_4 + 100000 z_2_5 + 100000 z_2_6 + 100000 z_2_8 + 100000 z_2_9 <= 802126.02178459638
 c4581: 120 p_2_7 + 120 p_2_8 + 120 p_2_9 + 100000 z_2_7 + 100000 z_2_8 + 100000 z_2_9 <= 302128.71819748683
 c4582: 120 p_2_1 + 120 p_2_7 + 120 p_2_8 + 120 p_2_9 + 100000 z_2_1 + 100000 z_2_7 + 100000 z_2_8 + 100000 z_2_9 <= 402126.06835102889
 c4583: 120 p_2_2 + 120 p_2_7 + 120 p_2_8 + 120 p_2_9 + 100000 z_2_2 + 100000 z_2_7 + 100000 z_2_8 + 100000 z_2_9 <= 402115.74132090912
 c4584: 120 p_2_1 + 120 p_2_2 + 120 p_2_7 + 120 p_2_8 + 120 p_2_9 + 100000 z_2_1 + 100000 z_2_2 + 100000 z_2_7 + 100000 z_2_8 + 100000 z_2_9 <= 502113.09147445124
 c4585: 120 p_2_3 + 120 p_2_7 + 120 p_2_8 + 120 p_2_9 + 100000 z_2_3 + 100000 z_2_7 + 100000 z_2_8 + 100000 z_2_9 <= 402013.13736959721
 c4586: 120 p_2_1 + 120 p_2_3 + 120 p_2_7 + 120 p_2_8 + 120 p_2_9 + 100000 z_2_1 + 100000 z_2_3 + 100000 z_2_7 + 100000 z_2_8 + 100000 z_2_9 <= 502010.48752313934
 c4587: 120 p_2_2 + 120 p_2_3 + 120 p_2_7 + 120 p_2_8 + 120 p_2_9 + 100000 z_2_2 + 100000 z_2_3 + 100000 z_2_7 + 100000 z_2_8 + 100000 z_2_9 <= 502011.60036880191
 c4588: 120 p_2_1 + 120 p_2_2 + 120 p_2_3 + 120 p_2_7 + 120 p_2_8 + 120 p_2_9 + 100000 z_2_1 + 100000 z_2_2 + 100000 z_2_3 + 100000 z_2_7 + 100000 z_2_8 + 100000 z_2_9 <= 602008.95052234398
 c4589: 120 p_2_4 + 120 p_2_7 + 120 p_2_8 + 120 p_2_9 + 100000 z_2_4 + 100000 z_2_7 + 100000 z_2_8 + 100000 z_2_9 <= 402128.39288696065
 c4590: 120 p_2_1 + 120 p_2_4 + 120 p_2_7 + 120 p_2_8 + 120 p_2_9 + 100000 z_2_1 + 100000 z_2_4 + 100000 z_2_7 + 100000 z_2_8 + 100000 z_2_9 <= 502124.87374228076
 c4591: 120 p_2_2 + 120 p_2_4 + 120 p_2_7 + 120 p_2_8 + 120 p_2_9 + 100000 z_2_2 + 100000 z_2_4 + 100000 z_2_7 + 100000 z_2_8 + 100000 z_2_9 <= 502115.41601038293
 c4592: 120 p_2_1 + 120 p_2_2 + 120 p_2_4 + 120 p_2_7 + 120 p_2_8 + 120 p_2_9 + 100000 z_2_1 + 100000 z_2_2 + 100000 z_2_4 + 100000 z_2_7 + 100000 z_2_8 + 100000 z_2_9 <= 602111.89686570305
 c4593: 120 p_2_3 + 120 p_2_4 + 120 p_2_7 + 120 p_2_8 + 120 p_2_9 + 100000 z_2_3 + 100000 z_2_4 + 100000 z_2_7 + 100000 z_2_8 + 100000 z_2_9 <= 502012.81205907103
 c4594: 120 p_2_1 + 120 p_2_3 + 120 p_2_4 + 120 p_2_7 + 120 p_2_8 + 120 p_2_9 + 100000 z_2_1 + 100000 z_2_3 + 100000 z_2_4 + 100000 z_2_7 + 100000 z_2_8 + 100000 z_2_9 <= 602003.12517994118
 c4595: 120 p_2_2 + 120 p_2_3 + 120 p_2_4 + 120 p_2_7 + 120 p_2_8 + 120 p_2_9 + 100000 z_2_2 + 100000 z_2_3 + 100000 z_2_4 + 100000 z_2_7 + 100000 z_2_8 + 100000 z_2_9 <= 602011.27505827567
 c4596: 120 p_2_1 + 120 p_2_2 + 120 p_2_3 + 120 p_2_4 + 120 p_2_7 + 120 p_2_8 + 120 p_2_9 + 100000 z_2_1 + 100000 z_2_2 + 100000 z_2_3 + 100000 z_2_4 + 100000 z_2_7 + 100000 z_2_8 + 100000 z_2_9 <= 702001.58817914582
 c4597: 120 p_2_5 + 120 p_2_7 + 120 p_2_8 + 120 p_2_9 + 100000 z_2_5 + 100000 z_2_7 + 100000 z_2_8 + 100000 z_2_9 <= 402128.71293839678
 c4598: 120 p_2_1 + 120 p_2_5 + 120 p_2_7 + 120 p_2_8 + 120 p_2_9 + 100000 z_2_1 + 100000 z_2_5 + 100000 z_2_7 + 100000 z_2_8 + 100000 z_2_9 <= 502126.06309193891
 c4599: 120 p_2_2 + 120 p_2_5 + 120 p_2_7 + 120 p_2_8 + 120 p_2_9 + 100000 z_2_2 + 100000 z_2_5 + 100000 z_2_7 + 100000 z_2_8 + 100000 z_2_9 <= 502103.16790967021
 c4600: 120 p_2_1 + 120 p_2_2 + 120 p_2_5 + 120 p_2_7 + 120 p_2_8 + 120 p_2_9 + 100000 z_2_1 + 100000 z_2_2 + 100000 z_2_5 + 100000 z_2_7 + 100000 z_2_8 + 100000 z_2_9 <= 602100.51806321228
 c4601: 120 p_2_3 + 120 p_2_5 + 120 p_2_7 + 120 p_2_8 + 120 p_2_9 + 100000 z_2_3 + 100000 z_2_5 + 100000 z_2_7 + 100000 z_2_8 + 100000 z_2_9 <= 502013.13211050723
 c4602: 120 p_2_1 + 120 p_2_3 + 120 p_2_5 + 120 p_2_7 + 120 p_2_8 + 120 p_2_9 + 100000 z_2_1 + 100000 z_2_3 + 100000 z_2_5 + 100000 z_2_7 + 100000 z_2_8 + 100000 z_2_9 <= 602010.48226404935
 c4603: 120 p_2_2 + 120 p_2_3 + 120 p_2_5 + 120 p_2_7 + 120 p_2_8 + 120 p_2_9 + 100000 z_2_2 + 100000 z_2_3 + 100000 z_2_5 + 100000 z_2_7 + 100000 z_2_8 + 100000 z_2_9 <= 602011.59510971187
 c4604: 120 p_2_1 + 120 p_2_2 + 120 p_2_3 + 120 p_2_5 + 120 p_2_7 + 120 p_2_8 + 120 p_2_9 + 100000 z_2_1 + 100000 z_2_2 + 100000 z_2_3 + 100000 z_2_5 + 100000 z_2_7 + 100000 z_2_8 + 100000 z_2_9 <= 702008.94526325399
 c4605: 120 p_2_4 + 120 p_2_5 + 120 p_2_7 + 120 p_2_8 + 120 p_2_9 + 100000 z_2_4 + 100000 z_2_5 + 100000 z_2_7 + 100000 z_2_8 + 100000 z_2_9 <= 502128.3876278706
 c4606: 120 p_2_1 + 120 p_2_4 + 120 p_2_5 + 120 p_2_7 + 120 p_2_8 + 120 p_2_9 + 100000 z_2_1 + 100000 z_2_4 + 100000 z_2_5 + 100000 z_2_7 + 100000 z_2_8 + 100000 z_2_9 <= 602124.86848319077
 c4607: 120 p_2_2 + 120 p_2_4 + 120 p_2_5 + 120 p_2_7 + 120 p_2_8 + 120 p_2_9 + 100000 z_2_2 + 100000 z_2_4 + 100000 z_2_5 + 100000 z_2_7 + 100000 z_2_8 + 100000 z_2_9 <= 602102.84259914397
 c4608: 120 p_2_1 + 120 p_2_2 + 120 p_2_4 + 120 p_2_5 + 120 p_2_7 + 120 p_2_8 + 120 p_2_9 + 100000 z_2_1 + 100000 z_2_2 + 100000 z_2_4 + 100000 z_2_5 + 100000 z_2_7 + 100000 z_2_8 + 100000 z_2_9 <= 702100.033464281
 c4609: 120 p_2_3 + 120 p_2_4 + 120 p_2_5 + 120 p_2_7 + 120 p_2_8 + 120 p_2_9 + 100000 z_2_3 + 100000 z_2_4 + 100000 z_2_5 + 100000 z_2_7 + 100000 z_2_8 + 100000 z_2_9 <= 602012.80679998104
 c4610: 120 p_2_1 + 120 p_2_3 + 120 p_2_4 + 120 p_2_5 + 120 p_2_7 + 120 p_2_8 + 120 p_2_9 + 100000 z_2_1 + 100000 z_2_3 + 100000 z_2_4 + 100000 z_2_5 + 100000 z_2_7 + 100000 z_2_8 + 100000 z_2_9 <= 702003.11992085108
 c4611: 120 p_2_2 + 120 p_2_3 + 120 p_2_4 + 120 p_2_5 + 120 p_2_7 + 120 p_2_8 + 120 p_2_9 + 100000 z_2_2 + 100000 z_2_3 + 100000 z_2_4 + 100000 z_2_5 + 100000 z_2_7 + 100000 z_2_8 + 100000 z_2_9 <= 702011.26979918568
 c4612: 120 p_2_1 + 120 p_2_2 + 120 p_2_3 + 120 p_2_4 + 120 p_2_5 + 120 p_2_7 + 120 p_2_8 + 120 p_2_9 + 100000 z_2_1 + 100000 z_2_2 + 100000 z_2_3 + 100000 z_2_4 + 100000 z_2_5 + 100000 z_2_7 + 100000 z_2_8 + 100000 z_2_9 <= 802001.58292005584
 c4613: 120 p_2_6 + 120 p_2_7 + 120 p_2_8 + 120 p_2_9 + 100000 z_2_6 + 100000 z_2_7 + 100000 z_2_8 + 100000 z_2_9 <= 402079.65434608713
 c4614: 120 p_2_1 + 120 p_2_6 + 120 p_2_7 + 120 p_2_8 + 120 p_2_9 + 100000 z_2_1 + 100000 z_2_6 + 100000 z_2_7 + 100000 z_2_8 + 100000 z_2_9 <= 502077.00449962926
 c4615: 120 p_2_2 + 120 p_2_6 + 120 p_2_7 + 120 p_2_8 + 120 p_2_9 + 100000 z_2_2 + 100000 z_2_6 + 100000 z_2_7 + 100000 z_2_8 + 100000 z_2_9 <= 502070.23306313797
 c4616: 120 p_2_1 + 120 p_2_2 + 120 p_2_6 + 120 p_2_7 + 120 p_2_8 + 120 p_2_9 + 100000 z_2_1 + 100000 z_2_2 + 100000 z_2_6 + 100000 z_2_7 + 100000 z_2_8 + 100000 z_2_9 <= 602067.5832166801
 c4617: 120 p_2_3 + 120 p_2_6 + 120 p_2_7 + 120 p_2_8 + 120 p_2_9 + 100000 z_2_3 + 100000 z_2_6 + 100000 z_2_7 + 100000 z_2_8 + 100000 z_2_9 <= 502010.00447016757
 c4618: 120 p_2_1 + 120 p_2_3 + 120 p_2_6 + 120 p_2_7 + 120 p_2_8 + 120 p_2_9 + 100000 z_2_1 + 100000 z_2_3 + 100000 z_2_6 + 100000 z_2_7 + 100000 z_2_8 + 100000 z_2_9 <= 602007.35462370969
 c4619: 120 p_2_2 + 120 p_2_3 + 120 p_2_6 + 120 p_2_7 + 120 p_2_8 + 120 p_2_9 + 100000 z_2_2 + 100000 z_2_3 + 100000 z_2_6 + 100000 z_2_7 + 100000 z_2_8 + 100000 z_2_9 <= 602008.4674693722
 c4620: 120 p_2_1 + 120 p_2_2 + 120 p_2_3 + 120 p_2_6 + 120 p_2_7 + 120 p_2_8 + 120 p_2_9 + 100000 z_2_1 + 100000 z_2_2 + 100000 z_2_3 + 100000 z_2_6 + 100000 z_2_7 + 100000 z_2_8 + 100000 z_2_9 <= 702005.81762291433
 c4621: 120 p_2_4 + 120 p_2_6 + 120 p_2_7 + 120 p_2_8 + 120 p_2_9 + 100000 z_2_4 + 100000 z_2_6 + 100000 z_2_7 + 100000 z_2_8 + 100000 z_2_9 <= 502079.32903556095
 c4622: 120 p_2_1 + 120 p_2_4 + 120 p_2_6 + 120 p_2_7 + 120 p_2_8 + 120 p_2_9 + 100000 z_2_1 + 100000 z_2_4 + 100000 z_2_6 + 100000 z_2_7 + 100000 z_2_8 + 100000 z_2_9 <= 602075.80989088106
 c4623: 120 p_2_2 + 120 p_2_4 + 120 p_2_6 + 120 p_2_7 + 120 p_2_8 + 120 p_2_9 + 100000 z_2_2 + 100000 z_2_4 + 100000 z_2_6 + 100000 z_2_7 + 100000 z_2_8 + 100000 z_2_9 <= 602069.90775261179
 c4624: 120 p_2_1 + 120 p_2_2 + 120 p_2_4 + 120 p_2_6 + 120 p_2_7 + 120 p_2_8 + 120 p_2_9 + 100000 z_2_1 + 100000 z_2_2 + 100000 z_2_4 + 100000 z_2_6 + 100000 z_2_7 + 100000 z_2_8 + 100000 z_2_9 <= 702063.23029059288
 c4625: 120 p_2_3 + 120 p_2_4 + 120 p_2_6 + 120 p_2_7 + 120 p_2_8 + 120 p_2_9 + 100000 z_2_3 + 100000 z_2_4 + 100000 z_2_6 + 100000 z_2_7 + 100000 z_2_8 + 100000 z_2_9 <= 602009.67915964138
 c4626: 120 p_2_1 + 120 p_2_3 + 120 p_2_4 + 120 p_2_6 + 120 p_2_7 + 120 p_2_8 + 120 p_2_9 + 100000 z_2_1 + 100000 z_2_3 + 100000 z_2_4 + 100000 z_2_6 + 100000 z_2_7 + 100000 z_2_8 + 100000 z_2_9 <= 701999.99228051153
 c4627: 120 p_2_2 + 120 p_2_3 + 120 p_2_4 + 120 p_2_6 + 120 p_2_7 + 120 p_2_8 + 120 p_2_9 + 100000 z_2_2 + 100000 z_2_3 + 100000 z_2_4 + 100000 z_2_6 + 100000 z_2_7 + 100000 z_2_8 + 100000 z_2_9 <= 702008.14215884602
 c4628: 120 p_2_1 + 120 p_2_2 + 120 p_2_3 + 120 p_2_4 + 120 p_2_6 + 120 p_2_7 + 120 p_2_8 + 120 p_2_9 + 100000 z_2_1 + 100000 z_2_2 + 100000 z_2_3 + 100000 z_2_4 + 100000 z_2_6 + 100000 z_2_7 + 100000 z_2_8 + 100000 z_2_9 <= 801998.45527971617
 c4629: 120 p_2_5 + 120 p_2_6 + 120 p_2_7 + 120 p_2_8 + 120 p_2_9 + 100000 z_2_5 + 100000 z_2_6 + 100000 z_2_7 + 100000 z_2_8 + 100000 z_2_9 <= 502079.64908699715
 c4630: 120 p_2_1 + 120 p_2_5 + 120 p_2_6 + 120 p_2_7 + 120 p_2_8 + 120 p_2_9 + 100000 z_2_1 + 100000 z_2_5 + 100000 z_2_6 + 100000 z_2_7 + 100000 z_2_8 + 100000 z_2_9 <= 602076.99924053927
 c4631: 120 p_2_2 + 120 p_2_5 + 120 p_2_6 + 120 p_2_7 + 120 p_2_8 + 120 p_2_9 + 100000 z_2_2 + 100000 z_2_5 + 100000 z_2_6 + 100000 z_2_7 + 100000 z_2_8 + 100000 z_2_9 <= 602070.22780404799
 c4632: 120 p_2_1 + 120 p_2_2 + 120 p_2_5 + 120 p_2_6 + 120 p_2_7 + 120 p_2_8 + 120 p_2_9 + 100000 z_2_1 + 100000 z_2_2 + 100000 z_2_5 + 100000 z_2_6 + 100000 z_2_7 + 100000 z_2_8 + 100000 z_2_9 <= 702067.57795759011
 c4633: 120 p_2_3 + 120 p_2_5 + 120 p_2_6 + 120 p_2_7 + 120 p_2_8 + 120 p_2_9 + 100000 z_2_3 + 100000 z_2_5 + 100000 z_2_6 + 100000 z_2_7 + 100000 z_2_8 + 100000 z_2_9 <= 602009.99921107758
 c4634: 120 p_2_1 + 120 p_2_3 + 120 p_2_5 + 120 p_2_6 + 120 p_2_7 + 120 p_2_8 + 120 p_2_9 + 100000 z_2_1 + 100000 z_2_3 + 100000 z_2_5 + 100000 z_2_6 + 100000 z_2_7 + 100000 z_2_8 + 100000 z_2_9 <= 702007.3493646197
 c4635: 120 p_2_2 + 120 p_2_3 + 120 p_2_5 + 120 p_2_6 + 120 p_2_7 + 120 p_2_8 + 120 p_2_9 + 100000 z_2_2 + 100000 z_2_3 + 100000 z_2_5 + 100000 z_2_6 + 100000 z_2_7 + 100000 z_2_8 + 100000 z_2_9 <= 702008.46221028222
 c4636: 120 p_2_1 + 120 p_2_2 + 120 p_2_3 + 120 p_2_5 + 120 p_2_6 + 120 p_2_7 + 120 p_2_8 + 120 p_2_9 + 100000 z_2_1 + 100000 z_2_2 + 100000 z_2_3 + 100000 z_2_5 + 100000 z_2_6 + 100000 z_2_7 + 100000 z_2_8 + 100000 z_2_9 <= 802005.81236382434
 c4637: 120 p_2_4 + 120 p_2_5 + 120 p_2_6 + 120 p_2_7 + 120 p_2_8 + 120 p_2_9 + 100000 z_2_4 + 100000 z_2_5 + 100000 z_2_6 + 100000 z_2_7 + 100000 z_2_8 + 100000 z_2_9 <= 602079.32377647096
 c4638: 120 p_2_1 + 120 p_2_4 + 120 p_2_5 + 120 p_2_6 + 120 p_2_7 + 120 p_2_8 + 120 p_2_9 + 100000 z_2_1 + 100000 z_2_4 + 100000 z_2_5 + 100000 z_2_6 + 100000 z_2_7 + 100000 z_2_8 + 100000 z_2_9 <= 702075.80463179108
 c4639: 120 p_2_2 + 120 p_2_4 + 120 p_2_5 + 120 p_2_6 + 120 p_2_7 + 120 p_2_8 + 120 p_2_9 + 100000 z_2_2 + 100000 z_2_4 + 100000 z_2_5 + 100000 z_2_6 + 100000 z_2_7 + 100000 z_2_8 + 100000 z_2_9 <= 702069.9024935218
 c4640: 120 p_2_1 + 120 p_2_2 + 120 p_2_4 + 120 p_2_5 + 120 p_2_6 + 120 p_2_7 + 120 p_2_8 + 120 p_2_9 + 100000 z_2_1 + 100000 z_2_2 + 100000 z_2_4 + 100000 z_2_5 + 100000 z_2_6 + 100000 z_2_7 + 100000 z_2_8 + 100000 z_2_9 <= 802063.22503150289
 c4641: 120 p_2_3 + 120 p_2_4 + 120 p_2_5 + 120 p_2_6 + 120 p_2_7 + 120 p_2_8 + 120 p_2_9 + 100000 z_2_3 + 100000 z_2_4 + 100000 z_2_5 + 100000 z_2_6 + 100000 z_2_7 + 100000 z_2_8 + 100000 z_2_9 <= 702009.6739005514
 c4642: 120 p_2_1 + 120 p_2_3 + 120 p_2_4 + 120 p_2_5 + 120 p_2_6 + 120 p_2_7 + 120 p_2_8 + 120 p_2_9 + 100000 z_2_1 + 100000 z_2_3 + 100000 z_2_4 + 100000 z_2_5 + 100000 z_2_6 + 100000 z_2_7 + 100000 z_2_8 + 100000 z_2_9 <= 801999.98702142143
 c4643: 120 p_2_2 + 120 p_2_3 + 120 p_2_4 + 120 p_2_5 + 120 p_2_6 + 120 p_2_7 + 120 p_2_8 + 120 p_2_9 + 100000 z_2_2 + 100000 z_2_3 + 100000 z_2_4 + 100000 z_2_5 + 100000 z_2_6 + 100000 z_2_7 + 100000 z_2_8 + 100000 z_2_9 <= 802008.13689975603
 c4644: 120 p_2_1 + 120 p_2_2 + 120 p_2_3 + 120 p_2_4 + 120 p_2_5 + 120 p_2_6 + 120 p_2_7 + 120 p_2_8 + 120 p_2_9 + 100000 z_2_1 + 100000 z_2_2 + 100000 z_2_3 + 100000 z_2_4 + 100000 z_2_5 + 100000 z_2_6 + 100000 z_2_7 + 100000 z_2_8 + 100000 z_2_9 <= 901998.45002062619
 c4645: 120 p_2_10 + 100000 z_2_10 <= 103115.79166972185
 c4646: 120 p_2_1 + 120 p_2_10 + 100000 z_2_1 + 100000 z_2_10 <= 203095.61127015034
 c4647: 120 p_2_10 + 120 p_2_2 + 100000 z_2_10 + 100000 z_2_2 <= 202843.59848951385
 c4648: 120 p_2_1 + 120 p_2_10 + 120 p_2_2 + 100000 z_2_1 + 100000 z_2_10 + 100000 z_2_2 <= 302833.1906996512
 c4649: 120 p_2_10 + 120 p_2_3 + 100000 z_2_10 + 100000 z_2_3 <= 202615.65769282039
 c4650: 120 p_2_1 + 120 p_2_10 + 120 p_2_3 + 100000 z_2_1 + 100000 z_2_10 + 100000 z_2_3 <= 302595.47729324887
 c4651: 120 p_2_10 + 120 p_2_2 + 120 p_2_3 + 100000 z_2_10 + 100000 z_2_2 + 100000 z_2_3 <= 302354.52466145018
 c4652: 120 p_2_1 + 120 p_2_10 + 120 p_2_2 + 120 p_2_3 + 100000 z_2_1 + 100000 z_2_10 + 100000 z_2_2 + 100000 z_2_3 <= 402334.34426187869
 c4653: 120 p_2_10 + 120 p_2_4 + 100000 z_2_10 + 100000 z_2_4 <= 203075.41572652751
 c4654: 120 p_2_1 + 120 p_2_10 + 120 p_2_4 + 100000 z_2_1 + 100000 z_2_10 + 100000 z_2_4 <= 303065.47477929102
 c4655: 120 p_2_10 + 120 p_2_2 + 120 p_2_4 + 100000 z_2_10 + 100000 z_2_2 + 100000 z_2_4 <= 302805.43339831161
 c4656: 120 p_2_1 + 120 p_2_10 + 120 p_2_2 + 120 p_2_4 + 100000 z_2_1 + 100000 z_2_10 + 100000 z_2_2 + 100000 z_2_4 <= 402803.05420879187
 c4657: 120 p_2_10 + 120 p_2_3 + 120 p_2_4 + 100000 z_2_10 + 100000 z_2_3 + 100000 z_2_4 <= 302577.53532066254
 c4658: 120 p_2_1 + 120 p_2_10 + 120 p_2_3 + 120 p_2_4 + 100000 z_2_1 + 100000 z_2_10 + 100000 z_2_3 + 100000 z_2_4 <= 402565.34080238955
 c4659: 120 p_2_10 + 120 p_2_2 + 120 p_2_3 + 120 p_2_4 + 100000 z_2_10 + 100000 z_2_2 + 100000 z_2_3 + 100000 z_2_4 <= 402316.40228929237
 c4660: 120 p_2_1 + 120 p_2_10 + 120 p_2_2 + 120 p_2_3 + 120 p_2_4 + 100000 z_2_1 + 100000 z_2_10 + 100000 z_2_2 + 100000 z_2_3 + 100000 z_2_4 <= 502304.20777101937
 c4661: 120 p_2_10 + 120 p_2_5 + 100000 z_2_10 + 100000 z_2_5 <= 202756.57374603208
 c4662: 120 p_2_1 + 120 p_2_10 + 120 p_2_5 + 100000 z_2_1 + 100000 z_2_10 + 100000 z_2_5 <= 302746.92251677631
 c4663: 120 p_2_10 + 120 p_2_2 + 120 p_2_5 + 100000 z_2_10 + 100000 z_2_2 + 100000 z_2_5 <= 302755.06900281709
 c4664: 120 p_2_1 + 120 p_2_10 + 120 p_2_2 + 120 p_2_5 + 100000 z_2_1 + 100000 z_2_10 + 100000 z_2_2 + 100000 z_2_5 <= 402745.27210914803
 c4665: 120 p_2_10 + 120 p_2_3 + 120 p_2_5 + 100000 z_2_10 + 100000 z_2_3 + 100000 z_2_5 <= 302284.78964140773
 c4666: 120 p_2_1 + 120 p_2_10 + 120 p_2_3 + 120 p_2_5 + 100000 z_2_1 + 100000 z_2_10 + 100000 z_2_3 + 100000 z_2_5 <= 402264.60924183624
 c4667: 120 p_2_10 + 120 p_2_2 + 120 p_2_3 + 120 p_2_5 + 100000 z_2_10 + 100000 z_2_2 + 100000 z_2_3 + 100000 z_2_5 <= 402283.13923377945
 c4668: 120 p_2_1 + 120 p_2_10 + 120 p_2_2 + 120 p_2_3 + 120 p_2_5 + 100000 z_2_1 + 100000 z_2_10 + 100000 z_2_2 + 100000 z_2_3 + 100000 z_2_5 <= 502262.95883420797
 c4669: 120 p_2_10 + 120 p_2_4 + 120 p_2_5 + 100000 z_2_10 + 100000 z_2_4 + 100000 z_2_5 <= 302718.71597272845
 c4670: 120 p_2_1 + 120 p_2_10 + 120 p_2_4 + 120 p_2_5 + 100000 z_2_1 + 100000 z_2_10 + 100000 z_2_4 + 100000 z_2_5 <= 402716.78602591698
 c4671: 120 p_2_10 + 120 p_2_2 + 120 p_2_4 + 120 p_2_5 + 100000 z_2_10 + 100000 z_2_2 + 100000 z_2_4 + 100000 z_2_5 <= 402717.06556510017
 c4672: 120 p_2_1 + 120 p_2_10 + 120 p_2_2 + 120 p_2_4 + 120 p_2_5 + 100000 z_2_1 + 100000 z_2_10 + 100000 z_2_2 + 100000 z_2_4 + 100000 z_2_5 <= 502715.13561828871
 c4673: 120 p_2_10 + 120 p_2_3 + 120 p_2_4 + 120 p_2_5 + 100000 z_2_10 + 100000 z_2_3 + 100000 z_2_4 + 100000 z_2_5 <= 402246.66726924991
 c4674: 120 p_2_1 + 120 p_2_10 + 120 p_2_3 + 120 p_2_4 + 120 p_2_5 + 100000 z_2_1 + 100000 z_2_10 + 100000 z_2_3 + 100000 z_2_4 + 100000 z_2_5 <= 502234.47275097691
 c4675: 120 p_2_10 + 120 p_2_2 + 120 p_2_3 + 120 p_2_4 + 120 p_2_5 + 100000 z_2_10 + 100000 z_2_2 + 100000 z_2_3 + 100000 z_2_4 + 100000 z_2_5 <= 502245.01686162164
 c4676: 120 p_2_1 + 120 p_2_10 + 120 p_2_2 + 120 p_2_3 + 120 p_2_4 + 120 p_2_5 + 100000 z_2_1 + 100000 z_2_10 + 100000 z_2_2 + 100000 z_2_3 + 100000 z_2_4 + 100000 z_2_5 <= 602232.82234334864
 c4677: 120 p_2_10 + 120 p_2_6 + 100000 z_2_10 + 100000 z_2_6 <= 202662.26918869707
 c4678: 120 p_2_1 + 120 p_2_10 + 120 p_2_6 + 100000 z_2_1 + 100000 z_2_10 + 100000 z_2_6 <= 302642.08878912556
 c4679: 120 p_2_10 + 120 p_2_2 + 120 p_2_6 + 100000 z_2_10 + 100000 z_2_2 + 100000 z_2_6 <= 302414.19433015247
 c4680: 120 p_2_1 + 120 p_2_10 + 120 p_2_2 + 120 p_2_6 + 100000 z_2_1 + 100000 z_2_10 + 100000 z_2_2 + 100000 z_2_6 <= 402394.01393058099
 c4681: 120 p_2_10 + 120 p_2_3 + 120 p_2_6 + 100000 z_2_10 + 100000 z_2_3 + 100000 z_2_6 <= 302596.47650997626
 c4682: 120 p_2_1 + 120 p_2_10 + 120 p_2_3 + 120 p_2_6 + 100000 z_2_1 + 100000 z_2_10 + 100000 z_2_3 + 100000 z_2_6 <= 402576.29611040477
 c4683: 120 p_2_10 + 120 p_2_2 + 120 p_2_3 + 120 p_2_6 + 100000 z_2_10 + 100000 z_2_2 + 100000 z_2_3 + 100000 z_2_6 <= 402348.40165143169
 c4684: 120 p_2_1 + 120 p_2_10 + 120 p_2_2 + 120 p_2_3 + 120 p_2_6 + 100000 z_2_1 + 100000 z_2_10 + 100000 z_2_2 + 100000 z_2_3 + 100000 z_2_6 <= 502328.2212518602
 c4685: 120 p_2_10 + 120 p_2_4 + 120 p_2_6 + 100000 z_2_10 + 100000 z_2_4 + 100000 z_2_6 <= 302623.12914869521
 c4686: 120 p_2_1 + 120 p_2_10 + 120 p_2_4 + 120 p_2_6 + 100000 z_2_1 + 100000 z_2_10 + 100000 z_2_4 + 100000 z_2_6 <= 402611.95229826623
 c4687: 120 p_2_10 + 120 p_2_2 + 120 p_2_4 + 120 p_2_6 + 100000 z_2_10 + 100000 z_2_2 + 100000 z_2_4 + 100000 z_2_6 <= 402375.05429015064
 c4688: 120 p_2_1 + 120 p_2_10 + 120 p_2_2 + 120 p_2_4 + 120 p_2_6 + 100000 z_2_1 + 100000 z_2_10 + 100000 z_2_2 + 100000 z_2_4 + 100000 z_2_6 <= 502363.87743972166
 c4689: 120 p_2_10 + 120 p_2_3 + 120 p_2_4 + 120 p_2_6 + 100000 z_2_10 + 100000 z_2_3 + 100000 z_2_4 + 100000 z_2_6 <= 402558.35413781845
 c4690: 120 p_2_1 + 120 p_2_10 + 120 p_2_3 + 120 p_2_4 + 120 p_2_6 + 100000 z_2_1 + 100000 z_2_10 + 100000 z_2_3 + 100000 z_2_4 + 100000 z_2_6 <= 502546.15961954545
 c4691: 120 p_2_10 + 120 p_2_2 + 120 p_2_3 + 120 p_2_4 + 120 p_2_6 + 100000 z_2_10 + 100000 z_2_2 + 100000 z_2_3 + 100000 z_2_4 + 100000 z_2_6 <= 502310.27927927388
 c4692: 120 p_2_1 + 120 p_2_10 + 120 p_2_2 + 120 p_2_3 + 120 p_2_4 + 120 p_2_6 + 100000 z_2_1 + 100000 z_2_10 + 100000 z_2_2 + 100000 z_2_3 + 100000 z_2_4 + 100000 z_2_6 <= 602298.08476100094
 c4693: 120 p_2_10 + 120 p_2_5 + 120 p_2_6 + 100000 z_2_10 + 100000 z_2_5 + 100000 z_2_6 <= 302346.67105144245
 c4694: 120 p_2_1 + 120 p_2_10 + 120 p_2_5 + 120 p_2_6 + 100000 z_2_1 + 100000 z_2_10 + 100000 z_2_5 + 100000 z_2_6 <= 402326.4906518709
 c4695: 120 p_2_10 + 120 p_2_2 + 120 p_2_5 + 120 p_2_6 + 100000 z_2_10 + 100000 z_2_2 + 100000 z_2_5 + 100000 z_2_6 <= 402345.02064381418
 c4696: 120 p_2_1 + 120 p_2_10 + 120 p_2_2 + 120 p_2_5 + 120 p_2_6 + 100000 z_2_1 + 100000 z_2_10 + 100000 z_2_2 + 100000 z_2_5 + 100000 z_2_6 <= 502324.84024424269
 c4697: 120 p_2_10 + 120 p_2_3 + 120 p_2_5 + 120 p_2_6 + 100000 z_2_10 + 100000 z_2_3 + 100000 z_2_5 + 100000 z_2_6 <= 402280.87837272167
 c4698: 120 p_2_1 + 120 p_2_10 + 120 p_2_3 + 120 p_2_5 + 120 p_2_6 + 100000 z_2_1 + 100000 z_2_10 + 100000 z_2_3 + 100000 z_2_5 + 100000 z_2_6 <= 502260.69797315012
 c4699: 120 p_2_10 + 120 p_2_2 + 120 p_2_3 + 120 p_2_5 + 120 p_2_6 + 100000 z_2_10 + 100000 z_2_2 + 100000 z_2_3 + 100000 z_2_5 + 100000 z_2_6 <= 502279.22796509339
 c4700: 120 p_2_1 + 120 p_2_10 + 120 p_2_2 + 120 p_2_3 + 120 p_2_5 + 120 p_2_6 + 100000 z_2_1 + 100000 z_2_10 + 100000 z_2_2 + 100000 z_2_3 + 100000 z_2_5 + 100000 z_2_6 <= 602259.04756552191
 c4701: 120 p_2_10 + 120 p_2_4 + 120 p_2_5 + 120 p_2_6 + 100000 z_2_10 + 100000 z_2_4 + 100000 z_2_5 + 100000 z_2_6 <= 402307.53101144056
 c4702: 120 p_2_1 + 120 p_2_10 + 120 p_2_4 + 120 p_2_5 + 120 p_2_6 + 100000 z_2_1 + 100000 z_2_10 + 100000 z_2_4 + 100000 z_2_5 + 100000 z_2_6 <= 502296.35416101158
 c4703: 120 p_2_10 + 120 p_2_2 + 120 p_2_4 + 120 p_2_5 + 120 p_2_6 + 100000 z_2_10 + 100000 z_2_2 + 100000 z_2_4 + 100000 z_2_5 + 100000 z_2_6 <= 502305.88060381229
 c4704: 120 p_2_1 + 120 p_2_10 + 120 p_2_2 + 120 p_2_4 + 120 p_2_5 + 120 p_2_6 + 100000 z_2_1 + 100000 z_2_10 + 100000 z_2_2 + 100000 z_2_4 + 100000 z_2_5 + 100000 z_2_6 <= 602294.70375338336
 c4705: 120 p_2_10 + 120 p_2_3 + 120 p_2_4 + 120 p_2_5 + 120 p_2_6 + 100000 z_2_10 + 100000 z_2_3 + 100000 z_2_4 + 100000 z_2_5 + 100000 z_2_6 <= 502242.75600056385
 c4706: 120 p_2_1 + 120 p_2_10 + 120 p_2_3 + 120 p_2_4 + 120 p_2_5 + 120 p_2_6 + 100000 z_2_1 + 100000 z_2_10 + 100000 z_2_3 + 100000 z_2_4 + 100000 z_2_5 + 100000 z_2_6 <= 602230.56148229085
 c4707: 120 p_2_10 + 120 p_2_2 + 120 p_2_3 + 120 p_2_4 + 120 p_2_5 + 120 p_2_6 + 100000 z_2_10 + 100000 z_2_2 + 100000 z_2_3 + 100000 z_2_4 + 100000 z_2_5 + 100000 z_2_6 <= 602241.10559293558
 c4708: 120 p_2_1 + 120 p_2_10 + 120 p_2_2 + 120 p_2_3 + 120 p_2_4 + 120 p_2_5 + 120 p_2_6 + 100000 z_2_1 + 100000 z_2_10 + 100000 z_2_2 + 100000 z_2_3 + 100000 z_2_4 + 100000 z_2_5 + 100000 z_2_6 <= 702228.91107466258
 c4709: 120 p_2_10 + 120 p_2_7 + 100000 z_2_10 + 100000 z_2_7 <= 202940.55548929752
 c4710: 120 p_2_1 + 120 p_2_10 + 120 p_2_7 + 100000 z_2_1 + 100000 z_2_10 + 100000 z_2_7 <= 302937.90564283961
 c4711: 120 p_2_10 + 120 p_2_2 + 120 p_2_7 + 100000 z_2_10 + 100000 z_2_2 + 100000 z_2_7 <= 302676.225266814
 c4712: 120 p_2_1 + 120 p_2_10 + 120 p_2_2 + 120 p_2_7 + 100000 z_2_1 + 100000 z_2_10 + 100000 z_2_2 + 100000 z_2_7 <= 402675.48507234053
 c4713: 120 p_2_10 + 120 p_2_3 + 120 p_2_7 + 100000 z_2_10 + 100000 z_2_3 + 100000 z_2_7 <= 302449.71211610461
 c4714: 120 p_2_1 + 120 p_2_10 + 120 p_2_3 + 120 p_2_7 + 100000 z_2_1 + 100000 z_2_10 + 100000 z_2_3 + 100000 z_2_7 <= 402437.77166593814
 c4715: 120 p_2_10 + 120 p_2_2 + 120 p_2_3 + 120 p_2_7 + 100000 z_2_10 + 100000 z_2_2 + 100000 z_2_3 + 100000 z_2_7 <= 402188.57908473443
 c4716: 120 p_2_1 + 120 p_2_10 + 120 p_2_2 + 120 p_2_3 + 120 p_2_7 + 100000 z_2_1 + 100000 z_2_10 + 100000 z_2_2 + 100000 z_2_3 + 100000 z_2_7 <= 502176.63863456802
 c4717: 120 p_2_10 + 120 p_2_4 + 120 p_2_7 + 100000 z_2_10 + 100000 z_2_4 + 100000 z_2_7 <= 302940.55286177871
 c4718: 120 p_2_1 + 120 p_2_10 + 120 p_2_4 + 120 p_2_7 + 100000 z_2_1 + 100000 z_2_10 + 100000 z_2_4 + 100000 z_2_7 <= 402937.90301532083
 c4719: 120 p_2_10 + 120 p_2_2 + 120 p_2_4 + 120 p_2_7 + 100000 z_2_10 + 100000 z_2_2 + 100000 z_2_4 + 100000 z_2_7 <= 402676.22263929516
 c4720: 120 p_2_1 + 120 p_2_10 + 120 p_2_2 + 120 p_2_4 + 120 p_2_7 + 100000 z_2_1 + 100000 z_2_10 + 100000 z_2_2 + 100000 z_2_4 + 100000 z_2_7 <= 502675.48244482168
 c4721: 120 p_2_10 + 120 p_2_3 + 120 p_2_4 + 120 p_2_7 + 100000 z_2_10 + 100000 z_2_3 + 100000 z_2_4 + 100000 z_2_7 <= 402449.70948858577
 c4722: 120 p_2_1 + 120 p_2_10 + 120 p_2_3 + 120 p_2_4 + 120 p_2_7 + 100000 z_2_1 + 100000 z_2_10 + 100000 z_2_3 + 100000 z_2_4 + 100000 z_2_7 <= 502437.76903841936
 c4723: 120 p_2_10 + 120 p_2_2 + 120 p_2_3 + 120 p_2_4 + 120 p_2_7 + 100000 z_2_10 + 100000 z_2_2 + 100000 z_2_3 + 100000 z_2_4 + 100000 z_2_7 <= 502188.57645721559
 c4724: 120 p_2_1 + 120 p_2_10 + 120 p_2_2 + 120 p_2_3 + 120 p_2_4 + 120 p_2_7 + 100000 z_2_1 + 100000 z_2_10 + 100000 z_2_2 + 100000 z_2_3 + 100000 z_2_4 + 100000 z_2_7 <= 602176.63600704924
 c4725: 120 p_2_10 + 120 p_2_5 + 120 p_2_7 + 100000 z_2_10 + 100000 z_2_5 + 100000 z_2_7 <= 302590.46263822267
 c4726: 120 p_2_1 + 120 p_2_10 + 120 p_2_5 + 120 p_2_7 + 100000 z_2_1 + 100000 z_2_10 + 100000 z_2_5 + 100000 z_2_7 <= 402589.21688946558
 c4727: 120 p_2_10 + 120 p_2_2 + 120 p_2_5 + 120 p_2_7 + 100000 z_2_10 + 100000 z_2_2 + 100000 z_2_5 + 100000 z_2_7 <= 402588.8122305944
 c4728: 120 p_2_1 + 120 p_2_10 + 120 p_2_2 + 120 p_2_5 + 120 p_2_7 + 100000 z_2_1 + 100000 z_2_10 + 100000 z_2_2 + 100000 z_2_5 + 100000 z_2_7 <= 502587.56648183736
 c4729: 120 p_2_10 + 120 p_2_3 + 120 p_2_5 + 120 p_2_7 + 100000 z_2_10 + 100000 z_2_3 + 100000 z_2_5 + 100000 z_2_7 <= 402118.84406469192
 c4730: 120 p_2_1 + 120 p_2_10 + 120 p_2_3 + 120 p_2_5 + 120 p_2_7 + 100000 z_2_1 + 100000 z_2_10 + 100000 z_2_3 + 100000 z_2_5 + 100000 z_2_7 <= 502106.90361452551
 c4731: 120 p_2_10 + 120 p_2_2 + 120 p_2_3 + 120 p_2_5 + 120 p_2_7 + 100000 z_2_10 + 100000 z_2_2 + 100000 z_2_3 + 100000 z_2_5 + 100000 z_2_7 <= 502117.1936570637
 c4732: 120 p_2_1 + 120 p_2_10 + 120 p_2_2 + 120 p_2_3 + 120 p_2_5 + 120 p_2_7 + 100000 z_2_1 + 100000 z_2_10 + 100000 z_2_2 + 100000 z_2_3 + 100000 z_2_5 + 100000 z_2_7 <= 602105.25320689729
 c4733: 120 p_2_10 + 120 p_2_4 + 120 p_2_5 + 120 p_2_7 + 100000 z_2_10 + 100000 z_2_4 + 100000 z_2_5 + 100000 z_2_7 <= 402590.46001070383
 c4734: 120 p_2_1 + 120 p_2_10 + 120 p_2_4 + 120 p_2_5 + 120 p_2_7 + 100000 z_2_1 + 100000 z_2_10 + 100000 z_2_4 + 100000 z_2_5 + 100000 z_2_7 <= 502589.21426194679
 c4735: 120 p_2_10 + 120 p_2_2 + 120 p_2_4 + 120 p_2_5 + 120 p_2_7 + 100000 z_2_10 + 100000 z_2_2 + 100000 z_2_4 + 100000 z_2_5 + 100000 z_2_7 <= 502588.80960307561
 c4736: 120 p_2_1 + 120 p_2_10 + 120 p_2_2 + 120 p_2_4 + 120 p_2_5 + 120 p_2_7 + 100000 z_2_1 + 100000 z_2_10 + 100000 z_2_2 + 100000 z_2_4 + 100000 z_2_5 + 100000 z_2_7 <= 602587.56385431858
 c4737: 120 p_2_10 + 120 p_2_3 + 120 p_2_4 + 120 p_2_5 + 120 p_2_7 + 100000 z_2_10 + 100000 z_2_3 + 100000 z_2_4 + 100000 z_2_5 + 100000 z_2_7 <= 502118.84143717313
 c4738: 120 p_2_1 + 120 p_2_10 + 120 p_2_3 + 120 p_2_4 + 120 p_2_5 + 120 p_2_7 + 100000 z_2_1 + 100000 z_2_10 + 100000 z_2_3 + 100000 z_2_4 + 100000 z_2_5 + 100000 z_2_7 <= 602106.90098700672
 c4739: 120 p_2_10 + 120 p_2_2 + 120 p_2_3 + 120 p_2_4 + 120 p_2_5 + 120 p_2_7 + 100000 z_2_10 + 100000 z_2_2 + 100000 z_2_3 + 100000 z_2_4 + 100000 z_2_5 + 100000 z_2_7 <= 602117.19102954492
 c4740: 120 p_2_1 + 120 p_2_10 + 120 p_2_2 + 120 p_2_3 + 120 p_2_4 + 120 p_2_5 + 120 p_2_7 + 100000 z_2_1 + 100000 z_2_10 + 100000 z_2_2 + 100000 z_2_3 + 100000 z_2_4 + 100000 z_2_5 + 100000 z_2_7 <= 702105.25057937845
 c4741: 120 p_2_10 + 120 p_2_6 + 120 p_2_7 + 100000 z_2_10 + 100000 z_2_6 + 100000 z_2_7 <= 302492.29652702622
 c4742: 120 p_2_1 + 120 p_2_10 + 120 p_2_6 + 120 p_2_7 + 100000 z_2_1 + 100000 z_2_10 + 100000 z_2_6 + 100000 z_2_7 <= 402484.38316181488
 c4743: 120 p_2_10 + 120 p_2_2 + 120 p_2_6 + 120 p_2_7 + 100000 z_2_10 + 100000 z_2_2 + 100000 z_2_6 + 100000 z_2_7 <= 402244.22166848165
 c4744: 120 p_2_1 + 120 p_2_10 + 120 p_2_2 + 120 p_2_6 + 120 p_2_7 + 100000 z_2_1 + 100000 z_2_10 + 100000 z_2_2 + 100000 z_2_6 + 100000 z_2_7 <= 502236.30830327031
 c4745: 120 p_2_10 + 120 p_2_3 + 120 p_2_6 + 120 p_2_7 + 100000 z_2_10 + 100000 z_2_3 + 100000 z_2_6 + 100000 z_2_7 <= 402430.53093326051
 c4746: 120 p_2_1 + 120 p_2_10 + 120 p_2_3 + 120 p_2_6 + 120 p_2_7 + 100000 z_2_1 + 100000 z_2_10 + 100000 z_2_3 + 100000 z_2_6 + 100000 z_2_7 <= 502418.59048309404
 c4747: 120 p_2_10 + 120 p_2_2 + 120 p_2_3 + 120 p_2_6 + 120 p_2_7 + 100000 z_2_10 + 100000 z_2_2 + 100000 z_2_3 + 100000 z_2_6 + 100000 z_2_7 <= 502182.45607471594
 c4748: 120 p_2_1 + 120 p_2_10 + 120 p_2_2 + 120 p_2_3 + 120 p_2_6 + 120 p_2_7 + 100000 z_2_1 + 100000 z_2_10 + 100000 z_2_2 + 100000 z_2_3 + 100000 z_2_6 + 100000 z_2_7 <= 602170.51562454947
 c4749: 120 p_2_10 + 120 p_2_4 + 120 p_2_6 + 120 p_2_7 + 100000 z_2_10 + 100000 z_2_4 + 100000 z_2_6 + 100000 z_2_7 <= 402492.29389950744
 c4750: 120 p_2_1 + 120 p_2_10 + 120 p_2_4 + 120 p_2_6 + 120 p_2_7 + 100000 z_2_1 + 100000 z_2_10 + 100000 z_2_4 + 100000 z_2_6 + 100000 z_2_7 <= 502484.38053429604
 c4751: 120 p_2_10 + 120 p_2_2 + 120 p_2_4 + 120 p_2_6 + 120 p_2_7 + 100000 z_2_10 + 100000 z_2_2 + 100000 z_2_4 + 100000 z_2_6 + 100000 z_2_7 <= 502244.21904096287
 c4752: 120 p_2_1 + 120 p_2_10 + 120 p_2_2 + 120 p_2_4 + 120 p_2_6 + 120 p_2_7 + 100000 z_2_1 + 100000 z_2_10 + 100000 z_2_2 + 100000 z_2_4 + 100000 z_2_6 + 100000 z_2_7 <= 602236.30567575153
 c4753: 120 p_2_10 + 120 p_2_3 + 120 p_2_4 + 120 p_2_6 + 120 p_2_7 + 100000 z_2_10 + 100000 z_2_3 + 100000 z_2_4 + 100000 z_2_6 + 100000 z_2_7 <= 502430.52830574167
 c4754: 120 p_2_1 + 120 p_2_10 + 120 p_2_3 + 120 p_2_4 + 120 p_2_6 + 120 p_2_7 + 100000 z_2_1 + 100000 z_2_10 + 100000 z_2_3 + 100000 z_2_4 + 100000 z_2_6 + 100000 z_2_7 <= 602418.58785557526
 c4755: 120 p_2_10 + 120 p_2_2 + 120 p_2_3 + 120 p_2_4 + 120 p_2_6 + 120 p_2_7 + 100000 z_2_10 + 100000 z_2_2 + 100000 z_2_3 + 100000 z_2_4 + 100000 z_2_6 + 100000 z_2_7 <= 602182.4534471971
 c4756: 120 p_2_1 + 120 p_2_10 + 120 p_2_2 + 120 p_2_3 + 120 p_2_4 + 120 p_2_6 + 120 p_2_7 + 100000 z_2_1 + 100000 z_2_10 + 100000 z_2_2 + 100000 z_2_3 + 100000 z_2_4 + 100000 z_2_6 + 100000 z_2_7 <= 702170.51299703075
 c4757: 120 p_2_10 + 120 p_2_5 + 120 p_2_6 + 120 p_2_7 + 100000 z_2_10 + 100000 z_2_5 + 100000 z_2_6 + 100000 z_2_7 <= 402176.69838977157
 c4758: 120 p_2_1 + 120 p_2_10 + 120 p_2_5 + 120 p_2_6 + 120 p_2_7 + 100000 z_2_1 + 100000 z_2_10 + 100000 z_2_5 + 100000 z_2_6 + 100000 z_2_7 <= 502168.78502456023
 c4759: 120 p_2_10 + 120 p_2_2 + 120 p_2_5 + 120 p_2_6 + 120 p_2_7 + 100000 z_2_10 + 100000 z_2_2 + 100000 z_2_5 + 100000 z_2_6 + 100000 z_2_7 <= 502175.04798214335
 c4760: 120 p_2_1 + 120 p_2_10 + 120 p_2_2 + 120 p_2_5 + 120 p_2_6 + 120 p_2_7 + 100000 z_2_1 + 100000 z_2_10 + 100000 z_2_2 + 100000 z_2_5 + 100000 z_2_6 + 100000 z_2_7 <= 602167.13461693202
 c4761: 120 p_2_10 + 120 p_2_3 + 120 p_2_5 + 120 p_2_6 + 120 p_2_7 + 100000 z_2_10 + 100000 z_2_3 + 100000 z_2_5 + 100000 z_2_6 + 100000 z_2_7 <= 502114.93279600586
 c4762: 120 p_2_1 + 120 p_2_10 + 120 p_2_3 + 120 p_2_5 + 120 p_2_6 + 120 p_2_7 + 100000 z_2_1 + 100000 z_2_10 + 100000 z_2_3 + 100000 z_2_5 + 100000 z_2_6 + 100000 z_2_7 <= 602102.99234583939
 c4763: 120 p_2_10 + 120 p_2_2 + 120 p_2_3 + 120 p_2_5 + 120 p_2_6 + 120 p_2_7 + 100000 z_2_10 + 100000 z_2_2 + 100000 z_2_3 + 100000 z_2_5 + 100000 z_2_6 + 100000 z_2_7 <= 602113.28238837759
 c4764: 120 p_2_1 + 120 p_2_10 + 120 p_2_2 + 120 p_2_3 + 120 p_2_5 + 120 p_2_6 + 120 p_2_7 + 100000 z_2_1 + 100000 z_2_10 + 100000 z_2_2 + 100000 z_2_3 + 100000 z_2_5 + 100000 z_2_6 + 100000 z_2_7 <= 702101.34193821112
 c4765: 120 p_2_10 + 120 p_2_4 + 120 p_2_5 + 120 p_2_6 + 120 p_2_7 + 100000 z_2_10 + 100000 z_2_4 + 100000 z_2_5 + 100000 z_2_6 + 100000 z_2_7 <= 502176.69576225278
 c4766: 120 p_2_1 + 120 p_2_10 + 120 p_2_4 + 120 p_2_5 + 120 p_2_6 + 120 p_2_7 + 100000 z_2_1 + 100000 z_2_10 + 100000 z_2_4 + 100000 z_2_5 + 100000 z_2_6 + 100000 z_2_7 <= 602168.78239704145
 c4767: 120 p_2_10 + 120 p_2_2 + 120 p_2_4 + 120 p_2_5 + 120 p_2_6 + 120 p_2_7 + 100000 z_2_10 + 100000 z_2_2 + 100000 z_2_4 + 100000 z_2_5 + 100000 z_2_6 + 100000 z_2_7 <= 602175.04535462451
 c4768: 120 p_2_1 + 120 p_2_10 + 120 p_2_2 + 120 p_2_4 + 120 p_2_5 + 120 p_2_6 + 120 p_2_7 + 100000 z_2_1 + 100000 z_2_10 + 100000 z_2_2 + 100000 z_2_4 + 100000 z_2_5 + 100000 z_2_6 + 100000 z_2_7 <= 702167.13198941317
 c4769: 120 p_2_10 + 120 p_2_3 + 120 p_2_4 + 120 p_2_5 + 120 p_2_6 + 120 p_2_7 + 100000 z_2_10 + 100000 z_2_3 + 100000 z_2_4 + 100000 z_2_5 + 100000 z_2_6 + 100000 z_2_7 <= 602114.93016848702
 c4770: 120 p_2_1 + 120 p_2_10 + 120 p_2_3 + 120 p_2_4 + 120 p_2_5 + 120 p_2_6 + 120 p_2_7 + 100000 z_2_1 + 100000 z_2_10 + 100000 z_2_3 + 100000 z_2_4 + 100000 z_2_5 + 100000 z_2_6 + 100000 z_2_7 <= 702102.98971832066
 c4771: 120 p_2_10 + 120 p_2_2 + 120 p_2_3 + 120 p_2_4 + 120 p_2_5 + 120 p_2_6 + 120 p_2_7 + 100000 z_2_10 + 100000 z_2_2 + 100000 z_2_3 + 100000 z_2_4 + 100000 z_2_5 + 100000 z_2_6 + 100000 z_2_7 <= 702113.27976085874
 c4772: 120 p_2_1 + 120 p_2_10 + 120 p_2_2 + 120 p_2_3 + 120 p_2_4 + 120 p_2_5 + 120 p_2_6 + 120 p_2_7 + 100000 z_2_1 + 100000 z_2_10 + 100000 z_2_2 + 100000 z_2_3 + 100000 z_2_4 + 100000 z_2_5 + 100000 z_2_6 + 100000 z_2_7 <= 802101.33931069239
 c4773: 120 p_2_10 + 120 p_2_8 + 100000 z_2_10 + 100000 z_2_8 <= 202703.95439060894
 c4774: 120 p_2_1 + 120 p_2_10 + 120 p_2_8 + 100000 z_2_1 + 100000 z_2_10 + 100000 z_2_8 <= 302696.67358823837
 c4775: 120 p_2_10 + 120 p_2_2 + 120 p_2_8 + 100000 z_2_10 + 100000 z_2_2 + 100000 z_2_8 <= 302702.41738981364
 c4776: 120 p_2_1 + 120 p_2_10 + 120 p_2_2 + 120 p_2_8 + 100000 z_2_1 + 100000 z_2_10 + 100000 z_2_2 + 100000 z_2_8 <= 402695.13658744306
 c4777: 120 p_2_10 + 120 p_2_3 + 120 p_2_8 + 100000 z_2_10 + 100000 z_2_3 + 100000 z_2_8 <= 302203.82041370746
 c4778: 120 p_2_1 + 120 p_2_10 + 120 p_2_3 + 120 p_2_8 + 100000 z_2_1 + 100000 z_2_10 + 100000 z_2_3 + 100000 z_2_8 <= 402196.53961133689
 c4779: 120 p_2_10 + 120 p_2_2 + 120 p_2_3 + 120 p_2_8 + 100000 z_2_10 + 100000 z_2_2 + 100000 z_2_3 + 100000 z_2_8 <= 402202.28341291216
 c4780: 120 p_2_1 + 120 p_2_10 + 120 p_2_2 + 120 p_2_3 + 120 p_2_8 + 100000 z_2_1 + 100000 z_2_10 + 100000 z_2_2 + 100000 z_2_3 + 100000 z_2_8 <= 502195.00261054159
 c4781: 120 p_2_10 + 120 p_2_4 + 120 p_2_8 + 100000 z_2_10 + 100000 z_2_4 + 100000 z_2_8 <= 302667.32742745953
 c4782: 120 p_2_1 + 120 p_2_10 + 120 p_2_4 + 120 p_2_8 + 100000 z_2_1 + 100000 z_2_10 + 100000 z_2_4 + 100000 z_2_8 <= 402666.53709737904
 c4783: 120 p_2_10 + 120 p_2_2 + 120 p_2_4 + 120 p_2_8 + 100000 z_2_10 + 100000 z_2_2 + 100000 z_2_4 + 100000 z_2_8 <= 402665.79042666423
 c4784: 120 p_2_1 + 120 p_2_10 + 120 p_2_2 + 120 p_2_4 + 120 p_2_8 + 100000 z_2_1 + 100000 z_2_10 + 100000 z_2_2 + 100000 z_2_4 + 100000 z_2_8 <= 502665.00009658374
 c4785: 120 p_2_10 + 120 p_2_3 + 120 p_2_4 + 120 p_2_8 + 100000 z_2_10 + 100000 z_2_3 + 100000 z_2_4 + 100000 z_2_8 <= 402167.19345055806
 c4786: 120 p_2_1 + 120 p_2_10 + 120 p_2_3 + 120 p_2_4 + 120 p_2_8 + 100000 z_2_1 + 100000 z_2_10 + 100000 z_2_3 + 100000 z_2_4 + 100000 z_2_8 <= 502166.40312047757
 c4787: 120 p_2_10 + 120 p_2_2 + 120 p_2_3 + 120 p_2_4 + 120 p_2_8 + 100000 z_2_10 + 100000 z_2_2 + 100000 z_2_3 + 100000 z_2_4 + 100000 z_2_8 <= 502165.65644976276
 c4788: 120 p_2_1 + 120 p_2_10 + 120 p_2_2 + 120 p_2_3 + 120 p_2_4 + 120 p_2_8 + 100000 z_2_1 + 100000 z_2_10 + 100000 z_2_2 + 100000 z_2_3 + 100000 z_2_4 + 100000 z_2_8 <= 602164.86611968221
 c4789: 120 p_2_10 + 120 p_2_5 + 120 p_2_8 + 100000 z_2_10 + 100000 z_2_5 + 100000 z_2_8 <= 302691.49438620295
 c4790: 120 p_2_1 + 120 p_2_10 + 120 p_2_5 + 120 p_2_8 + 100000 z_2_1 + 100000 z_2_10 + 100000 z_2_5 + 100000 z_2_8 <= 402684.21358383237
 c4791: 120 p_2_10 + 120 p_2_2 + 120 p_2_5 + 120 p_2_8 + 100000 z_2_10 + 100000 z_2_2 + 100000 z_2_5 + 100000 z_2_8 <= 402689.84397857467
 c4792: 120 p_2_1 + 120 p_2_10 + 120 p_2_2 + 120 p_2_5 + 120 p_2_8 + 100000 z_2_1 + 100000 z_2_10 + 100000 z_2_2 + 100000 z_2_5 + 100000 z_2_8 <= 502682.5631762041
 c4793: 120 p_2_10 + 120 p_2_3 + 120 p_2_5 + 120 p_2_8 + 100000 z_2_10 + 100000 z_2_3 + 100000 z_2_5 + 100000 z_2_8 <= 402199.39358654298
 c4794: 120 p_2_1 + 120 p_2_10 + 120 p_2_3 + 120 p_2_5 + 120 p_2_8 + 100000 z_2_1 + 100000 z_2_10 + 100000 z_2_3 + 100000 z_2_5 + 100000 z_2_8 <= 502184.0796069309
 c4795: 120 p_2_10 + 120 p_2_2 + 120 p_2_3 + 120 p_2_5 + 120 p_2_8 + 100000 z_2_10 + 100000 z_2_2 + 100000 z_2_3 + 100000 z_2_5 + 100000 z_2_8 <= 502197.85658574768
 c4796: 120 p_2_1 + 120 p_2_10 + 120 p_2_2 + 120 p_2_3 + 120 p_2_5 + 120 p_2_8 + 100000 z_2_1 + 100000 z_2_10 + 100000 z_2_2 + 100000 z_2_3 + 100000 z_2_5 + 100000 z_2_8 <= 602182.42919930269
 c4797: 120 p_2_10 + 120 p_2_4 + 120 p_2_5 + 120 p_2_8 + 100000 z_2_10 + 100000 z_2_4 + 100000 z_2_5 + 100000 z_2_8 <= 402654.86742305354
 c4798: 120 p_2_1 + 120 p_2_10 + 120 p_2_4 + 120 p_2_5 + 120 p_2_8 + 100000 z_2_1 + 100000 z_2_10 + 100000 z_2_4 + 100000 z_2_5 + 100000 z_2_8 <= 502654.07709297305
 c4799: 120 p_2_10 + 120 p_2_2 + 120 p_2_4 + 120 p_2_5 + 120 p_2_8 + 100000 z_2_10 + 100000 z_2_2 + 100000 z_2_4 + 100000 z_2_5 + 100000 z_2_8 <= 502653.21701542527
 c4800: 120 p_2_1 + 120 p_2_10 + 120 p_2_2 + 120 p_2_4 + 120 p_2_5 + 120 p_2_8 + 100000 z_2_1 + 100000 z_2_10 + 100000 z_2_2 + 100000 z_2_4 + 100000 z_2_5 + 100000 z_2_8 <= 602652.42668534478
 c4801: 120 p_2_10 + 120 p_2_3 + 120 p_2_4 + 120 p_2_5 + 120 p_2_8 + 100000 z_2_10 + 100000 z_2_3 + 100000 z_2_4 + 100000 z_2_5 + 100000 z_2_8 <= 502161.27121438517
 c4802: 120 p_2_1 + 120 p_2_10 + 120 p_2_3 + 120 p_2_4 + 120 p_2_5 + 120 p_2_8 + 100000 z_2_1 + 100000 z_2_10 + 100000 z_2_3 + 100000 z_2_4 + 100000 z_2_5 + 100000 z_2_8 <= 602153.94311607163
 c4803: 120 p_2_10 + 120 p_2_2 + 120 p_2_3 + 120 p_2_4 + 120 p_2_5 + 120 p_2_8 + 100000 z_2_10 + 100000 z_2_2 + 100000 z_2_3 + 100000 z_2_4 + 100000 z_2_5 + 100000 z_2_8 <= 602159.73421358981
 c4804: 120 p_2_1 + 120 p_2_10 + 120 p_2_2 + 120 p_2_3 + 120 p_2_4 + 120 p_2_5 + 120 p_2_8 + 100000 z_2_1 + 100000 z_2_10 + 100000 z_2_2 + 100000 z_2_3 + 100000 z_2_4 + 100000 z_2_5 + 100000 z_2_8 <= 702152.29270844336
 c4805: 120 p_2_10 + 120 p_2_6 + 120 p_2_8 + 100000 z_2_10 + 100000 z_2_6 + 100000 z_2_8 <= 302261.45725351915
 c4806: 120 p_2_1 + 120 p_2_10 + 120 p_2_6 + 120 p_2_8 + 100000 z_2_1 + 100000 z_2_10 + 100000 z_2_6 + 100000 z_2_8 <= 402253.55535663303
 c4807: 120 p_2_10 + 120 p_2_2 + 120 p_2_6 + 120 p_2_8 + 100000 z_2_10 + 100000 z_2_2 + 100000 z_2_6 + 100000 z_2_8 <= 402259.92025272385
 c4808: 120 p_2_1 + 120 p_2_10 + 120 p_2_2 + 120 p_2_6 + 120 p_2_8 + 100000 z_2_1 + 100000 z_2_10 + 100000 z_2_2 + 100000 z_2_6 + 100000 z_2_8 <= 502244.94030294381
 c4809: 120 p_2_10 + 120 p_2_3 + 120 p_2_6 + 120 p_2_8 + 100000 z_2_10 + 100000 z_2_3 + 100000 z_2_6 + 100000 z_2_8 <= 402195.66457479837
 c4810: 120 p_2_1 + 120 p_2_10 + 120 p_2_3 + 120 p_2_6 + 120 p_2_8 + 100000 z_2_1 + 100000 z_2_10 + 100000 z_2_3 + 100000 z_2_6 + 100000 z_2_8 <= 502177.35842849279
 c4811: 120 p_2_10 + 120 p_2_2 + 120 p_2_3 + 120 p_2_6 + 120 p_2_8 + 100000 z_2_10 + 100000 z_2_2 + 100000 z_2_3 + 100000 z_2_6 + 100000 z_2_8 <= 502194.12757400307
 c4812: 120 p_2_1 + 120 p_2_10 + 120 p_2_2 + 120 p_2_3 + 120 p_2_6 + 120 p_2_8 + 100000 z_2_1 + 100000 z_2_10 + 100000 z_2_2 + 100000 z_2_3 + 100000 z_2_6 + 100000 z_2_8 <= 602175.82142769743
 c4813: 120 p_2_10 + 120 p_2_4 + 120 p_2_6 + 120 p_2_8 + 100000 z_2_10 + 100000 z_2_4 + 100000 z_2_6 + 100000 z_2_8 <= 402224.2091958542
 c4814: 120 p_2_1 + 120 p_2_10 + 120 p_2_4 + 120 p_2_6 + 120 p_2_8 + 100000 z_2_1 + 100000 z_2_10 + 100000 z_2_4 + 100000 z_2_6 + 100000 z_2_8 <= 502223.41886577371
 c4815: 120 p_2_10 + 120 p_2_2 + 120 p_2_4 + 120 p_2_6 + 120 p_2_8 + 100000 z_2_10 + 100000 z_2_2 + 100000 z_2_4 + 100000 z_2_6 + 100000 z_2_8 <= 502220.78021272196
 c4816: 120 p_2_1 + 120 p_2_10 + 120 p_2_2 + 120 p_2_4 + 120 p_2_6 + 120 p_2_8 + 100000 z_2_1 + 100000 z_2_10 + 100000 z_2_2 + 100000 z_2_4 + 100000 z_2_6 + 100000 z_2_8 <= 602214.80381208449
 c4817: 120 p_2_10 + 120 p_2_3 + 120 p_2_4 + 120 p_2_6 + 120 p_2_8 + 100000 z_2_10 + 100000 z_2_3 + 100000 z_2_4 + 100000 z_2_6 + 100000 z_2_8 <= 502157.54220264056
 c4818: 120 p_2_1 + 120 p_2_10 + 120 p_2_3 + 120 p_2_4 + 120 p_2_6 + 120 p_2_8 + 100000 z_2_1 + 100000 z_2_10 + 100000 z_2_3 + 100000 z_2_4 + 100000 z_2_6 + 100000 z_2_8 <= 602147.22193763347
 c4819: 120 p_2_10 + 120 p_2_2 + 120 p_2_3 + 120 p_2_4 + 120 p_2_6 + 120 p_2_8 + 100000 z_2_10 + 100000 z_2_2 + 100000 z_2_3 + 100000 z_2_4 + 100000 z_2_6 + 100000 z_2_8 <= 602156.0052018452
 c4820: 120 p_2_1 + 120 p_2_10 + 120 p_2_2 + 120 p_2_3 + 120 p_2_4 + 120 p_2_6 + 120 p_2_8 + 100000 z_2_1 + 100000 z_2_10 + 100000 z_2_2 + 100000 z_2_3 + 100000 z_2_4 + 100000 z_2_6 + 100000 z_2_8 <= 702145.68493683811
 c4821: 120 p_2_10 + 120 p_2_5 + 120 p_2_6 + 120 p_2_8 + 100000 z_2_10 + 100000 z_2_5 + 100000 z_2_6 + 100000 z_2_8 <= 402261.27499657765
 c4822: 120 p_2_1 + 120 p_2_10 + 120 p_2_5 + 120 p_2_6 + 120 p_2_8 + 100000 z_2_1 + 100000 z_2_10 + 100000 z_2_5 + 100000 z_2_6 + 100000 z_2_8 <= 502253.37309969153
 c4823: 120 p_2_10 + 120 p_2_2 + 120 p_2_5 + 120 p_2_6 + 120 p_2_8 + 100000 z_2_10 + 100000 z_2_2 + 100000 z_2_5 + 100000 z_2_6 + 100000 z_2_8 <= 502259.73799578234
 c4824: 120 p_2_1 + 120 p_2_10 + 120 p_2_2 + 120 p_2_5 + 120 p_2_6 + 120 p_2_8 + 100000 z_2_1 + 100000 z_2_10 + 100000 z_2_2 + 100000 z_2_5 + 100000 z_2_6 + 100000 z_2_8 <= 602239.55759621086
 c4825: 120 p_2_10 + 120 p_2_3 + 120 p_2_5 + 120 p_2_6 + 120 p_2_8 + 100000 z_2_10 + 100000 z_2_3 + 100000 z_2_5 + 100000 z_2_6 + 100000 z_2_8 <= 502195.48231785686
 c4826: 120 p_2_1 + 120 p_2_10 + 120 p_2_3 + 120 p_2_5 + 120 p_2_6 + 120 p_2_8 + 100000 z_2_1 + 100000 z_2_10 + 100000 z_2_3 + 100000 z_2_5 + 100000 z_2_6 + 100000 z_2_8 <= 602175.30191828543
 c4827: 120 p_2_10 + 120 p_2_2 + 120 p_2_3 + 120 p_2_5 + 120 p_2_6 + 120 p_2_8 + 100000 z_2_10 + 100000 z_2_2 + 100000 z_2_3 + 100000 z_2_5 + 100000 z_2_6 + 100000 z_2_8 <= 602193.94531706162
 c4828: 120 p_2_1 + 120 p_2_10 + 120 p_2_2 + 120 p_2_3 + 120 p_2_5 + 120 p_2_6 + 120 p_2_8 + 100000 z_2_1 + 100000 z_2_10 + 100000 z_2_2 + 100000 z_2_3 + 100000 z_2_5 + 100000 z_2_6 + 100000 z_2_8 <= 702173.76491749007
 c4829: 120 p_2_10 + 120 p_2_4 + 120 p_2_5 + 120 p_2_6 + 120 p_2_8 + 100000 z_2_10 + 100000 z_2_4 + 100000 z_2_5 + 100000 z_2_6 + 100000 z_2_8 <= 502224.02693891269
 c4830: 120 p_2_1 + 120 p_2_10 + 120 p_2_4 + 120 p_2_5 + 120 p_2_6 + 120 p_2_8 + 100000 z_2_1 + 100000 z_2_10 + 100000 z_2_4 + 100000 z_2_5 + 100000 z_2_6 + 100000 z_2_8 <= 602223.23660883214
 c4831: 120 p_2_10 + 120 p_2_2 + 120 p_2_4 + 120 p_2_5 + 120 p_2_6 + 120 p_2_8 + 100000 z_2_10 + 100000 z_2_2 + 100000 z_2_4 + 100000 z_2_5 + 100000 z_2_6 + 100000 z_2_8 <= 602220.59795578045
 c4832: 120 p_2_1 + 120 p_2_10 + 120 p_2_2 + 120 p_2_4 + 120 p_2_5 + 120 p_2_6 + 120 p_2_8 + 100000 z_2_1 + 100000 z_2_10 + 100000 z_2_2 + 100000 z_2_4 + 100000 z_2_5 + 100000 z_2_6 + 100000 z_2_8 <= 702209.42110535153
 c4833: 120 p_2_10 + 120 p_2_3 + 120 p_2_4 + 120 p_2_5 + 120 p_2_6 + 120 p_2_8 + 100000 z_2_10 + 100000 z_2_3 + 100000 z_2_4 + 100000 z_2_5 + 100000 z_2_6 + 100000 z_2_8 <= 602157.35994569911
 c4834: 120 p_2_1 + 120 p_2_10 + 120 p_2_3 + 120 p_2_4 + 120 p_2_5 + 120 p_2_6 + 120 p_2_8 + 100000 z_2_1 + 100000 z_2_10 + 100000 z_2_3 + 100000 z_2_4 + 100000 z_2_5 + 100000 z_2_6 + 100000 z_2_8 <= 702145.16542742611
 c4835: 120 p_2_10 + 120 p_2_2 + 120 p_2_3 + 120 p_2_4 + 120 p_2_5 + 120 p_2_6 + 120 p_2_8 + 100000 z_2_10 + 100000 z_2_2 + 100000 z_2_3 + 100000 z_2_4 + 100000 z_2_5 + 100000 z_2_6 + 100000 z_2_8 <= 702155.82294490375
 c4836: 120 p_2_1 + 120 p_2_10 + 120 p_2_2 + 120 p_2_3 + 120 p_2_4 + 120 p_2_5 + 120 p_2_6 + 120 p_2_8 + 100000 z_2_1 + 100000 z_2_10 + 100000 z_2_2 + 100000 z_2_3 + 100000 z_2_4 + 100000 z_2_5 + 100000 z_2_6 + 100000 z_2_8 <= 802143.62842663075
 c4837: 120 p_2_10 + 120 p_2_7 + 120 p_2_8 + 100000 z_2_10 + 100000 z_2_7 + 100000 z_2_8 <= 302542.48710560752
 c4838: 120 p_2_1 + 120 p_2_10 + 120 p_2_7 + 120 p_2_8 + 100000 z_2_1 + 100000 z_2_10 + 100000 z_2_7 + 100000 z_2_8 <= 402538.96796092769
 c4839: 120 p_2_10 + 120 p_2_2 + 120 p_2_7 + 120 p_2_8 + 100000 z_2_10 + 100000 z_2_2 + 100000 z_2_7 + 100000 z_2_8 <= 402540.95010481216
 c4840: 120 p_2_1 + 120 p_2_10 + 120 p_2_2 + 120 p_2_7 + 120 p_2_8 + 100000 z_2_1 + 100000 z_2_10 + 100000 z_2_2 + 100000 z_2_7 + 100000 z_2_8 <= 502537.43096013233
 c4841: 120 p_2_10 + 120 p_2_3 + 120 p_2_7 + 120 p_2_8 + 100000 z_2_10 + 100000 z_2_3 + 100000 z_2_7 + 100000 z_2_8 <= 402042.35312870605
 c4842: 120 p_2_1 + 120 p_2_10 + 120 p_2_3 + 120 p_2_7 + 120 p_2_8 + 100000 z_2_1 + 100000 z_2_10 + 100000 z_2_3 + 100000 z_2_7 + 100000 z_2_8 <= 502038.83398402622
 c4843: 120 p_2_10 + 120 p_2_2 + 120 p_2_3 + 120 p_2_7 + 120 p_2_8 + 100000 z_2_10 + 100000 z_2_2 + 100000 z_2_3 + 100000 z_2_7 + 100000 z_2_8 <= 502040.81612791069
 c4844: 120 p_2_1 + 120 p_2_10 + 120 p_2_2 + 120 p_2_3 + 120 p_2_7 + 120 p_2_8 + 100000 z_2_1 + 100000 z_2_10 + 100000 z_2_2 + 100000 z_2_3 + 100000 z_2_7 + 100000 z_2_8 <= 602037.29698323086
 c4845: 120 p_2_10 + 120 p_2_4 + 120 p_2_7 + 120 p_2_8 + 100000 z_2_10 + 100000 z_2_4 + 100000 z_2_7 + 100000 z_2_8 <= 402542.48447808868
 c4846: 120 p_2_1 + 120 p_2_10 + 120 p_2_4 + 120 p_2_7 + 120 p_2_8 + 100000 z_2_1 + 100000 z_2_10 + 100000 z_2_4 + 100000 z_2_7 + 100000 z_2_8 <= 502538.96533340885
 c4847: 120 p_2_10 + 120 p_2_2 + 120 p_2_4 + 120 p_2_7 + 120 p_2_8 + 100000 z_2_10 + 100000 z_2_2 + 100000 z_2_4 + 100000 z_2_7 + 100000 z_2_8 <= 502540.94747729338
 c4848: 120 p_2_1 + 120 p_2_10 + 120 p_2_2 + 120 p_2_4 + 120 p_2_7 + 120 p_2_8 + 100000 z_2_1 + 100000 z_2_10 + 100000 z_2_2 + 100000 z_2_4 + 100000 z_2_7 + 100000 z_2_8 <= 602537.42833261355
 c4849: 120 p_2_10 + 120 p_2_3 + 120 p_2_4 + 120 p_2_7 + 120 p_2_8 + 100000 z_2_10 + 100000 z_2_3 + 100000 z_2_4 + 100000 z_2_7 + 100000 z_2_8 <= 502042.3505011872
 c4850: 120 p_2_1 + 120 p_2_10 + 120 p_2_3 + 120 p_2_4 + 120 p_2_7 + 120 p_2_8 + 100000 z_2_1 + 100000 z_2_10 + 100000 z_2_3 + 100000 z_2_4 + 100000 z_2_7 + 100000 z_2_8 <= 602038.83135650738
 c4851: 120 p_2_10 + 120 p_2_2 + 120 p_2_3 + 120 p_2_4 + 120 p_2_7 + 120 p_2_8 + 100000 z_2_10 + 100000 z_2_2 + 100000 z_2_3 + 100000 z_2_4 + 100000 z_2_7 + 100000 z_2_8 <= 602040.8135003919
 c4852: 120 p_2_1 + 120 p_2_10 + 120 p_2_2 + 120 p_2_3 + 120 p_2_4 + 120 p_2_7 + 120 p_2_8 + 100000 z_2_1 + 100000 z_2_10 + 100000 z_2_2 + 100000 z_2_3 + 100000 z_2_4 + 100000 z_2_7 + 100000 z_2_8 <= 702037.29435571202
 c4853: 120 p_2_10 + 120 p_2_5 + 120 p_2_7 + 120 p_2_8 + 100000 z_2_10 + 100000 z_2_5 + 100000 z_2_7 + 100000 z_2_8 <= 402530.02710120147
 c4854: 120 p_2_1 + 120 p_2_10 + 120 p_2_5 + 120 p_2_7 + 120 p_2_8 + 100000 z_2_1 + 100000 z_2_10 + 100000 z_2_5 + 100000 z_2_7 + 100000 z_2_8 <= 502526.50795652164
 c4855: 120 p_2_10 + 120 p_2_2 + 120 p_2_5 + 120 p_2_7 + 120 p_2_8 + 100000 z_2_10 + 100000 z_2_2 + 100000 z_2_5 + 100000 z_2_7 + 100000 z_2_8 <= 502528.37669357326
 c4856: 120 p_2_1 + 120 p_2_10 + 120 p_2_2 + 120 p_2_5 + 120 p_2_7 + 120 p_2_8 + 100000 z_2_1 + 100000 z_2_10 + 100000 z_2_2 + 100000 z_2_5 + 100000 z_2_7 + 100000 z_2_8 <= 602524.85754889343
 c4857: 120 p_2_10 + 120 p_2_3 + 120 p_2_5 + 120 p_2_7 + 120 p_2_8 + 100000 z_2_10 + 100000 z_2_3 + 100000 z_2_5 + 100000 z_2_7 + 100000 z_2_8 <= 502033.44800982717
 c4858: 120 p_2_1 + 120 p_2_10 + 120 p_2_3 + 120 p_2_5 + 120 p_2_7 + 120 p_2_8 + 100000 z_2_1 + 100000 z_2_10 + 100000 z_2_3 + 100000 z_2_5 + 100000 z_2_7 + 100000 z_2_8 <= 602026.37397962017
 c4859: 120 p_2_10 + 120 p_2_2 + 120 p_2_3 + 120 p_2_5 + 120 p_2_7 + 120 p_2_8 + 100000 z_2_10 + 100000 z_2_2 + 100000 z_2_3 + 100000 z_2_5 + 100000 z_2_7 + 100000 z_2_8 <= 602031.91100903181
 c4860: 120 p_2_1 + 120 p_2_10 + 120 p_2_2 + 120 p_2_3 + 120 p_2_5 + 120 p_2_7 + 120 p_2_8 + 100000 z_2_1 + 100000 z_2_10 + 100000 z_2_2 + 100000 z_2_3 + 100000 z_2_5 + 100000 z_2_7 + 100000 z_2_8 <= 702024.7235719919
 c4861: 120 p_2_10 + 120 p_2_4 + 120 p_2_5 + 120 p_2_7 + 120 p_2_8 + 100000 z_2_10 + 100000 z_2_4 + 100000 z_2_5 + 100000 z_2_7 + 100000 z_2_8 <= 502530.02447368269
 c4862: 120 p_2_1 + 120 p_2_10 + 120 p_2_4 + 120 p_2_5 + 120 p_2_7 + 120 p_2_8 + 100000 z_2_1 + 100000 z_2_10 + 100000 z_2_4 + 100000 z_2_5 + 100000 z_2_7 + 100000 z_2_8 <= 602526.50532900286
 c4863: 120 p_2_10 + 120 p_2_2 + 120 p_2_4 + 120 p_2_5 + 120 p_2_7 + 120 p_2_8 + 100000 z_2_10 + 100000 z_2_2 + 100000 z_2_4 + 100000 z_2_5 + 100000 z_2_7 + 100000 z_2_8 <= 602528.37406605447
 c4864: 120 p_2_1 + 120 p_2_10 + 120 p_2_2 + 120 p_2_4 + 120 p_2_5 + 120 p_2_7 + 120 p_2_8 + 100000 z_2_1 + 100000 z_2_10 + 100000 z_2_2 + 100000 z_2_4 + 100000 z_2_5 + 100000 z_2_7 + 100000 z_2_8 <= 702524.85492137459
 c4865: 120 p_2_10 + 120 p_2_3 + 120 p_2_4 + 120 p_2_5 + 120 p_2_7 + 120 p_2_8 + 100000 z_2_10 + 100000 z_2_3 + 100000 z_2_4 + 100000 z_2_5 + 100000 z_2_7 + 100000 z_2_8 <= 602033.44538230833
 c4866: 120 p_2_1 + 120 p_2_10 + 120 p_2_3 + 120 p_2_4 + 120 p_2_5 + 120 p_2_7 + 120 p_2_8 + 100000 z_2_1 + 100000 z_2_10 + 100000 z_2_3 + 100000 z_2_4 + 100000 z_2_5 + 100000 z_2_7 + 100000 z_2_8 <= 702026.37135210144
 c4867: 120 p_2_10 + 120 p_2_2 + 120 p_2_3 + 120 p_2_4 + 120 p_2_5 + 120 p_2_7 + 120 p_2_8 + 100000 z_2_10 + 100000 z_2_2 + 100000 z_2_3 + 100000 z_2_4 + 100000 z_2_5 + 100000 z_2_7 + 100000 z_2_8 <= 702031.90838151309
 c4868: 120 p_2_1 + 120 p_2_10 + 120 p_2_2 + 120 p_2_3 + 120 p_2_4 + 120 p_2_5 + 120 p_2_7 + 120 p_2_8 + 100000 z_2_1 + 100000 z_2_10 + 100000 z_2_2 + 100000 z_2_3 + 100000 z_2_4 + 100000 z_2_5 + 100000 z_2_7 + 100000 z_2_8 <= 802024.72094447317
 c4869: 120 p_2_10 + 120 p_2_6 + 120 p_2_7 + 120 p_2_8 + 100000 z_2_10 + 100000 z_2_6 + 100000 z_2_7 + 100000 z_2_8 <= 402099.36887400213
 c4870: 120 p_2_1 + 120 p_2_10 + 120 p_2_6 + 120 p_2_7 + 120 p_2_8 + 100000 z_2_1 + 100000 z_2_10 + 100000 z_2_6 + 100000 z_2_7 + 100000 z_2_8 <= 502095.8497293223
 c4871: 120 p_2_10 + 120 p_2_2 + 120 p_2_6 + 120 p_2_7 + 120 p_2_8 + 100000 z_2_10 + 100000 z_2_2 + 100000 z_2_6 + 100000 z_2_7 + 100000 z_2_8 <= 502090.75382031291
 c4872: 120 p_2_1 + 120 p_2_10 + 120 p_2_2 + 120 p_2_6 + 120 p_2_7 + 120 p_2_8 + 100000 z_2_1 + 100000 z_2_10 + 100000 z_2_2 + 100000 z_2_6 + 100000 z_2_7 + 100000 z_2_8 <= 602087.23467563302
 c4873: 120 p_2_10 + 120 p_2_3 + 120 p_2_6 + 120 p_2_7 + 120 p_2_8 + 100000 z_2_10 + 100000 z_2_3 + 100000 z_2_6 + 100000 z_2_7 + 100000 z_2_8 <= 502029.71899808262
 c4874: 120 p_2_1 + 120 p_2_10 + 120 p_2_3 + 120 p_2_6 + 120 p_2_7 + 120 p_2_8 + 100000 z_2_1 + 100000 z_2_10 + 100000 z_2_3 + 100000 z_2_6 + 100000 z_2_7 + 100000 z_2_8 <= 602019.65280118212
 c4875: 120 p_2_10 + 120 p_2_2 + 120 p_2_3 + 120 p_2_6 + 120 p_2_7 + 120 p_2_8 + 100000 z_2_10 + 100000 z_2_2 + 100000 z_2_3 + 100000 z_2_6 + 100000 z_2_7 + 100000 z_2_8 <= 602028.18199728732
 c4876: 120 p_2_1 + 120 p_2_10 + 120 p_2_2 + 120 p_2_3 + 120 p_2_6 + 120 p_2_7 + 120 p_2_8 + 100000 z_2_1 + 100000 z_2_10 + 100000 z_2_2 + 100000 z_2_3 + 100000 z_2_6 + 100000 z_2_7 + 100000 z_2_8 <= 702018.11580038676
 c4877: 120 p_2_10 + 120 p_2_4 + 120 p_2_6 + 120 p_2_7 + 120 p_2_8 + 100000 z_2_10 + 100000 z_2_4 + 100000 z_2_6 + 100000 z_2_7 + 100000 z_2_8 <= 502099.36624648335
 c4878: 120 p_2_1 + 120 p_2_10 + 120 p_2_4 + 120 p_2_6 + 120 p_2_7 + 120 p_2_8 + 100000 z_2_1 + 100000 z_2_10 + 100000 z_2_4 + 100000 z_2_6 + 100000 z_2_7 + 100000 z_2_8 <= 602095.84710180352
 c4879: 120 p_2_10 + 120 p_2_2 + 120 p_2_4 + 120 p_2_6 + 120 p_2_7 + 120 p_2_8 + 100000 z_2_10 + 100000 z_2_2 + 100000 z_2_4 + 100000 z_2_6 + 100000 z_2_7 + 100000 z_2_8 <= 602090.75119279406
 c4880: 120 p_2_1 + 120 p_2_10 + 120 p_2_2 + 120 p_2_4 + 120 p_2_6 + 120 p_2_7 + 120 p_2_8 + 100000 z_2_1 + 100000 z_2_10 + 100000 z_2_2 + 100000 z_2_4 + 100000 z_2_6 + 100000 z_2_7 + 100000 z_2_8 <= 702087.2320481143
 c4881: 120 p_2_10 + 120 p_2_3 + 120 p_2_4 + 120 p_2_6 + 120 p_2_7 + 120 p_2_8 + 100000 z_2_10 + 100000 z_2_3 + 100000 z_2_4 + 100000 z_2_6 + 100000 z_2_7 + 100000 z_2_8 <= 602029.71637056384
 c4882: 120 p_2_1 + 120 p_2_10 + 120 p_2_3 + 120 p_2_4 + 120 p_2_6 + 120 p_2_7 + 120 p_2_8 + 100000 z_2_1 + 100000 z_2_10 + 100000 z_2_3 + 100000 z_2_4 + 100000 z_2_6 + 100000 z_2_7 + 100000 z_2_8 <= 702019.65017366328
 c4883: 120 p_2_10 + 120 p_2_2 + 120 p_2_3 + 120 p_2_4 + 120 p_2_6 + 120 p_2_7 + 120 p_2_8 + 100000 z_2_10 + 100000 z_2_2 + 100000 z_2_3 + 100000 z_2_4 + 100000 z_2_6 + 100000 z_2_7 + 100000 z_2_8 <= 702028.17936976848
 c4884: 120 p_2_1 + 120 p_2_10 + 120 p_2_2 + 120 p_2_3 + 120 p_2_4 + 120 p_2_6 + 120 p_2_7 + 120 p_2_8 + 100000 z_2_1 + 100000 z_2_10 + 100000 z_2_2 + 100000 z_2_3 + 100000 z_2_4 + 100000 z_2_6 + 100000 z_2_7 + 100000 z_2_8 <= 802018.11317286792
 c4885: 120 p_2_10 + 120 p_2_5 + 120 p_2_6 + 120 p_2_7 + 120 p_2_8 + 100000 z_2_10 + 100000 z_2_5 + 100000 z_2_6 + 100000 z_2_7 + 100000 z_2_8 <= 502099.18661706062
 c4886: 120 p_2_1 + 120 p_2_10 + 120 p_2_5 + 120 p_2_6 + 120 p_2_7 + 120 p_2_8 + 100000 z_2_1 + 100000 z_2_10 + 100000 z_2_5 + 100000 z_2_6 + 100000 z_2_7 + 100000 z_2_8 <= 602095.6674723808
 c4887: 120 p_2_10 + 120 p_2_2 + 120 p_2_5 + 120 p_2_6 + 120 p_2_7 + 120 p_2_8 + 100000 z_2_10 + 100000 z_2_2 + 100000 z_2_5 + 100000 z_2_6 + 100000 z_2_7 + 100000 z_2_8 <= 602089.76533411152
 c4888: 120 p_2_1 + 120 p_2_10 + 120 p_2_2 + 120 p_2_5 + 120 p_2_6 + 120 p_2_7 + 120 p_2_8 + 100000 z_2_1 + 100000 z_2_10 + 100000 z_2_2 + 100000 z_2_5 + 100000 z_2_6 + 100000 z_2_7 + 100000 z_2_8 <= 702081.85196890018
 c4889: 120 p_2_10 + 120 p_2_3 + 120 p_2_5 + 120 p_2_6 + 120 p_2_7 + 120 p_2_8 + 100000 z_2_10 + 100000 z_2_3 + 100000 z_2_5 + 100000 z_2_6 + 100000 z_2_7 + 100000 z_2_8 <= 602029.53674114111
 c4890: 120 p_2_1 + 120 p_2_10 + 120 p_2_3 + 120 p_2_5 + 120 p_2_6 + 120 p_2_7 + 120 p_2_8 + 100000 z_2_1 + 100000 z_2_10 + 100000 z_2_3 + 100000 z_2_5 + 100000 z_2_6 + 100000 z_2_7 + 100000 z_2_8 <= 702017.59629097464
 c4891: 120 p_2_10 + 120 p_2_2 + 120 p_2_3 + 120 p_2_5 + 120 p_2_6 + 120 p_2_7 + 120 p_2_8 + 100000 z_2_10 + 100000 z_2_2 + 100000 z_2_3 + 100000 z_2_5 + 100000 z_2_6 + 100000 z_2_7 + 100000 z_2_8 <= 702027.99974034575
 c4892: 120 p_2_1 + 120 p_2_10 + 120 p_2_2 + 120 p_2_3 + 120 p_2_5 + 120 p_2_6 + 120 p_2_7 + 120 p_2_8 + 100000 z_2_1 + 100000 z_2_10 + 100000 z_2_2 + 100000 z_2_3 + 100000 z_2_5 + 100000 z_2_6 + 100000 z_2_7 + 100000 z_2_8 <= 802016.0592901794
 c4893: 120 p_2_10 + 120 p_2_4 + 120 p_2_5 + 120 p_2_6 + 120 p_2_7 + 120 p_2_8 + 100000 z_2_10 + 100000 z_2_4 + 100000 z_2_5 + 100000 z_2_6 + 100000 z_2_7 + 100000 z_2_8 <= 602099.18398954184
 c4894: 120 p_2_1 + 120 p_2_10 + 120 p_2_4 + 120 p_2_5 + 120 p_2_6 + 120 p_2_7 + 120 p_2_8 + 100000 z_2_1 + 100000 z_2_10 + 100000 z_2_4 + 100000 z_2_5 + 100000 z_2_6 + 100000 z_2_7 + 100000 z_2_8 <= 702095.66484486195
 c4895: 120 p_2_10 + 120 p_2_2 + 120 p_2_4 + 120 p_2_5 + 120 p_2_6 + 120 p_2_7 + 120 p_2_8 + 100000 z_2_10 + 100000 z_2_2 + 100000 z_2_4 + 100000 z_2_5 + 100000 z_2_6 + 100000 z_2_7 + 100000 z_2_8 <= 702089.76270659268
 c4896: 120 p_2_1 + 120 p_2_10 + 120 p_2_2 + 120 p_2_4 + 120 p_2_5 + 120 p_2_6 + 120 p_2_7 + 120 p_2_8 + 100000 z_2_1 + 100000 z_2_10 + 100000 z_2_2 + 100000 z_2_4 + 100000 z_2_5 + 100000 z_2_6 + 100000 z_2_7 + 100000 z_2_8 <= 802081.84934138134
 c4897: 120 p_2_10 + 120 p_2_3 + 120 p_2_4 + 120 p_2_5 + 120 p_2_6 + 120 p_2_7 + 120 p_2_8 + 100000 z_2_10 + 100000 z_2_3 + 100000 z_2_4 + 100000 z_2_5 + 100000 z_2_6 + 100000 z_2_7 + 100000 z_2_8 <= 702029.53411362227
 c4898: 120 p_2_1 + 120 p_2_10 + 120 p_2_3 + 120 p_2_4 + 120 p_2_5 + 120 p_2_6 + 120 p_2_7 + 120 p_2_8 + 100000 z_2_1 + 100000 z_2_10 + 100000 z_2_3 + 100000 z_2_4 + 100000 z_2_5 + 100000 z_2_6 + 100000 z_2_7 + 100000 z_2_8 <= 802017.59366345592
 c4899: 120 p_2_10 + 120 p_2_2 + 120 p_2_3 + 120 p_2_4 + 120 p_2_5 + 120 p_2_6 + 120 p_2_7 + 120 p_2_8 + 100000 z_2_10 + 100000 z_2_2 + 100000 z_2_3 + 100000 z_2_4 + 100000 z_2_5 + 100000 z_2_6 + 100000 z_2_7 + 100000 z_2_8 <= 802027.99711282691
 c4900: 120 p_2_1 + 120 p_2_10 + 120 p_2_2 + 120 p_2_3 + 120 p_2_4 + 120 p_2_5 + 120 p_2_6 + 120 p_2_7 + 120 p_2_8 + 100000 z_2_1 + 100000 z_2_10 + 100000 z_2_2 + 100000 z_2_3 + 100000 z_2_4 + 100000 z_2_5 + 100000 z_2_6 + 100000 z_2_7 + 100000 z_2_8 <= 902016.05666266056
 c4901: 120 p_2_10 + 120 p_2_9 + 100000 z_2_10 + 100000 z_2_9 <= 202645.46397222046
 c4902: 120 p_2_1 + 120 p_2_10 + 120 p_2_9 + 100000 z_2_1 + 100000 z_2_10 + 100000 z_2_9 <= 302625.28357264894
 c4903: 120 p_2_10 + 120 p_2_2 + 120 p_2_9 + 100000 z_2_10 + 100000 z_2_2 + 100000 z_2_9 <= 302418.16505539138
 c4904: 120 p_2_1 + 120 p_2_10 + 120 p_2_2 + 120 p_2_9 + 100000 z_2_1 + 100000 z_2_10 + 100000 z_2_2 + 100000 z_2_9 <= 402407.47833764029
 c4905: 120 p_2_10 + 120 p_2_3 + 120 p_2_9 + 100000 z_2_10 + 100000 z_2_3 + 100000 z_2_9 <= 302554.2535387791
 c4906: 120 p_2_1 + 120 p_2_10 + 120 p_2_3 + 120 p_2_9 + 100000 z_2_1 + 100000 z_2_10 + 100000 z_2_3 + 100000 z_2_9 <= 402534.07313920761
 c4907: 120 p_2_10 + 120 p_2_2 + 120 p_2_3 + 120 p_2_9 + 100000 z_2_10 + 100000 z_2_2 + 100000 z_2_3 + 100000 z_2_9 <= 402326.95462194999
 c4908: 120 p_2_1 + 120 p_2_10 + 120 p_2_2 + 120 p_2_3 + 120 p_2_9 + 100000 z_2_1 + 100000 z_2_10 + 100000 z_2_2 + 100000 z_2_3 + 100000 z_2_9 <= 502306.7742223785
 c4909: 120 p_2_10 + 120 p_2_4 + 120 p_2_9 + 100000 z_2_10 + 100000 z_2_4 + 100000 z_2_9 <= 302605.70384248602
 c4910: 120 p_2_1 + 120 p_2_10 + 120 p_2_4 + 120 p_2_9 + 100000 z_2_1 + 100000 z_2_10 + 100000 z_2_4 + 100000 z_2_9 <= 402595.14708178962
 c4911: 120 p_2_10 + 120 p_2_2 + 120 p_2_4 + 120 p_2_9 + 100000 z_2_10 + 100000 z_2_2 + 100000 z_2_4 + 100000 z_2_9 <= 402379.72103630065
 c4912: 120 p_2_1 + 120 p_2_10 + 120 p_2_2 + 120 p_2_4 + 120 p_2_9 + 100000 z_2_1 + 100000 z_2_10 + 100000 z_2_2 + 100000 z_2_4 + 100000 z_2_9 <= 502377.34184678097
 c4913: 120 p_2_10 + 120 p_2_3 + 120 p_2_4 + 120 p_2_9 + 100000 z_2_10 + 100000 z_2_3 + 100000 z_2_4 + 100000 z_2_9 <= 402516.13116662129
 c4914: 120 p_2_1 + 120 p_2_10 + 120 p_2_3 + 120 p_2_4 + 120 p_2_9 + 100000 z_2_1 + 100000 z_2_10 + 100000 z_2_3 + 100000 z_2_4 + 100000 z_2_9 <= 502503.93664834829
 c4915: 120 p_2_10 + 120 p_2_2 + 120 p_2_3 + 120 p_2_4 + 120 p_2_9 + 100000 z_2_10 + 100000 z_2_2 + 100000 z_2_3 + 100000 z_2_4 + 100000 z_2_9 <= 502288.83224979218
 c4916: 120 p_2_1 + 120 p_2_10 + 120 p_2_2 + 120 p_2_3 + 120 p_2_4 + 120 p_2_9 + 100000 z_2_1 + 100000 z_2_10 + 100000 z_2_2 + 100000 z_2_3 + 100000 z_2_4 + 100000 z_2_9 <= 602276.63773151918
 c4917: 120 p_2_10 + 120 p_2_5 + 120 p_2_9 + 100000 z_2_10 + 100000 z_2_5 + 100000 z_2_9 <= 302355.18059742119
 c4918: 120 p_2_1 + 120 p_2_10 + 120 p_2_5 + 120 p_2_9 + 100000 z_2_1 + 100000 z_2_10 + 100000 z_2_5 + 100000 z_2_9 <= 402345.1047758637
 c4919: 120 p_2_10 + 120 p_2_2 + 120 p_2_5 + 120 p_2_9 + 100000 z_2_10 + 100000 z_2_2 + 100000 z_2_5 + 100000 z_2_9 <= 402353.53018979297
 c4920: 120 p_2_1 + 120 p_2_10 + 120 p_2_2 + 120 p_2_5 + 120 p_2_9 + 100000 z_2_1 + 100000 z_2_10 + 100000 z_2_2 + 100000 z_2_5 + 100000 z_2_9 <= 502342.84347204189
 c4921: 120 p_2_10 + 120 p_2_3 + 120 p_2_5 + 120 p_2_9 + 100000 z_2_10 + 100000 z_2_3 + 100000 z_2_5 + 100000 z_2_9 <= 402263.97016397986
 c4922: 120 p_2_1 + 120 p_2_10 + 120 p_2_3 + 120 p_2_5 + 120 p_2_9 + 100000 z_2_1 + 100000 z_2_10 + 100000 z_2_3 + 100000 z_2_5 + 100000 z_2_9 <= 502243.78976440837
 c4923: 120 p_2_10 + 120 p_2_2 + 120 p_2_3 + 120 p_2_5 + 120 p_2_9 + 100000 z_2_10 + 100000 z_2_2 + 100000 z_2_3 + 100000 z_2_5 + 100000 z_2_9 <= 502262.31975635164
 c4924: 120 p_2_1 + 120 p_2_10 + 120 p_2_2 + 120 p_2_3 + 120 p_2_5 + 120 p_2_9 + 100000 z_2_1 + 100000 z_2_10 + 100000 z_2_2 + 100000 z_2_3 + 100000 z_2_5 + 100000 z_2_9 <= 602242.1393567801
 c4925: 120 p_2_10 + 120 p_2_4 + 120 p_2_5 + 120 p_2_9 + 100000 z_2_10 + 100000 z_2_4 + 100000 z_2_5 + 100000 z_2_9 <= 402316.89823181584
 c4926: 120 p_2_1 + 120 p_2_10 + 120 p_2_4 + 120 p_2_5 + 120 p_2_9 + 100000 z_2_1 + 100000 z_2_10 + 100000 z_2_4 + 100000 z_2_5 + 100000 z_2_9 <= 502314.96828500438
 c4927: 120 p_2_10 + 120 p_2_2 + 120 p_2_4 + 120 p_2_5 + 120 p_2_9 + 100000 z_2_10 + 100000 z_2_2 + 100000 z_2_4 + 100000 z_2_5 + 100000 z_2_9 <= 502315.0861707023
 c4928: 120 p_2_1 + 120 p_2_10 + 120 p_2_2 + 120 p_2_4 + 120 p_2_5 + 120 p_2_9 + 100000 z_2_1 + 100000 z_2_10 + 100000 z_2_2 + 100000 z_2_4 + 100000 z_2_5 + 100000 z_2_9 <= 602312.70698118256
 c4929: 120 p_2_10 + 120 p_2_3 + 120 p_2_4 + 120 p_2_5 + 120 p_2_9 + 100000 z_2_10 + 100000 z_2_3 + 100000 z_2_4 + 100000 z_2_5 + 100000 z_2_9 <= 502225.84779182205
 c4930: 120 p_2_1 + 120 p_2_10 + 120 p_2_3 + 120 p_2_4 + 120 p_2_5 + 120 p_2_9 + 100000 z_2_1 + 100000 z_2_10 + 100000 z_2_3 + 100000 z_2_4 + 100000 z_2_5 + 100000 z_2_9 <= 602213.65327354905
 c4931: 120 p_2_10 + 120 p_2_2 + 120 p_2_3 + 120 p_2_4 + 120 p_2_5 + 120 p_2_9 + 100000 z_2_10 + 100000 z_2_2 + 100000 z_2_3 + 100000 z_2_4 + 100000 z_2_5 + 100000 z_2_9 <= 602224.19738419377
 c4932: 120 p_2_1 + 120 p_2_10 + 120 p_2_2 + 120 p_2_3 + 120 p_2_4 + 120 p_2_5 + 120 p_2_9 + 100000 z_2_1 + 100000 z_2_10 + 100000 z_2_2 + 100000 z_2_3 + 100000 z_2_4 + 100000 z_2_5 + 100000 z_2_9 <= 702212.00286592077
 c4933: 120 p_2_10 + 120 p_2_6 + 120 p_2_9 + 100000 z_2_10 + 100000 z_2_6 + 100000 z_2_9 <= 302616.91331807023
 c4934: 120 p_2_1 + 120 p_2_10 + 120 p_2_6 + 120 p_2_9 + 100000 z_2_1 + 100000 z_2_10 + 100000 z_2_6 + 100000 z_2_9 <= 402596.73291849875
 c4935: 120 p_2_10 + 120 p_2_2 + 120 p_2_6 + 120 p_2_9 + 100000 z_2_10 + 100000 z_2_2 + 100000 z_2_6 + 100000 z_2_9 <= 402389.61440124112
 c4936: 120 p_2_1 + 120 p_2_10 + 120 p_2_2 + 120 p_2_6 + 120 p_2_9 + 100000 z_2_1 + 100000 z_2_10 + 100000 z_2_2 + 100000 z_2_6 + 100000 z_2_9 <= 502369.43400166964
 c4937: 120 p_2_10 + 120 p_2_3 + 120 p_2_6 + 120 p_2_9 + 100000 z_2_10 + 100000 z_2_3 + 100000 z_2_6 + 100000 z_2_9 <= 402551.12063934945
 c4938: 120 p_2_1 + 120 p_2_10 + 120 p_2_3 + 120 p_2_6 + 120 p_2_9 + 100000 z_2_1 + 100000 z_2_10 + 100000 z_2_3 + 100000 z_2_6 + 100000 z_2_9 <= 502530.94023977796
 c4939: 120 p_2_10 + 120 p_2_2 + 120 p_2_3 + 120 p_2_6 + 120 p_2_9 + 100000 z_2_10 + 100000 z_2_2 + 100000 z_2_3 + 100000 z_2_6 + 100000 z_2_9 <= 502323.82172252034
 c4940: 120 p_2_1 + 120 p_2_10 + 120 p_2_2 + 120 p_2_3 + 120 p_2_6 + 120 p_2_9 + 100000 z_2_1 + 100000 z_2_10 + 100000 z_2_2 + 100000 z_2_3 + 100000 z_2_6 + 100000 z_2_9 <= 602303.64132294885
 c4941: 120 p_2_10 + 120 p_2_4 + 120 p_2_6 + 120 p_2_9 + 100000 z_2_10 + 100000 z_2_4 + 100000 z_2_6 + 100000 z_2_9 <= 402577.7732780684
 c4942: 120 p_2_1 + 120 p_2_10 + 120 p_2_4 + 120 p_2_6 + 120 p_2_9 + 100000 z_2_1 + 100000 z_2_10 + 100000 z_2_4 + 100000 z_2_6 + 100000 z_2_9 <= 502566.59642763942
 c4943: 120 p_2_10 + 120 p_2_2 + 120 p_2_4 + 120 p_2_6 + 120 p_2_9 + 100000 z_2_10 + 100000 z_2_2 + 100000 z_2_4 + 100000 z_2_6 + 100000 z_2_9 <= 502350.47436123929
 c4944: 120 p_2_1 + 120 p_2_10 + 120 p_2_2 + 120 p_2_4 + 120 p_2_6 + 120 p_2_9 + 100000 z_2_1 + 100000 z_2_10 + 100000 z_2_2 + 100000 z_2_4 + 100000 z_2_6 + 100000 z_2_9 <= 602339.29751081031
 c4945: 120 p_2_10 + 120 p_2_3 + 120 p_2_4 + 120 p_2_6 + 120 p_2_9 + 100000 z_2_10 + 100000 z_2_3 + 100000 z_2_4 + 100000 z_2_6 + 100000 z_2_9 <= 502512.99826719164
 c4946: 120 p_2_1 + 120 p_2_10 + 120 p_2_3 + 120 p_2_4 + 120 p_2_6 + 120 p_2_9 + 100000 z_2_1 + 100000 z_2_10 + 100000 z_2_3 + 100000 z_2_4 + 100000 z_2_6 + 100000 z_2_9 <= 602500.8037489187
 c4947: 120 p_2_10 + 120 p_2_2 + 120 p_2_3 + 120 p_2_4 + 120 p_2_6 + 120 p_2_9 + 100000 z_2_10 + 100000 z_2_2 + 100000 z_2_3 + 100000 z_2_4 + 100000 z_2_6 + 100000 z_2_9 <= 602285.69935036253
 c4948: 120 p_2_1 + 120 p_2_10 + 120 p_2_2 + 120 p_2_3 + 120 p_2_4 + 120 p_2_6 + 120 p_2_9 + 100000 z_2_1 + 100000 z_2_10 + 100000 z_2_2 + 100000 z_2_3 + 100000 z_2_4 + 100000 z_2_6 + 100000 z_2_9 <= 702273.50483208953
 c4949: 120 p_2_10 + 120 p_2_5 + 120 p_2_6 + 120 p_2_9 + 100000 z_2_10 + 100000 z_2_5 + 100000 z_2_6 + 100000 z_2_9 <= 402326.62994327099
 c4950: 120 p_2_1 + 120 p_2_10 + 120 p_2_5 + 120 p_2_6 + 120 p_2_9 + 100000 z_2_1 + 100000 z_2_10 + 100000 z_2_5 + 100000 z_2_6 + 100000 z_2_9 <= 502306.44954369951
 c4951: 120 p_2_10 + 120 p_2_2 + 120 p_2_5 + 120 p_2_6 + 120 p_2_9 + 100000 z_2_10 + 100000 z_2_2 + 100000 z_2_5 + 100000 z_2_6 + 100000 z_2_9 <= 502324.97953564278
 c4952: 120 p_2_1 + 120 p_2_10 + 120 p_2_2 + 120 p_2_5 + 120 p_2_6 + 120 p_2_9 + 100000 z_2_1 + 100000 z_2_10 + 100000 z_2_2 + 100000 z_2_5 + 100000 z_2_6 + 100000 z_2_9 <= 602304.79913607123
 c4953: 120 p_2_10 + 120 p_2_3 + 120 p_2_5 + 120 p_2_6 + 120 p_2_9 + 100000 z_2_10 + 100000 z_2_3 + 100000 z_2_5 + 100000 z_2_6 + 100000 z_2_9 <= 502260.83726455021
 c4954: 120 p_2_1 + 120 p_2_10 + 120 p_2_3 + 120 p_2_5 + 120 p_2_6 + 120 p_2_9 + 100000 z_2_1 + 100000 z_2_10 + 100000 z_2_3 + 100000 z_2_5 + 100000 z_2_6 + 100000 z_2_9 <= 602240.65686497872
 c4955: 120 p_2_10 + 120 p_2_2 + 120 p_2_3 + 120 p_2_5 + 120 p_2_6 + 120 p_2_9 + 100000 z_2_10 + 100000 z_2_2 + 100000 z_2_3 + 100000 z_2_5 + 100000 z_2_6 + 100000 z_2_9 <= 602259.186856922
 c4956: 120 p_2_1 + 120 p_2_10 + 120 p_2_2 + 120 p_2_3 + 120 p_2_5 + 120 p_2_6 + 120 p_2_9 + 100000 z_2_1 + 100000 z_2_10 + 100000 z_2_2 + 100000 z_2_3 + 100000 z_2_5 + 100000 z_2_6 + 100000 z_2_9 <= 702239.00645735045
 c4957: 120 p_2_10 + 120 p_2_4 + 120 p_2_5 + 120 p_2_6 + 120 p_2_9 + 100000 z_2_10 + 100000 z_2_4 + 100000 z_2_5 + 100000 z_2_6 + 100000 z_2_9 <= 502287.48990326916
 c4958: 120 p_2_1 + 120 p_2_10 + 120 p_2_4 + 120 p_2_5 + 120 p_2_6 + 120 p_2_9 + 100000 z_2_1 + 100000 z_2_10 + 100000 z_2_4 + 100000 z_2_5 + 100000 z_2_6 + 100000 z_2_9 <= 602276.31305284018
 c4959: 120 p_2_10 + 120 p_2_2 + 120 p_2_4 + 120 p_2_5 + 120 p_2_6 + 120 p_2_9 + 100000 z_2_10 + 100000 z_2_2 + 100000 z_2_4 + 100000 z_2_5 + 100000 z_2_6 + 100000 z_2_9 <= 602285.83949564083
 c4960: 120 p_2_1 + 120 p_2_10 + 120 p_2_2 + 120 p_2_4 + 120 p_2_5 + 120 p_2_6 + 120 p_2_9 + 100000 z_2_1 + 100000 z_2_10 + 100000 z_2_2 + 100000 z_2_4 + 100000 z_2_5 + 100000 z_2_6 + 100000 z_2_9 <= 702274.66264521191
 c4961: 120 p_2_10 + 120 p_2_3 + 120 p_2_4 + 120 p_2_5 + 120 p_2_6 + 120 p_2_9 + 100000 z_2_10 + 100000 z_2_3 + 100000 z_2_4 + 100000 z_2_5 + 100000 z_2_6 + 100000 z_2_9 <= 602222.7148923924
 c4962: 120 p_2_1 + 120 p_2_10 + 120 p_2_3 + 120 p_2_4 + 120 p_2_5 + 120 p_2_6 + 120 p_2_9 + 100000 z_2_1 + 100000 z_2_10 + 100000 z_2_3 + 100000 z_2_4 + 100000 z_2_5 + 100000 z_2_6 + 100000 z_2_9 <= 702210.5203741194
 c4963: 120 p_2_10 + 120 p_2_2 + 120 p_2_3 + 120 p_2_4 + 120 p_2_5 + 120 p_2_6 + 120 p_2_9 + 100000 z_2_10 + 100000 z_2_2 + 100000 z_2_3 + 100000 z_2_4 + 100000 z_2_5 + 100000 z_2_6 + 100000 z_2_9 <= 702221.06448476412
 c4964: 120 p_2_1 + 120 p_2_10 + 120 p_2_2 + 120 p_2_3 + 120 p_2_4 + 120 p_2_5 + 120 p_2_6 + 120 p_2_9 + 100000 z_2_1 + 100000 z_2_10 + 100000 z_2_2 + 100000 z_2_3 + 100000 z_2_4 + 100000 z_2_5 + 100000 z_2_6 + 100000 z_2_9 <= 802208.86996649113
 c4965: 120 p_2_10 + 120 p_2_7 + 120 p_2_9 + 100000 z_2_10 + 100000 z_2_7 + 100000 z_2_9 <= 302473.05716380547
 c4966: 120 p_2_1 + 120 p_2_10 + 120 p_2_7 + 120 p_2_9 + 100000 z_2_1 + 100000 z_2_10 + 100000 z_2_7 + 100000 z_2_9 <= 402467.57794533827
 c4967: 120 p_2_10 + 120 p_2_2 + 120 p_2_7 + 120 p_2_9 + 100000 z_2_10 + 100000 z_2_2 + 100000 z_2_7 + 100000 z_2_9 <= 402250.51290480304
 c4968: 120 p_2_1 + 120 p_2_10 + 120 p_2_2 + 120 p_2_7 + 120 p_2_9 + 100000 z_2_1 + 100000 z_2_10 + 100000 z_2_2 + 100000 z_2_7 + 100000 z_2_9 <= 502249.77271032956
 c4969: 120 p_2_10 + 120 p_2_3 + 120 p_2_7 + 120 p_2_9 + 100000 z_2_10 + 100000 z_2_3 + 100000 z_2_7 + 100000 z_2_9 <= 402388.30796206335
 c4970: 120 p_2_1 + 120 p_2_10 + 120 p_2_3 + 120 p_2_7 + 120 p_2_9 + 100000 z_2_1 + 100000 z_2_10 + 100000 z_2_3 + 100000 z_2_7 + 100000 z_2_9 <= 502376.36751189688
 c4971: 120 p_2_10 + 120 p_2_2 + 120 p_2_3 + 120 p_2_7 + 120 p_2_9 + 100000 z_2_10 + 100000 z_2_2 + 100000 z_2_3 + 100000 z_2_7 + 100000 z_2_9 <= 502161.00904523424
 c4972: 120 p_2_1 + 120 p_2_10 + 120 p_2_2 + 120 p_2_3 + 120 p_2_7 + 120 p_2_9 + 100000 z_2_1 + 100000 z_2_10 + 100000 z_2_2 + 100000 z_2_3 + 100000 z_2_7 + 100000 z_2_9 <= 602149.06859506783
 c4973: 120 p_2_10 + 120 p_2_4 + 120 p_2_7 + 120 p_2_9 + 100000 z_2_10 + 100000 z_2_4 + 100000 z_2_7 + 100000 z_2_9 <= 402473.05453628668
 c4974: 120 p_2_1 + 120 p_2_10 + 120 p_2_4 + 120 p_2_7 + 120 p_2_9 + 100000 z_2_1 + 100000 z_2_10 + 100000 z_2_4 + 100000 z_2_7 + 100000 z_2_9 <= 502467.57531781943
 c4975: 120 p_2_10 + 120 p_2_2 + 120 p_2_4 + 120 p_2_7 + 120 p_2_9 + 100000 z_2_10 + 100000 z_2_2 + 100000 z_2_4 + 100000 z_2_7 + 100000 z_2_9 <= 502250.51027728425
 c4976: 120 p_2_1 + 120 p_2_10 + 120 p_2_2 + 120 p_2_4 + 120 p_2_7 + 120 p_2_9 + 100000 z_2_1 + 100000 z_2_10 + 100000 z_2_2 + 100000 z_2_4 + 100000 z_2_7 + 100000 z_2_9 <= 602249.77008281078
 c4977: 120 p_2_10 + 120 p_2_3 + 120 p_2_4 + 120 p_2_7 + 120 p_2_9 + 100000 z_2_10 + 100000 z_2_3 + 100000 z_2_4 + 100000 z_2_7 + 100000 z_2_9 <= 502388.30533454451
 c4978: 120 p_2_1 + 120 p_2_10 + 120 p_2_3 + 120 p_2_4 + 120 p_2_7 + 120 p_2_9 + 100000 z_2_1 + 100000 z_2_10 + 100000 z_2_3 + 100000 z_2_4 + 100000 z_2_7 + 100000 z_2_9 <= 602376.36488437816
 c4979: 120 p_2_10 + 120 p_2_2 + 120 p_2_3 + 120 p_2_4 + 120 p_2_7 + 120 p_2_9 + 100000 z_2_10 + 100000 z_2_2 + 100000 z_2_3 + 100000 z_2_4 + 100000 z_2_7 + 100000 z_2_9 <= 602161.00641771546
 c4980: 120 p_2_1 + 120 p_2_10 + 120 p_2_2 + 120 p_2_3 + 120 p_2_4 + 120 p_2_7 + 120 p_2_9 + 100000 z_2_1 + 100000 z_2_10 + 100000 z_2_2 + 100000 z_2_3 + 100000 z_2_4 + 100000 z_2_7 + 100000 z_2_9 <= 702149.06596754899
 c4981: 120 p_2_10 + 120 p_2_5 + 120 p_2_7 + 120 p_2_9 + 100000 z_2_10 + 100000 z_2_5 + 100000 z_2_7 + 100000 z_2_9 <= 402188.64489731006
 c4982: 120 p_2_1 + 120 p_2_10 + 120 p_2_5 + 120 p_2_7 + 120 p_2_9 + 100000 z_2_1 + 100000 z_2_10 + 100000 z_2_5 + 100000 z_2_7 + 100000 z_2_9 <= 502187.39914855303
 c4983: 120 p_2_10 + 120 p_2_2 + 120 p_2_5 + 120 p_2_7 + 120 p_2_9 + 100000 z_2_10 + 100000 z_2_2 + 100000 z_2_5 + 100000 z_2_7 + 100000 z_2_9 <= 502185.87803920463
 c4984: 120 p_2_1 + 120 p_2_10 + 120 p_2_2 + 120 p_2_5 + 120 p_2_7 + 120 p_2_9 + 100000 z_2_1 + 100000 z_2_10 + 100000 z_2_2 + 100000 z_2_5 + 100000 z_2_7 + 100000 z_2_9 <= 602185.13784473122
 c4985: 120 p_2_10 + 120 p_2_3 + 120 p_2_5 + 120 p_2_7 + 120 p_2_9 + 100000 z_2_10 + 100000 z_2_3 + 100000 z_2_5 + 100000 z_2_7 + 100000 z_2_9 <= 502098.02458726411
 c4986: 120 p_2_1 + 120 p_2_10 + 120 p_2_3 + 120 p_2_5 + 120 p_2_7 + 120 p_2_9 + 100000 z_2_1 + 100000 z_2_10 + 100000 z_2_3 + 100000 z_2_5 + 100000 z_2_7 + 100000 z_2_9 <= 602086.0841370977
 c4987: 120 p_2_10 + 120 p_2_2 + 120 p_2_3 + 120 p_2_5 + 120 p_2_7 + 120 p_2_9 + 100000 z_2_10 + 100000 z_2_2 + 100000 z_2_3 + 100000 z_2_5 + 100000 z_2_7 + 100000 z_2_9 <= 602096.37417963578
 c4988: 120 p_2_1 + 120 p_2_10 + 120 p_2_2 + 120 p_2_3 + 120 p_2_5 + 120 p_2_7 + 120 p_2_9 + 100000 z_2_1 + 100000 z_2_10 + 100000 z_2_2 + 100000 z_2_3 + 100000 z_2_5 + 100000 z_2_7 + 100000 z_2_9 <= 702084.43372946943
 c4989: 120 p_2_10 + 120 p_2_4 + 120 p_2_5 + 120 p_2_7 + 120 p_2_9 + 100000 z_2_10 + 100000 z_2_4 + 100000 z_2_5 + 100000 z_2_7 + 100000 z_2_9 <= 502188.64226979128
 c4990: 120 p_2_1 + 120 p_2_10 + 120 p_2_4 + 120 p_2_5 + 120 p_2_7 + 120 p_2_9 + 100000 z_2_1 + 100000 z_2_10 + 100000 z_2_4 + 100000 z_2_5 + 100000 z_2_7 + 100000 z_2_9 <= 602187.39652103418
 c4991: 120 p_2_10 + 120 p_2_2 + 120 p_2_4 + 120 p_2_5 + 120 p_2_7 + 120 p_2_9 + 100000 z_2_10 + 100000 z_2_2 + 100000 z_2_4 + 100000 z_2_5 + 100000 z_2_7 + 100000 z_2_9 <= 602185.87541168591
 c4992: 120 p_2_1 + 120 p_2_10 + 120 p_2_2 + 120 p_2_4 + 120 p_2_5 + 120 p_2_7 + 120 p_2_9 + 100000 z_2_1 + 100000 z_2_10 + 100000 z_2_2 + 100000 z_2_4 + 100000 z_2_5 + 100000 z_2_7 + 100000 z_2_9 <= 702185.13521721237
 c4993: 120 p_2_10 + 120 p_2_3 + 120 p_2_4 + 120 p_2_5 + 120 p_2_7 + 120 p_2_9 + 100000 z_2_10 + 100000 z_2_3 + 100000 z_2_4 + 100000 z_2_5 + 100000 z_2_7 + 100000 z_2_9 <= 602098.02195974533
 c4994: 120 p_2_1 + 120 p_2_10 + 120 p_2_3 + 120 p_2_4 + 120 p_2_5 + 120 p_2_7 + 120 p_2_9 + 100000 z_2_1 + 100000 z_2_10 + 100000 z_2_3 + 100000 z_2_4 + 100000 z_2_5 + 100000 z_2_7 + 100000 z_2_9 <= 702086.08150957886
 c4995: 120 p_2_10 + 120 p_2_2 + 120 p_2_3 + 120 p_2_4 + 120 p_2_5 + 120 p_2_7 + 120 p_2_9 + 100000 z_2_10 + 100000 z_2_2 + 100000 z_2_3 + 100000 z_2_4 + 100000 z_2_5 + 100000 z_2_7 + 100000 z_2_9 <= 702096.37155211705
 c4996: 120 p_2_1 + 120 p_2_10 + 120 p_2_2 + 120 p_2_3 + 120 p_2_4 + 120 p_2_5 + 120 p_2_7 + 120 p_2_9 + 100000 z_2_1 + 100000 z_2_10 + 100000 z_2_2 + 100000 z_2_3 + 100000 z_2_4 + 100000 z_2_5 + 100000 z_2_7 + 100000 z_2_9 <= 802084.43110195058
 c4997: 120 p_2_10 + 120 p_2_6 + 120 p_2_7 + 120 p_2_9 + 100000 z_2_10 + 100000 z_2_6 + 100000 z_2_7 + 100000 z_2_9 <= 402446.94065639941
 c4998: 120 p_2_1 + 120 p_2_10 + 120 p_2_6 + 120 p_2_7 + 120 p_2_9 + 100000 z_2_1 + 100000 z_2_10 + 100000 z_2_6 + 100000 z_2_7 + 100000 z_2_9 <= 502439.02729118802
 c4999: 120 p_2_10 + 120 p_2_2 + 120 p_2_6 + 120 p_2_7 + 120 p_2_9 + 100000 z_2_10 + 100000 z_2_2 + 100000 z_2_6 + 100000 z_2_7 + 100000 z_2_9 <= 502219.6417395703
 c5000: 120 p_2_1 + 120 p_2_10 + 120 p_2_2 + 120 p_2_6 + 120 p_2_7 + 120 p_2_9 + 100000 z_2_1 + 100000 z_2_10 + 100000 z_2_2 + 100000 z_2_6 + 100000 z_2_7 + 100000 z_2_9 <= 602211.72837435897
 c5001: 120 p_2_10 + 120 p_2_3 + 120 p_2_6 + 120 p_2_7 + 120 p_2_9 + 100000 z_2_10 + 100000 z_2_3 + 100000 z_2_6 + 100000 z_2_7 + 100000 z_2_9 <= 502385.1750626337
 c5002: 120 p_2_1 + 120 p_2_10 + 120 p_2_3 + 120 p_2_6 + 120 p_2_7 + 120 p_2_9 + 100000 z_2_1 + 100000 z_2_10 + 100000 z_2_3 + 100000 z_2_6 + 100000 z_2_7 + 100000 z_2_9 <= 602373.23461246723
 c5003: 120 p_2_10 + 120 p_2_2 + 120 p_2_3 + 120 p_2_6 + 120 p_2_7 + 120 p_2_9 + 100000 z_2_10 + 100000 z_2_2 + 100000 z_2_3 + 100000 z_2_6 + 100000 z_2_7 + 100000 z_2_9 <= 602157.87614580453
 c5004: 120 p_2_1 + 120 p_2_10 + 120 p_2_2 + 120 p_2_3 + 120 p_2_6 + 120 p_2_7 + 120 p_2_9 + 100000 z_2_1 + 100000 z_2_10 + 100000 z_2_2 + 100000 z_2_3 + 100000 z_2_6 + 100000 z_2_7 + 100000 z_2_9 <= 702145.93569563818
 c5005: 120 p_2_10 + 120 p_2_4 + 120 p_2_6 + 120 p_2_7 + 120 p_2_9 + 100000 z_2_10 + 100000 z_2_4 + 100000 z_2_6 + 100000 z_2_7 + 100000 z_2_9 <= 502446.93802888063
 c5006: 120 p_2_1 + 120 p_2_10 + 120 p_2_4 + 120 p_2_6 + 120 p_2_7 + 120 p_2_9 + 100000 z_2_1 + 100000 z_2_10 + 100000 z_2_4 + 100000 z_2_6 + 100000 z_2_7 + 100000 z_2_9 <= 602439.02466366929
 c5007: 120 p_2_10 + 120 p_2_2 + 120 p_2_4 + 120 p_2_6 + 120 p_2_7 + 120 p_2_9 + 100000 z_2_10 + 100000 z_2_2 + 100000 z_2_4 + 100000 z_2_6 + 100000 z_2_7 + 100000 z_2_9 <= 602219.63911205146
 c5008: 120 p_2_1 + 120 p_2_10 + 120 p_2_2 + 120 p_2_4 + 120 p_2_6 + 120 p_2_7 + 120 p_2_9 + 100000 z_2_1 + 100000 z_2_10 + 100000 z_2_2 + 100000 z_2_4 + 100000 z_2_6 + 100000 z_2_7 + 100000 z_2_9 <= 702211.72574684012
 c5009: 120 p_2_10 + 120 p_2_3 + 120 p_2_4 + 120 p_2_6 + 120 p_2_7 + 120 p_2_9 + 100000 z_2_10 + 100000 z_2_3 + 100000 z_2_4 + 100000 z_2_6 + 100000 z_2_7 + 100000 z_2_9 <= 602385.17243511486
 c5010: 120 p_2_1 + 120 p_2_10 + 120 p_2_3 + 120 p_2_4 + 120 p_2_6 + 120 p_2_7 + 120 p_2_9 + 100000 z_2_1 + 100000 z_2_10 + 100000 z_2_3 + 100000 z_2_4 + 100000 z_2_6 + 100000 z_2_7 + 100000 z_2_9 <= 702373.23198494851
 c5011: 120 p_2_10 + 120 p_2_2 + 120 p_2_3 + 120 p_2_4 + 120 p_2_6 + 120 p_2_7 + 120 p_2_9 + 100000 z_2_10 + 100000 z_2_2 + 100000 z_2_3 + 100000 z_2_4 + 100000 z_2_6 + 100000 z_2_7 + 100000 z_2_9 <= 702157.87351828581
 c5012: 120 p_2_1 + 120 p_2_10 + 120 p_2_2 + 120 p_2_3 + 120 p_2_4 + 120 p_2_6 + 120 p_2_7 + 120 p_2_9 + 100000 z_2_1 + 100000 z_2_10 + 100000 z_2_2 + 100000 z_2_3 + 100000 z_2_4 + 100000 z_2_6 + 100000 z_2_7 + 100000 z_2_9 <= 802145.93306811934
 c5013: 120 p_2_10 + 120 p_2_5 + 120 p_2_6 + 120 p_2_7 + 120 p_2_9 + 100000 z_2_10 + 100000 z_2_5 + 100000 z_2_6 + 100000 z_2_7 + 100000 z_2_9 <= 502156.65728160017
 c5014: 120 p_2_1 + 120 p_2_10 + 120 p_2_5 + 120 p_2_6 + 120 p_2_7 + 120 p_2_9 + 100000 z_2_1 + 100000 z_2_10 + 100000 z_2_5 + 100000 z_2_6 + 100000 z_2_7 + 100000 z_2_9 <= 602148.74391638883
 c5015: 120 p_2_10 + 120 p_2_2 + 120 p_2_5 + 120 p_2_6 + 120 p_2_7 + 120 p_2_9 + 100000 z_2_10 + 100000 z_2_2 + 100000 z_2_5 + 100000 z_2_6 + 100000 z_2_7 + 100000 z_2_9 <= 602155.0068739719
 c5016: 120 p_2_1 + 120 p_2_10 + 120 p_2_2 + 120 p_2_5 + 120 p_2_6 + 120 p_2_7 + 120 p_2_9 + 100000 z_2_1 + 100000 z_2_10 + 100000 z_2_2 + 100000 z_2_5 + 100000 z_2_6 + 100000 z_2_7 + 100000 z_2_9 <= 702147.09350876056
 c5017: 120 p_2_10 + 120 p_2_3 + 120 p_2_5 + 120 p_2_6 + 120 p_2_7 + 120 p_2_9 + 100000 z_2_10 + 100000 z_2_3 + 100000 z_2_5 + 100000 z_2_6 + 100000 z_2_7 + 100000 z_2_9 <= 602094.8916878344
 c5018: 120 p_2_1 + 120 p_2_10 + 120 p_2_3 + 120 p_2_5 + 120 p_2_6 + 120 p_2_7 + 120 p_2_9 + 100000 z_2_1 + 100000 z_2_10 + 100000 z_2_3 + 100000 z_2_5 + 100000 z_2_6 + 100000 z_2_7 + 100000 z_2_9 <= 702082.95123766805
 c5019: 120 p_2_10 + 120 p_2_2 + 120 p_2_3 + 120 p_2_5 + 120 p_2_6 + 120 p_2_7 + 120 p_2_9 + 100000 z_2_10 + 100000 z_2_2 + 100000 z_2_3 + 100000 z_2_5 + 100000 z_2_6 + 100000 z_2_7 + 100000 z_2_9 <= 702093.24128020613
 c5020: 120 p_2_1 + 120 p_2_10 + 120 p_2_2 + 120 p_2_3 + 120 p_2_5 + 120 p_2_6 + 120 p_2_7 + 120 p_2_9 + 100000 z_2_1 + 100000 z_2_10 + 100000 z_2_2 + 100000 z_2_3 + 100000 z_2_5 + 100000 z_2_6 + 100000 z_2_7 + 100000 z_2_9 <= 802081.30083003978
 c5021: 120 p_2_10 + 120 p_2_4 + 120 p_2_5 + 120 p_2_6 + 120 p_2_7 + 120 p_2_9 + 100000 z_2_10 + 100000 z_2_4 + 100000 z_2_5 + 100000 z_2_6 + 100000 z_2_7 + 100000 z_2_9 <= 602156.65465408133
 c5022: 120 p_2_1 + 120 p_2_10 + 120 p_2_4 + 120 p_2_5 + 120 p_2_6 + 120 p_2_7 + 120 p_2_9 + 100000 z_2_1 + 100000 z_2_10 + 100000 z_2_4 + 100000 z_2_5 + 100000 z_2_6 + 100000 z_2_7 + 100000 z_2_9 <= 702148.74128886999
 c5023: 120 p_2_10 + 120 p_2_2 + 120 p_2_4 + 120 p_2_5 + 120 p_2_6 + 120 p_2_7 + 120 p_2_9 + 100000 z_2_10 + 100000 z_2_2 + 100000 z_2_4 + 100000 z_2_5 + 100000 z_2_6 + 100000 z_2_7 + 100000 z_2_9 <= 702155.00424645306
 c5024: 120 p_2_1 + 120 p_2_10 + 120 p_2_2 + 120 p_2_4 + 120 p_2_5 + 120 p_2_6 + 120 p_2_7 + 120 p_2_9 + 100000 z_2_1 + 100000 z_2_10 + 100000 z_2_2 + 100000 z_2_4 + 100000 z_2_5 + 100000 z_2_6 + 100000 z_2_7 + 100000 z_2_9 <= 802147.09088124172
 c5025: 120 p_2_10 + 120 p_2_3 + 120 p_2_4 + 120 p_2_5 + 120 p_2_6 + 120 p_2_7 + 120 p_2_9 + 100000 z_2_10 + 100000 z_2_3 + 100000 z_2_4 + 100000 z_2_5 + 100000 z_2_6 + 100000 z_2_7 + 100000 z_2_9 <= 702094.88906031568
 c5026: 120 p_2_1 + 120 p_2_10 + 120 p_2_3 + 120 p_2_4 + 120 p_2_5 + 120 p_2_6 + 120 p_2_7 + 120 p_2_9 + 100000 z_2_1 + 100000 z_2_10 + 100000 z_2_3 + 100000 z_2_4 + 100000 z_2_5 + 100000 z_2_6 + 100000 z_2_7 + 100000 z_2_9 <= 802082.94861014921
 c5027: 120 p_2_10 + 120 p_2_2 + 120 p_2_3 + 120 p_2_4 + 120 p_2_5 + 120 p_2_6 + 120 p_2_7 + 120 p_2_9 + 100000 z_2_10 + 100000 z_2_2 + 100000 z_2_3 + 100000 z_2_4 + 100000 z_2_5 + 100000 z_2_6 + 100000 z_2_7 + 100000 z_2_9 <= 802093.2386526874
 c5028: 120 p_2_1 + 120 p_2_10 + 120 p_2_2 + 120 p_2_3 + 120 p_2_4 + 120 p_2_5 + 120 p_2_6 + 120 p_2_7 + 120 p_2_9 + 100000 z_2_1 + 100000 z_2_10 + 100000 z_2_2 + 100000 z_2_3 + 100000 z_2_4 + 100000 z_2_5 + 100000 z_2_6 + 100000 z_2_7 + 100000 z_2_9 <= 902081.29820252093
 c5029: 120 p_2_10 + 120 p_2_8 + 120 p_2_9 + 100000 z_2_10 + 100000 z_2_8 + 100000 z_2_9 <= 302289.68190438038
 c5030: 120 p_2_1 + 120 p_2_10 + 120 p_2_8 + 120 p_2_9 + 100000 z_2_1 + 100000 z_2_10 + 100000 z_2_8 + 100000 z_2_9 <= 402282.40110200981
 c5031: 120 p_2_10 + 120 p_2_2 + 120 p_2_8 + 120 p_2_9 + 100000 z_2_10 + 100000 z_2_2 + 100000 z_2_8 + 100000 z_2_9 <= 402276.70502780267
 c5032: 120 p_2_1 + 120 p_2_10 + 120 p_2_2 + 120 p_2_8 + 120 p_2_9 + 100000 z_2_1 + 100000 z_2_10 + 100000 z_2_2 + 100000 z_2_8 + 100000 z_2_9 <= 502269.4242254321
 c5033: 120 p_2_10 + 120 p_2_3 + 120 p_2_8 + 120 p_2_9 + 100000 z_2_10 + 100000 z_2_3 + 100000 z_2_8 + 100000 z_2_9 <= 402178.57936820516
 c5034: 120 p_2_1 + 120 p_2_10 + 120 p_2_3 + 120 p_2_8 + 120 p_2_9 + 100000 z_2_1 + 100000 z_2_10 + 100000 z_2_3 + 100000 z_2_8 + 100000 z_2_9 <= 502158.39896863361
 c5035: 120 p_2_10 + 120 p_2_2 + 120 p_2_3 + 120 p_2_8 + 120 p_2_9 + 100000 z_2_10 + 100000 z_2_2 + 100000 z_2_3 + 100000 z_2_8 + 100000 z_2_9 <= 502177.0423674098
 c5036: 120 p_2_1 + 120 p_2_10 + 120 p_2_2 + 120 p_2_3 + 120 p_2_8 + 120 p_2_9 + 100000 z_2_1 + 100000 z_2_10 + 100000 z_2_2 + 100000 z_2_3 + 100000 z_2_8 + 100000 z_2_9 <= 602156.86196783825
 c5037: 120 p_2_10 + 120 p_2_4 + 120 p_2_8 + 120 p_2_9 + 100000 z_2_10 + 100000 z_2_4 + 100000 z_2_8 + 100000 z_2_9 <= 402253.05494123098
 c5038: 120 p_2_1 + 120 p_2_10 + 120 p_2_4 + 120 p_2_8 + 120 p_2_9 + 100000 z_2_1 + 100000 z_2_10 + 100000 z_2_4 + 100000 z_2_8 + 100000 z_2_9 <= 502252.26461115049
 c5039: 120 p_2_10 + 120 p_2_2 + 120 p_2_4 + 120 p_2_8 + 120 p_2_9 + 100000 z_2_10 + 100000 z_2_2 + 100000 z_2_4 + 100000 z_2_8 + 100000 z_2_9 <= 502240.07806465327
 c5040: 120 p_2_1 + 120 p_2_10 + 120 p_2_2 + 120 p_2_4 + 120 p_2_8 + 120 p_2_9 + 100000 z_2_1 + 100000 z_2_10 + 100000 z_2_2 + 100000 z_2_4 + 100000 z_2_8 + 100000 z_2_9 <= 602239.28773457278
 c5041: 120 p_2_10 + 120 p_2_3 + 120 p_2_4 + 120 p_2_8 + 120 p_2_9 + 100000 z_2_10 + 100000 z_2_3 + 100000 z_2_4 + 100000 z_2_8 + 100000 z_2_9 <= 502140.45699604729
 c5042: 120 p_2_1 + 120 p_2_10 + 120 p_2_3 + 120 p_2_4 + 120 p_2_8 + 120 p_2_9 + 100000 z_2_1 + 100000 z_2_10 + 100000 z_2_3 + 100000 z_2_4 + 100000 z_2_8 + 100000 z_2_9 <= 602128.26247777429
 c5043: 120 p_2_10 + 120 p_2_2 + 120 p_2_3 + 120 p_2_4 + 120 p_2_8 + 120 p_2_9 + 100000 z_2_10 + 100000 z_2_2 + 100000 z_2_3 + 100000 z_2_4 + 100000 z_2_8 + 100000 z_2_9 <= 602138.91999525193
 c5044: 120 p_2_1 + 120 p_2_10 + 120 p_2_2 + 120 p_2_3 + 120 p_2_4 + 120 p_2_8 + 120 p_2_9 + 100000 z_2_1 + 100000 z_2_10 + 100000 z_2_2 + 100000 z_2_3 + 100000 z_2_4 + 100000 z_2_8 + 100000 z_2_9 <= 702126.72547697893
 c5045: 120 p_2_10 + 120 p_2_5 + 120 p_2_8 + 120 p_2_9 + 100000 z_2_10 + 100000 z_2_5 + 100000 z_2_8 + 100000 z_2_9 <= 402289.67664529034
 c5046: 120 p_2_1 + 120 p_2_10 + 120 p_2_5 + 120 p_2_8 + 120 p_2_9 + 100000 z_2_1 + 100000 z_2_10 + 100000 z_2_5 + 100000 z_2_8 + 100000 z_2_9 <= 502282.39584291977
 c5047: 120 p_2_10 + 120 p_2_2 + 120 p_2_5 + 120 p_2_8 + 120 p_2_9 + 100000 z_2_10 + 100000 z_2_2 + 100000 z_2_5 + 100000 z_2_8 + 100000 z_2_9 <= 502268.24754176114
 c5048: 120 p_2_1 + 120 p_2_10 + 120 p_2_2 + 120 p_2_5 + 120 p_2_8 + 120 p_2_9 + 100000 z_2_1 + 100000 z_2_10 + 100000 z_2_2 + 100000 z_2_5 + 100000 z_2_8 + 100000 z_2_9 <= 602257.56082401006
 c5049: 120 p_2_10 + 120 p_2_3 + 120 p_2_5 + 120 p_2_8 + 120 p_2_9 + 100000 z_2_10 + 100000 z_2_3 + 100000 z_2_5 + 100000 z_2_8 + 100000 z_2_9 <= 502178.57410911511
 c5050: 120 p_2_1 + 120 p_2_10 + 120 p_2_3 + 120 p_2_5 + 120 p_2_8 + 120 p_2_9 + 100000 z_2_1 + 100000 z_2_10 + 100000 z_2_3 + 100000 z_2_5 + 100000 z_2_8 + 100000 z_2_9 <= 602158.39370954363
 c5051: 120 p_2_10 + 120 p_2_2 + 120 p_2_3 + 120 p_2_5 + 120 p_2_8 + 120 p_2_9 + 100000 z_2_10 + 100000 z_2_2 + 100000 z_2_3 + 100000 z_2_5 + 100000 z_2_8 + 100000 z_2_9 <= 602177.03710831981
 c5052: 120 p_2_1 + 120 p_2_10 + 120 p_2_2 + 120 p_2_3 + 120 p_2_5 + 120 p_2_8 + 120 p_2_9 + 100000 z_2_1 + 100000 z_2_10 + 100000 z_2_2 + 100000 z_2_3 + 100000 z_2_5 + 100000 z_2_8 + 100000 z_2_9 <= 702156.85670874827
 c5053: 120 p_2_10 + 120 p_2_4 + 120 p_2_5 + 120 p_2_8 + 120 p_2_9 + 100000 z_2_10 + 100000 z_2_4 + 100000 z_2_5 + 100000 z_2_8 + 100000 z_2_9 <= 502253.04968214093
 c5054: 120 p_2_1 + 120 p_2_10 + 120 p_2_4 + 120 p_2_5 + 120 p_2_8 + 120 p_2_9 + 100000 z_2_1 + 100000 z_2_10 + 100000 z_2_4 + 100000 z_2_5 + 100000 z_2_8 + 100000 z_2_9 <= 602252.2593520605
 c5055: 120 p_2_10 + 120 p_2_2 + 120 p_2_4 + 120 p_2_5 + 120 p_2_8 + 120 p_2_9 + 100000 z_2_10 + 100000 z_2_2 + 100000 z_2_4 + 100000 z_2_5 + 100000 z_2_8 + 100000 z_2_9 <= 602229.80352267041
 c5056: 120 p_2_1 + 120 p_2_10 + 120 p_2_2 + 120 p_2_4 + 120 p_2_5 + 120 p_2_8 + 120 p_2_9 + 100000 z_2_1 + 100000 z_2_10 + 100000 z_2_2 + 100000 z_2_4 + 100000 z_2_5 + 100000 z_2_8 + 100000 z_2_9 <= 702227.42433315073
 c5057: 120 p_2_10 + 120 p_2_3 + 120 p_2_4 + 120 p_2_5 + 120 p_2_8 + 120 p_2_9 + 100000 z_2_10 + 100000 z_2_3 + 100000 z_2_4 + 100000 z_2_5 + 100000 z_2_8 + 100000 z_2_9 <= 602140.4517369573
 c5058: 120 p_2_1 + 120 p_2_10 + 120 p_2_3 + 120 p_2_4 + 120 p_2_5 + 120 p_2_8 + 120 p_2_9 + 100000 z_2_1 + 100000 z_2_10 + 100000 z_2_3 + 100000 z_2_4 + 100000 z_2_5 + 100000 z_2_8 + 100000 z_2_9 <= 702128.2572186843
 c5059: 120 p_2_10 + 120 p_2_2 + 120 p_2_3 + 120 p_2_4 + 120 p_2_5 + 120 p_2_8 + 120 p_2_9 + 100000 z_2_10 + 100000 z_2_2 + 100000 z_2_3 + 100000 z_2_4 + 100000 z_2_5 + 100000 z_2_8 + 100000 z_2_9 <= 702138.91473616194
 c5060: 120 p_2_1 + 120 p_2_10 + 120 p_2_2 + 120 p_2_3 + 120 p_2_4 + 120 p_2_5 + 120 p_2_8 + 120 p_2_9 + 100000 z_2_1 + 100000 z_2_10 + 100000 z_2_2 + 100000 z_2_3 + 100000 z_2_4 + 100000 z_2_5 + 100000 z_2_8 + 100000 z_2_9 <= 802126.72021788894
 c5061: 120 p_2_10 + 120 p_2_6 + 120 p_2_8 + 120 p_2_9 + 100000 z_2_10 + 100000 z_2_6 + 100000 z_2_8 + 100000 z_2_9 <= 402241.23914749629
 c5062: 120 p_2_1 + 120 p_2_10 + 120 p_2_6 + 120 p_2_8 + 120 p_2_9 + 100000 z_2_1 + 100000 z_2_10 + 100000 z_2_6 + 100000 z_2_8 + 100000 z_2_9 <= 502233.33725061012
 c5063: 120 p_2_10 + 120 p_2_2 + 120 p_2_6 + 120 p_2_8 + 120 p_2_9 + 100000 z_2_10 + 100000 z_2_2 + 100000 z_2_6 + 100000 z_2_8 + 100000 z_2_9 <= 502239.70214670093
 c5064: 120 p_2_1 + 120 p_2_10 + 120 p_2_2 + 120 p_2_6 + 120 p_2_8 + 120 p_2_9 + 100000 z_2_1 + 100000 z_2_10 + 100000 z_2_2 + 100000 z_2_6 + 100000 z_2_8 + 100000 z_2_9 <= 602220.3603740324
 c5065: 120 p_2_10 + 120 p_2_3 + 120 p_2_6 + 120 p_2_8 + 120 p_2_9 + 100000 z_2_10 + 100000 z_2_3 + 100000 z_2_6 + 100000 z_2_8 + 100000 z_2_9 <= 502175.44646877551
 c5066: 120 p_2_1 + 120 p_2_10 + 120 p_2_3 + 120 p_2_6 + 120 p_2_8 + 120 p_2_9 + 100000 z_2_1 + 100000 z_2_10 + 100000 z_2_3 + 100000 z_2_6 + 100000 z_2_8 + 100000 z_2_9 <= 602155.26606920396
 c5067: 120 p_2_10 + 120 p_2_2 + 120 p_2_3 + 120 p_2_6 + 120 p_2_8 + 120 p_2_9 + 100000 z_2_10 + 100000 z_2_2 + 100000 z_2_3 + 100000 z_2_6 + 100000 z_2_8 + 100000 z_2_9 <= 602173.90946798015
 c5068: 120 p_2_1 + 120 p_2_10 + 120 p_2_2 + 120 p_2_3 + 120 p_2_6 + 120 p_2_8 + 120 p_2_9 + 100000 z_2_1 + 100000 z_2_10 + 100000 z_2_2 + 100000 z_2_3 + 100000 z_2_6 + 100000 z_2_8 + 100000 z_2_9 <= 702153.7290684086
 c5069: 120 p_2_10 + 120 p_2_4 + 120 p_2_6 + 120 p_2_8 + 120 p_2_9 + 100000 z_2_10 + 100000 z_2_4 + 100000 z_2_6 + 100000 z_2_8 + 100000 z_2_9 <= 502203.99108983128
 c5070: 120 p_2_1 + 120 p_2_10 + 120 p_2_4 + 120 p_2_6 + 120 p_2_8 + 120 p_2_9 + 100000 z_2_1 + 100000 z_2_10 + 100000 z_2_4 + 100000 z_2_6 + 100000 z_2_8 + 100000 z_2_9 <= 602203.20075975079
 c5071: 120 p_2_10 + 120 p_2_2 + 120 p_2_4 + 120 p_2_6 + 120 p_2_8 + 120 p_2_9 + 100000 z_2_10 + 100000 z_2_2 + 100000 z_2_4 + 100000 z_2_6 + 100000 z_2_8 + 100000 z_2_9 <= 602200.5621066991
 c5072: 120 p_2_1 + 120 p_2_10 + 120 p_2_2 + 120 p_2_4 + 120 p_2_6 + 120 p_2_8 + 120 p_2_9 + 100000 z_2_1 + 100000 z_2_10 + 100000 z_2_2 + 100000 z_2_4 + 100000 z_2_6 + 100000 z_2_8 + 100000 z_2_9 <= 702190.22388317308
 c5073: 120 p_2_10 + 120 p_2_3 + 120 p_2_4 + 120 p_2_6 + 120 p_2_8 + 120 p_2_9 + 100000 z_2_10 + 100000 z_2_3 + 100000 z_2_4 + 100000 z_2_6 + 100000 z_2_8 + 100000 z_2_9 <= 602137.32409661764
 c5074: 120 p_2_1 + 120 p_2_10 + 120 p_2_3 + 120 p_2_4 + 120 p_2_6 + 120 p_2_8 + 120 p_2_9 + 100000 z_2_1 + 100000 z_2_10 + 100000 z_2_3 + 100000 z_2_4 + 100000 z_2_6 + 100000 z_2_8 + 100000 z_2_9 <= 702125.12957834464
 c5075: 120 p_2_10 + 120 p_2_2 + 120 p_2_3 + 120 p_2_4 + 120 p_2_6 + 120 p_2_8 + 120 p_2_9 + 100000 z_2_10 + 100000 z_2_2 + 100000 z_2_3 + 100000 z_2_4 + 100000 z_2_6 + 100000 z_2_8 + 100000 z_2_9 <= 702135.78709582239
 c5076: 120 p_2_1 + 120 p_2_10 + 120 p_2_2 + 120 p_2_3 + 120 p_2_4 + 120 p_2_6 + 120 p_2_8 + 120 p_2_9 + 100000 z_2_1 + 100000 z_2_10 + 100000 z_2_2 + 100000 z_2_3 + 100000 z_2_4 + 100000 z_2_6 + 100000 z_2_8 + 100000 z_2_9 <= 802123.59257754928
 c5077: 120 p_2_10 + 120 p_2_5 + 120 p_2_6 + 120 p_2_8 + 120 p_2_9 + 100000 z_2_10 + 100000 z_2_5 + 100000 z_2_6 + 100000 z_2_8 + 100000 z_2_9 <= 502241.23388840625
 c5078: 120 p_2_1 + 120 p_2_10 + 120 p_2_5 + 120 p_2_6 + 120 p_2_8 + 120 p_2_9 + 100000 z_2_1 + 100000 z_2_10 + 100000 z_2_5 + 100000 z_2_6 + 100000 z_2_8 + 100000 z_2_9 <= 602233.33199152013
 c5079: 120 p_2_10 + 120 p_2_2 + 120 p_2_5 + 120 p_2_6 + 120 p_2_8 + 120 p_2_9 + 100000 z_2_10 + 100000 z_2_2 + 100000 z_2_5 + 100000 z_2_6 + 100000 z_2_8 + 100000 z_2_9 <= 602239.69688761095
 c5080: 120 p_2_1 + 120 p_2_10 + 120 p_2_2 + 120 p_2_5 + 120 p_2_6 + 120 p_2_8 + 120 p_2_9 + 100000 z_2_1 + 100000 z_2_10 + 100000 z_2_2 + 100000 z_2_5 + 100000 z_2_6 + 100000 z_2_8 + 100000 z_2_9 <= 702219.5164880394
 c5081: 120 p_2_10 + 120 p_2_3 + 120 p_2_5 + 120 p_2_6 + 120 p_2_8 + 120 p_2_9 + 100000 z_2_10 + 100000 z_2_3 + 100000 z_2_5 + 100000 z_2_6 + 100000 z_2_8 + 100000 z_2_9 <= 602175.44120968552
 c5082: 120 p_2_1 + 120 p_2_10 + 120 p_2_3 + 120 p_2_5 + 120 p_2_6 + 120 p_2_8 + 120 p_2_9 + 100000 z_2_1 + 100000 z_2_10 + 100000 z_2_3 + 100000 z_2_5 + 100000 z_2_6 + 100000 z_2_8 + 100000 z_2_9 <= 702155.26081011398
 c5083: 120 p_2_10 + 120 p_2_2 + 120 p_2_3 + 120 p_2_5 + 120 p_2_6 + 120 p_2_8 + 120 p_2_9 + 100000 z_2_10 + 100000 z_2_2 + 100000 z_2_3 + 100000 z_2_5 + 100000 z_2_6 + 100000 z_2_8 + 100000 z_2_9 <= 702173.90420889016
 c5084: 120 p_2_1 + 120 p_2_10 + 120 p_2_2 + 120 p_2_3 + 120 p_2_5 + 120 p_2_6 + 120 p_2_8 + 120 p_2_9 + 100000 z_2_1 + 100000 z_2_10 + 100000 z_2_2 + 100000 z_2_3 + 100000 z_2_5 + 100000 z_2_6 + 100000 z_2_8 + 100000 z_2_9 <= 802153.72380931862
 c5085: 120 p_2_10 + 120 p_2_4 + 120 p_2_5 + 120 p_2_6 + 120 p_2_8 + 120 p_2_9 + 100000 z_2_10 + 100000 z_2_4 + 100000 z_2_5 + 100000 z_2_6 + 100000 z_2_8 + 100000 z_2_9 <= 602203.98583074124
 c5086: 120 p_2_1 + 120 p_2_10 + 120 p_2_4 + 120 p_2_5 + 120 p_2_6 + 120 p_2_8 + 120 p_2_9 + 100000 z_2_1 + 100000 z_2_10 + 100000 z_2_4 + 100000 z_2_5 + 100000 z_2_6 + 100000 z_2_8 + 100000 z_2_9 <= 702203.1955006608
 c5087: 120 p_2_10 + 120 p_2_2 + 120 p_2_4 + 120 p_2_5 + 120 p_2_6 + 120 p_2_8 + 120 p_2_9 + 100000 z_2_10 + 100000 z_2_2 + 100000 z_2_4 + 100000 z_2_5 + 100000 z_2_6 + 100000 z_2_8 + 100000 z_2_9 <= 702200.55684760911
 c5088: 120 p_2_1 + 120 p_2_10 + 120 p_2_2 + 120 p_2_4 + 120 p_2_5 + 120 p_2_6 + 120 p_2_8 + 120 p_2_9 + 100000 z_2_1 + 100000 z_2_10 + 100000 z_2_2 + 100000 z_2_4 + 100000 z_2_5 + 100000 z_2_6 + 100000 z_2_8 + 100000 z_2_9 <= 802189.37999718008
 c5089: 120 p_2_10 + 120 p_2_3 + 120 p_2_4 + 120 p_2_5 + 120 p_2_6 + 120 p_2_8 + 120 p_2_9 + 100000 z_2_10 + 100000 z_2_3 + 100000 z_2_4 + 100000 z_2_5 + 100000 z_2_6 + 100000 z_2_8 + 100000 z_2_9 <= 702137.31883752765
 c5090: 120 p_2_1 + 120 p_2_10 + 120 p_2_3 + 120 p_2_4 + 120 p_2_5 + 120 p_2_6 + 120 p_2_8 + 120 p_2_9 + 100000 z_2_1 + 100000 z_2_10 + 100000 z_2_3 + 100000 z_2_4 + 100000 z_2_5 + 100000 z_2_6 + 100000 z_2_8 + 100000 z_2_9 <= 802125.12431925465
 c5091: 120 p_2_10 + 120 p_2_2 + 120 p_2_3 + 120 p_2_4 + 120 p_2_5 + 120 p_2_6 + 120 p_2_8 + 120 p_2_9 + 100000 z_2_10 + 100000 z_2_2 + 100000 z_2_3 + 100000 z_2_4 + 100000 z_2_5 + 100000 z_2_6 + 100000 z_2_8 + 100000 z_2_9 <= 802135.78183673229
 c5092: 120 p_2_1 + 120 p_2_10 + 120 p_2_2 + 120 p_2_3 + 120 p_2_4 + 120 p_2_5 + 120 p_2_6 + 120 p_2_8 + 120 p_2_9 + 100000 z_2_1 + 100000 z_2_10 + 100000 z_2_2 + 100000 z_2_3 + 100000 z_2_4 + 100000 z_2_5 + 100000 z_2_6 + 100000 z_2_8 + 100000 z_2_9 <= 902123.58731845929
 c5093: 120 p_2_10 + 120 p_2_7 + 120 p_2_8 + 120 p_2_9 + 100000 z_2_10 + 100000 z_2_7 + 100000 z_2_8 + 100000 z_2_9 <= 402128.21461937891
 c5094: 120 p_2_1 + 120 p_2_10 + 120 p_2_7 + 120 p_2_8 + 120 p_2_9 + 100000 z_2_1 + 100000 z_2_10 + 100000 z_2_7 + 100000 z_2_8 + 100000 z_2_9 <= 502124.69547469908
 c5095: 120 p_2_10 + 120 p_2_2 + 120 p_2_7 + 120 p_2_8 + 120 p_2_9 + 100000 z_2_10 + 100000 z_2_2 + 100000 z_2_7 + 100000 z_2_8 + 100000 z_2_9 <= 502115.23774280126
 c5096: 120 p_2_1 + 120 p_2_10 + 120 p_2_2 + 120 p_2_7 + 120 p_2_8 + 120 p_2_9 + 100000 z_2_1 + 100000 z_2_10 + 100000 z_2_2 + 100000 z_2_7 + 100000 z_2_8 + 100000 z_2_9 <= 602111.71859812143
 c5097: 120 p_2_10 + 120 p_2_3 + 120 p_2_7 + 120 p_2_8 + 120 p_2_9 + 100000 z_2_10 + 100000 z_2_3 + 100000 z_2_7 + 100000 z_2_8 + 100000 z_2_9 <= 502012.63379148935
 c5098: 120 p_2_1 + 120 p_2_10 + 120 p_2_3 + 120 p_2_7 + 120 p_2_8 + 120 p_2_9 + 100000 z_2_1 + 100000 z_2_10 + 100000 z_2_3 + 100000 z_2_7 + 100000 z_2_8 + 100000 z_2_9 <= 602000.69334132294
 c5099: 120 p_2_10 + 120 p_2_2 + 120 p_2_3 + 120 p_2_7 + 120 p_2_8 + 120 p_2_9 + 100000 z_2_10 + 100000 z_2_2 + 100000 z_2_3 + 100000 z_2_7 + 100000 z_2_8 + 100000 z_2_9 <= 602011.09679069405
 c5100: 120 p_2_1 + 120 p_2_10 + 120 p_2_2 + 120 p_2_3 + 120 p_2_7 + 120 p_2_8 + 120 p_2_9 + 100000 z_2_1 + 100000 z_2_10 + 100000 z_2_2 + 100000 z_2_3 + 100000 z_2_7 + 100000 z_2_8 + 100000 z_2_9 <= 701999.15634052758
 c5101: 120 p_2_10 + 120 p_2_4 + 120 p_2_7 + 120 p_2_8 + 120 p_2_9 + 100000 z_2_10 + 100000 z_2_4 + 100000 z_2_7 + 100000 z_2_8 + 100000 z_2_9 <= 502128.21199186012
 c5102: 120 p_2_1 + 120 p_2_10 + 120 p_2_4 + 120 p_2_7 + 120 p_2_8 + 120 p_2_9 + 100000 z_2_1 + 100000 z_2_10 + 100000 z_2_4 + 100000 z_2_7 + 100000 z_2_8 + 100000 z_2_9 <= 602124.6928471803
 c5103: 120 p_2_10 + 120 p_2_2 + 120 p_2_4 + 120 p_2_7 + 120 p_2_8 + 120 p_2_9 + 100000 z_2_10 + 100000 z_2_2 + 100000 z_2_4 + 100000 z_2_7 + 100000 z_2_8 + 100000 z_2_9 <= 602115.23511528247
 c5104: 120 p_2_1 + 120 p_2_10 + 120 p_2_2 + 120 p_2_4 + 120 p_2_7 + 120 p_2_8 + 120 p_2_9 + 100000 z_2_1 + 100000 z_2_10 + 100000 z_2_2 + 100000 z_2_4 + 100000 z_2_7 + 100000 z_2_8 + 100000 z_2_9 <= 702111.71597060259
 c5105: 120 p_2_10 + 120 p_2_3 + 120 p_2_4 + 120 p_2_7 + 120 p_2_8 + 120 p_2_9 + 100000 z_2_10 + 100000 z_2_3 + 100000 z_2_4 + 100000 z_2_7 + 100000 z_2_8 + 100000 z_2_9 <= 602012.63116397057
 c5106: 120 p_2_1 + 120 p_2_10 + 120 p_2_3 + 120 p_2_4 + 120 p_2_7 + 120 p_2_8 + 120 p_2_9 + 100000 z_2_1 + 100000 z_2_10 + 100000 z_2_3 + 100000 z_2_4 + 100000 z_2_7 + 100000 z_2_8 + 100000 z_2_9 <= 702000.6907138041
 c5107: 120 p_2_10 + 120 p_2_2 + 120 p_2_3 + 120 p_2_4 + 120 p_2_7 + 120 p_2_8 + 120 p_2_9 + 100000 z_2_10 + 100000 z_2_2 + 100000 z_2_3 + 100000 z_2_4 + 100000 z_2_7 + 100000 z_2_8 + 100000 z_2_9 <= 702011.09416317521
 c5108: 120 p_2_1 + 120 p_2_10 + 120 p_2_2 + 120 p_2_3 + 120 p_2_4 + 120 p_2_7 + 120 p_2_8 + 120 p_2_9 + 100000 z_2_1 + 100000 z_2_10 + 100000 z_2_2 + 100000 z_2_3 + 100000 z_2_4 + 100000 z_2_7 + 100000 z_2_8 + 100000 z_2_9 <= 801999.15371300874
 c5109: 120 p_2_10 + 120 p_2_5 + 120 p_2_7 + 120 p_2_8 + 120 p_2_9 + 100000 z_2_10 + 100000 z_2_5 + 100000 z_2_7 + 100000 z_2_8 + 100000 z_2_9 <= 502128.20936028892
 c5110: 120 p_2_1 + 120 p_2_10 + 120 p_2_5 + 120 p_2_7 + 120 p_2_8 + 120 p_2_9 + 100000 z_2_1 + 100000 z_2_10 + 100000 z_2_5 + 100000 z_2_7 + 100000 z_2_8 + 100000 z_2_9 <= 602124.69021560904
 c5111: 120 p_2_10 + 120 p_2_2 + 120 p_2_5 + 120 p_2_7 + 120 p_2_8 + 120 p_2_9 + 100000 z_2_10 + 100000 z_2_2 + 100000 z_2_5 + 100000 z_2_7 + 100000 z_2_8 + 100000 z_2_9 <= 602102.66433156235
 c5112: 120 p_2_1 + 120 p_2_10 + 120 p_2_2 + 120 p_2_5 + 120 p_2_7 + 120 p_2_8 + 120 p_2_9 + 100000 z_2_1 + 100000 z_2_10 + 100000 z_2_2 + 100000 z_2_5 + 100000 z_2_7 + 100000 z_2_8 + 100000 z_2_9 <= 702099.85519669938
 c5113: 120 p_2_10 + 120 p_2_3 + 120 p_2_5 + 120 p_2_7 + 120 p_2_8 + 120 p_2_9 + 100000 z_2_10 + 100000 z_2_3 + 100000 z_2_5 + 100000 z_2_7 + 100000 z_2_8 + 100000 z_2_9 <= 602012.62853239931
 c5114: 120 p_2_1 + 120 p_2_10 + 120 p_2_3 + 120 p_2_5 + 120 p_2_7 + 120 p_2_8 + 120 p_2_9 + 100000 z_2_1 + 100000 z_2_10 + 100000 z_2_3 + 100000 z_2_5 + 100000 z_2_7 + 100000 z_2_8 + 100000 z_2_9 <= 702000.68808223295
 c5115: 120 p_2_10 + 120 p_2_2 + 120 p_2_3 + 120 p_2_5 + 120 p_2_7 + 120 p_2_8 + 120 p_2_9 + 100000 z_2_10 + 100000 z_2_2 + 100000 z_2_3 + 100000 z_2_5 + 100000 z_2_7 + 100000 z_2_8 + 100000 z_2_9 <= 702011.09153160395
 c5116: 120 p_2_1 + 120 p_2_10 + 120 p_2_2 + 120 p_2_3 + 120 p_2_5 + 120 p_2_7 + 120 p_2_8 + 120 p_2_9 + 100000 z_2_1 + 100000 z_2_10 + 100000 z_2_2 + 100000 z_2_3 + 100000 z_2_5 + 100000 z_2_7 + 100000 z_2_8 + 100000 z_2_9 <= 801999.15108143759
 c5117: 120 p_2_10 + 120 p_2_4 + 120 p_2_5 + 120 p_2_7 + 120 p_2_8 + 120 p_2_9 + 100000 z_2_10 + 100000 z_2_4 + 100000 z_2_5 + 100000 z_2_7 + 100000 z_2_8 + 100000 z_2_9 <= 602128.20673277008
 c5118: 120 p_2_1 + 120 p_2_10 + 120 p_2_4 + 120 p_2_5 + 120 p_2_7 + 120 p_2_8 + 120 p_2_9 + 100000 z_2_1 + 100000 z_2_10 + 100000 z_2_4 + 100000 z_2_5 + 100000 z_2_7 + 100000 z_2_8 + 100000 z_2_9 <= 702124.68758809031
 c5119: 120 p_2_10 + 120 p_2_2 + 120 p_2_4 + 120 p_2_5 + 120 p_2_7 + 120 p_2_8 + 120 p_2_9 + 100000 z_2_10 + 100000 z_2_2 + 100000 z_2_4 + 100000 z_2_5 + 100000 z_2_7 + 100000 z_2_8 + 100000 z_2_9 <= 702102.66170404351
 c5120: 120 p_2_1 + 120 p_2_10 + 120 p_2_2 + 120 p_2_4 + 120 p_2_5 + 120 p_2_7 + 120 p_2_8 + 120 p_2_9 + 100000 z_2_1 + 100000 z_2_10 + 100000 z_2_2 + 100000 z_2_4 + 100000 z_2_5 + 100000 z_2_7 + 100000 z_2_8 + 100000 z_2_9 <= 802099.85256918054
 c5121: 120 p_2_10 + 120 p_2_3 + 120 p_2_4 + 120 p_2_5 + 120 p_2_7 + 120 p_2_8 + 120 p_2_9 + 100000 z_2_10 + 100000 z_2_3 + 100000 z_2_4 + 100000 z_2_5 + 100000 z_2_7 + 100000 z_2_8 + 100000 z_2_9 <= 702012.62590488046
 c5122: 120 p_2_1 + 120 p_2_10 + 120 p_2_3 + 120 p_2_4 + 120 p_2_5 + 120 p_2_7 + 120 p_2_8 + 120 p_2_9 + 100000 z_2_1 + 100000 z_2_10 + 100000 z_2_3 + 100000 z_2_4 + 100000 z_2_5 + 100000 z_2_7 + 100000 z_2_8 + 100000 z_2_9 <= 802000.68545471411
 c5123: 120 p_2_10 + 120 p_2_2 + 120 p_2_3 + 120 p_2_4 + 120 p_2_5 + 120 p_2_7 + 120 p_2_8 + 120 p_2_9 + 100000 z_2_10 + 100000 z_2_2 + 100000 z_2_3 + 100000 z_2_4 + 100000 z_2_5 + 100000 z_2_7 + 100000 z_2_8 + 100000 z_2_9 <= 802011.08890408522
 c5124: 120 p_2_1 + 120 p_2_10 + 120 p_2_2 + 120 p_2_3 + 120 p_2_4 + 120 p_2_5 + 120 p_2_7 + 120 p_2_8 + 120 p_2_9 + 100000 z_2_1 + 100000 z_2_10 + 100000 z_2_2 + 100000 z_2_3 + 100000 z_2_4 + 100000 z_2_5 + 100000 z_2_7 + 100000 z_2_8 + 100000 z_2_9 <= 901999.14845391875
 c5125: 120 p_2_10 + 120 p_2_6 + 120 p_2_7 + 120 p_2_8 + 120 p_2_9 + 100000 z_2_10 + 100000 z_2_6 + 100000 z_2_7 + 100000 z_2_8 + 100000 z_2_9 <= 502079.15076797927
 c5126: 120 p_2_1 + 120 p_2_10 + 120 p_2_6 + 120 p_2_7 + 120 p_2_8 + 120 p_2_9 + 100000 z_2_1 + 100000 z_2_10 + 100000 z_2_6 + 100000 z_2_7 + 100000 z_2_8 + 100000 z_2_9 <= 602075.63162329944
 c5127: 120 p_2_10 + 120 p_2_2 + 120 p_2_6 + 120 p_2_7 + 120 p_2_8 + 120 p_2_9 + 100000 z_2_10 + 100000 z_2_2 + 100000 z_2_6 + 100000 z_2_7 + 100000 z_2_8 + 100000 z_2_9 <= 602069.72948503005
 c5128: 120 p_2_1 + 120 p_2_10 + 120 p_2_2 + 120 p_2_6 + 120 p_2_7 + 120 p_2_8 + 120 p_2_9 + 100000 z_2_1 + 100000 z_2_10 + 100000 z_2_2 + 100000 z_2_6 + 100000 z_2_7 + 100000 z_2_8 + 100000 z_2_9 <= 702062.65474672173
 c5129: 120 p_2_10 + 120 p_2_3 + 120 p_2_6 + 120 p_2_7 + 120 p_2_8 + 120 p_2_9 + 100000 z_2_10 + 100000 z_2_3 + 100000 z_2_6 + 100000 z_2_7 + 100000 z_2_8 + 100000 z_2_9 <= 602009.50089205964
 c5130: 120 p_2_1 + 120 p_2_10 + 120 p_2_3 + 120 p_2_6 + 120 p_2_7 + 120 p_2_8 + 120 p_2_9 + 100000 z_2_1 + 100000 z_2_10 + 100000 z_2_3 + 100000 z_2_6 + 100000 z_2_7 + 100000 z_2_8 + 100000 z_2_9 <= 701997.56044189329
 c5131: 120 p_2_10 + 120 p_2_2 + 120 p_2_3 + 120 p_2_6 + 120 p_2_7 + 120 p_2_8 + 120 p_2_9 + 100000 z_2_10 + 100000 z_2_2 + 100000 z_2_3 + 100000 z_2_6 + 100000 z_2_7 + 100000 z_2_8 + 100000 z_2_9 <= 702007.9638912644
 c5132: 120 p_2_1 + 120 p_2_10 + 120 p_2_2 + 120 p_2_3 + 120 p_2_6 + 120 p_2_7 + 120 p_2_8 + 120 p_2_9 + 100000 z_2_1 + 100000 z_2_10 + 100000 z_2_2 + 100000 z_2_3 + 100000 z_2_6 + 100000 z_2_7 + 100000 z_2_8 + 100000 z_2_9 <= 801996.02344109793
 c5133: 120 p_2_10 + 120 p_2_4 + 120 p_2_6 + 120 p_2_7 + 120 p_2_8 + 120 p_2_9 + 100000 z_2_10 + 100000 z_2_4 + 100000 z_2_6 + 100000 z_2_7 + 100000 z_2_8 + 100000 z_2_9 <= 602079.14814046049
 c5134: 120 p_2_1 + 120 p_2_10 + 120 p_2_4 + 120 p_2_6 + 120 p_2_7 + 120 p_2_8 + 120 p_2_9 + 100000 z_2_1 + 100000 z_2_10 + 100000 z_2_4 + 100000 z_2_6 + 100000 z_2_7 + 100000 z_2_8 + 100000 z_2_9 <= 702075.6289957806
 c5135: 120 p_2_10 + 120 p_2_2 + 120 p_2_4 + 120 p_2_6 + 120 p_2_7 + 120 p_2_8 + 120 p_2_9 + 100000 z_2_10 + 100000 z_2_2 + 100000 z_2_4 + 100000 z_2_6 + 100000 z_2_7 + 100000 z_2_8 + 100000 z_2_9 <= 702069.72685751133
 c5136: 120 p_2_1 + 120 p_2_10 + 120 p_2_2 + 120 p_2_4 + 120 p_2_6 + 120 p_2_7 + 120 p_2_8 + 120 p_2_9 + 100000 z_2_1 + 100000 z_2_10 + 100000 z_2_2 + 100000 z_2_4 + 100000 z_2_6 + 100000 z_2_7 + 100000 z_2_8 + 100000 z_2_9 <= 802062.65211920289
 c5137: 120 p_2_10 + 120 p_2_3 + 120 p_2_4 + 120 p_2_6 + 120 p_2_7 + 120 p_2_8 + 120 p_2_9 + 100000 z_2_10 + 100000 z_2_3 + 100000 z_2_4 + 100000 z_2_6 + 100000 z_2_7 + 100000 z_2_8 + 100000 z_2_9 <= 702009.49826454092
 c5138: 120 p_2_1 + 120 p_2_10 + 120 p_2_3 + 120 p_2_4 + 120 p_2_6 + 120 p_2_7 + 120 p_2_8 + 120 p_2_9 + 100000 z_2_1 + 100000 z_2_10 + 100000 z_2_3 + 100000 z_2_4 + 100000 z_2_6 + 100000 z_2_7 + 100000 z_2_8 + 100000 z_2_9 <= 801997.55781437445
 c5139: 120 p_2_10 + 120 p_2_2 + 120 p_2_3 + 120 p_2_4 + 120 p_2_6 + 120 p_2_7 + 120 p_2_8 + 120 p_2_9 + 100000 z_2_10 + 100000 z_2_2 + 100000 z_2_3 + 100000 z_2_4 + 100000 z_2_6 + 100000 z_2_7 + 100000 z_2_8 + 100000 z_2_9 <= 802007.96126374556
 c5140: 120 p_2_1 + 120 p_2_10 + 120 p_2_2 + 120 p_2_3 + 120 p_2_4 + 120 p_2_6 + 120 p_2_7 + 120 p_2_8 + 120 p_2_9 + 100000 z_2_1 + 100000 z_2_10 + 100000 z_2_2 + 100000 z_2_3 + 100000 z_2_4 + 100000 z_2_6 + 100000 z_2_7 + 100000 z_2_8 + 100000 z_2_9 <= 901996.02081357909
 c5141: 120 p_2_10 + 120 p_2_5 + 120 p_2_6 + 120 p_2_7 + 120 p_2_8 + 120 p_2_9 + 100000 z_2_10 + 100000 z_2_5 + 100000 z_2_6 + 100000 z_2_7 + 100000 z_2_8 + 100000 z_2_9 <= 602079.14550888923
 c5142: 120 p_2_1 + 120 p_2_10 + 120 p_2_5 + 120 p_2_6 + 120 p_2_7 + 120 p_2_8 + 120 p_2_9 + 100000 z_2_1 + 100000 z_2_10 + 100000 z_2_5 + 100000 z_2_6 + 100000 z_2_7 + 100000 z_2_8 + 100000 z_2_9 <= 702075.62636420934
 c5143: 120 p_2_10 + 120 p_2_2 + 120 p_2_5 + 120 p_2_6 + 120 p_2_7 + 120 p_2_8 + 120 p_2_9 + 100000 z_2_10 + 100000 z_2_2 + 100000 z_2_5 + 100000 z_2_6 + 100000 z_2_7 + 100000 z_2_8 + 100000 z_2_9 <= 702069.72422594007
 c5144: 120 p_2_1 + 120 p_2_10 + 120 p_2_2 + 120 p_2_5 + 120 p_2_6 + 120 p_2_7 + 120 p_2_8 + 120 p_2_9 + 100000 z_2_1 + 100000 z_2_10 + 100000 z_2_2 + 100000 z_2_5 + 100000 z_2_6 + 100000 z_2_7 + 100000 z_2_8 + 100000 z_2_9 <= 802061.81086072873
 c5145: 120 p_2_10 + 120 p_2_3 + 120 p_2_5 + 120 p_2_6 + 120 p_2_7 + 120 p_2_8 + 120 p_2_9 + 100000 z_2_10 + 100000 z_2_3 + 100000 z_2_5 + 100000 z_2_6 + 100000 z_2_7 + 100000 z_2_8 + 100000 z_2_9 <= 702009.49563296966
 c5146: 120 p_2_1 + 120 p_2_10 + 120 p_2_3 + 120 p_2_5 + 120 p_2_6 + 120 p_2_7 + 120 p_2_8 + 120 p_2_9 + 100000 z_2_1 + 100000 z_2_10 + 100000 z_2_3 + 100000 z_2_5 + 100000 z_2_6 + 100000 z_2_7 + 100000 z_2_8 + 100000 z_2_9 <= 801997.55518280331
 c5147: 120 p_2_10 + 120 p_2_2 + 120 p_2_3 + 120 p_2_5 + 120 p_2_6 + 120 p_2_7 + 120 p_2_8 + 120 p_2_9 + 100000 z_2_10 + 100000 z_2_2 + 100000 z_2_3 + 100000 z_2_5 + 100000 z_2_6 + 100000 z_2_7 + 100000 z_2_8 + 100000 z_2_9 <= 802007.9586321743
 c5148: 120 p_2_1 + 120 p_2_10 + 120 p_2_2 + 120 p_2_3 + 120 p_2_5 + 120 p_2_6 + 120 p_2_7 + 120 p_2_8 + 120 p_2_9 + 100000 z_2_1 + 100000 z_2_10 + 100000 z_2_2 + 100000 z_2_3 + 100000 z_2_5 + 100000 z_2_6 + 100000 z_2_7 + 100000 z_2_8 + 100000 z_2_9 <= 901996.01818200795
 c5149: 120 p_2_10 + 120 p_2_4 + 120 p_2_5 + 120 p_2_6 + 120 p_2_7 + 120 p_2_8 + 120 p_2_9 + 100000 z_2_10 + 100000 z_2_4 + 100000 z_2_5 + 100000 z_2_6 + 100000 z_2_7 + 100000 z_2_8 + 100000 z_2_9 <= 702079.14288137038
 c5150: 120 p_2_1 + 120 p_2_10 + 120 p_2_4 + 120 p_2_5 + 120 p_2_6 + 120 p_2_7 + 120 p_2_8 + 120 p_2_9 + 100000 z_2_1 + 100000 z_2_10 + 100000 z_2_4 + 100000 z_2_5 + 100000 z_2_6 + 100000 z_2_7 + 100000 z_2_8 + 100000 z_2_9 <= 802075.62373669061
 c5151: 120 p_2_10 + 120 p_2_2 + 120 p_2_4 + 120 p_2_5 + 120 p_2_6 + 120 p_2_7 + 120 p_2_8 + 120 p_2_9 + 100000 z_2_10 + 100000 z_2_2 + 100000 z_2_4 + 100000 z_2_5 + 100000 z_2_6 + 100000 z_2_7 + 100000 z_2_8 + 100000 z_2_9 <= 802069.72159842122
 c5152: 120 p_2_1 + 120 p_2_10 + 120 p_2_2 + 120 p_2_4 + 120 p_2_5 + 120 p_2_6 + 120 p_2_7 + 120 p_2_8 + 120 p_2_9 + 100000 z_2_1 + 100000 z_2_10 + 100000 z_2_2 + 100000 z_2_4 + 100000 z_2_5 + 100000 z_2_6 + 100000 z_2_7 + 100000 z_2_8 + 100000 z_2_9 <= 902061.80823320989
 c5153: 120 p_2_10 + 120 p_2_3 + 120 p_2_4 + 120 p_2_5 + 120 p_2_6 + 120 p_2_7 + 120 p_2_8 + 120 p_2_9 + 100000 z_2_10 + 100000 z_2_3 + 100000 z_2_4 + 100000 z_2_5 + 100000 z_2_6 + 100000 z_2_7 + 100000 z_2_8 + 100000 z_2_9 <= 802009.49300545081
 c5154: 120 p_2_1 + 120 p_2_10 + 120 p_2_3 + 120 p_2_4 + 120 p_2_5 + 120 p_2_6 + 120 p_2_7 + 120 p_2_8 + 120 p_2_9 + 100000 z_2_1 + 100000 z_2_10 + 100000 z_2_3 + 100000 z_2_4 + 100000 z_2_5 + 100000 z_2_6 + 100000 z_2_7 + 100000 z_2_8 + 100000 z_2_9 <= 901997.55255528446
 c5155: 120 p_2_10 + 120 p_2_2 + 120 p_2_3 + 120 p_2_4 + 120 p_2_5 + 120 p_2_6 + 120 p_2_7 + 120 p_2_8 + 120 p_2_9 + 100000 z_2_10 + 100000 z_2_2 + 100000 z_2_3 + 100000 z_2_4 + 100000 z_2_5 + 100000 z_2_6 + 100000 z_2_7 + 100000 z_2_8 + 100000 z_2_9 <= 902007.95600465557
 c5156: 120 p_2_1 + 120 p_2_10 + 120 p_2_2 + 120 p_2_3 + 120 p_2_4 + 120 p_2_5 + 120 p_2_6 + 120 p_2_7 + 120 p_2_8 + 120 p_2_9 + 100000 z_2_1 + 100000 z_2_10 + 100000 z_2_2 + 100000 z_2_3 + 100000 z_2_4 + 100000 z_2_5 + 100000 z_2_6 + 100000 z_2_7 + 100000 z_2_8 + 100000 z_2_9 <= 1001996.0155544891
 c5157: 120 p_0_1 + 120 p_0_2 + 5049.7394323728558 z_0_1 + 5049.7394323728558 z_0_2 <= 12969.739432372855
 c5158: 120 p_0_1 + 120 p_0_3 + 8184.8610079988075 z_0_1 + 8184.8610079988075 z_0_3 <= 18984.861007998807
 c5159: 120 p_0_1 + 120 p_0_4 + 4974.3443256084729 z_0_1 + 4974.3443256084729 z_0_4 <= 13014.344325608472
 c5160: 120 p_0_1 + 120 p_0_5 + 8016.0076152477486 z_0_1 + 8016.0076152477486 z_0_5 <= 18816.007615247749
 c5161: 120 p_0_1 + 120 p_0_6 + 5134.946680375816 z_0_1 + 5134.946680375816 z_0_6 <= 12934.946680375815
 c5162: 120 p_0_1 + 120 p_0_7 + 5581.5907790524725 z_0_1 + 5581.5907790524725 z_0_7 <= 14101.590779052472
 c5163: 120 p_0_1 + 120 p_0_8 + 4586.2565437856847 z_0_1 + 4586.2565437856847 z_0_8 <= 11906.256543785685
 c5164: 120 p_0_1 + 120 p_0_9 + 5028.9822599543386 z_0_1 + 5028.9822599543386 z_0_9 <= 12708.982259954339
 c5165: 120 p_0_1 + 120 p_0_10 + 4344.3887298496556 z_0_1 + 4344.3887298496556 z_0_10 <= 11784.388729849656
 c5166: 120 p_0_2 + 120 p_0_3 + 8768.4678072107145 z_0_2 + 8768.4678072107145 z_0_3 <= 20288.467807210716
 c5167: 120 p_0_2 + 120 p_0_4 + 5954.3857065878892 z_0_2 + 5954.3857065878892 z_0_4 <= 14714.385706587889
 c5168: 120 p_0_2 + 120 p_0_5 + 8322.5167613150879 z_0_2 + 8322.5167613150879 z_0_5 <= 19842.516761315088
 c5169: 120 p_0_2 + 120 p_0_6 + 5684.1835591176132 z_0_2 + 5684.1835591176132 z_0_6 <= 14204.183559117613
 c5170: 120 p_0_2 + 120 p_0_7 + 6563.2711550781187 z_0_2 + 6563.2711550781187 z_0_7 <= 15803.271155078119
 c5171: 120 p_0_2 + 120 p_0_8 + 4795.3394049409117 z_0_2 + 4795.3394049409117 z_0_8 <= 12715.339404940911
 c5172: 120 p_0_2 + 120 p_0_9 + 5539.6996366292879 z_0_2 + 5539.6996366292879 z_0_9 <= 13939.699636629288
 c5173: 120 p_0_10 + 120 p_0_2 + 5316.4015104861373 z_0_10 + 5316.4015104861373 z_0_2 <= 13476.401510486137
 c5174: 120 p_0_3 + 120 p_0_4 + 9062.2837842369336 z_0_3 + 9062.2837842369336 z_0_4 <= 20702.283784236934
 c5175: 120 p_0_3 + 120 p_0_5 + 11718.20282725319 z_0_3 + 11718.20282725319 z_0_5 <= 26118.20282725319
 c5176: 120 p_0_3 + 120 p_0_6 + 8406.5159586846403 z_0_3 + 8406.5159586846403 z_0_6 <= 19806.515958684642
 c5177: 120 p_0_3 + 120 p_0_7 + 9669.7843057875198 z_0_3 + 9669.7843057875198 z_0_7 <= 21789.784305787518
 c5178: 120 p_0_3 + 120 p_0_8 + 8203.1513762016766 z_0_3 + 8203.1513762016766 z_0_8 <= 19003.151376201677
 c5179: 120 p_0_3 + 120 p_0_9 + 8328.7389298818052 z_0_3 + 8328.7389298818052 z_0_9 <= 19608.738929881805
 c5180: 120 p_0_10 + 120 p_0_3 + 8424.3423071796187 z_0_10 + 8424.3423071796187 z_0_3 <= 19464.342307179621
 c5181: 120 p_0_4 + 120 p_0_5 + 8921.1031321710543 z_0_4 + 8921.1031321710543 z_0_5 <= 20561.103132171054
 c5182: 120 p_0_4 + 120 p_0_6 + 6016.6899562042981 z_0_4 + 6016.6899562042981 z_0_6 <= 14656.689956204298
 c5183: 120 p_0_4 + 120 p_0_7 + 6419.2662431207691 z_0_4 + 6419.2662431207691 z_0_7 <= 15779.266243120768
 c5184: 120 p_0_4 + 120 p_0_8 + 5372.491677439958 z_0_4 + 5372.491677439958 z_0_8 <= 13412.491677439957
 c5185: 120 p_0_4 + 120 p_0_9 + 5914.1152624134784 z_0_4 + 5914.1152624134784 z_0_9 <= 14434.115262413477
 c5186: 120 p_0_10 + 120 p_0_4 + 5204.5842734724902 z_0_10 + 5204.5842734724902 z_0_4 <= 13484.58427347249
 c5187: 120 p_0_5 + 120 p_0_6 + 8631.7068378276836 z_0_5 + 8631.7068378276836 z_0_6 <= 20031.706837827682
 c5188: 120 p_0_5 + 120 p_0_7 + 9529.0337836694562 z_0_5 + 9529.0337836694562 z_0_7 <= 21649.033783669456
 c5189: 120 p_0_5 + 120 p_0_8 + 7686.262408551589 z_0_5 + 7686.262408551589 z_0_8 <= 18486.262408551589
 c5190: 120 p_0_5 + 120 p_0_9 + 8482.6840945994263 z_0_5 + 8482.6840945994263 z_0_9 <= 19762.684094599426
 c5191: 120 p_0_10 + 120 p_0_5 + 8283.4262539679185 z_0_10 + 8283.4262539679185 z_0_5 <= 19323.426253967918
 c5192: 120 p_0_6 + 120 p_0_7 + 6627.199894865882 z_0_6 + 6627.199894865882 z_0_7 <= 15747.199894865882
 c5193: 120 p_0_6 + 120 p_0_8 + 5116.920635750932 z_0_6 + 5116.920635750932 z_0_8 <= 12916.920635750932
 c5194: 120 p_0_6 + 120 p_0_9 + 5241.4645711998564 z_0_6 + 5241.4645711998564 z_0_9 <= 13521.464571199856
 c5195: 120 p_0_10 + 120 p_0_6 + 5377.7308113029303 z_0_10 + 5377.7308113029303 z_0_6 <= 13417.73081130293
 c5196: 120 p_0_7 + 120 p_0_8 + 5977.0093162846078 z_0_7 + 5977.0093162846078 z_0_8 <= 14497.009316284608
 c5197: 120 p_0_7 + 120 p_0_9 + 6526.4392580866406 z_0_7 + 6526.4392580866406 z_0_9 <= 15526.439258086641
 c5198: 120 p_0_10 + 120 p_0_7 + 5819.4445107024676 z_0_10 + 5819.4445107024676 z_0_7 <= 14579.444510702468
 c5199: 120 p_0_8 + 120 p_0_9 + 4968.0748903741696 z_0_8 + 4968.0748903741696 z_0_9 <= 12648.07489037417
 c5200: 120 p_0_10 + 120 p_0_8 + 4736.0456093910534 z_0_10 + 4736.0456093910534 z_0_8 <= 12176.045609391054
 c5201: 120 p_0_10 + 120 p_0_9 + 5274.5360277795389 z_0_10 + 5274.5360277795389 z_0_9 <= 13194.536027779539
 c5202: 120 p_0_1 + 120 p_0_2 + 120 p_0_3 + 9165.9940393689794 z_0_1 + 9165.9940393689794 z_0_2 + 9165.9940393689794 z_0_3 <= 29851.988078737959
 c5203: 120 p_0_1 + 120 p_0_2 + 120 p_0_4 + 5956.764896107612 z_0_1 + 5956.764896107612 z_0_2 + 5956.764896107612 z_0_4 <= 20673.529792215224
 c5204: 120 p_0_1 + 120 p_0_2 + 120 p_0_5 + 8737.6580228760031 z_0_1 + 8737.6580228760031 z_0_2 + 8737.6580228760031 z_0_5 <= 28995.316045752006
 c5205: 120 p_0_1 + 120 p_0_2 + 120 p_0_6 + 6099.9357168721217 z_0_1 + 6099.9357168721217 z_0_2 + 6099.9357168721217 z_0_6 <= 20719.871433744243
 c5206: 120 p_0_1 + 120 p_0_2 + 120 p_0_7 + 6564.0113495516125 z_0_1 + 6564.0113495516125 z_0_2 + 6564.0113495516125 z_0_7 <= 22368.022699103225
 c5207: 120 p_0_1 + 120 p_0_2 + 120 p_0_8 + 5187.7935445810117 z_0_1 + 5187.7935445810117 z_0_2 + 5187.7935445810117 z_0_8 <= 18295.587089162025
 c5208: 120 p_0_1 + 120 p_0_2 + 120 p_0_9 + 5955.4517943837964 z_0_1 + 5955.4517943837964 z_0_2 + 5955.4517943837964 z_0_9 <= 20310.903588767593
 c5209: 120 p_0_1 + 120 p_0_10 + 120 p_0_2 + 5326.8093003487957 z_0_1 + 5326.8093003487957 z_0_10 + 5326.8093003487957 z_0_2 <= 18813.618600697591
 c5210: 120 p_0_1 + 120 p_0_3 + 120 p_0_4 + 9072.2247314734213 z_0_1 + 9072.2247314734213 z_0_3 + 9072.2247314734213 z_0_4 <= 29784.449462946846
 c5211: 120 p_0_1 + 120 p_0_3 + 120 p_0_5 + 12115.729059411457 z_0_1 + 12115.729059411457 z_0_3 + 12115.729059411457 z_0_5 <= 38631.458118822913
 c5212: 120 p_0_1 + 120 p_0_3 + 120 p_0_6 + 8804.0421908429053 z_0_1 + 8804.0421908429053 z_0_3 + 8804.0421908429053 z_0_6 <= 29008.084381685811
 c5213: 120 p_0_1 + 120 p_0_3 + 120 p_0_7 + 9672.4341522454142 z_0_1 + 9672.4341522454142 z_0_3 + 9672.4341522454142 z_0_7 <= 31464.868304490828
 c5214: 120 p_0_1 + 120 p_0_3 + 120 p_0_8 + 8583.7986899107764 z_0_1 + 8583.7986899107764 z_0_3 + 8583.7986899107764 z_0_8 <= 27967.597379821549
 c5215: 120 p_0_1 + 120 p_0_3 + 120 p_0_9 + 8726.2651620400702 z_0_1 + 8726.2651620400702 z_0_3 + 8726.2651620400702 z_0_9 <= 28732.530324080137
 c5216: 120 p_0_1 + 120 p_0_10 + 120 p_0_3 + 8444.522706751126 z_0_1 + 8444.522706751126 z_0_10 + 8444.522706751126 z_0_3 <= 27929.045413502252
 c5217: 120 p_0_1 + 120 p_0_4 + 120 p_0_5 + 8923.0330789825057 z_0_1 + 8923.0330789825057 z_0_4 + 8923.0330789825057 z_0_5 <= 29486.066157965011
 c5218: 120 p_0_1 + 120 p_0_4 + 120 p_0_6 + 6026.6309034407868 z_0_1 + 6026.6309034407868 z_0_4 + 6026.6309034407868 z_0_6 <= 20693.261806881575
 c5219: 120 p_0_1 + 120 p_0_4 + 120 p_0_7 + 6421.9160895786636 z_0_1 + 6421.9160895786636 z_0_4 + 6421.9160895786636 z_0_7 <= 22203.832179157329
 c5220: 120 p_0_1 + 120 p_0_4 + 120 p_0_8 + 5373.2820075204418 z_0_1 + 5373.2820075204418 z_0_4 + 5373.2820075204418 z_0_8 <= 18786.564015040884
 c5221: 120 p_0_1 + 120 p_0_4 + 120 p_0_9 + 5924.0562096499661 z_0_1 + 5924.0562096499661 z_0_4 + 5924.0562096499661 z_0_9 <= 20368.11241929993
 c5222: 120 p_0_1 + 120 p_0_10 + 120 p_0_4 + 5214.5252207089788 z_0_1 + 5214.5252207089788 z_0_10 + 5214.5252207089788 z_0_4 <= 18709.050441417956
 c5223: 120 p_0_1 + 120 p_0_5 + 120 p_0_6 + 9046.8480993886005 z_0_1 + 9046.8480993886005 z_0_5 + 9046.8480993886005 z_0_6 <= 29493.696198777201
 c5224: 120 p_0_1 + 120 p_0_5 + 120 p_0_7 + 9530.2795324265062 z_0_1 + 9530.2795324265062 z_0_5 + 9530.2795324265062 z_0_7 <= 31180.559064853012
 c5225: 120 p_0_1 + 120 p_0_5 + 120 p_0_8 + 8078.7165481916891 z_0_1 + 8078.7165481916891 z_0_5 + 8078.7165481916891 z_0_8 <= 26957.433096383378
 c5226: 120 p_0_1 + 120 p_0_5 + 120 p_0_9 + 8897.8253561603415 z_0_1 + 8897.8253561603415 z_0_5 + 8897.8253561603415 z_0_9 <= 29075.650712320683
 c5227: 120 p_0_1 + 120 p_0_10 + 120 p_0_5 + 8293.0774832236893 z_0_1 + 8293.0774832236893 z_0_10 + 8293.0774832236893 z_0_5 <= 27626.154966447379
 c5228: 120 p_0_1 + 120 p_0_6 + 120 p_0_7 + 6629.8497413237765 z_0_1 + 6629.8497413237765 z_0_6 + 6629.8497413237765 z_0_7 <= 22379.699482647549
 c5229: 120 p_0_1 + 120 p_0_6 + 120 p_0_8 + 5509.374775391032 z_0_1 + 5509.374775391032 z_0_6 + 5509.374775391032 z_0_8 <= 18818.749550782064
 c5230: 120 p_0_1 + 120 p_0_6 + 120 p_0_9 + 5660.3025510026291 z_0_1 + 5660.3025510026291 z_0_6 + 5660.3025510026291 z_0_9 <= 19600.605102005262
 c5231: 120 p_0_1 + 120 p_0_10 + 120 p_0_6 + 5397.9112108744375 z_0_1 + 5397.9112108744375 z_0_10 + 5397.9112108744375 z_0_6 <= 18835.822421748875
 c5232: 120 p_0_1 + 120 p_0_7 + 120 p_0_8 + 5979.6591627425023 z_0_1 + 5979.6591627425023 z_0_7 + 5979.6591627425023 z_0_8 <= 20479.318325485008
 c5233: 120 p_0_1 + 120 p_0_7 + 120 p_0_9 + 6529.0891045445351 z_0_1 + 6529.0891045445351 z_0_7 + 6529.0891045445351 z_0_9 <= 22058.17820908907
 c5234: 120 p_0_1 + 120 p_0_10 + 120 p_0_7 + 5822.094357160363 z_0_1 + 5822.094357160363 z_0_10 + 5822.094357160363 z_0_7 <= 20404.188714320724
 c5235: 120 p_0_1 + 120 p_0_8 + 120 p_0_9 + 5360.5290300142697 z_0_1 + 5360.5290300142697 z_0_8 + 5360.5290300142697 z_0_9 <= 18401.058060028539
 c5236: 120 p_0_1 + 120 p_0_10 + 120 p_0_8 + 4743.3264117616254 z_0_1 + 4743.3264117616254 z_0_10 + 4743.3264117616254 z_0_8 <= 16926.652823523251
 c5237: 120 p_0_1 + 120 p_0_10 + 120 p_0_9 + 5294.7164273510452 z_0_1 + 5294.7164273510452 z_0_10 + 5294.7164273510452 z_0_9 <= 18509.432854702089
 c5238: 120 p_0_2 + 120 p_0_3 + 120 p_0_4 + 10043.416815607106 z_0_2 + 10043.416815607106 z_0_3 + 10043.416815607106 z_0_4 <= 32446.833631214213
 c5239: 120 p_0_2 + 120 p_0_3 + 120 p_0_5 + 12439.853234881444 z_0_2 + 12439.853234881444 z_0_3 + 12439.853234881444 z_0_5 <= 39999.706469762881
 c5240: 120 p_0_2 + 120 p_0_3 + 120 p_0_6 + 9374.5908172292093 z_0_2 + 9374.5908172292093 z_0_3 + 9374.5908172292093 z_0_6 <= 30869.181634458415
 c5241: 120 p_0_2 + 120 p_0_3 + 120 p_0_7 + 10650.917337157693 z_0_2 + 10650.917337157693 z_0_3 + 10650.917337157693 z_0_7 <= 34141.834674315389
 c5242: 120 p_0_2 + 120 p_0_3 + 120 p_0_8 + 8924.6883769970045 z_0_2 + 8924.6883769970045 z_0_3 + 8924.6883769970045 z_0_8 <= 29369.376753994009
 c5243: 120 p_0_2 + 120 p_0_3 + 120 p_0_9 + 9276.0378467109113 z_0_2 + 9276.0378467109113 z_0_3 + 9276.0378467109113 z_0_9 <= 30552.075693421823
 c5244: 120 p_0_10 + 120 p_0_2 + 120 p_0_3 + 9405.4753385497897 z_0_10 + 9405.4753385497897 z_0_2 + 9405.4753385497897 z_0_3 <= 30570.950677099579
 c5245: 120 p_0_2 + 120 p_0_4 + 120 p_0_5 + 9642.7535397993088 z_0_2 + 9642.7535397993088 z_0_4 + 9642.7535397993088 z_0_5 <= 31645.507079598618
 c5246: 120 p_0_2 + 120 p_0_4 + 120 p_0_6 + 6984.7648147488671 z_0_2 + 6984.7648147488671 z_0_4 + 6984.7648147488671 z_0_6 <= 23329.529629497734
 c5247: 120 p_0_2 + 120 p_0_4 + 120 p_0_7 + 7403.5964656043097 z_0_2 + 7403.5964656043097 z_0_4 + 7403.5964656043097 z_0_7 <= 24887.192931208618
 c5248: 120 p_0_2 + 120 p_0_4 + 120 p_0_8 + 6094.028678235285 z_0_2 + 6094.028678235285 z_0_4 + 6094.028678235285 z_0_8 <= 20948.05735647057
 c5249: 120 p_0_2 + 120 p_0_4 + 120 p_0_9 + 6860.0980685988288 z_0_2 + 6860.0980685988288 z_0_4 + 6860.0980685988288 z_0_9 <= 22960.196137197658
 c5250: 120 p_0_10 + 120 p_0_2 + 120 p_0_4 + 6194.5666016883952 z_0_10 + 6194.5666016883952 z_0_2 + 6194.5666016883952 z_0_4 <= 21389.13320337679
 c5251: 120 p_0_2 + 120 p_0_5 + 120 p_0_6 + 9353.3572454559398 z_0_2 + 9353.3572454559398 z_0_5 + 9353.3572454559398 z_0_6 <= 30826.71449091188
 c5252: 120 p_0_2 + 120 p_0_5 + 120 p_0_7 + 10250.684191297711 z_0_2 + 10250.684191297711 z_0_5 + 10250.684191297711 z_0_7 <= 33341.368382595421
 c5253: 120 p_0_2 + 120 p_0_5 + 120 p_0_8 + 8407.7994093469151 z_0_2 + 8407.7994093469151 z_0_5 + 8407.7994093469151 z_0_8 <= 28335.598818693827
 c5254: 120 p_0_2 + 120 p_0_5 + 120 p_0_9 + 9204.3345022276808 z_0_2 + 9204.3345022276808 z_0_5 + 9204.3345022276808 z_0_9 <= 30408.669004455362
 c5255: 120 p_0_10 + 120 p_0_2 + 120 p_0_5 + 9004.930997182877 z_0_10 + 9004.930997182877 z_0_2 + 9004.930997182877 z_0_5 <= 29769.861994365754
 c5256: 120 p_0_2 + 120 p_0_6 + 120 p_0_7 + 7595.274753410451 z_0_2 + 7595.274753410451 z_0_6 + 7595.274753410451 z_0_7 <= 25030.549506820906
 c5257: 120 p_0_2 + 120 p_0_6 + 120 p_0_8 + 5838.4576365462581 z_0_2 + 5838.4576365462581 z_0_6 + 5838.4576365462581 z_0_8 <= 20196.91527309252
 c5258: 120 p_0_2 + 120 p_0_6 + 120 p_0_9 + 6188.7634880289625 z_0_2 + 6188.7634880289625 z_0_6 + 6188.7634880289625 z_0_9 <= 21377.526976057925
 c5259: 120 p_0_10 + 120 p_0_2 + 120 p_0_6 + 6345.8056698475002 z_0_10 + 6345.8056698475002 z_0_2 + 6345.8056698475002 z_0_6 <= 21451.611339694999
 c5260: 120 p_0_2 + 120 p_0_7 + 120 p_0_8 + 6698.5463170799339 z_0_2 + 6698.5463170799339 z_0_7 + 6698.5463170799339 z_0_8 <= 22637.092634159868
 c5261: 120 p_0_2 + 120 p_0_7 + 120 p_0_9 + 7468.9835170890592 z_0_2 + 7468.9835170890592 z_0_7 + 7468.9835170890592 z_0_9 <= 24657.96703417812
 c5262: 120 p_0_10 + 120 p_0_2 + 120 p_0_7 + 6803.7747331860091 z_0_10 + 6803.7747331860091 z_0_2 + 6803.7747331860091 z_0_7 <= 23087.54946637202
 c5263: 120 p_0_2 + 120 p_0_8 + 120 p_0_9 + 5689.6118911694957 z_0_2 + 5689.6118911694957 z_0_8 + 5689.6118911694957 z_0_9 <= 19779.223782338991
 c5264: 120 p_0_10 + 120 p_0_2 + 120 p_0_8 + 5457.5826101863804 z_0_10 + 5457.5826101863804 z_0_2 + 5457.5826101863804 z_0_8 <= 19075.165220372761
 c5265: 120 p_0_10 + 120 p_0_2 + 120 p_0_9 + 6221.834944608644 z_0_10 + 6221.834944608644 z_0_2 + 6221.834944608644 z_0_9 <= 21083.66988921729
 c5266: 120 p_0_3 + 120 p_0_4 + 120 p_0_5 + 12993.151835649582 z_0_3 + 12993.151835649582 z_0_4 + 12993.151835649582 z_0_5 <= 41226.303671299167
 c5267: 120 p_0_3 + 120 p_0_4 + 120 p_0_6 + 9681.4649670810322 z_0_3 + 9681.4649670810322 z_0_4 + 9681.4649670810322 z_0_6 <= 31602.929934162064
 c5268: 120 p_0_3 + 120 p_0_4 + 120 p_0_7 + 10510.109616313712 z_0_3 + 10510.109616313712 z_0_4 + 10510.109616313712 z_0_7 <= 33980.219232627423
 c5269: 120 p_0_3 + 120 p_0_4 + 120 p_0_8 + 9470.3720833049083 z_0_3 + 9470.3720833049083 z_0_4 + 9470.3720833049083 z_0_8 <= 30580.744166609817
 c5270: 120 p_0_3 + 120 p_0_4 + 120 p_0_9 + 9603.6879382781954 z_0_3 + 9603.6879382781954 z_0_4 + 9603.6879382781954 z_0_9 <= 31327.375876556391
 c5271: 120 p_0_10 + 120 p_0_3 + 120 p_0_4 + 9302.4646793374395 z_0_10 + 9302.4646793374395 z_0_3 + 9302.4646793374395 z_0_4 <= 30484.929358674875
 c5272: 120 p_0_3 + 120 p_0_5 + 120 p_0_6 + 12322.11409593928 z_0_3 + 12322.11409593928 z_0_5 + 12322.11409593928 z_0_6 <= 39644.228191878559
 c5273: 120 p_0_3 + 120 p_0_5 + 120 p_0_7 + 13600.652357200168 z_0_3 + 13600.652357200168 z_0_5 + 13600.652357200168 z_0_7 <= 42921.304714400336
 c5274: 120 p_0_3 + 120 p_0_5 + 120 p_0_8 + 11803.598882117945 z_0_3 + 11803.598882117945 z_0_5 + 11803.598882117945 z_0_8 <= 38007.197764235883
 c5275: 120 p_0_3 + 120 p_0_5 + 120 p_0_9 + 12219.02230468105 z_0_3 + 12219.02230468105 z_0_5 + 12219.02230468105 z_0_9 <= 39318.044609362099
 c5276: 120 p_0_10 + 120 p_0_3 + 120 p_0_5 + 12355.210358592267 z_0_10 + 12355.210358592267 z_0_3 + 12355.210358592267 z_0_5 <= 39350.420717184534
 c5277: 120 p_0_3 + 120 p_0_6 + 120 p_0_7 + 10288.965488631618 z_0_3 + 10288.965488631618 z_0_6 + 10288.965488631618 z_0_7 <= 33297.930977263233
 c5278: 120 p_0_3 + 120 p_0_6 + 120 p_0_8 + 8807.3278938625281 z_0_3 + 8807.3278938625281 z_0_6 + 8807.3278938625281 z_0_8 <= 29014.655787725053
 c5279: 120 p_0_3 + 120 p_0_6 + 120 p_0_9 + 8931.8718293114525 z_0_3 + 8931.8718293114525 z_0_6 + 8931.8718293114525 z_0_9 <= 29743.743658622905
 c5280: 120 p_0_10 + 120 p_0_3 + 120 p_0_6 + 9043.5234900237156 z_0_10 + 9043.5234900237156 z_0_3 + 9043.5234900237156 z_0_6 <= 29727.046980047431
 c5281: 120 p_0_3 + 120 p_0_7 + 120 p_0_8 + 10067.85268947755 z_0_3 + 10067.85268947755 z_0_7 + 10067.85268947755 z_0_8 <= 32255.705378955099
 c5282: 120 p_0_3 + 120 p_0_7 + 120 p_0_9 + 10211.188459828783 z_0_3 + 10211.188459828783 z_0_7 + 10211.188459828783 z_0_9 <= 33022.376919657567
 c5283: 120 p_0_10 + 120 p_0_3 + 120 p_0_7 + 9910.2878838954093 z_0_10 + 9910.2878838954093 z_0_3 + 9910.2878838954093 z_0_7 <= 32180.575767790819
 c5284: 120 p_0_3 + 120 p_0_8 + 120 p_0_9 + 8704.4131004557912 z_0_3 + 8704.4131004557912 z_0_8 + 8704.4131004557912 z_0_9 <= 28688.826200911579
 c5285: 120 p_0_10 + 120 p_0_3 + 120 p_0_8 + 8836.1795862925228 z_0_10 + 8836.1795862925228 z_0_3 + 8836.1795862925228 z_0_8 <= 28712.359172585049
 c5286: 120 p_0_10 + 120 p_0_3 + 120 p_0_9 + 8965.7464612208823 z_0_10 + 8965.7464612208823 z_0_3 + 8965.7464612208823 z_0_9 <= 29451.492922441765
 c5287: 120 p_0_4 + 120 p_0_5 + 120 p_0_6 + 9932.2880934589375 z_0_4 + 9932.2880934589375 z_0_5 + 9932.2880934589375 z_0_6 <= 32104.576186917875
 c5288: 120 p_0_4 + 120 p_0_5 + 120 p_0_7 + 10369.359094195646 z_0_4 + 10369.359094195646 z_0_5 + 10369.359094195646 z_0_7 <= 33698.718188391293
 c5289: 120 p_0_4 + 120 p_0_5 + 120 p_0_8 + 8984.9516818459615 z_0_4 + 8984.9516818459615 z_0_5 + 8984.9516818459615 z_0_8 <= 29609.903363691923
 c5290: 120 p_0_4 + 120 p_0_5 + 120 p_0_9 + 9802.920873083649 z_0_4 + 9802.920873083649 z_0_5 + 9802.920873083649 z_0_9 <= 31725.841746167302
 c5291: 120 p_0_10 + 120 p_0_4 + 120 p_0_5 + 9161.2840272715621 z_0_10 + 9161.2840272715621 z_0_4 + 9161.2840272715621 z_0_5 <= 30202.568054543124
 c5292: 120 p_0_4 + 120 p_0_6 + 120 p_0_7 + 7467.5252053920731 z_0_4 + 7467.5252053920731 z_0_6 + 7467.5252053920731 z_0_7 <= 24895.050410784144
 c5293: 120 p_0_4 + 120 p_0_6 + 120 p_0_8 + 6415.6099090453044 z_0_4 + 6415.6099090453044 z_0_6 + 6415.6099090453044 z_0_8 <= 21471.219818090605
 c5294: 120 p_0_4 + 120 p_0_6 + 120 p_0_9 + 6542.0458268311113 z_0_4 + 6542.0458268311113 z_0_6 + 6542.0458268311113 z_0_9 <= 22204.091653662221
 c5295: 120 p_0_10 + 120 p_0_4 + 120 p_0_6 + 6256.8708513048041 z_0_10 + 6256.8708513048041 z_0_4 + 6256.8708513048041 z_0_6 <= 21393.741702609608
 c5296: 120 p_0_4 + 120 p_0_7 + 120 p_0_8 + 6817.334626810798 z_0_4 + 6817.334626810798 z_0_7 + 6817.334626810798 z_0_8 <= 22994.669253621592
 c5297: 120 p_0_4 + 120 p_0_7 + 120 p_0_9 + 7366.7645686128317 z_0_4 + 7366.7645686128317 z_0_7 + 7366.7645686128317 z_0_9 <= 24573.529137225665
 c5298: 120 p_0_10 + 120 p_0_4 + 120 p_0_7 + 6659.4471382212751 z_0_10 + 6659.4471382212751 z_0_4 + 6659.4471382212751 z_0_7 <= 22918.894276442548
 c5299: 120 p_0_4 + 120 p_0_8 + 120 p_0_9 + 6266.764163668543 z_0_4 + 6266.764163668543 z_0_8 + 6266.764163668543 z_0_9 <= 21053.528327337084
 c5300: 120 p_0_10 + 120 p_0_4 + 120 p_0_8 + 5612.6725725404649 z_0_10 + 5612.6725725404649 z_0_4 + 5612.6725725404649 z_0_8 <= 19505.34514508093
 c5301: 120 p_0_10 + 120 p_0_4 + 120 p_0_9 + 6154.2961575139843 z_0_10 + 6154.2961575139843 z_0_4 + 6154.2961575139843 z_0_9 <= 21068.592315027967
 c5302: 120 p_0_5 + 120 p_0_6 + 120 p_0_7 + 10542.798032120521 z_0_5 + 10542.798032120521 z_0_6 + 10542.798032120521 z_0_7 <= 33805.596064241043
 c5303: 120 p_0_5 + 120 p_0_6 + 120 p_0_8 + 8717.1028926924391 z_0_5 + 8717.1028926924391 z_0_6 + 8717.1028926924391 z_0_8 <= 28834.205785384875
 c5304: 120 p_0_5 + 120 p_0_6 + 120 p_0_9 + 9131.7479459991009 z_0_5 + 9131.7479459991009 z_0_6 + 9131.7479459991009 z_0_9 <= 30143.495891998202
 c5305: 120 p_0_10 + 120 p_0_5 + 120 p_0_6 + 9293.3289485575697 z_0_10 + 9293.3289485575697 z_0_5 + 9293.3289485575697 z_0_6 <= 30226.657897115139
 c5306: 120 p_0_5 + 120 p_0_7 + 120 p_0_8 + 9589.4693206906104 z_0_5 + 9589.4693206906104 z_0_7 + 9589.4693206906104 z_0_8 <= 31298.938641381221
 c5307: 120 p_0_5 + 120 p_0_7 + 120 p_0_9 + 10410.851524582049 z_0_5 + 10410.851524582049 z_0_7 + 10410.851524582049 z_0_9 <= 33421.703049164098
 c5308: 120 p_0_10 + 120 p_0_5 + 120 p_0_7 + 9769.5373617773457 z_0_10 + 9769.5373617773457 z_0_5 + 9769.5373617773457 z_0_7 <= 31899.074723554695
 c5309: 120 p_0_5 + 120 p_0_8 + 120 p_0_9 + 8568.0801494641819 z_0_5 + 8568.0801494641819 z_0_8 + 8568.0801494641819 z_0_9 <= 28416.160298928364
 c5310: 120 p_0_10 + 120 p_0_5 + 120 p_0_8 + 8348.5056137970569 z_0_10 + 8348.5056137970569 z_0_5 + 8348.5056137970569 z_0_8 <= 27737.011227594114
 c5311: 120 p_0_10 + 120 p_0_5 + 120 p_0_9 + 9164.8194025787834 z_0_10 + 9164.8194025787834 z_0_5 + 9164.8194025787834 z_0_9 <= 29849.63880515757
 c5312: 120 p_0_6 + 120 p_0_7 + 120 p_0_8 + 7020.1275478899543 z_0_6 + 7020.1275478899543 z_0_7 + 7020.1275478899543 z_0_8 <= 23160.255095779907
 c5313: 120 p_0_6 + 120 p_0_7 + 120 p_0_9 + 7152.5557654926943 z_0_6 + 7152.5557654926943 z_0_7 + 7152.5557654926943 z_0_9 <= 23905.111530985385
 c5314: 120 p_0_10 + 120 p_0_6 + 120 p_0_7 + 6867.7034729737716 z_0_10 + 6867.7034729737716 z_0_6 + 6867.7034729737716 z_0_7 <= 23095.406945947543
 c5315: 120 p_0_6 + 120 p_0_8 + 120 p_0_9 + 5617.1387417738442 z_0_6 + 5617.1387417738442 z_0_8 + 5617.1387417738442 z_0_9 <= 19514.277483547688
 c5316: 120 p_0_10 + 120 p_0_6 + 120 p_0_8 + 5778.5427464808181 z_0_10 + 5778.5427464808181 z_0_6 + 5778.5427464808181 z_0_8 <= 19597.085492961636
 c5317: 120 p_0_10 + 120 p_0_6 + 120 p_0_9 + 5903.0866819297435 z_0_10 + 5903.0866819297435 z_0_6 + 5903.0866819297435 z_0_9 <= 20326.173363859485
 c5318: 120 p_0_7 + 120 p_0_8 + 120 p_0_9 + 6871.2818025131919 z_0_7 + 6871.2818025131919 z_0_8 + 6871.2818025131919 z_0_9 <= 22742.563605026382
 c5319: 120 p_0_10 + 120 p_0_7 + 120 p_0_8 + 6217.5128943924974 z_0_10 + 6217.5128943924974 z_0_7 + 6217.5128943924974 z_0_8 <= 21195.025788784995
 c5320: 120 p_0_10 + 120 p_0_7 + 120 p_0_9 + 6766.9428361945302 z_0_10 + 6766.9428361945302 z_0_7 + 6766.9428361945302 z_0_9 <= 22773.885672389057
 c5321: 120 p_0_10 + 120 p_0_8 + 120 p_0_9 + 5630.3180956196384 z_0_10 + 5630.3180956196384 z_0_8 + 5630.3180956196384 z_0_9 <= 19180.636191239279
 c5322: 120 p_1_1 + 120 p_1_2 + 5049.7394323728558 z_1_1 + 5049.7394323728558 z_1_2 <= 12969.739432372855
 c5323: 120 p_1_1 + 120 p_1_3 + 8184.8610079988075 z_1_1 + 8184.8610079988075 z_1_3 <= 18984.861007998807
 c5324: 120 p_1_1 + 120 p_1_4 + 4974.3443256084729 z_1_1 + 4974.3443256084729 z_1_4 <= 13014.344325608472
 c5325: 120 p_1_1 + 120 p_1_5 + 8016.0076152477486 z_1_1 + 8016.0076152477486 z_1_5 <= 18816.007615247749
 c5326: 120 p_1_1 + 120 p_1_6 + 5134.946680375816 z_1_1 + 5134.946680375816 z_1_6 <= 12934.946680375815
 c5327: 120 p_1_1 + 120 p_1_7 + 5581.5907790524725 z_1_1 + 5581.5907790524725 z_1_7 <= 14101.590779052472
 c5328: 120 p_1_1 + 120 p_1_8 + 4586.2565437856847 z_1_1 + 4586.2565437856847 z_1_8 <= 11906.256543785685
 c5329: 120 p_1_1 + 120 p_1_9 + 5028.9822599543386 z_1_1 + 5028.9822599543386 z_1_9 <= 12708.982259954339
 c5330: 120 p_1_1 + 120 p_1_10 + 4344.3887298496556 z_1_1 + 4344.3887298496556 z_1_10 <= 11784.388729849656
 c5331: 120 p_1_2 + 120 p_1_3 + 8768.4678072107145 z_1_2 + 8768.4678072107145 z_1_3 <= 20288.467807210716
 c5332: 120 p_1_2 + 120 p_1_4 + 5954.3857065878892 z_1_2 + 5954.3857065878892 z_1_4 <= 14714.385706587889
 c5333: 120 p_1_2 + 120 p_1_5 + 8322.5167613150879 z_1_2 + 8322.5167613150879 z_1_5 <= 19842.516761315088
 c5334: 120 p_1_2 + 120 p_1_6 + 5684.1835591176132 z_1_2 + 5684.1835591176132 z_1_6 <= 14204.183559117613
 c5335: 120 p_1_2 + 120 p_1_7 + 6563.2711550781187 z_1_2 + 6563.2711550781187 z_1_7 <= 15803.271155078119
 c5336: 120 p_1_2 + 120 p_1_8 + 4795.3394049409117 z_1_2 + 4795.3394049409117 z_1_8 <= 12715.339404940911
 c5337: 120 p_1_2 + 120 p_1_9 + 5539.6996366292879 z_1_2 + 5539.6996366292879 z_1_9 <= 13939.699636629288
 c5338: 120 p_1_10 + 120 p_1_2 + 5316.4015104861373 z_1_10 + 5316.4015104861373 z_1_2 <= 13476.401510486137
 c5339: 120 p_1_3 + 120 p_1_4 + 9062.2837842369336 z_1_3 + 9062.2837842369336 z_1_4 <= 20702.283784236934
 c5340: 120 p_1_3 + 120 p_1_5 + 11718.20282725319 z_1_3 + 11718.20282725319 z_1_5 <= 26118.20282725319
 c5341: 120 p_1_3 + 120 p_1_6 + 8406.5159586846403 z_1_3 + 8406.5159586846403 z_1_6 <= 19806.515958684642
 c5342: 120 p_1_3 + 120 p_1_7 + 9669.7843057875198 z_1_3 + 9669.7843057875198 z_1_7 <= 21789.784305787518
 c5343: 120 p_1_3 + 120 p_1_8 + 8203.1513762016766 z_1_3 + 8203.1513762016766 z_1_8 <= 19003.151376201677
 c5344: 120 p_1_3 + 120 p_1_9 + 8328.7389298818052 z_1_3 + 8328.7389298818052 z_1_9 <= 19608.738929881805
 c5345: 120 p_1_10 + 120 p_1_3 + 8424.3423071796187 z_1_10 + 8424.3423071796187 z_1_3 <= 19464.342307179621
 c5346: 120 p_1_4 + 120 p_1_5 + 8921.1031321710543 z_1_4 + 8921.1031321710543 z_1_5 <= 20561.103132171054
 c5347: 120 p_1_4 + 120 p_1_6 + 6016.6899562042981 z_1_4 + 6016.6899562042981 z_1_6 <= 14656.689956204298
 c5348: 120 p_1_4 + 120 p_1_7 + 6419.2662431207691 z_1_4 + 6419.2662431207691 z_1_7 <= 15779.266243120768
 c5349: 120 p_1_4 + 120 p_1_8 + 5372.491677439958 z_1_4 + 5372.491677439958 z_1_8 <= 13412.491677439957
 c5350: 120 p_1_4 + 120 p_1_9 + 5914.1152624134784 z_1_4 + 5914.1152624134784 z_1_9 <= 14434.115262413477
 c5351: 120 p_1_10 + 120 p_1_4 + 5204.5842734724902 z_1_10 + 5204.5842734724902 z_1_4 <= 13484.58427347249
 c5352: 120 p_1_5 + 120 p_1_6 + 8631.7068378276836 z_1_5 + 8631.7068378276836 z_1_6 <= 20031.706837827682
 c5353: 120 p_1_5 + 120 p_1_7 + 9529.0337836694562 z_1_5 + 9529.0337836694562 z_1_7 <= 21649.033783669456
 c5354: 120 p_1_5 + 120 p_1_8 + 7686.262408551589 z_1_5 + 7686.262408551589 z_1_8 <= 18486.262408551589
 c5355: 120 p_1_5 + 120 p_1_9 + 8482.6840945994263 z_1_5 + 8482.6840945994263 z_1_9 <= 19762.684094599426
 c5356: 120 p_1_10 + 120 p_1_5 + 8283.4262539679185 z_1_10 + 8283.4262539679185 z_1_5 <= 19323.426253967918
 c5357: 120 p_1_6 + 120 p_1_7 + 6627.199894865882 z_1_6 + 6627.199894865882 z_1_7 <= 15747.199894865882
 c5358: 120 p_1_6 + 120 p_1_8 + 5116.920635750932 z_1_6 + 5116.920635750932 z_1_8 <= 12916.920635750932
 c5359: 120 p_1_6 + 120 p_1_9 + 5241.4645711998564 z_1_6 + 5241.4645711998564 z_1_9 <= 13521.464571199856
 c5360: 120 p_1_10 + 120 p_1_6 + 5377.7308113029303 z_1_10 + 5377.7308113029303 z_1_6 <= 13417.73081130293
 c5361: 120 p_1_7 + 120 p_1_8 + 5977.0093162846078 z_1_7 + 5977.0093162846078 z_1_8 <= 14497.009316284608
 c5362: 120 p_1_7 + 120 p_1_9 + 6526.4392580866406 z_1_7 + 6526.4392580866406 z_1_9 <= 15526.439258086641
 c5363: 120 p_1_10 + 120 p_1_7 + 5819.4445107024676 z_1_10 + 5819.4445107024676 z_1_7 <= 14579.444510702468
 c5364: 120 p_1_8 + 120 p_1_9 + 4968.0748903741696 z_1_8 + 4968.0748903741696 z_1_9 <= 12648.07489037417
 c5365: 120 p_1_10 + 120 p_1_8 + 4736.0456093910534 z_1_10 + 4736.0456093910534 z_1_8 <= 12176.045609391054
 c5366: 120 p_1_10 + 120 p_1_9 + 5274.5360277795389 z_1_10 + 5274.5360277795389 z_1_9 <= 13194.536027779539
 c5367: 120 p_1_1 + 120 p_1_2 + 120 p_1_3 + 9165.9940393689794 z_1_1 + 9165.9940393689794 z_1_2 + 9165.9940393689794 z_1_3 <= 29851.988078737959
 c5368: 120 p_1_1 + 120 p_1_2 + 120 p_1_4 + 5956.764896107612 z_1_1 + 5956.764896107612 z_1_2 + 5956.764896107612 z_1_4 <= 20673.529792215224
 c5369: 120 p_1_1 + 120 p_1_2 + 120 p_1_5 + 8737.6580228760031 z_1_1 + 8737.6580228760031 z_1_2 + 8737.6580228760031 z_1_5 <= 28995.316045752006
 c5370: 120 p_1_1 + 120 p_1_2 + 120 p_1_6 + 6099.9357168721217 z_1_1 + 6099.9357168721217 z_1_2 + 6099.9357168721217 z_1_6 <= 20719.871433744243
 c5371: 120 p_1_1 + 120 p_1_2 + 120 p_1_7 + 6564.0113495516125 z_1_1 + 6564.0113495516125 z_1_2 + 6564.0113495516125 z_1_7 <= 22368.022699103225
 c5372: 120 p_1_1 + 120 p_1_2 + 120 p_1_8 + 5187.7935445810117 z_1_1 + 5187.7935445810117 z_1_2 + 5187.7935445810117 z_1_8 <= 18295.587089162025
 c5373: 120 p_1_1 + 120 p_1_2 + 120 p_1_9 + 5955.4517943837964 z_1_1 + 5955.4517943837964 z_1_2 + 5955.4517943837964 z_1_9 <= 20310.903588767593
 c5374: 120 p_1_1 + 120 p_1_10 + 120 p_1_2 + 5326.8093003487957 z_1_1 + 5326.8093003487957 z_1_10 + 5326.8093003487957 z_1_2 <= 18813.618600697591
 c5375: 120 p_1_1 + 120 p_1_3 + 120 p_1_4 + 9072.2247314734213 z_1_1 + 9072.2247314734213 z_1_3 + 9072.2247314734213 z_1_4 <= 29784.449462946846
 c5376: 120 p_1_1 + 120 p_1_3 + 120 p_1_5 + 12115.729059411457 z_1_1 + 12115.729059411457 z_1_3 + 12115.729059411457 z_1_5 <= 38631.458118822913
 c5377: 120 p_1_1 + 120 p_1_3 + 120 p_1_6 + 8804.0421908429053 z_1_1 + 8804.0421908429053 z_1_3 + 8804.0421908429053 z_1_6 <= 29008.084381685811
 c5378: 120 p_1_1 + 120 p_1_3 + 120 p_1_7 + 9672.4341522454142 z_1_1 + 9672.4341522454142 z_1_3 + 9672.4341522454142 z_1_7 <= 31464.868304490828
 c5379: 120 p_1_1 + 120 p_1_3 + 120 p_1_8 + 8583.7986899107764 z_1_1 + 8583.7986899107764 z_1_3 + 8583.7986899107764 z_1_8 <= 27967.597379821549
 c5380: 120 p_1_1 + 120 p_1_3 + 120 p_1_9 + 8726.2651620400702 z_1_1 + 8726.2651620400702 z_1_3 + 8726.2651620400702 z_1_9 <= 28732.530324080137
 c5381: 120 p_1_1 + 120 p_1_10 + 120 p_1_3 + 8444.522706751126 z_1_1 + 8444.522706751126 z_1_10 + 8444.522706751126 z_1_3 <= 27929.045413502252
 c5382: 120 p_1_1 + 120 p_1_4 + 120 p_1_5 + 8923.0330789825057 z_1_1 + 8923.0330789825057 z_1_4 + 8923.0330789825057 z_1_5 <= 29486.066157965011
 c5383: 120 p_1_1 + 120 p_1_4 + 120 p_1_6 + 6026.6309034407868 z_1_1 + 6026.6309034407868 z_1_4 + 6026.6309034407868 z_1_6 <= 20693.261806881575
 c5384: 120 p_1_1 + 120 p_1_4 + 120 p_1_7 + 6421.9160895786636 z_1_1 + 6421.9160895786636 z_1_4 + 6421.9160895786636 z_1_7 <= 22203.832179157329
 c5385: 120 p_1_1 + 120 p_1_4 + 120 p_1_8 + 5373.2820075204418 z_1_1 + 5373.2820075204418 z_1_4 + 5373.2820075204418 z_1_8 <= 18786.564015040884
 c5386: 120 p_1_1 + 120 p_1_4 + 120 p_1_9 + 5924.0562096499661 z_1_1 + 5924.0562096499661 z_1_4 + 5924.0562096499661 z_1_9 <= 20368.11241929993
 c5387: 120 p_1_1 + 120 p_1_10 + 120 p_1_4 + 5214.5252207089788 z_1_1 + 5214.5252207089788 z_1_10 + 5214.5252207089788 z_1_4 <= 18709.050441417956
 c5388: 120 p_1_1 + 120 p_1_5 + 120 p_1_6 + 9046.8480993886005 z_1_1 + 9046.8480993886005 z_1_5 + 9046.8480993886005 z_1_6 <= 29493.696198777201
 c5389: 120 p_1_1 + 120 p_1_5 + 120 p_1_7 + 9530.2795324265062 z_1_1 + 9530.2795324265062 z_1_5 + 9530.2795324265062 z_1_7 <= 31180.559064853012
 c5390: 120 p_1_1 + 120 p_1_5 + 120 p_1_8 + 8078.7165481916891 z_1_1 + 8078.7165481916891 z_1_5 + 8078.7165481916891 z_1_8 <= 26957.433096383378
 c5391: 120 p_1_1 + 120 p_1_5 + 120 p_1_9 + 8897.8253561603415 z_1_1 + 8897.8253561603415 z_1_5 + 8897.8253561603415 z_1_9 <= 29075.650712320683
 c5392: 120 p_1_1 + 120 p_1_10 + 120 p_1_5 + 8293.0774832236893 z_1_1 + 8293.0774832236893 z_1_10 + 8293.0774832236893 z_1_5 <= 27626.154966447379
 c5393: 120 p_1_1 + 120 p_1_6 + 120 p_1_7 + 6629.8497413237765 z_1_1 + 6629.8497413237765 z_1_6 + 6629.8497413237765 z_1_7 <= 22379.699482647549
 c5394: 120 p_1_1 + 120 p_1_6 + 120 p_1_8 + 5509.374775391032 z_1_1 + 5509.374775391032 z_1_6 + 5509.374775391032 z_1_8 <= 18818.749550782064
 c5395: 120 p_1_1 + 120 p_1_6 + 120 p_1_9 + 5660.3025510026291 z_1_1 + 5660.3025510026291 z_1_6 + 5660.3025510026291 z_1_9 <= 19600.605102005262
 c5396: 120 p_1_1 + 120 p_1_10 + 120 p_1_6 + 5397.9112108744375 z_1_1 + 5397.9112108744375 z_1_10 + 5397.9112108744375 z_1_6 <= 18835.822421748875
 c5397: 120 p_1_1 + 120 p_1_7 + 120 p_1_8 + 5979.6591627425023 z_1_1 + 5979.6591627425023 z_1_7 + 5979.6591627425023 z_1_8 <= 20479.318325485008
 c5398: 120 p_1_1 + 120 p_1_7 + 120 p_1_9 + 6529.0891045445351 z_1_1 + 6529.0891045445351 z_1_7 + 6529.0891045445351 z_1_9 <= 22058.17820908907
 c5399: 120 p_1_1 + 120 p_1_10 + 120 p_1_7 + 5822.094357160363 z_1_1 + 5822.094357160363 z_1_10 + 5822.094357160363 z_1_7 <= 20404.188714320724
 c5400: 120 p_1_1 + 120 p_1_8 + 120 p_1_9 + 5360.5290300142697 z_1_1 + 5360.5290300142697 z_1_8 + 5360.5290300142697 z_1_9 <= 18401.058060028539
 c5401: 120 p_1_1 + 120 p_1_10 + 120 p_1_8 + 4743.3264117616254 z_1_1 + 4743.3264117616254 z_1_10 + 4743.3264117616254 z_1_8 <= 16926.652823523251
 c5402: 120 p_1_1 + 120 p_1_10 + 120 p_1_9 + 5294.7164273510452 z_1_1 + 5294.7164273510452 z_1_10 + 5294.7164273510452 z_1_9 <= 18509.432854702089
 c5403: 120 p_1_2 + 120 p_1_3 + 120 p_1_4 + 10043.416815607106 z_1_2 + 10043.416815607106 z_1_3 + 10043.416815607106 z_1_4 <= 32446.833631214213
 c5404: 120 p_1_2 + 120 p_1_3 + 120 p_1_5 + 12439.853234881444 z_1_2 + 12439.853234881444 z_1_3 + 12439.853234881444 z_1_5 <= 39999.706469762881
 c5405: 120 p_1_2 + 120 p_1_3 + 120 p_1_6 + 9374.5908172292093 z_1_2 + 9374.5908172292093 z_1_3 + 9374.5908172292093 z_1_6 <= 30869.181634458415
 c5406: 120 p_1_2 + 120 p_1_3 + 120 p_1_7 + 10650.917337157693 z_1_2 + 10650.917337157693 z_1_3 + 10650.917337157693 z_1_7 <= 34141.834674315389
 c5407: 120 p_1_2 + 120 p_1_3 + 120 p_1_8 + 8924.6883769970045 z_1_2 + 8924.6883769970045 z_1_3 + 8924.6883769970045 z_1_8 <= 29369.376753994009
 c5408: 120 p_1_2 + 120 p_1_3 + 120 p_1_9 + 9276.0378467109113 z_1_2 + 9276.0378467109113 z_1_3 + 9276.0378467109113 z_1_9 <= 30552.075693421823
 c5409: 120 p_1_10 + 120 p_1_2 + 120 p_1_3 + 9405.4753385497897 z_1_10 + 9405.4753385497897 z_1_2 + 9405.4753385497897 z_1_3 <= 30570.950677099579
 c5410: 120 p_1_2 + 120 p_1_4 + 120 p_1_5 + 9642.7535397993088 z_1_2 + 9642.7535397993088 z_1_4 + 9642.7535397993088 z_1_5 <= 31645.507079598618
 c5411: 120 p_1_2 + 120 p_1_4 + 120 p_1_6 + 6984.7648147488671 z_1_2 + 6984.7648147488671 z_1_4 + 6984.7648147488671 z_1_6 <= 23329.529629497734
 c5412: 120 p_1_2 + 120 p_1_4 + 120 p_1_7 + 7403.5964656043097 z_1_2 + 7403.5964656043097 z_1_4 + 7403.5964656043097 z_1_7 <= 24887.192931208618
 c5413: 120 p_1_2 + 120 p_1_4 + 120 p_1_8 + 6094.028678235285 z_1_2 + 6094.028678235285 z_1_4 + 6094.028678235285 z_1_8 <= 20948.05735647057
 c5414: 120 p_1_2 + 120 p_1_4 + 120 p_1_9 + 6860.0980685988288 z_1_2 + 6860.0980685988288 z_1_4 + 6860.0980685988288 z_1_9 <= 22960.196137197658
 c5415: 120 p_1_10 + 120 p_1_2 + 120 p_1_4 + 6194.5666016883952 z_1_10 + 6194.5666016883952 z_1_2 + 6194.5666016883952 z_1_4 <= 21389.13320337679
 c5416: 120 p_1_2 + 120 p_1_5 + 120 p_1_6 + 9353.3572454559398 z_1_2 + 9353.3572454559398 z_1_5 + 9353.3572454559398 z_1_6 <= 30826.71449091188
 c5417: 120 p_1_2 + 120 p_1_5 + 120 p_1_7 + 10250.684191297711 z_1_2 + 10250.684191297711 z_1_5 + 10250.684191297711 z_1_7 <= 33341.368382595421
 c5418: 120 p_1_2 + 120 p_1_5 + 120 p_1_8 + 8407.7994093469151 z_1_2 + 8407.7994093469151 z_1_5 + 8407.7994093469151 z_1_8 <= 28335.598818693827
 c5419: 120 p_1_2 + 120 p_1_5 + 120 p_1_9 + 9204.3345022276808 z_1_2 + 9204.3345022276808 z_1_5 + 9204.3345022276808 z_1_9 <= 30408.669004455362
 c5420: 120 p_1_10 + 120 p_1_2 + 120 p_1_5 + 9004.930997182877 z_1_10 + 9004.930997182877 z_1_2 + 9004.930997182877 z_1_5 <= 29769.861994365754
 c5421: 120 p_1_2 + 120 p_1_6 + 120 p_1_7 + 7595.274753410451 z_1_2 + 7595.274753410451 z_1_6 + 7595.274753410451 z_1_7 <= 25030.549506820906
 c5422: 120 p_1_2 + 120 p_1_6 + 120 p_1_8 + 5838.4576365462581 z_1_2 + 5838.4576365462581 z_1_6 + 5838.4576365462581 z_1_8 <= 20196.91527309252
 c5423: 120 p_1_2 + 120 p_1_6 + 120 p_1_9 + 6188.7634880289625 z_1_2 + 6188.7634880289625 z_1_6 + 6188.7634880289625 z_1_9 <= 21377.526976057925
 c5424: 120 p_1_10 + 120 p_1_2 + 120 p_1_6 + 6345.8056698475002 z_1_10 + 6345.8056698475002 z_1_2 + 6345.8056698475002 z_1_6 <= 21451.611339694999
 c5425: 120 p_1_2 + 120 p_1_7 + 120 p_1_8 + 6698.5463170799339 z_1_2 + 6698.5463170799339 z_1_7 + 6698.5463170799339 z_1_8 <= 22637.092634159868
 c5426: 120 p_1_2 + 120 p_1_7 + 120 p_1_9 + 7468.9835170890592 z_1_2 + 7468.9835170890592 z_1_7 + 7468.9835170890592 z_1_9 <= 24657.96703417812
 c5427: 120 p_1_10 + 120 p_1_2 + 120 p_1_7 + 6803.7747331860091 z_1_10 + 6803.7747331860091 z_1_2 + 6803.7747331860091 z_1_7 <= 23087.54946637202
 c5428: 120 p_1_2 + 120 p_1_8 + 120 p_1_9 + 5689.6118911694957 z_1_2 + 5689.6118911694957 z_1_8 + 5689.6118911694957 z_1_9 <= 19779.223782338991
 c5429: 120 p_1_10 + 120 p_1_2 + 120 p_1_8 + 5457.5826101863804 z_1_10 + 5457.5826101863804 z_1_2 + 5457.5826101863804 z_1_8 <= 19075.165220372761
 c5430: 120 p_1_10 + 120 p_1_2 + 120 p_1_9 + 6221.834944608644 z_1_10 + 6221.834944608644 z_1_2 + 6221.834944608644 z_1_9 <= 21083.66988921729
 c5431: 120 p_1_3 + 120 p_1_4 + 120 p_1_5 + 12993.151835649582 z_1_3 + 12993.151835649582 z_1_4 + 12993.151835649582 z_1_5 <= 41226.303671299167
 c5432: 120 p_1_3 + 120 p_1_4 + 120 p_1_6 + 9681.4649670810322 z_1_3 + 9681.4649670810322 z_1_4 + 9681.4649670810322 z_1_6 <= 31602.929934162064
 c5433: 120 p_1_3 + 120 p_1_4 + 120 p_1_7 + 10510.109616313712 z_1_3 + 10510.109616313712 z_1_4 + 10510.109616313712 z_1_7 <= 33980.219232627423
 c5434: 120 p_1_3 + 120 p_1_4 + 120 p_1_8 + 9470.3720833049083 z_1_3 + 9470.3720833049083 z_1_4 + 9470.3720833049083 z_1_8 <= 30580.744166609817
 c5435: 120 p_1_3 + 120 p_1_4 + 120 p_1_9 + 9603.6879382781954 z_1_3 + 9603.6879382781954 z_1_4 + 9603.6879382781954 z_1_9 <= 31327.375876556391
 c5436: 120 p_1_10 + 120 p_1_3 + 120 p_1_4 + 9302.4646793374395 z_1_10 + 9302.4646793374395 z_1_3 + 9302.4646793374395 z_1_4 <= 30484.929358674875
 c5437: 120 p_1_3 + 120 p_1_5 + 120 p_1_6 + 12322.11409593928 z_1_3 + 12322.11409593928 z_1_5 + 12322.11409593928 z_1_6 <= 39644.228191878559
 c5438: 120 p_1_3 + 120 p_1_5 + 120 p_1_7 + 13600.652357200168 z_1_3 + 13600.652357200168 z_1_5 + 13600.652357200168 z_1_7 <= 42921.304714400336
 c5439: 120 p_1_3 + 120 p_1_5 + 120 p_1_8 + 11803.598882117945 z_1_3 + 11803.598882117945 z_1_5 + 11803.598882117945 z_1_8 <= 38007.197764235883
 c5440: 120 p_1_3 + 120 p_1_5 + 120 p_1_9 + 12219.02230468105 z_1_3 + 12219.02230468105 z_1_5 + 12219.02230468105 z_1_9 <= 39318.044609362099
 c5441: 120 p_1_10 + 120 p_1_3 + 120 p_1_5 + 12355.210358592267 z_1_10 + 12355.210358592267 z_1_3 + 12355.210358592267 z_1_5 <= 39350.420717184534
 c5442: 120 p_1_3 + 120 p_1_6 + 120 p_1_7 + 10288.965488631618 z_1_3 + 10288.965488631618 z_1_6 + 10288.965488631618 z_1_7 <= 33297.930977263233
 c5443: 120 p_1_3 + 120 p_1_6 + 120 p_1_8 + 8807.3278938625281 z_1_3 + 8807.3278938625281 z_1_6 + 8807.3278938625281 z_1_8 <= 29014.655787725053
 c5444: 120 p_1_3 + 120 p_1_6 + 120 p_1_9 + 8931.8718293114525 z_1_3 + 8931.8718293114525 z_1_6 + 8931.8718293114525 z_1_9 <= 29743.743658622905
 c5445: 120 p_1_10 + 120 p_1_3 + 120 p_1_6 + 9043.5234900237156 z_1_10 + 9043.5234900237156 z_1_3 + 9043.5234900237156 z_1_6 <= 29727.046980047431
 c5446: 120 p_1_3 + 120 p_1_7 + 120 p_1_8 + 10067.85268947755 z_1_3 + 10067.85268947755 z_1_7 + 10067.85268947755 z_1_8 <= 32255.705378955099
 c5447: 120 p_1_3 + 120 p_1_7 + 120 p_1_9 + 10211.188459828783 z_1_3 + 10211.188459828783 z_1_7 + 10211.188459828783 z_1_9 <= 33022.376919657567
 c5448: 120 p_1_10 + 120 p_1_3 + 120 p_1_7 + 9910.2878838954093 z_1_10 + 9910.2878838954093 z_1_3 + 9910.2878838954093 z_1_7 <= 32180.575767790819
 c5449: 120 p_1_3 + 120 p_1_8 + 120 p_1_9 + 8704.4131004557912 z_1_3 + 8704.4131004557912 z_1_8 + 8704.4131004557912 z_1_9 <= 28688.826200911579
 c5450: 120 p_1_10 + 120 p_1_3 + 120 p_1_8 + 8836.1795862925228 z_1_10 + 8836.1795862925228 z_1_3 + 8836.1795862925228 z_1_8 <= 28712.359172585049
 c5451: 120 p_1_10 + 120 p_1_3 + 120 p_1_9 + 8965.7464612208823 z_1_10 + 8965.7464612208823 z_1_3 + 8965.7464612208823 z_1_9 <= 29451.492922441765
 c5452: 120 p_1_4 + 120 p_1_5 + 120 p_1_6 + 9932.2880934589375 z_1_4 + 9932.2880934589375 z_1_5 + 9932.2880934589375 z_1_6 <= 32104.576186917875
 c5453: 120 p_1_4 + 120 p_1_5 + 120 p_1_7 + 10369.359094195646 z_1_4 + 10369.359094195646 z_1_5 + 10369.359094195646 z_1_7 <= 33698.718188391293
 c5454: 120 p_1_4 + 120 p_1_5 + 120 p_1_8 + 8984.9516818459615 z_1_4 + 8984.9516818459615 z_1_5 + 8984.9516818459615 z_1_8 <= 29609.903363691923
 c5455: 120 p_1_4 + 120 p_1_5 + 120 p_1_9 + 9802.920873083649 z_1_4 + 9802.920873083649 z_1_5 + 9802.920873083649 z_1_9 <= 31725.841746167302
 c5456: 120 p_1_10 + 120 p_1_4 + 120 p_1_5 + 9161.2840272715621 z_1_10 + 9161.2840272715621 z_1_4 + 9161.2840272715621 z_1_5 <= 30202.568054543124
 c5457: 120 p_1_4 + 120 p_1_6 + 120 p_1_7 + 7467.5252053920731 z_1_4 + 7467.5252053920731 z_1_6 + 7467.5252053920731 z_1_7 <= 24895.050410784144
 c5458: 120 p_1_4 + 120 p_1_6 + 120 p_1_8 + 6415.6099090453044 z_1_4 + 6415.6099090453044 z_1_6 + 6415.6099090453044 z_1_8 <= 21471.219818090605
 c5459: 120 p_1_4 + 120 p_1_6 + 120 p_1_9 + 6542.0458268311113 z_1_4 + 6542.0458268311113 z_1_6 + 6542.0458268311113 z_1_9 <= 22204.091653662221
 c5460: 120 p_1_10 + 120 p_1_4 + 120 p_1_6 + 6256.8708513048041 z_1_10 + 6256.8708513048041 z_1_4 + 6256.8708513048041 z_1_6 <= 21393.741702609608
 c5461: 120 p_1_4 + 120 p_1_7 + 120 p_1_8 + 6817.334626810798 z_1_4 + 6817.334626810798 z_1_7 + 6817.334626810798 z_1_8 <= 22994.669253621592
 c5462: 120 p_1_4 + 120 p_1_7 + 120 p_1_9 + 7366.7645686128317 z_1_4 + 7366.7645686128317 z_1_7 + 7366.7645686128317 z_1_9 <= 24573.529137225665
 c5463: 120 p_1_10 + 120 p_1_4 + 120 p_1_7 + 6659.4471382212751 z_1_10 + 6659.4471382212751 z_1_4 + 6659.4471382212751 z_1_7 <= 22918.894276442548
 c5464: 120 p_1_4 + 120 p_1_8 + 120 p_1_9 + 6266.764163668543 z_1_4 + 6266.764163668543 z_1_8 + 6266.764163668543 z_1_9 <= 21053.528327337084
 c5465: 120 p_1_10 + 120 p_1_4 + 120 p_1_8 + 5612.6725725404649 z_1_10 + 5612.6725725404649 z_1_4 + 5612.6725725404649 z_1_8 <= 19505.34514508093
 c5466: 120 p_1_10 + 120 p_1_4 + 120 p_1_9 + 6154.2961575139843 z_1_10 + 6154.2961575139843 z_1_4 + 6154.2961575139843 z_1_9 <= 21068.592315027967
 c5467: 120 p_1_5 + 120 p_1_6 + 120 p_1_7 + 10542.798032120521 z_1_5 + 10542.798032120521 z_1_6 + 10542.798032120521 z_1_7 <= 33805.596064241043
 c5468: 120 p_1_5 + 120 p_1_6 + 120 p_1_8 + 8717.1028926924391 z_1_5 + 8717.1028926924391 z_1_6 + 8717.1028926924391 z_1_8 <= 28834.205785384875
 c5469: 120 p_1_5 + 120 p_1_6 + 120 p_1_9 + 9131.7479459991009 z_1_5 + 9131.7479459991009 z_1_6 + 9131.7479459991009 z_1_9 <= 30143.495891998202
 c5470: 120 p_1_10 + 120 p_1_5 + 120 p_1_6 + 9293.3289485575697 z_1_10 + 9293.3289485575697 z_1_5 + 9293.3289485575697 z_1_6 <= 30226.657897115139
 c5471: 120 p_1_5 + 120 p_1_7 + 120 p_1_8 + 9589.4693206906104 z_1_5 + 9589.4693206906104 z_1_7 + 9589.4693206906104 z_1_8 <= 31298.938641381221
 c5472: 120 p_1_5 + 120 p_1_7 + 120 p_1_9 + 10410.851524582049 z_1_5 + 10410.851524582049 z_1_7 + 10410.851524582049 z_1_9 <= 33421.703049164098
 c5473: 120 p_1_10 + 120 p_1_5 + 120 p_1_7 + 9769.5373617773457 z_1_10 + 9769.5373617773457 z_1_5 + 9769.5373617773457 z_1_7 <= 31899.074723554695
 c5474: 120 p_1_5 + 120 p_1_8 + 120 p_1_9 + 8568.0801494641819 z_1_5 + 8568.0801494641819 z_1_8 + 8568.0801494641819 z_1_9 <= 28416.160298928364
 c5475: 120 p_1_10 + 120 p_1_5 + 120 p_1_8 + 8348.5056137970569 z_1_10 + 8348.5056137970569 z_1_5 + 8348.5056137970569 z_1_8 <= 27737.011227594114
 c5476: 120 p_1_10 + 120 p_1_5 + 120 p_1_9 + 9164.8194025787834 z_1_10 + 9164.8194025787834 z_1_5 + 9164.8194025787834 z_1_9 <= 29849.63880515757
 c5477: 120 p_1_6 + 120 p_1_7 + 120 p_1_8 + 7020.1275478899543 z_1_6 + 7020.1275478899543 z_1_7 + 7020.1275478899543 z_1_8 <= 23160.255095779907
 c5478: 120 p_1_6 + 120 p_1_7 + 120 p_1_9 + 7152.5557654926943 z_1_6 + 7152.5557654926943 z_1_7 + 7152.5557654926943 z_1_9 <= 23905.111530985385
 c5479: 120 p_1_10 + 120 p_1_6 + 120 p_1_7 + 6867.7034729737716 z_1_10 + 6867.7034729737716 z_1_6 + 6867.7034729737716 z_1_7 <= 23095.406945947543
 c5480: 120 p_1_6 + 120 p_1_8 + 120 p_1_9 + 5617.1387417738442 z_1_6 + 5617.1387417738442 z_1_8 + 5617.1387417738442 z_1_9 <= 19514.277483547688
 c5481: 120 p_1_10 + 120 p_1_6 + 120 p_1_8 + 5778.5427464808181 z_1_10 + 5778.5427464808181 z_1_6 + 5778.5427464808181 z_1_8 <= 19597.085492961636
 c5482: 120 p_1_10 + 120 p_1_6 + 120 p_1_9 + 5903.0866819297435 z_1_10 + 5903.0866819297435 z_1_6 + 5903.0866819297435 z_1_9 <= 20326.173363859485
 c5483: 120 p_1_7 + 120 p_1_8 + 120 p_1_9 + 6871.2818025131919 z_1_7 + 6871.2818025131919 z_1_8 + 6871.2818025131919 z_1_9 <= 22742.563605026382
 c5484: 120 p_1_10 + 120 p_1_7 + 120 p_1_8 + 6217.5128943924974 z_1_10 + 6217.5128943924974 z_1_7 + 6217.5128943924974 z_1_8 <= 21195.025788784995
 c5485: 120 p_1_10 + 120 p_1_7 + 120 p_1_9 + 6766.9428361945302 z_1_10 + 6766.9428361945302 z_1_7 + 6766.9428361945302 z_1_9 <= 22773.885672389057
 c5486: 120 p_1_10 + 120 p_1_8 + 120 p_1_9 + 5630.3180956196384 z_1_10 + 5630.3180956196384 z_1_8 + 5630.3180956196384 z_1_9 <= 19180.636191239279
 c5487: 120 p_2_1 + 120 p_2_2 + 5049.7394323728558 z_2_1 + 5049.7394323728558 z_2_2 <= 12969.739432372855
 c5488: 120 p_2_1 + 120 p_2_3 + 8184.8610079988075 z_2_1 + 8184.8610079988075 z_2_3 <= 18984.861007998807
 c5489: 120 p_2_1 + 120 p_2_4 + 4974.3443256084729 z_2_1 + 4974.3443256084729 z_2_4 <= 13014.344325608472
 c5490: 120 p_2_1 + 120 p_2_5 + 8016.0076152477486 z_2_1 + 8016.0076152477486 z_2_5 <= 18816.007615247749
 c5491: 120 p_2_1 + 120 p_2_6 + 5134.946680375816 z_2_1 + 5134.946680375816 z_2_6 <= 12934.946680375815
 c5492: 120 p_2_1 + 120 p_2_7 + 5581.5907790524725 z_2_1 + 5581.5907790524725 z_2_7 <= 14101.590779052472
 c5493: 120 p_2_1 + 120 p_2_8 + 4586.2565437856847 z_2_1 + 4586.2565437856847 z_2_8 <= 11906.256543785685
 c5494: 120 p_2_1 + 120 p_2_9 + 5028.9822599543386 z_2_1 + 5028.9822599543386 z_2_9 <= 12708.982259954339
 c5495: 120 p_2_1 + 120 p_2_10 + 4344.3887298496556 z_2_1 + 4344.3887298496556 z_2_10 <= 11784.388729849656
 c5496: 120 p_2_2 + 120 p_2_3 + 8768.4678072107145 z_2_2 + 8768.4678072107145 z_2_3 <= 20288.467807210716
 c5497: 120 p_2_2 + 120 p_2_4 + 5954.3857065878892 z_2_2 + 5954.3857065878892 z_2_4 <= 14714.385706587889
 c5498: 120 p_2_2 + 120 p_2_5 + 8322.5167613150879 z_2_2 + 8322.5167613150879 z_2_5 <= 19842.516761315088
 c5499: 120 p_2_2 + 120 p_2_6 + 5684.1835591176132 z_2_2 + 5684.1835591176132 z_2_6 <= 14204.183559117613
 c5500: 120 p_2_2 + 120 p_2_7 + 6563.2711550781187 z_2_2 + 6563.2711550781187 z_2_7 <= 15803.271155078119
 c5501: 120 p_2_2 + 120 p_2_8 + 4795.3394049409117 z_2_2 + 4795.3394049409117 z_2_8 <= 12715.339404940911
 c5502: 120 p_2_2 + 120 p_2_9 + 5539.6996366292879 z_2_2 + 5539.6996366292879 z_2_9 <= 13939.699636629288
 c5503: 120 p_2_10 + 120 p_2_2 + 5316.4015104861373 z_2_10 + 5316.4015104861373 z_2_2 <= 13476.401510486137
 c5504: 120 p_2_3 + 120 p_2_4 + 9062.2837842369336 z_2_3 + 9062.2837842369336 z_2_4 <= 20702.283784236934
 c5505: 120 p_2_3 + 120 p_2_5 + 11718.20282725319 z_2_3 + 11718.20282725319 z_2_5 <= 26118.20282725319
 c5506: 120 p_2_3 + 120 p_2_6 + 8406.5159586846403 z_2_3 + 8406.5159586846403 z_2_6 <= 19806.515958684642
 c5507: 120 p_2_3 + 120 p_2_7 + 9669.7843057875198 z_2_3 + 9669.7843057875198 z_2_7 <= 21789.784305787518
 c5508: 120 p_2_3 + 120 p_2_8 + 8203.1513762016766 z_2_3 + 8203.1513762016766 z_2_8 <= 19003.151376201677
 c5509: 120 p_2_3 + 120 p_2_9 + 8328.7389298818052 z_2_3 + 8328.7389298818052 z_2_9 <= 19608.738929881805
 c5510: 120 p_2_10 + 120 p_2_3 + 8424.3423071796187 z_2_10 + 8424.3423071796187 z_2_3 <= 19464.342307179621
 c5511: 120 p_2_4 + 120 p_2_5 + 8921.1031321710543 z_2_4 + 8921.1031321710543 z_2_5 <= 20561.103132171054
 c5512: 120 p_2_4 + 120 p_2_6 + 6016.6899562042981 z_2_4 + 6016.6899562042981 z_2_6 <= 14656.689956204298
 c5513: 120 p_2_4 + 120 p_2_7 + 6419.2662431207691 z_2_4 + 6419.2662431207691 z_2_7 <= 15779.266243120768
 c5514: 120 p_2_4 + 120 p_2_8 + 5372.491677439958 z_2_4 + 5372.491677439958 z_2_8 <= 13412.491677439957
 c5515: 120 p_2_4 + 120 p_2_9 + 5914.1152624134784 z_2_4 + 5914.1152624134784 z_2_9 <= 14434.115262413477
 c5516: 120 p_2_10 + 120 p_2_4 + 5204.5842734724902 z_2_10 + 5204.5842734724902 z_2_4 <= 13484.58427347249
 c5517: 120 p_2_5 + 120 p_2_6 + 8631.7068378276836 z_2_5 + 8631.7068378276836 z_2_6 <= 20031.706837827682
 c5518: 120 p_2_5 + 120 p_2_7 + 9529.0337836694562 z_2_5 + 9529.0337836694562 z_2_7 <= 21649.033783669456
 c5519: 120 p_2_5 + 120 p_2_8 + 7686.262408551589 z_2_5 + 7686.262408551589 z_2_8 <= 18486.262408551589
 c5520: 120 p_2_5 + 120 p_2_9 + 8482.6840945994263 z_2_5 + 8482.6840945994263 z_2_9 <= 19762.684094599426
 c5521: 120 p_2_10 + 120 p_2_5 + 8283.4262539679185 z_2_10 + 8283.4262539679185 z_2_5 <= 19323.426253967918
 c5522: 120 p_2_6 + 120 p_2_7 + 6627.199894865882 z_2_6 + 6627.199894865882 z_2_7 <= 15747.199894865882
 c5523: 120 p_2_6 + 120 p_2_8 + 5116.920635750932 z_2_6 + 5116.920635750932 z_2_8 <= 12916.920635750932
 c5524: 120 p_2_6 + 120 p_2_9 + 5241.4645711998564 z_2_6 + 5241.4645711998564 z_2_9 <= 13521.464571199856
 c5525: 120 p_2_10 + 120 p_2_6 + 5377.7308113029303 z_2_10 + 5377.7308113029303 z_2_6 <= 13417.73081130293
 c5526: 120 p_2_7 + 120 p_2_8 + 5977.0093162846078 z_2_7 + 5977.0093162846078 z_2_8 <= 14497.009316284608
 c5527: 120 p_2_7 + 120 p_2_9 + 6526.4392580866406 z_2_7 + 6526.4392580866406 z_2_9 <= 15526.439258086641
 c5528: 120 p_2_10 + 120 p_2_7 + 5819.4445107024676 z_2_10 + 5819.4445107024676 z_2_7 <= 14579.444510702468
 c5529: 120 p_2_8 + 120 p_2_9 + 4968.0748903741696 z_2_8 + 4968.0748903741696 z_2_9 <= 12648.07489037417
 c5530: 120 p_2_10 + 120 p_2_8 + 4736.0456093910534 z_2_10 + 4736.0456093910534 z_2_8 <= 12176.045609391054
 c5531: 120 p_2_10 + 120 p_2_9 + 5274.5360277795389 z_2_10 + 5274.5360277795389 z_2_9 <= 13194.536027779539
 c5532: 120 p_2_1 + 120 p_2_2 + 120 p_2_3 + 9165.9940393689794 z_2_1 + 9165.9940393689794 z_2_2 + 9165.9940393689794 z_2_3 <= 29851.988078737959
 c5533: 120 p_2_1 + 120 p_2_2 + 120 p_2_4 + 5956.764896107612 z_2_1 + 5956.764896107612 z_2_2 + 5956.764896107612 z_2_4 <= 20673.529792215224
 c5534: 120 p_2_1 + 120 p_2_2 + 120 p_2_5 + 8737.6580228760031 z_2_1 + 8737.6580228760031 z_2_2 + 8737.6580228760031 z_2_5 <= 28995.316045752006
 c5535: 120 p_2_1 + 120 p_2_2 + 120 p_2_6 + 6099.9357168721217 z_2_1 + 6099.9357168721217 z_2_2 + 6099.9357168721217 z_2_6 <= 20719.871433744243
 c5536: 120 p_2_1 + 120 p_2_2 + 120 p_2_7 + 6564.0113495516125 z_2_1 + 6564.0113495516125 z_2_2 + 6564.0113495516125 z_2_7 <= 22368.022699103225
 c5537: 120 p_2_1 + 120 p_2_2 + 120 p_2_8 + 5187.7935445810117 z_2_1 + 5187.7935445810117 z_2_2 + 5187.7935445810117 z_2_8 <= 18295.587089162025
 c5538: 120 p_2_1 + 120 p_2_2 + 120 p_2_9 + 5955.4517943837964 z_2_1 + 5955.4517943837964 z_2_2 + 5955.4517943837964 z_2_9 <= 20310.903588767593
 c5539: 120 p_2_1 + 120 p_2_10 + 120 p_2_2 + 5326.8093003487957 z_2_1 + 5326.8093003487957 z_2_10 + 5326.8093003487957 z_2_2 <= 18813.618600697591
 c5540: 120 p_2_1 + 120 p_2_3 + 120 p_2_4 + 9072.2247314734213 z_2_1 + 9072.2247314734213 z_2_3 + 9072.2247314734213 z_2_4 <= 29784.449462946846
 c5541: 120 p_2_1 + 120 p_2_3 + 120 p_2_5 + 12115.729059411457 z_2_1 + 12115.729059411457 z_2_3 + 12115.729059411457 z_2_5 <= 38631.458118822913
 c5542: 120 p_2_1 + 120 p_2_3 + 120 p_2_6 + 8804.0421908429053 z_2_1 + 8804.0421908429053 z_2_3 + 8804.0421908429053 z_2_6 <= 29008.084381685811
 c5543: 120 p_2_1 + 120 p_2_3 + 120 p_2_7 + 9672.4341522454142 z_2_1 + 9672.4341522454142 z_2_3 + 9672.4341522454142 z_2_7 <= 31464.868304490828
 c5544: 120 p_2_1 + 120 p_2_3 + 120 p_2_8 + 8583.7986899107764 z_2_1 + 8583.7986899107764 z_2_3 + 8583.7986899107764 z_2_8 <= 27967.597379821549
 c5545: 120 p_2_1 + 120 p_2_3 + 120 p_2_9 + 8726.2651620400702 z_2_1 + 8726.2651620400702 z_2_3 + 8726.2651620400702 z_2_9 <= 28732.530324080137
 c5546: 120 p_2_1 + 120 p_2_10 + 120 p_2_3 + 8444.522706751126 z_2_1 + 8444.522706751126 z_2_10 + 8444.522706751126 z_2_3 <= 27929.045413502252
 c5547: 120 p_2_1 + 120 p_2_4 + 120 p_2_5 + 8923.0330789825057 z_2_1 + 8923.0330789825057 z_2_4 + 8923.0330789825057 z_2_5 <= 29486.066157965011
 c5548: 120 p_2_1 + 120 p_2_4 + 120 p_2_6 + 6026.6309034407868 z_2_1 + 6026.6309034407868 z_2_4 + 6026.6309034407868 z_2_6 <= 20693.261806881575
 c5549: 120 p_2_1 + 120 p_2_4 + 120 p_2_7 + 6421.9160895786636 z_2_1 + 6421.9160895786636 z_2_4 + 6421.9160895786636 z_2_7 <= 22203.832179157329
 c5550: 120 p_2_1 + 120 p_2_4 + 120 p_2_8 + 5373.2820075204418 z_2_1 + 5373.2820075204418 z_2_4 + 5373.2820075204418 z_2_8 <= 18786.564015040884
 c5551: 120 p_2_1 + 120 p_2_4 + 120 p_2_9 + 5924.0562096499661 z_2_1 + 5924.0562096499661 z_2_4 + 5924.0562096499661 z_2_9 <= 20368.11241929993
 c5552: 120 p_2_1 + 120 p_2_10 + 120 p_2_4 + 5214.5252207089788 z_2_1 + 5214.5252207089788 z_2_10 + 5214.5252207089788 z_2_4 <= 18709.050441417956
 c5553: 120 p_2_1 + 120 p_2_5 + 120 p_2_6 + 9046.8480993886005 z_2_1 + 9046.8480993886005 z_2_5 + 9046.8480993886005 z_2_6 <= 29493.696198777201
 c5554: 120 p_2_1 + 120 p_2_5 + 120 p_2_7 + 9530.2795324265062 z_2_1 + 9530.2795324265062 z_2_5 + 9530.2795324265062 z_2_7 <= 31180.559064853012
 c5555: 120 p_2_1 + 120 p_2_5 + 120 p_2_8 + 8078.7165481916891 z_2_1 + 8078.7165481916891 z_2_5 + 8078.7165481916891 z_2_8 <= 26957.433096383378
 c5556: 120 p_2_1 + 120 p_2_5 + 120 p_2_9 + 8897.8253561603415 z_2_1 + 8897.8253561603415 z_2_5 + 8897.8253561603415 z_2_9 <= 29075.650712320683
 c5557: 120 p_2_1 + 120 p_2_10 + 120 p_2_5 + 8293.0774832236893 z_2_1 + 8293.0774832236893 z_2_10 + 8293.0774832236893 z_2_5 <= 27626.154966447379
 c5558: 120 p_2_1 + 120 p_2_6 + 120 p_2_7 + 6629.8497413237765 z_2_1 + 6629.8497413237765 z_2_6 + 6629.8497413237765 z_2_7 <= 22379.699482647549
 c5559: 120 p_2_1 + 120 p_2_6 + 120 p_2_8 + 5509.374775391032 z_2_1 + 5509.374775391032 z_2_6 + 5509.374775391032 z_2_8 <= 18818.749550782064
 c5560: 120 p_2_1 + 120 p_2_6 + 120 p_2_9 + 5660.3025510026291 z_2_1 + 5660.3025510026291 z_2_6 + 5660.3025510026291 z_2_9 <= 19600.605102005262
 c5561: 120 p_2_1 + 120 p_2_10 + 120 p_2_6 + 5397.9112108744375 z_2_1 + 5397.9112108744375 z_2_10 + 5397.9112108744375 z_2_6 <= 18835.822421748875
 c5562: 120 p_2_1 + 120 p_2_7 + 120 p_2_8 + 5979.6591627425023 z_2_1 + 5979.6591627425023 z_2_7 + 5979.6591627425023 z_2_8 <= 20479.318325485008
 c5563: 120 p_2_1 + 120 p_2_7 + 120 p_2_9 + 6529.0891045445351 z_2_1 + 6529.0891045445351 z_2_7 + 6529.0891045445351 z_2_9 <= 22058.17820908907
 c5564: 120 p_2_1 + 120 p_2_10 + 120 p_2_7 + 5822.094357160363 z_2_1 + 5822.094357160363 z_2_10 + 5822.094357160363 z_2_7 <= 20404.188714320724
 c5565: 120 p_2_1 + 120 p_2_8 + 120 p_2_9 + 5360.5290300142697 z_2_1 + 5360.5290300142697 z_2_8 + 5360.5290300142697 z_2_9 <= 18401.058060028539
 c5566: 120 p_2_1 + 120 p_2_10 + 120 p_2_8 + 4743.3264117616254 z_2_1 + 4743.3264117616254 z_2_10 + 4743.3264117616254 z_2_8 <= 16926.652823523251
 c5567: 120 p_2_1 + 120 p_2_10 + 120 p_2_9 + 5294.7164273510452 z_2_1 + 5294.7164273510452 z_2_10 + 5294.7164273510452 z_2_9 <= 18509.432854702089
 c5568: 120 p_2_2 + 120 p_2_3 + 120 p_2_4 + 10043.416815607106 z_2_2 + 10043.416815607106 z_2_3 + 10043.416815607106 z_2_4 <= 32446.833631214213
 c5569: 120 p_2_2 + 120 p_2_3 + 120 p_2_5 + 12439.853234881444 z_2_2 + 12439.853234881444 z_2_3 + 12439.853234881444 z_2_5 <= 39999.706469762881
 c5570: 120 p_2_2 + 120 p_2_3 + 120 p_2_6 + 9374.5908172292093 z_2_2 + 9374.5908172292093 z_2_3 + 9374.5908172292093 z_2_6 <= 30869.181634458415
 c5571: 120 p_2_2 + 120 p_2_3 + 120 p_2_7 + 10650.917337157693 z_2_2 + 10650.917337157693 z_2_3 + 10650.917337157693 z_2_7 <= 34141.834674315389
 c5572: 120 p_2_2 + 120 p_2_3 + 120 p_2_8 + 8924.6883769970045 z_2_2 + 8924.6883769970045 z_2_3 + 8924.6883769970045 z_2_8 <= 29369.376753994009
 c5573: 120 p_2_2 + 120 p_2_3 + 120 p_2_9 + 9276.0378467109113 z_2_2 + 9276.0378467109113 z_2_3 + 9276.0378467109113 z_2_9 <= 30552.075693421823
 c5574: 120 p_2_10 + 120 p_2_2 + 120 p_2_3 + 9405.4753385497897 z_2_10 + 9405.4753385497897 z_2_2 + 9405.4753385497897 z_2_3 <= 30570.950677099579
 c5575: 120 p_2_2 + 120 p_2_4 + 120 p_2_5 + 9642.7535397993088 z_2_2 + 9642.7535397993088 z_2_4 + 9642.7535397993088 z_2_5 <= 31645.507079598618
 c5576: 120 p_2_2 + 120 p_2_4 + 120 p_2_6 + 6984.7648147488671 z_2_2 + 6984.7648147488671 z_2_4 + 6984.7648147488671 z_2_6 <= 23329.529629497734
 c5577: 120 p_2_2 + 120 p_2_4 + 120 p_2_7 + 7403.5964656043097 z_2_2 + 7403.5964656043097 z_2_4 + 7403.5964656043097 z_2_7 <= 24887.192931208618
 c5578: 120 p_2_2 + 120 p_2_4 + 120 p_2_8 + 6094.028678235285 z_2_2 + 6094.028678235285 z_2_4 + 6094.028678235285 z_2_8 <= 20948.05735647057
 c5579: 120 p_2_2 + 120 p_2_4 + 120 p_2_9 + 6860.0980685988288 z_2_2 + 6860.0980685988288 z_2_4 + 6860.0980685988288 z_2_9 <= 22960.196137197658
 c5580: 120 p_2_10 + 120 p_2_2 + 120 p_2_4 + 6194.5666016883952 z_2_10 + 6194.5666016883952 z_2_2 + 6194.5666016883952 z_2_4 <= 21389.13320337679
 c5581: 120 p_2_2 + 120 p_2_5 + 120 p_2_6 + 9353.3572454559398 z_2_2 + 9353.3572454559398 z_2_5 + 9353.3572454559398 z_2_6 <= 30826.71449091188
 c5582: 120 p_2_2 + 120 p_2_5 + 120 p_2_7 + 10250.684191297711 z_2_2 + 10250.684191297711 z_2_5 + 10250.684191297711 z_2_7 <= 33341.368382595421
 c5583: 120 p_2_2 + 120 p_2_5 + 120 p_2_8 + 8407.7994093469151 z_2_2 + 8407.7994093469151 z_2_5 + 8407.7994093469151 z_2_8 <= 28335.598818693827
 c5584: 120 p_2_2 + 120 p_2_5 + 120 p_2_9 + 9204.3345022276808 z_2_2 + 9204.3345022276808 z_2_5 + 9204.3345022276808 z_2_9 <= 30408.669004455362
 c5585: 120 p_2_10 + 120 p_2_2 + 120 p_2_5 + 9004.930997182877 z_2_10 + 9004.930997182877 z_2_2 + 9004.930997182877 z_2_5 <= 29769.861994365754
 c5586: 120 p_2_2 + 120 p_2_6 + 120 p_2_7 + 7595.274753410451 z_2_2 + 7595.274753410451 z_2_6 + 7595.274753410451 z_2_7 <= 25030.549506820906
 c5587: 120 p_2_2 + 120 p_2_6 + 120 p_2_8 + 5838.4576365462581 z_2_2 + 5838.4576365462581 z_2_6 + 5838.4576365462581 z_2_8 <= 20196.91527309252
 c5588: 120 p_2_2 + 120 p_2_6 + 120 p_2_9 + 6188.7634880289625 z_2_2 + 6188.7634880289625 z_2_6 + 6188.7634880289625 z_2_9 <= 21377.526976057925
 c5589: 120 p_2_10 + 120 p_2_2 + 120 p_2_6 + 6345.8056698475002 z_2_10 + 6345.8056698475002 z_2_2 + 6345.8056698475002 z_2_6 <= 21451.611339694999
 c5590: 120 p_2_2 + 120 p_2_7 + 120 p_2_8 + 6698.5463170799339 z_2_2 + 6698.5463170799339 z_2_7 + 6698.5463170799339 z_2_8 <= 22637.092634159868
 c5591: 120 p_2_2 + 120 p_2_7 + 120 p_2_9 + 7468.9835170890592 z_2_2 + 7468.9835170890592 z_2_7 + 7468.9835170890592 z_2_9 <= 24657.96703417812
 c5592: 120 p_2_10 + 120 p_2_2 + 120 p_2_7 + 6803.7747331860091 z_2_10 + 6803.7747331860091 z_2_2 + 6803.7747331860091 z_2_7 <= 23087.54946637202
 c5593: 120 p_2_2 + 120 p_2_8 + 120 p_2_9 + 5689.6118911694957 z_2_2 + 5689.6118911694957 z_2_8 + 5689.6118911694957 z_2_9 <= 19779.223782338991
 c5594: 120 p_2_10 + 120 p_2_2 + 120 p_2_8 + 5457.5826101863804 z_2_10 + 5457.5826101863804 z_2_2 + 5457.5826101863804 z_2_8 <= 19075.165220372761
 c5595: 120 p_2_10 + 120 p_2_2 + 120 p_2_9 + 6221.834944608644 z_2_10 + 6221.834944608644 z_2_2 + 6221.834944608644 z_2_9 <= 21083.66988921729
 c5596: 120 p_2_3 + 120 p_2_4 + 120 p_2_5 + 12993.151835649582 z_2_3 + 12993.151835649582 z_2_4 + 12993.151835649582 z_2_5 <= 41226.303671299167
 c5597: 120 p_2_3 + 120 p_2_4 + 120 p_2_6 + 9681.4649670810322 z_2_3 + 9681.4649670810322 z_2_4 + 9681.4649670810322 z_2_6 <= 31602.929934162064
 c5598: 120 p_2_3 + 120 p_2_4 + 120 p_2_7 + 10510.109616313712 z_2_3 + 10510.109616313712 z_2_4 + 10510.109616313712 z_2_7 <= 33980.219232627423
 c5599: 120 p_2_3 + 120 p_2_4 + 120 p_2_8 + 9470.3720833049083 z_2_3 + 9470.3720833049083 z_2_4 + 9470.3720833049083 z_2_8 <= 30580.744166609817
 c5600: 120 p_2_3 + 120 p_2_4 + 120 p_2_9 + 9603.6879382781954 z_2_3 + 9603.6879382781954 z_2_4 + 9603.6879382781954 z_2_9 <= 31327.375876556391
 c5601: 120 p_2_10 + 120 p_2_3 + 120 p_2_4 + 9302.4646793374395 z_2_10 + 9302.4646793374395 z_2_3 + 9302.4646793374395 z_2_4 <= 30484.929358674875
 c5602: 120 p_2_3 + 120 p_2_5 + 120 p_2_6 + 12322.11409593928 z_2_3 + 12322.11409593928 z_2_5 + 12322.11409593928 z_2_6 <= 39644.228191878559
 c5603: 120 p_2_3 + 120 p_2_5 + 120 p_2_7 + 13600.652357200168 z_2_3 + 13600.652357200168 z_2_5 + 13600.652357200168 z_2_7 <= 42921.304714400336
 c5604: 120 p_2_3 + 120 p_2_5 + 120 p_2_8 + 11803.598882117945 z_2_3 + 11803.598882117945 z_2_5 + 11803.598882117945 z_2_8 <= 38007.197764235883
 c5605: 120 p_2_3 + 120 p_2_5 + 120 p_2_9 + 12219.02230468105 z_2_3 + 12219.02230468105 z_2_5 + 12219.02230468105 z_2_9 <= 39318.044609362099
 c5606: 120 p_2_10 + 120 p_2_3 + 120 p_2_5 + 12355.210358592267 z_2_10 + 12355.210358592267 z_2_3 + 12355.210358592267 z_2_5 <= 39350.420717184534
 c5607: 120 p_2_3 + 120 p_2_6 + 120 p_2_7 + 10288.965488631618 z_2_3 + 10288.965488631618 z_2_6 + 10288.965488631618 z_2_7 <= 33297.930977263233
 c5608: 120 p_2_3 + 120 p_2_6 + 120 p_2_8 + 8807.3278938625281 z_2_3 + 8807.3278938625281 z_2_6 + 8807.3278938625281 z_2_8 <= 29014.655787725053
 c5609: 120 p_2_3 + 120 p_2_6 + 120 p_2_9 + 8931.8718293114525 z_2_3 + 8931.8718293114525 z_2_6 + 8931.8718293114525 z_2_9 <= 29743.743658622905
 c5610: 120 p_2_10 + 120 p_2_3 + 120 p_2_6 + 9043.5234900237156 z_2_10 + 9043.5234900237156 z_2_3 + 9043.5234900237156 z_2_6 <= 29727.046980047431
 c5611: 120 p_2_3 + 120 p_2_7 + 120 p_2_8 + 10067.85268947755 z_2_3 + 10067.85268947755 z_2_7 + 10067.85268947755 z_2_8 <= 32255.705378955099
 c5612: 120 p_2_3 + 120 p_2_7 + 120 p_2_9 + 10211.188459828783 z_2_3 + 10211.188459828783 z_2_7 + 10211.188459828783 z_2_9 <= 33022.376919657567
 c5613: 120 p_2_10 + 120 p_2_3 + 120 p_2_7 + 9910.2878838954093 z_2_10 + 9910.2878838954093 z_2_3 + 9910.2878838954093 z_2_7 <= 32180.575767790819
 c5614: 120 p_2_3 + 120 p_2_8 + 120 p_2_9 + 8704.4131004557912 z_2_3 + 8704.4131004557912 z_2_8 + 8704.4131004557912 z_2_9 <= 28688.826200911579
 c5615: 120 p_2_10 + 120 p_2_3 + 120 p_2_8 + 8836.1795862925228 z_2_10 + 8836.1795862925228 z_2_3 + 8836.1795862925228 z_2_8 <= 28712.359172585049
 c5616: 120 p_2_10 + 120 p_2_3 + 120 p_2_9 + 8965.7464612208823 z_2_10 + 8965.7464612208823 z_2_3 + 8965.7464612208823 z_2_9 <= 29451.492922441765
 c5617: 120 p_2_4 + 120 p_2_5 + 120 p_2_6 + 9932.2880934589375 z_2_4 + 9932.2880934589375 z_2_5 + 9932.2880934589375 z_2_6 <= 32104.576186917875
 c5618: 120 p_2_4 + 120 p_2_5 + 120 p_2_7 + 10369.359094195646 z_2_4 + 10369.359094195646 z_2_5 + 10369.359094195646 z_2_7 <= 33698.718188391293
 c5619: 120 p_2_4 + 120 p_2_5 + 120 p_2_8 + 8984.9516818459615 z_2_4 + 8984.9516818459615 z_2_5 + 8984.9516818459615 z_2_8 <= 29609.903363691923
 c5620: 120 p_2_4 + 120 p_2_5 + 120 p_2_9 + 9802.920873083649 z_2_4 + 9802.920873083649 z_2_5 + 9802.920873083649 z_2_9 <= 31725.841746167302
 c5621: 120 p_2_10 + 120 p_2_4 + 120 p_2_5 + 9161.2840272715621 z_2_10 + 9161.2840272715621 z_2_4 + 9161.2840272715621 z_2_5 <= 30202.568054543124
 c5622: 120 p_2_4 + 120 p_2_6 + 120 p_2_7 + 7467.5252053920731 z_2_4 + 7467.5252053920731 z_2_6 + 7467.5252053920731 z_2_7 <= 24895.050410784144
 c5623: 120 p_2_4 + 120 p_2_6 + 120 p_2_8 + 6415.6099090453044 z_2_4 + 6415.6099090453044 z_2_6 + 6415.6099090453044 z_2_8 <= 21471.219818090605
 c5624: 120 p_2_4 + 120 p_2_6 + 120 p_2_9 + 6542.0458268311113 z_2_4 + 6542.0458268311113 z_2_6 + 6542.0458268311113 z_2_9 <= 22204.091653662221
 c5625: 120 p_2_10 + 120 p_2_4 + 120 p_2_6 + 6256.8708513048041 z_2_10 + 6256.8708513048041 z_2_4 + 6256.8708513048041 z_2_6 <= 21393.741702609608
 c5626: 120 p_2_4 + 120 p_2_7 + 120 p_2_8 + 6817.334626810798 z_2_4 + 6817.334626810798 z_2_7 + 6817.334626810798 z_2_8 <= 22994.669253621592
 c5627: 120 p_2_4 + 120 p_2_7 + 120 p_2_9 + 7366.7645686128317 z_2_4 + 7366.7645686128317 z_2_7 + 7366.7645686128317 z_2_9 <= 24573.529137225665
 c5628: 120 p_2_10 + 120 p_2_4 + 120 p_2_7 + 6659.4471382212751 z_2_10 + 6659.4471382212751 z_2_4 + 6659.4471382212751 z_2_7 <= 22918.894276442548
 c5629: 120 p_2_4 + 120 p_2_8 + 120 p_2_9 + 6266.764163668543 z_2_4 + 6266.764163668543 z_2_8 + 6266.764163668543 z_2_9 <= 21053.528327337084
 c5630: 120 p_2_10 + 120 p_2_4 + 120 p_2_8 + 5612.6725725404649 z_2_10 + 5612.6725725404649 z_2_4 + 5612.6725725404649 z_2_8 <= 19505.34514508093
 c5631: 120 p_2_10 + 120 p_2_4 + 120 p_2_9 + 6154.2961575139843 z_2_10 + 6154.2961575139843 z_2_4 + 6154.2961575139843 z_2_9 <= 21068.592315027967
 c5632: 120 p_2_5 + 120 p_2_6 + 120 p_2_7 + 10542.798032120521 z_2_5 + 10542.798032120521 z_2_6 + 10542.798032120521 z_2_7 <= 33805.596064241043
 c5633: 120 p_2_5 + 120 p_2_6 + 120 p_2_8 + 8717.1028926924391 z_2_5 + 8717.1028926924391 z_2_6 + 8717.1028926924391 z_2_8 <= 28834.205785384875
 c5634: 120 p_2_5 + 120 p_2_6 + 120 p_2_9 + 9131.7479459991009 z_2_5 + 9131.7479459991009 z_2_6 + 9131.7479459991009 z_2_9 <= 30143.495891998202
 c5635: 120 p_2_10 + 120 p_2_5 + 120 p_2_6 + 9293.3289485575697 z_2_10 + 9293.3289485575697 z_2_5 + 9293.3289485575697 z_2_6 <= 30226.657897115139
 c5636: 120 p_2_5 + 120 p_2_7 + 120 p_2_8 + 9589.4693206906104 z_2_5 + 9589.4693206906104 z_2_7 + 9589.4693206906104 z_2_8 <= 31298.938641381221
 c5637: 120 p_2_5 + 120 p_2_7 + 120 p_2_9 + 10410.851524582049 z_2_5 + 10410.851524582049 z_2_7 + 10410.851524582049 z_2_9 <= 33421.703049164098
 c5638: 120 p_2_10 + 120 p_2_5 + 120 p_2_7 + 9769.5373617773457 z_2_10 + 9769.5373617773457 z_2_5 + 9769.5373617773457 z_2_7 <= 31899.074723554695
 c5639: 120 p_2_5 + 120 p_2_8 + 120 p_2_9 + 8568.0801494641819 z_2_5 + 8568.0801494641819 z_2_8 + 8568.0801494641819 z_2_9 <= 28416.160298928364
 c5640: 120 p_2_10 + 120 p_2_5 + 120 p_2_8 + 8348.5056137970569 z_2_10 + 8348.5056137970569 z_2_5 + 8348.5056137970569 z_2_8 <= 27737.011227594114
 c5641: 120 p_2_10 + 120 p_2_5 + 120 p_2_9 + 9164.8194025787834 z_2_10 + 9164.8194025787834 z_2_5 + 9164.8194025787834 z_2_9 <= 29849.63880515757
 c5642: 120 p_2_6 + 120 p_2_7 + 120 p_2_8 + 7020.1275478899543 z_2_6 + 7020.1275478899543 z_2_7 + 7020.1275478899543 z_2_8 <= 23160.255095779907
 c5643: 120 p_2_6 + 120 p_2_7 + 120 p_2_9 + 7152.5557654926943 z_2_6 + 7152.5557654926943 z_2_7 + 7152.5557654926943 z_2_9 <= 23905.111530985385
 c5644: 120 p_2_10 + 120 p_2_6 + 120 p_2_7 + 6867.7034729737716 z_2_10 + 6867.7034729737716 z_2_6 + 6867.7034729737716 z_2_7 <= 23095.406945947543
 c5645: 120 p_2_6 + 120 p_2_8 + 120 p_2_9 + 5617.1387417738442 z_2_6 + 5617.1387417738442 z_2_8 + 5617.1387417738442 z_2_9 <= 19514.277483547688
 c5646: 120 p_2_10 + 120 p_2_6 + 120 p_2_8 + 5778.5427464808181 z_2_10 + 5778.5427464808181 z_2_6 + 5778.5427464808181 z_2_8 <= 19597.085492961636
 c5647: 120 p_2_10 + 120 p_2_6 + 120 p_2_9 + 5903.0866819297435 z_2_10 + 5903.0866819297435 z_2_6 + 5903.0866819297435 z_2_9 <= 20326.173363859485
 c5648: 120 p_2_7 + 120 p_2_8 + 120 p_2_9 + 6871.2818025131919 z_2_7 + 6871.2818025131919 z_2_8 + 6871.2818025131919 z_2_9 <= 22742.563605026382
 c5649: 120 p_2_10 + 120 p_2_7 + 120 p_2_8 + 6217.5128943924974 z_2_10 + 6217.5128943924974 z_2_7 + 6217.5128943924974 z_2_8 <= 21195.025788784995
 c5650: 120 p_2_10 + 120 p_2_7 + 120 p_2_9 + 6766.9428361945302 z_2_10 + 6766.9428361945302 z_2_7 + 6766.9428361945302 z_2_9 <= 22773.885672389057
 c5651: 120 p_2_10 + 120 p_2_8 + 120 p_2_9 + 5630.3180956196384 z_2_10 + 5630.3180956196384 z_2_8 + 5630.3180956196384 z_2_9 <= 19180.636191239279
 c5652: z_0_1 + z_0_10 + z_0_2 + z_0_3 + z_0_4 + z_0_5 + z_0_6 + z_0_7 + z_0_8 + z_0_9 - z_1_1 - z_1_10 - z_1_2 - z_1_3 - z_1_4 - z_1_5 - z_1_6 - z_1_7 - z_1_8 - z_1_9 >= 0
 c5653: z_1_1 + z_1_10 + z_1_2 + z_1_3 + z_1_4 + z_1_5 + z_1_6 + z_1_7 + z_1_8 + z_1_9 - z_2_1 - z_2_10 - z_2_2 - z_2_3 - z_2_4 - z_2_5 - z_2_6 - z_2_7 - z_2_8 - z_2_9 >= 0
 c5654: Y_1 - d_0_1 - d_1_1 - d_2_1 + p_0_1 + p_1_1 + p_2_1 = 0
 c5655: - 0.030303030303030304 Y_1 + r_1 = 0
 c5656: e_1 - r_1 >= -1
 c5657: e_1 + r_1 >= 1
 c5658: Y_2 - d_0_2 - d_1_2 - d_2_2 + p_0_2 + p_1_2 + p_2_2 = 6
 c5659: - 0.043478260869565216 Y_2 + r_2 = 0
 c5660: e_2 - r_2 >= -1
 c5661: e_2 + r_2 >= 1
 c5662: Y_3 - d_0_3 - d_1_3 - d_2_3 + p_0_3 + p_1_3 + p_2_3 = 34
 c5663: - 0.33333333333333331 Y_3 + r_3 = 0
 c5664: e_3 - r_3 >= -1
 c5665: e_3 + r_3 >= 1
 c5666: Y_4 - d_0_4 - d_1_4 - d_2_4 + p_0_4 + p_1_4 + p_2_4 = 7
 c5667: - 0.037037037037037035 Y_4 + r_4 = 0
 c5668: e_4 - r_4 >= -1
 c5669: e_4 + r_4 >= 1
 c5670: Y_5 - d_0_5 - d_1_5 - d_2_5 + p_0_5 + p_1_5 + p_2_5 = 32
 c5671: - 0.20000000000000001 Y_5 + r_5 = 0
 c5672: e_5 - r_5 >= -1
 c5673: e_5 + r_5 >= 1
 c5674: Y_6 - d_0_6 - d_1_6 - d_2_6 + p_0_6 + p_1_6 + p_2_6 = 5
 c5675: - 0.023255813953488372 Y_6 + r_6 = 0
 c5676: e_6 - r_6 >= -1
 c5677: e_6 + r_6 >= 1
 c5678: Y_7 - d_0_7 - d_1_7 - d_2_7 + p_0_7 + p_1_7 + p_2_7 = 11
 c5679: - 0.024390243902439025 Y_7 + r_7 = 0
 c5680: e_7 - r_7 >= -1
 c5681: e_7 + r_7 >= 1
 c5682: Y_8 - d_0_8 - d_1_8 - d_2_8 + p_0_8 + p_1_8 + p_2_8 = 0
 c5683: - 0.027777777777777776 Y_8 + r_8 = 0
 c5684: e_8 - r_8 >= -1
 c5685: e_8 + r_8 >= 1
 c5686: Y_9 - d_0_9 - d_1_9 - d_2_9 + p_0_9 + p_1_9 + p_2_9 = 4
 c5687: - 0.047619047619047616 Y_9 + r_9 = 0
 c5688: e_9 - r_9 >= -1
 c5689: e_9 + r_9 >= 1
 c5690: Y_10 - d_0_10 - d_1_10 - d_2_10 + p_0_10 + p_1_10 + p_2_10 = 2
 c5691: - 0.052631578947368418 Y_10 + r_10 = 0
 c5692: e_10 - r_10 >= -1
 c5693: e_10 + r_10 >= 1
 c5694: Y_1 - 36 z_0_1 - 36 z_1_1 - 36 z_2_1 <= 0
 c5695: - Y_1 <= 0
 c5696: Y_2 - 18 z_0_2 - 18 z_1_2 - 18 z_2_2 <= 6
 c5697: - Y_2 - 6 z_0_2 - 6 z_1_2 - 6 z_2_2 <= -6
 c5698: Y_3 - 3 z_0_3 - 3 z_1_3 - 3 z_2_3 <= 34
 c5699: - Y_3 - 34 z_0_3 - 34 z_1_3 - 34 z_2_3 <= -34
 c5700: Y_4 - 24 z_0_4 - 24 z_1_4 - 24 z_2_4 <= 7
 c5701: - Y_4 - 7 z_0_4 - 7 z_1_4 - 7 z_2_4 <= -7
 c5702: Y_5 - 2 z_0_5 - 2 z_1_5 - 2 z_2_5 <= 32
 c5703: - Y_5 - 32 z_0_5 - 32 z_1_5 - 32 z_2_5 <= -32
 c5704: Y_6 - 45 z_0_6 - 45 z_1_6 - 45 z_2_6 <= 5
 c5705: - Y_6 - 5 z_0_6 - 5 z_1_6 - 5 z_2_6 <= -5
 c5706: Y_7 - 39 z_0_7 - 39 z_1_7 - 39 z_2_7 <= 11
 c5707: - Y_7 - 11 z_0_7 - 11 z_1_7 - 11 z_2_7 <= -11
 c5708: Y_8 - 38 z_0_8 - 38 z_1_8 - 38 z_2_8 <= 0
 c5709: - Y_8 <= 0
 c5710: Y_9 - 25 z_0_9 - 25 z_1_9 - 25 z_2_9 <= 4
 c5711: - Y_9 - 4 z_0_9 - 4 z_1_9 - 4 z_2_9 <= -4
 c5712: Y_10 - 22 z_0_10 - 22 z_1_10 - 22 z_2_10 <= 2
 c5713: - Y_10 - 2 z_0_10 - 2 z_1_10 - 2 z_2_10 <= -2
 c5714: 120 p_0_1 + 120 p_0_10 + 120 p_0_2 + 120 p_0_3 + 120 p_0_4 + 120 p_0_5 + 120 p_0_6 + 120 p_0_7 + 120 p_0_8 + 120 p_0_9 + 120 p_1_1 + 120 p_1_10 + 120 p_1_2 + 120 p_1_3 + 120 p_1_4 + 120 p_1_5 + 120 p_1_6 + 120 p_1_7 + 120 p_1_8 + 120 p_1_9 + 120 p_2_1 + 120 p_2_10 + 120 p_2_2 + 120 p_2_3 + 120 p_2_4 + 120 p_2_5 + 120 p_2_6 + 120 p_2_7 + 120 p_2_8 + 120 p_2_9 <= 10800
 c5715: h_1_2 - r_1 + r_2 >= 0
 c5716: h_1_2 + r_1 - r_2 >= 0
 c5717: h_1_3 - r_1 + r_3 >= 0
 c5718: h_1_3 + r_1 - r_3 >= 0
 c5719: h_1_4 - r_1 + r_4 >= 0
 c5720: h_1_4 + r_1 - r_4 >= 0
 c5721: h_1_5 - r_1 + r_5 >= 0
 c5722: h_1_5 + r_1 - r_5 >= 0
 c5723: h_1_6 - r_1 + r_6 >= 0
 c5724: h_1_6 + r_1 - r_6 >= 0
 c5725: h_1_7 - r_1 + r_7 >= 0
 c5726: h_1_7 + r_1 - r_7 >= 0
 c5727: h_1_8 - r_1 + r_8 >= 0
 c5728: h_1_8 + r_1 - r_8 >= 0
 c5729: h_1_9 - r_1 + r_9 >= 0
 c5730: h_1_9 + r_1 - r_9 >= 0
 c5731: h_1_10 - r_1 + r_10 >= 0
 c5732: h_1_10 + r_1 - r_10 >= 0
 c5733: h_2_3 - r_2 + r_3 >= 0
 c5734: h_2_3 + r_2 - r_3 >= 0
 c5735: h_2_4 - r_2 + r_4 >= 0
 c5736: h_2_4 + r_2 - r_4 >= 0
 c5737: h_2_5 - r_2 + r_5 >= 0
 c5738: h_2_5 + r_2 - r_5 >= 0
 c5739: h_2_6 - r_2 + r_6 >= 0
 c5740: h_2_6 + r_2 - r_6 >= 0
 c5741: h_2_7 - r_2 + r_7 >= 0
 c5742: h_2_7 + r_2 - r_7 >= 0
 c5743: h_2_8 - r_2 + r_8 >= 0
 c5744: h_2_8 + r_2 - r_8 >= 0
 c5745: h_2_9 - r_2 + r_9 >= 0
 c5746: h_2_9 + r_2 - r_9 >= 0
 c5747: h_2_10 + r_10 - r_2 >= 0
 c5748: h_2_10 - r_10 + r_2 >= 0
 c5749: h_3_4 - r_3 + r_4 >= 0
 c5750: h_3_4 + r_3 - r_4 >= 0
 c5751: h_3_5 - r_3 + r_5 >= 0
 c5752: h_3_5 + r_3 - r_5 >= 0
 c5753: h_3_6 - r_3 + r_6 >= 0
 c5754: h_3_6 + r_3 - r_6 >= 0
 c5755: h_3_7 - r_3 + r_7 >= 0
 c5756: h_3_7 + r_3 - r_7 >= 0
 c5757: h_3_8 - r_3 + r_8 >= 0
 c5758: h_3_8 + r_3 - r_8 >= 0
 c5759: h_3_9 - r_3 + r_9 >= 0
 c5760: h_3_9 + r_3 - r_9 >= 0
 c5761: h_3_10 + r_10 - r_3 >= 0
 c5762: h_3_10 - r_10 + r_3 >= 0
 c5763: h_4_5 - r_4 + r_5 >= 0
 c5764: h_4_5 + r_4 - r_5 >= 0
 c5765: h_4_6 - r_4 + r_6 >= 0
 c5766: h_4_6 + r_4 - r_6 >= 0
 c5767: h_4_7 - r_4 + r_7 >= 0
 c5768: h_4_7 + r_4 - r_7 >= 0
 c5769: h_4_8 - r_4 + r_8 >= 0
 c5770: h_4_8 + r_4 - r_8 >= 0
 c5771: h_4_9 - r_4 + r_9 >= 0
 c5772: h_4_9 + r_4 - r_9 >= 0
 c5773: h_4_10 + r_10 - r_4 >= 0
 c5774: h_4_10 - r_10 + r_4 >= 0
 c5775: h_5_6 - r_5 + r_6 >= 0
 c5776: h_5_6 + r_5 - r_6 >= 0
 c5777: h_5_7 - r_5 + r_7 >= 0
 c5778: h_5_7 + r_5 - r_7 >= 0
 c5779: h_5_8 - r_5 + r_8 >= 0
 c5780: h_5_8 + r_5 - r_8 >= 0
 c5781: h_5_9 - r_5 + r_9 >= 0
 c5782: h_5_9 + r_5 - r_9 >= 0
 c5783: h_5_10 + r_10 - r_5 >= 0
 c5784: h_5_10 - r_10 + r_5 >= 0
 c5785: h_6_7 - r_6 + r_7 >= 0
 c5786: h_6_7 + r_6 - r_7 >= 0
 c5787: h_6_8 - r_6 + r_8 >= 0
 c5788: h_6_8 + r_6 - r_8 >= 0
 c5789: h_6_9 - r_6 + r_9 >= 0
 c5790: h_6_9 + r_6 - r_9 >= 0
 c5791: h_6_10 + r_10 - r_6 >= 0
 c5792: h_6_10 - r_10 + r_6 >= 0
 c5793: h_7_8 - r_7 + r_8 >= 0
 c5794: h_7_8 + r_7 - r_8 >= 0
 c5795: h_7_9 - r_7 + r_9 >= 0
 c5796: h_7_9 + r_7 - r_9 >= 0
 c5797: h_7_10 + r_10 - r_7 >= 0
 c5798: h_7_10 - r_10 + r_7 >= 0
 c5799: h_8_9 - r_8 + r_9 >= 0
 c5800: h_8_9 + r_8 - r_9 >= 0
 c5801: h_8_10 + r_10 - r_8 >= 0
 c5802: h_8_10 - r_10 + r_8 >= 0
 c5803: h_9_10 + r_10 - r_9 >= 0
 c5804: h_9_10 - r_10 + r_9 >= 0
 c5805: Y_1 - bit_1_0 - 2 bit_1_1 - 4 bit_1_2 - 8 bit_1_3 - 16 bit_1_4 - 32 bit_1_5 = 0
 c5806: - prod_1_0 - 2 prod_1_1 - 4 prod_1_2 - 8 prod_1_3 - 16 prod_1_4 - 32 prod_1_5 + zprod_1 = 0
 c5807: - G + prod_1_0 <= 0
 c5808: - bit_1_0 + prod_1_0 <= 0
 c5809: - G - bit_1_0 + prod_1_0 >= -1
 c5810: - G + prod_1_1 <= 0
 c5811: - bit_1_1 + prod_1_1 <= 0
 c5812: - G - bit_1_1 + prod_1_1 >= -1
 c5813: - G + prod_1_2 <= 0
 c5814: - bit_1_2 + prod_1_2 <= 0
 c5815: - G - bit_1_2 + prod_1_2 >= -1
 c5816: - G + prod_1_3 <= 0
 c5817: - bit_1_3 + prod_1_3 <= 0
 c5818: - G - bit_1_3 + prod_1_3 >= -1
 c5819: - G + prod_1_4 <= 0
 c5820: - bit_1_4 + prod_1_4 <= 0
 c5821: - G - bit_1_4 + prod_1_4 >= -1
 c5822: - G + prod_1_5 <= 0
 c5823: - bit_1_5 + prod_1_5 <= 0
 c5824: - G - bit_1_5 + prod_1_5 >= -1
 c5825: Y_2 - bit_2_0 - 2 bit_2_1 - 4 bit_2_2 - 8 bit_2_3 - 16 bit_2_4 = 0
 c5826: - prod_2_0 - 2 prod_2_1 - 4 prod_2_2 - 8 prod_2_3 - 16 prod_2_4 + zprod_2 = 0
 c5827: - G + prod_2_0 <= 0
 c5828: - bit_2_0 + prod_2_0 <= 0
 c5829: - G - bit_2_0 + prod_2_0 >= -1
 c5830: - G + prod_2_1 <= 0
 c5831: - bit_2_1 + prod_2_1 <= 0
 c5832: - G - bit_2_1 + prod_2_1 >= -1
 c5833: - G + prod_2_2 <= 0
 c5834: - bit_2_2 + prod_2_2 <= 0
 c5835: - G - bit_2_2 + prod_2_2 >= -1
 c5836: - G + prod_2_3 <= 0
 c5837: - bit_2_3 + prod_2_3 <= 0
 c5838: - G - bit_2_3 + prod_2_3 >= -1
 c5839: - G + prod_2_4 <= 0
 c5840: - bit_2_4 + prod_2_4 <= 0
 c5841: - G - bit_2_4 + prod_2_4 >= -1
 c5842: Y_3 - bit_3_0 - 2 bit_3_1 - 4 bit_3_2 - 8 bit_3_3 - 16 bit_3_4 - 32 bit_3_5 = 0
 c5843: - prod_3_0 - 2 prod_3_1 - 4 prod_3_2 - 8 prod_3_3 - 16 prod_3_4 - 32 prod_3_5 + zprod_3 = 0
 c5844: - G + prod_3_0 <= 0
 c5845: - bit_3_0 + prod_3_0 <= 0
 c5846: - G - bit_3_0 + prod_3_0 >= -1
 c5847: - G + prod_3_1 <= 0
 c5848: - bit_3_1 + prod_3_1 <= 0
 c5849: - G - bit_3_1 + prod_3_1 >= -1
 c5850: - G + prod_3_2 <= 0
 c5851: - bit_3_2 + prod_3_2 <= 0
 c5852: - G - bit_3_2 + prod_3_2 >= -1
 c5853: - G + prod_3_3 <= 0
 c5854: - bit_3_3 + prod_3_3 <= 0
 c5855: - G - bit_3_3 + prod_3_3 >= -1
 c5856: - G + prod_3_4 <= 0
 c5857: - bit_3_4 + prod_3_4 <= 0
 c5858: - G - bit_3_4 + prod_3_4 >= -1
 c5859: - G + prod_3_5 <= 0
 c5860: - bit_3_5 + prod_3_5 <= 0
 c5861: - G - bit_3_5 + prod_3_5 >= -1
 c5862: Y_4 - bit_4_0 - 2 bit_4_1 - 4 bit_4_2 - 8 bit_4_3 - 16 bit_4_4 = 0
 c5863: - prod_4_0 - 2 prod_4_1 - 4 prod_4_2 - 8 prod_4_3 - 16 prod_4_4 + zprod_4 = 0
 c5864: - G + prod_4_0 <= 0
 c5865: - bit_4_0 + prod_4_0 <= 0
 c5866: - G - bit_4_0 + prod_4_0 >= -1
 c5867: - G + prod_4_1 <= 0
 c5868: - bit_4_1 + prod_4_1 <= 0
 c5869: - G - bit_4_1 + prod_4_1 >= -1
 c5870: - G + prod_4_2 <= 0
 c5871: - bit_4_2 + prod_4_2 <= 0
 c5872: - G - bit_4_2 + prod_4_2 >= -1
 c5873: - G + prod_4_3 <= 0
 c5874: - bit_4_3 + prod_4_3 <= 0
 c5875: - G - bit_4_3 + prod_4_3 >= -1
 c5876: - G + prod_4_4 <= 0
 c5877: - bit_4_4 + prod_4_4 <= 0
 c5878: - G - bit_4_4 + prod_4_4 >= -1
 c5879: Y_5 - bit_5_0 - 2 bit_5_1 - 4 bit_5_2 - 8 bit_5_3 - 16 bit_5_4 - 32 bit_5_5 = 0
 c5880: - prod_5_0 - 2 prod_5_1 - 4 prod_5_2 - 8 prod_5_3 - 16 prod_5_4 - 32 prod_5_5 + zprod_5 = 0
 c5881: - G + prod_5_0 <= 0
 c5882: - bit_5_0 + prod_5_0 <= 0
 c5883: - G - bit_5_0 + prod_5_0 >= -1
 c5884: - G + prod_5_1 <= 0
 c5885: - bit_5_1 + prod_5_1 <= 0
 c5886: - G - bit_5_1 + prod_5_1 >= -1
 c5887: - G + prod_5_2 <= 0
 c5888: - bit_5_2 + prod_5_2 <= 0
 c5889: - G - bit_5_2 + prod_5_2 >= -1
 c5890: - G + prod_5_3 <= 0
 c5891: - bit_5_3 + prod_5_3 <= 0
 c5892: - G - bit_5_3 + prod_5_3 >= -1
 c5893: - G + prod_5_4 <= 0
 c5894: - bit_5_4 + prod_5_4 <= 0
 c5895: - G - bit_5_4 + prod_5_4 >= -1
 c5896: - G + prod_5_5 <= 0
 c5897: - bit_5_5 + prod_5_5 <= 0
 c5898: - G - bit_5_5 + prod_5_5 >= -1
 c5899: Y_6 - bit_6_0 - 2 bit_6_1 - 4 bit_6_2 - 8 bit_6_3 - 16 bit_6_4 - 32 bit_6_5 = 0
 c5900: - prod_6_0 - 2 prod_6_1 - 4 prod_6_2 - 8 prod_6_3 - 16 prod_6_4 - 32 prod_6_5 + zprod_6 = 0
 c5901: - G + prod_6_0 <= 0
 c5902: - bit_6_0 + prod_6_0 <= 0
 c5903: - G - bit_6_0 + prod_6_0 >= -1
 c5904: - G + prod_6_1 <= 0
 c5905: - bit_6_1 + prod_6_1 <= 0
 c5906: - G - bit_6_1 + prod_6_1 >= -1
 c5907: - G + prod_6_2 <= 0
 c5908: - bit_6_2 + prod_6_2 <= 0
 c5909: - G - bit_6_2 + prod_6_2 >= -1
 c5910: - G + prod_6_3 <= 0
 c5911: - bit_6_3 + prod_6_3 <= 0
 c5912: - G - bit_6_3 + prod_6_3 >= -1
 c5913: - G + prod_6_4 <= 0
 c5914: - bit_6_4 + prod_6_4 <= 0
 c5915: - G - bit_6_4 + prod_6_4 >= -1
 c5916: - G + prod_6_5 <= 0
 c5917: - bit_6_5 + prod_6_5 <= 0
 c5918: - G - bit_6_5 + prod_6_5 >= -1
 c5919: Y_7 - bit_7_0 - 2 bit_7_1 - 4 bit_7_2 - 8 bit_7_3 - 16 bit_7_4 - 32 bit_7_5 = 0
 c5920: - prod_7_0 - 2 prod_7_1 - 4 prod_7_2 - 8 prod_7_3 - 16 prod_7_4 - 32 prod_7_5 + zprod_7 = 0
 c5921: - G + prod_7_0 <= 0
 c5922: - bit_7_0 + prod_7_0 <= 0
 c5923: - G - bit_7_0 + prod_7_0 >= -1
 c5924: - G + prod_7_1 <= 0
 c5925: - bit_7_1 + prod_7_1 <= 0
 c5926: - G - bit_7_1 + prod_7_1 >= -1
 c5927: - G + prod_7_2 <= 0
 c5928: - bit_7_2 + prod_7_2 <= 0
 c5929: - G - bit_7_2 + prod_7_2 >= -1
 c5930: - G + prod_7_3 <= 0
 c5931: - bit_7_3 + prod_7_3 <= 0
 c5932: - G - bit_7_3 + prod_7_3 >= -1
 c5933: - G + prod_7_4 <= 0
 c5934: - bit_7_4 + prod_7_4 <= 0
 c5935: - G - bit_7_4 + prod_7_4 >= -1
 c5936: - G + prod_7_5 <= 0
 c5937: - bit_7_5 + prod_7_5 <= 0
 c5938: - G - bit_7_5 + prod_7_5 >= -1
 c5939: Y_8 - bit_8_0 - 2 bit_8_1 - 4 bit_8_2 - 8 bit_8_3 - 16 bit_8_4 - 32 bit_8_5 = 0
 c5940: - prod_8_0 - 2 prod_8_1 - 4 prod_8_2 - 8 prod_8_3 - 16 prod_8_4 - 32 prod_8_5 + zprod_8 = 0
 c5941: - G + prod_8_0 <= 0
 c5942: - bit_8_0 + prod_8_0 <= 0
 c5943: - G - bit_8_0 + prod_8_0 >= -1
 c5944: - G + prod_8_1 <= 0
 c5945: - bit_8_1 + prod_8_1 <= 0
 c5946: - G - bit_8_1 + prod_8_1 >= -1
 c5947: - G + prod_8_2 <= 0
 c5948: - bit_8_2 + prod_8_2 <= 0
 c5949: - G - bit_8_2 + prod_8_2 >= -1
 c5950: - G + prod_8_3 <= 0
 c5951: - bit_8_3 + prod_8_3 <= 0
 c5952: - G - bit_8_3 + prod_8_3 >= -1
 c5953: - G + prod_8_4 <= 0
 c5954: - bit_8_4 + prod_8_4 <= 0
 c5955: - G - bit_8_4 + prod_8_4 >= -1
 c5956: - G + prod_8_5 <= 0
 c5957: - bit_8_5 + prod_8_5 <= 0
 c5958: - G - bit_8_5 + prod_8_5 >= -1
 c5959: Y_9 - bit_9_0 - 2 bit_9_1 - 4 bit_9_2 - 8 bit_9_3 - 16 bit_9_4 = 0
 c5960: - prod_9_0 - 2 prod_9_1 - 4 prod_9_2 - 8 prod_9_3 - 16 prod_9_4 + zprod_9 = 0
 c5961: - G + prod_9_0 <= 0
 c5962: - bit_9_0 + prod_9_0 <= 0
 c5963: - G - bit_9_0 + prod_9_0 >= -1
 c5964: - G + prod_9_1 <= 0
 c5965: - bit_9_1 + prod_9_1 <= 0
 c5966: - G - bit_9_1 + prod_9_1 >= -1
 c5967: - G + prod_9_2 <= 0
 c5968: - bit_9_2 + prod_9_2 <= 0
 c5969: - G - bit_9_2 + prod_9_2 >= -1
 c5970: - G + prod_9_3 <= 0
 c5971: - bit_9_3 + prod_9_3 <= 0
 c5972: - G - bit_9_3 + prod_9_3 >= -1
 c5973: - G + prod_9_4 <= 0
 c5974: - bit_9_4 + prod_9_4 <= 0
 c5975: - G - bit_9_4 + prod_9_4 >= -1
 c5976: Y_10 - bit_10_0 - 2 bit_10_1 - 4 bit_10_2 - 8 bit_10_3 - 16 bit_10_4 = 0
 c5977: - prod_10_0 - 2 prod_10_1 - 4 prod_10_2 - 8 prod_10_3 - 16 prod_10_4 + zprod_10 = 0
 c5978: - G + prod_10_0 <= 0
 c5979: - bit_10_0 + prod_10_0 <= 0
 c5980: - G - bit_10_0 + prod_10_0 >= -1
 c5981: - G + prod_10_1 <= 0
 c5982: - bit_10_1 + prod_10_1 <= 0
 c5983: - G - bit_10_1 + prod_10_1 >= -1
 c5984: - G + prod_10_2 <= 0
 c5985: - bit_10_2 + prod_10_2 <= 0
 c5986: - G - bit_10_2 + prod_10_2 >= -1
 c5987: - G + prod_10_3 <= 0
 c5988: - bit_10_3 + prod_10_3 <= 0
 c5989: - G - bit_10_3 + prod_10_3 >= -1
 c5990: - G + prod_10_4 <= 0
 c5991: - bit_10_4 + prod_10_4 <= 0
 c5992: - G - bit_10_4 + prod_10_4 >= -1
 c5993: - h_1_10 - h_1_2 - h_1_3 - h_1_4 - h_1_5 - h_1_6 - h_1_7 - h_1_8 - h_1_9 - h_2_10 - h_2_3 - h_2_4 - h_2_5 - h_2_6 - h_2_7 - h_2_8 - h_2_9 - h_3_10 - h_3_4 - h_3_5 - h_3_6 - h_3_7 - h_3_8 - h_3_9 - h_4_10 - h_4_5 - h_4_6 - h_4_7 - h_4_8 - h_4_9 - h_5_10 - h_5_6 - h_5_7 - h_5_8 - h_5_9 - h_6_10 - h_6_7 - h_6_8 - h_6_9 - h_7_10 - h_7_8 - h_7_9 - h_8_10 - h_8_9 - h_9_10 + 0.30303030303030304 zprod_1 + 0.52631578947368418 zprod_10 + 0.43478260869565216 zprod_2 + 3.3333333333333335 zprod_3 + 0.37037037037037035 zprod_4 + 2 zprod_5 + 0.23255813953488372 zprod_6 + 0.24390243902439024 zprod_7 + 0.27777777777777779 zprod_8 + 0.47619047619047616 zprod_9 >= 0
Bounds
 0 <= G <= 0.22500000000000001
 9.389790469399955 <= W_SP <= 242.89827237430904
 0 <= Y_1 <= 26
 0 <= Y_10 <= 24
 0 <= Y_2 <= 24
 9 <= Y_3 <= 23
 0 <= Y_4 <= 31
 6 <= Y_5 <= 34
 0 <= Y_6 <= 30
 0 <= Y_7 <= 35
 0 <= Y_8 <= 26
 0 <= Y_9 <= 29
 0 <= bit_10_0 <= 1
 0 <= bit_10_1 <= 1
 0 <= bit_10_2 <= 1
 0 <= bit_10_3 <= 1
 0 <= bit_10_4 <= 1
 0 <= bit_1_0 <= 1
 0 <= bit_1_1 <= 1
 0 <= bit_1_2 <= 1
 0 <= bit_1_3 <= 1
 0 <= bit_1_4 <= 1
 0 <= bit_1_5 <= 1
 0 <= bit_2_0 <= 1
 0 <= bit_2_1 <= 1
 0 <= bit_2_2 <= 1
 0 <= bit_2_3 <= 1
 0 <= bit_2_4 <= 1
 0 <= bit_3_0 <= 1
 0 <= bit_3_1 <= 1
 0 <= bit_3_2 <= 1
 0 <= bit_3_3 <= 1
 0 <= bit_3_4 <= 1
 0 <= bit_3_5 <= 1
 0 <= bit_4_0 <= 1
 0 <= bit_4_1 <= 1
 0 <= bit_4_2 <= 1
 0 <= bit_4_3 <= 1
 0 <= bit_4_4 <= 1
 0 <= bit_5_0 <= 1
 0 <= bit_5_1 <= 1
 0 <= bit_5_2 <= 1
 0 <= bit_5_3 <= 1
 0 <= bit_5_4 <= 1
 0 <= bit_5_5 <= 1
 0 <= bit_6_0 <= 1
 0 <= bit_6_1 <= 1
 0 <= bit_6_2 <= 1
 0 <= bit_6_3 <= 1
 0 <= bit_6_4 <= 1
 0 <= bit_6_5 <= 1
 0 <= bit_7_0 <= 1
 0 <= bit_7_1 <= 1
 0 <= bit_7_2 <= 1
 0 <= bit_7_3 <= 1
 0 <= bit_7_4 <= 1
 0 <= bit_7_5 <= 1
 0 <= bit_8_0 <= 1
 0 <= bit_8_1 <= 1
 0 <= bit_8_2 <= 1
 0 <= bit_8_3 <= 1
 0 <= bit_8_4 <= 1
 0 <= bit_8_5 <= 1
 0 <= bit_9_0 <= 1
 0 <= bit_9_1 <= 1
 0 <= bit_9_2 <= 1
 0 <= bit_9_3 <= 1
 0 <= bit_9_4 <= 1
 0 <= conn_0_0_1 <= 10
 0 <= conn_0_0_10 <= 10
 0 <= conn_0_0_2 <= 10
 0 <= conn_0_0_3 <= 10
 0 <= conn_0_0_4 <= 10
 0 <= conn_0_0_5 <= 10
 0 <= conn_0_0_6 <= 10
 0 <= conn_0_0_7 <= 10
 0 <= conn_0_0_8 <= 10
 0 <= conn_0_0_9 <= 10
 0 <= conn_0_10_0 <= 10
 0 <= conn_0_10_1 <= 10
 0 <= conn_0_10_2 <= 10
 0 <= conn_0_10_3 <= 10
 0 <= conn_0_10_4 <= 10
 0 <= conn_0_10_5 <= 10
 0 <= conn_0_10_6 <= 10
 0 <= conn_0_10_7 <= 10
 0 <= conn_0_10_8 <= 10
 0 <= conn_0_10_9 <= 10
 0 <= conn_0_1_0 <= 10
 0 <= conn_0_1_10 <= 10
 0 <= conn_0_1_2 <= 10
 0 <= conn_0_1_3 <= 10
 0 <= conn_0_1_4 <= 10
 0 <= conn_0_1_5 <= 10
 0 <= conn_0_1_6 <= 10
 0 <= conn_0_1_7 <= 10
 0 <= conn_0_1_8 <= 10
 0 <= conn_0_1_9 <= 10
 0 <= conn_0_2_0 <= 10
 0 <= conn_0_2_1 <= 10
 0 <= conn_0_2_10 <= 10
 0 <= conn_0_2_3 <= 10
 0 <= conn_0_2_4 <= 10
 0 <= conn_0_2_5 <= 10
 0 <= conn_0_2_6 <= 10
 0 <= conn_0_2_7 <= 10
 0 <= conn_0_2_8 <= 10
 0 <= conn_0_2_9 <= 10
 0 <= conn_0_3_0 <= 10
 0 <= conn_0_3_1 <= 10
 0 <= conn_0_3_10 <= 10
 0 <= conn_0_3_2 <= 10
 0 <= conn_0_3_4 <= 10
 0 <= conn_0_3_5 <= 10
 0 <= conn_0_3_6 <= 10
 0 <= conn_0_3_7 <= 10
 0 <= conn_0_3_8 <= 10
 0 <= conn_0_3_9 <= 10
 0 <= conn_0_4_0 <= 10
 0 <= conn_0_4_1 <= 10
 0 <= conn_0_4_10 <= 10
 0 <= conn_0_4_2 <= 10
 0 <= conn_0_4_3 <= 10
 0 <= conn_0_4_5 <= 10
 0 <= conn_0_4_6 <= 10
 0 <= conn_0_4_7 <= 10
 0 <= conn_0_4_8 <= 10
 0 <= conn_0_4_9 <= 10
 0 <= conn_0_5_0 <= 10
 0 <= conn_0_5_1 <= 10
 0 <= conn_0_5_10 <= 10
 0 <= conn_0_5_2 <= 10
 0 <= conn_0_5_3 <= 10
 0 <= conn_0_5_4 <= 10
 0 <= conn_0_5_6 <= 10
 0 <= conn_0_5_7 <= 10
 0 <= conn_0_5_8 <= 10
 0 <= conn_0_5_9 <= 10
 0 <= conn_0_6_0 <= 10
 0 <= conn_0_6_1 <= 10
 0 <= conn_0_6_10 <= 10
 0 <= conn_0_6_2 <= 10
 0 <= conn_0_6_3 <= 10
 0 <= conn_0_6_4 <= 10
 0 <= conn_0_6_5 <= 10
 0 <= conn_0_6_7 <= 10
 0 <= conn_0_6_8 <= 10
 0 <= conn_0_6_9 <= 10
 0 <= conn_0_7_0 <= 10
 0 <= conn_0_7_1 <= 10
 0 <= conn_0_7_10 <= 10
 0 <= conn_0_7_2 <= 10
 0 <= conn_0_7_3 <= 10
 0 <= conn_0_7_4 <= 10
 0 <= conn_0_7_5 <= 10
 0 <= conn_0_7_6 <= 10
 0 <= conn_0_7_8 <= 10
 0 <= conn_0_7_9 <= 10
 0 <= conn_0_8_0 <= 10
 0 <= conn_0_8_1 <= 10
 0 <= conn_0_8_10 <= 10
 0 <= conn_0_8_2 <= 10
 0 <= conn_0_8_3 <= 10
 0 <= conn_0_8_4 <= 10
 0 <= conn_0_8_5 <= 10
 0 <= conn_0_8_6 <= 10
 0 <= conn_0_8_7 <= 10
 0 <= conn_0_8_9 <= 10
 0 <= conn_0_9_0 <= 10
 0 <= conn_0_9_1 <= 10
 0 <= conn_0_9_10 <= 10
 0 <= conn_0_9_2 <= 10
 0 <= conn_0_9_3 <= 10
 0 <= conn_0_9_4 <= 10
 0 <= conn_0_9_5 <= 10
 0 <= conn_0_9_6 <= 10
 0 <= conn_0_9_7 <= 10
 0 <= conn_0_9_8 <= 10
 0 <= conn_1_0_1 <= 10
 0 <= conn_1_0_10 <= 10
 0 <= conn_1_0_2 <= 10
 0 <= conn_1_0_3 <= 10
 0 <= conn_1_0_4 <= 10
 0 <= conn_1_0_5 <= 10
 0 <= conn_1_0_6 <= 10
 0 <= conn_1_0_7 <= 10
 0 <= conn_1_0_8 <= 10
 0 <= conn_1_0_9 <= 10
 0 <= conn_1_10_0 <= 10
 0 <= conn_1_10_1 <= 10
 0 <= conn_1_10_2 <= 10
 0 <= conn_1_10_3 <= 10
 0 <= conn_1_10_4 <= 10
 0 <= conn_1_10_5 <= 10
 0 <= conn_1_10_6 <= 10
 0 <= conn_1_10_7 <= 10
 0 <= conn_1_10_8 <= 10
 0 <= conn_1_10_9 <= 10
 0 <= conn_1_1_0 <= 10
 0 <= conn_1_1_10 <= 10
 0 <= conn_1_1_2 <= 10
 0 <= conn_1_1_3 <= 10
 0 <= conn_1_1_4 <= 10
 0 <= conn_1_1_5 <= 10
 0 <= conn_1_1_6 <= 10
 0 <= conn_1_1_7 <= 10
 0 <= conn_1_1_8 <= 10
 0 <= conn_1_1_9 <= 10
 0 <= conn_1_2_0 <= 10
 0 <= conn_1_2_1 <= 10
 0 <= conn_1_2_10 <= 10
 0 <= conn_1_2_3 <= 10
 0 <= conn_1_2_4 <= 10
 0 <= conn_1_2_5 <= 10
 0 <= conn_1_2_6 <= 10
 0 <= conn_1_2_7 <= 10
 0 <= conn_1_2_8 <= 10
 0 <= conn_1_2_9 <= 10
 0 <= conn_1_3_0 <= 10
 0 <= conn_1_3_1 <= 10
 0 <= conn_1_3_10 <= 10
 0 <= conn_1_3_2 <= 10
 0 <= conn_1_3_4 <= 10
 0 <= conn_1_3_5 <= 10
 0 <= conn_1_3_6 <= 10
 0 <= conn_1_3_7 <= 10
 0 <= conn_1_3_8 <= 10
 0 <= conn_1_3_9 <= 10
 0 <= conn_1_4_0 <= 10
 0 <= conn_1_4_1 <= 10
 0 <= conn_1_4_10 <= 10
 0 <= conn_1_4_2 <= 10
 0 <= conn_1_4_3 <= 10
 0 <= conn_1_4_5 <= 10
 0 <= conn_1_4_6 <= 10
 0 <= conn_1_4_7 <= 10
 0 <= conn_1_4_8 <= 10
 0 <= conn_1_4_9 <= 10
 0 <= conn_1_5_0 <= 10
 0 <= conn_1_5_1 <= 10
 0 <= conn_1_5_10 <= 10
 0 <= conn_1_5_2 <= 10
 0 <= conn_1_5_3 <= 10
 0 <= conn_1_5_4 <= 10
 0 <= conn_1_5_6 <= 10
 0 <= conn_1_5_7 <= 10
 0 <= conn_1_5_8 <= 10
 0 <= conn_1_5_9 <= 10
 0 <= conn_1_6_0 <= 10
 0 <= conn_1_6_1 <= 10
 0 <= conn_1_6_10 <= 10
 0 <= conn_1_6_2 <= 10
 0 <= conn_1_6_3 <= 10
 0 <= conn_1_6_4 <= 10
 0 <= conn_1_6_5 <= 10
 0 <= conn_1_6_7 <= 10
 0 <= conn_1_6_8 <= 10
 0 <= conn_1_6_9 <= 10
 0 <= conn_1_7_0 <= 10
 0 <= conn_1_7_1 <= 10
 0 <= conn_1_7_10 <= 10
 0 <= conn_1_7_2 <= 10
 0 <= conn_1_7_3 <= 10
 0 <= conn_1_7_4 <= 10
 0 <= conn_1_7_5 <= 10
 0 <= conn_1_7_6 <= 10
 0 <= conn_1_7_8 <= 10
 0 <= conn_1_7_9 <= 10
 0 <= conn_1_8_0 <= 10
 0 <= conn_1_8_1 <= 10
 0 <= conn_1_8_10 <= 10
 0 <= conn_1_8_2 <= 10
 0 <= conn_1_8_3 <= 10
 0 <= conn_1_8_4 <= 10
 0 <= conn_1_8_5 <= 10
 0 <= conn_1_8_6 <= 10
 0 <= conn_1_8_7 <= 10
 0 <= conn_1_8_9 <= 10
 0 <= conn_1_9_0 <= 10
 0 <= conn_1_9_1 <= 10
 0 <= conn_1_9_10 <= 10
 0 <= conn_1_9_2 <= 10
 0 <= conn_1_9_3 <= 10
 0 <= conn_1_9_4 <= 10
 0 <= conn_1_9_5 <= 10
 0 <= conn_1_9_6 <= 10
 0 <= conn_1_9_7 <= 10
 0 <= conn_1_9_8 <= 10
 0 <= conn_2_0_1 <= 10
 0 <= conn_2_0_10 <= 10
 0 <= conn_2_0_2 <= 10
 0 <= conn_2_0_3 <= 10
 0 <= conn_2_0_4 <= 10
 0 <= conn_2_0_5 <= 10
 0 <= conn_2_0_6 <= 10
 0 <= conn_2_0_7 <= 10
 0 <= conn_2_0_8 <= 10
 0 <= conn_2_0_9 <= 10
 0 <= conn_2_10_0 <= 10
 0 <= conn_2_10_1 <= 10
 0 <= conn_2_10_2 <= 10
 0 <= conn_2_10_3 <= 10
 0 <= conn_2_10_4 <= 10
 0 <= conn_2_10_5 <= 10
 0 <= conn_2_10_6 <= 10
 0 <= conn_2_10_7 <= 10
 0 <= conn_2_10_8 <= 10
 0 <= conn_2_10_9 <= 10
 0 <= conn_2_1_0 <= 10
 0 <= conn_2_1_10 <= 10
 0 <= conn_2_1_2 <= 10
 0 <= conn_2_1_3 <= 10
 0 <= conn_2_1_4 <= 10
 0 <= conn_2_1_5 <= 10
 0 <= conn_2_1_6 <= 10
 0 <= conn_2_1_7 <= 10
 0 <= conn_2_1_8 <= 10
 0 <= conn_2_1_9 <= 10
 0 <= conn_2_2_0 <= 10
 0 <= conn_2_2_1 <= 10
 0 <= conn_2_2_10 <= 10
 0 <= conn_2_2_3 <= 10
 0 <= conn_2_2_4 <= 10
 0 <= conn_2_2_5 <= 10
 0 <= conn_2_2_6 <= 10
 0 <= conn_2_2_7 <= 10
 0 <= conn_2_2_8 <= 10
 0 <= conn_2_2_9 <= 10
 0 <= conn_2_3_0 <= 10
 0 <= conn_2_3_1 <= 10
 0 <= conn_2_3_10 <= 10
 0 <= conn_2_3_2 <= 10
 0 <= conn_2_3_4 <= 10
 0 <= conn_2_3_5 <= 10
 0 <= conn_2_3_6 <= 10
 0 <= conn_2_3_7 <= 10
 0 <= conn_2_3_8 <= 10
 0 <= conn_2_3_9 <= 10
 0 <= conn_2_4_0 <= 10
 0 <= conn_2_4_1 <= 10
 0 <= conn_2_4_10 <= 10
 0 <= conn_2_4_2 <= 10
 0 <= conn_2_4_3 <= 10
 0 <= conn_2_4_5 <= 10
 0 <= conn_2_4_6 <= 10
 0 <= conn_2_4_7 <= 10
 0 <= conn_2_4_8 <= 10
 0 <= conn_2_4_9 <= 10
 0 <= conn_2_5_0 <= 10
 0 <= conn_2_5_1 <= 10
 0 <= conn_2_5_10 <= 10
 0 <= conn_2_5_2 <= 10
 0 <= conn_2_5_3 <= 10
 0 <= conn_2_5_4 <= 10
 0 <= conn_2_5_6 <= 10
 0 <= conn_2_5_7 <= 10
 0 <= conn_2_5_8 <= 10
 0 <= conn_2_5_9 <= 10
 0 <= conn_2_6_0 <= 10
 0 <= conn_2_6_1 <= 10
 0 <= conn_2_6_10 <= 10
 0 <= conn_2_6_2 <= 10
 0 <= conn_2_6_3 <= 10
 0 <= conn_2_6_4 <= 10
 0 <= conn_2_6_5 <= 10
 0 <= conn_2_6_7 <= 10
 0 <= conn_2_6_8 <= 10
 0 <= conn_2_6_9 <= 10
 0 <= conn_2_7_0 <= 10
 0 <= conn_2_7_1 <= 10
 0 <= conn_2_7_10 <= 10
 0 <= conn_2_7_2 <= 10
 0 <= conn_2_7_3 <= 10
 0 <= conn_2_7_4 <= 10
 0 <= conn_2_7_5 <= 10
 0 <= conn_2_7_6 <= 10
 0 <= conn_2_7_8 <= 10
 0 <= conn_2_7_9 <= 10
 0 <= conn_2_8_0 <= 10
 0 <= conn_2_8_1 <= 10
 0 <= conn_2_8_10 <= 10
 0 <= conn_2_8_2 <= 10
 0 <= conn_2_8_3 <= 10
 0 <= conn_2_8_4 <= 10
 0 <= conn_2_8_5 <= 10
 0 <= conn_2_8_6 <= 10
 0 <= conn_2_8_7 <= 10
 0 <= conn_2_8_9 <= 10
 0 <= conn_2_9_0 <= 10
 0 <= conn_2_9_1 <= 10
 0 <= conn_2_9_10 <= 10
 0 <= conn_2_9_2 <= 10
 0 <= conn_2_9_3 <= 10
 0 <= conn_2_9_4 <= 10
 0 <= conn_2_9_5 <= 10
 0 <= conn_2_9_6 <= 10
 0 <= conn_2_9_7 <= 10
 0 <= conn_2_9_8 <= 10
 0 <= d_0_1 <= 30
 0 <= d_0_10 <= 22
 0 <= d_0_2 <= 18
 0 <= d_0_3 <= 3
 0 <= d_0_4 <= 24
 0 <= d_0_5 <= 2
 0 <= d_0_6 <= 30
 0 <= d_0_7 <= 30
 0 <= d_0_8 <= 30
 0 <= d_0_9 <= 25
 0 <= d_1_1 <= 30
 0 <= d_1_10 <= 22
 0 <= d_1_2 <= 18
 0 <= d_1_3 <= 3
 0 <= d_1_4 <= 24
 0 <= d_1_5 <= 2
 0 <= d_1_6 <= 30
 0 <= d_1_7 <= 30
 0 <= d_1_8 <= 30
 0 <= d_1_9 <= 25
 0 <= d_2_1 <= 30
 0 <= d_2_10 <= 22
 0 <= d_2_2 <= 18
 0 <= d_2_3 <= 3
 0 <= d_2_4 <= 24
 0 <= d_2_5 <= 2
 0 <= d_2_6 <= 30
 0 <= d_2_7 <= 30
 0 <= d_2_8 <= 30
 0 <= d_2_9 <= 25
 0 <= e_1 <= 1
 0 <= e_10 <= 1
 0 <= e_2 <= 1
 0 <= e_3 <= 11.333333333333334
 0 <= e_4 <= 1
 0 <= e_5 <= 5.7999999999999998
 0 <= e_6 <= 1
 0 <= e_7 <= 1
 0 <= e_8 <= 1
 0 <= e_9 <= 1
 0 <= h_1_10 <= 2.3540669856459329
 0 <= h_1_2 <= 2.1343873517786562
 0 <= h_1_3 <= 13.424242424242426
 0 <= h_1_4 <= 2.2390572390572387
 0 <= h_1_5 <= 7.8909090909090907
 0 <= h_1_6 <= 2.2536997885835097
 0 <= h_1_7 <= 2.3104212860310422
 0 <= h_1_8 <= 2.1464646464646462
 0 <= h_1_9 <= 2.4718614718614718
 0 <= h_2_10 <= 2.306636155606407
 0 <= h_2_3 <= 13.376811594202898
 0 <= h_2_4 <= 2.1916264090177133
 0 <= h_2_5 <= 7.8434782608695652
 0 <= h_2_6 <= 2.2062689585439839
 0 <= h_2_7 <= 2.2629904559915164
 0 <= h_2_8 <= 2.0990338164251208
 0 <= h_2_9 <= 2.4244306418219459
 0 <= h_3_10 <= 13.596491228070176
 0 <= h_3_4 <= 13.481481481481483
 0 <= h_3_5 <= 19.133333333333333
 0 <= h_3_6 <= 13.496124031007753
 0 <= h_3_7 <= 13.552845528455284
 0 <= h_3_8 <= 13.388888888888889
 0 <= h_3_9 <= 13.714285714285715
 0 <= h_4_10 <= 2.4113060428849904
 0 <= h_4_5 <= 7.9481481481481477
 0 <= h_4_6 <= 2.3109388458225668
 0 <= h_4_7 <= 2.3676603432700993
 0 <= h_4_8 <= 2.2037037037037037
 0 <= h_4_9 <= 2.5291005291005293
 0 <= h_5_10 <= 8.0631578947368414
 0 <= h_5_6 <= 7.9627906976744187
 0 <= h_5_7 <= 8.0195121951219512
 0 <= h_5_8 <= 7.8555555555555552
 0 <= h_5_9 <= 8.1809523809523803
 0 <= h_6_10 <= 2.4259485924112605
 0 <= h_6_7 <= 2.3823028927963699
 0 <= h_6_8 <= 2.2183462532299743
 0 <= h_6_9 <= 2.5437430786267994
 0 <= h_7_10 <= 2.482670089858793
 0 <= h_7_8 <= 2.2750677506775068
 0 <= h_7_9 <= 2.6004645760743319
 0 <= h_8_10 <= 2.3187134502923978
 0 <= h_8_9 <= 2.4365079365079367
 0 <= h_9_10 <= 2.644110275689223
 0 <= load_0_1 <= 30
 0 <= load_0_10 <= 30
 0 <= load_0_2 <= 30
 0 <= load_0_3 <= 30
 0 <= load_0_4 <= 30
 0 <= load_0_5 <= 30
 0 <= load_0_6 <= 30
 0 <= load_0_7 <= 30
 0 <= load_0_8 <= 30
 0 <= load_0_9 <= 30
 0 <= load_1_1 <= 30
 0 <= load_1_10 <= 30
 0 <= load_1_2 <= 30
 0 <= load_1_3 <= 30
 0 <= load_1_4 <= 30
 0 <= load_1_5 <= 30
 0 <= load_1_6 <= 30
 0 <= load_1_7 <= 30
 0 <= load_1_8 <= 30
 0 <= load_1_9 <= 30
 0 <= load_2_1 <= 30
 0 <= load_2_10 <= 30
 0 <= load_2_2 <= 30
 0 <= load_2_3 <= 30
 0 <= load_2_4 <= 30
 0 <= load_2_5 <= 30
 0 <= load_2_6 <= 30
 0 <= load_2_7 <= 30
 0 <= load_2_8 <= 30
 0 <= load_2_9 <= 30
 0 <= mode_0_1 <= 1
 0 <= mode_0_10 <= 1
 0 <= mode_0_2 <= 1
 0 <= mode_0_3 <= 1
 0 <= mode_0_4 <= 1
 0 <= mode_0_5 <= 1
 0 <= mode_0_6 <= 1
 0 <= mode_0_7 <= 1
 0 <= mode_0_8 <= 1
 0 <= mode_0_9 <= 1
 0 <= mode_1_1 <= 1
 0 <= mode_1_10 <= 1
 0 <= mode_1_2 <= 1
 0 <= mode_1_3 <= 1
 0 <= mode_1_4 <= 1
 0 <= mode_1_5 <= 1
 0 <= mode_1_6 <= 1
 0 <= mode_1_7 <= 1
 0 <= mode_1_8 <= 1
 0 <= mode_1_9 <= 1
 0 <= mode_2_1 <= 1
 0 <= mode_2_10 <= 1
 0 <= mode_2_2 <= 1
 0 <= mode_2_3 <= 1
 0 <= mode_2_4 <= 1
 0 <= mode_2_5 <= 1
 0 <= mode_2_6 <= 1
 0 <= mode_2_7 <= 1
 0 <= mode_2_8 <= 1
 0 <= mode_2_9 <= 1
 0 <= ord_0_1 <= 10
 0 <= ord_0_10 <= 10
 0 <= ord_0_2 <= 10
 0 <= ord_0_3 <= 10
 0 <= ord_0_4 <= 10
 0 <= ord_0_5 <= 10
 0 <= ord_0_6 <= 10
 0 <= ord_0_7 <= 10
 0 <= ord_0_8 <= 10
 0 <= ord_0_9 <= 10
 0 <= ord_1_1 <= 10
 0 <= ord_1_10 <= 10
 0 <= ord_1_2 <= 10
 0 <= ord_1_3 <= 10
 0 <= ord_1_4 <= 10
 0 <= ord_1_5 <= 10
 0 <= ord_1_6 <= 10
 0 <= ord_1_7 <= 10
 0 <= ord_1_8 <= 10
 0 <= ord_1_9 <= 10
 0 <= ord_2_1 <= 10
 0 <= ord_2_10 <= 10
 0 <= ord_2_2 <= 10
 0 <= ord_2_3 <= 10
 0 <= ord_2_4 <= 10
 0 <= ord_2_5 <= 10
 0 <= ord_2_6 <= 10
 0 <= ord_2_7 <= 10
 0 <= ord_2_8 <= 10
 0 <= ord_2_9 <= 10
 0 <= p_0_1 <= 0
 0 <= p_0_10 <= 2
 0 <= p_0_2 <= 6
 0 <= p_0_3 <= 30
 0 <= p_0_4 <= 7
 0 <= p_0_5 <= 30
 0 <= p_0_6 <= 5
 0 <= p_0_7 <= 11
 0 <= p_0_8 <= 0
 0 <= p_0_9 <= 4
 0 <= p_1_1 <= 0
 0 <= p_1_10 <= 2
 0 <= p_1_2 <= 6
 0 <= p_1_3 <= 30
 0 <= p_1_4 <= 7
 0 <= p_1_5 <= 30
 0 <= p_1_6 <= 5
 0 <= p_1_7 <= 11
 0 <= p_1_8 <= 0
 0 <= p_1_9 <= 4
 0 <= p_2_1 <= 0
 0 <= p_2_10 <= 2
 0 <= p_2_2 <= 6
 0 <= p_2_3 <= 30
 0 <= p_2_4 <= 7
 0 <= p_2_5 <= 30
 0 <= p_2_6 <= 5
 0 <= p_2_7 <= 11
 0 <= p_2_8 <= 0
 0 <= p_2_9 <= 4
 0 <= prod_10_0 <= 0.22500000000000001
 0 <= prod_10_1 <= 0.22500000000000001
 0 <= prod_10_2 <= 0.22500000000000001
 0 <= prod_10_3 <= 0.22500000000000001
 0 <= prod_10_4 <= 0.22500000000000001
 0 <= prod_1_0 <= 0.22500000000000001
 0 <= prod_1_1 <= 0.22500000000000001
 0 <= prod_1_2 <= 0.22500000000000001
 0 <= prod_1_3 <= 0.22500000000000001
 0 <= prod_1_4 <= 0.22500000000000001
 0 <= prod_1_5 <= 0.22500000000000001
 0 <= prod_2_0 <= 0.22500000000000001
 0 <= prod_2_1 <= 0.22500000000000001
 0 <= prod_2_2 <= 0.22500000000000001
 0 <= prod_2_3 <= 0.22500000000000001
 0 <= prod_2_4 <= 0.22500000000000001
 0 <= prod_3_0 <= 0.22500000000000001
 0 <= prod_3_1 <= 0.22500000000000001
 0 <= prod_3_2 <= 0.22500000000000001
 0 <= prod_3_3 <= 0.22500000000000001
 0 <= prod_3_4 <= 0.22500000000000001
 0 <= prod_3_5 <= 0.22500000000000001
 0 <= prod_4_0 <= 0.22500000000000001
 0 <= prod_4_1 <= 0.22500000000000001
 0 <= prod_4_2 <= 0.22500000000000001
 0 <= prod_4_3 <= 0.22500000000000001
 0 <= prod_4_4 <= 0.22500000000000001
 0 <= prod_5_0 <= 0.22500000000000001
 0 <= prod_5_1 <= 0.22500000000000001
 0 <= prod_5_2 <= 0.22500000000000001
 0 <= prod_5_3 <= 0.22500000000000001
 0 <= prod_5_4 <= 0.22500000000000001
 0 <= prod_5_5 <= 0.22500000000000001
 0 <= prod_6_0 <= 0.22500000000000001
 0 <= prod_6_1 <= 0.22500000000000001
 0 <= prod_6_2 <= 0.22500000000000001
 0 <= prod_6_3 <= 0.22500000000000001
 0 <= prod_6_4 <= 0.22500000000000001
 0 <= prod_6_5 <= 0.22500000000000001
 0 <= prod_7_0 <= 0.22500000000000001
 0 <= prod_7_1 <= 0.22500000000000001
 0 <= prod_7_2 <= 0.22500000000000001
 0 <= prod_7_3 <= 0.22500000000000001
 0 <= prod_7_4 <= 0.22500000000000001
 0 <= prod_7_5 <= 0.22500000000000001
 0 <= prod_8_0 <= 0.22500000000000001
 0 <= prod_8_1 <= 0.22500000000000001
 0 <= prod_8_2 <= 0.22500000000000001
 0 <= prod_8_3 <= 0.22500000000000001
 0 <= prod_8_4 <= 0.22500000000000001
 0 <= prod_8_5 <= 0.22500000000000001
 0 <= prod_9_0 <= 0.22500000000000001
 0 <= prod_9_1 <= 0.22500000000000001
 0 <= prod_9_2 <= 0.22500000000000001
 0 <= prod_9_3 <= 0.22500000000000001
 0 <= prod_9_4 <= 0.22500000000000001
 0 <= r_1 <= 1.0909090909090908
 0 <= r_10 <= 1.263157894736842
 0 <= r_2 <= 1.0434782608695652
 0 <= r_3 <= 12.333333333333334
 0 <= r_4 <= 1.1481481481481481
 0 <= r_5 <= 6.7999999999999998
 0 <= r_6 <= 1.1627906976744187
 0 <= r_7 <= 1.2195121951219512
 0 <= r_8 <= 1.0555555555555556
 0 <= r_9 <= 1.3809523809523809
 0 <= r_max <= 12.333333333333334
 0 <= r_min <= 12.333333333333334
 0 <= x_0_0_1 <= 1
 0 <= x_0_0_10 <= 1
 0 <= x_0_0_2 <= 1
 0 <= x_0_0_3 <= 1
 0 <= x_0_0_4 <= 1
 0 <= x_0_0_5 <= 1
 0 <= x_0_0_6 <= 1
 0 <= x_0_0_7 <= 1
 0 <= x_0_0_8 <= 1
 0 <= x_0_0_9 <= 1
 0 <= x_0_10_0 <= 1
 0 <= x_0_10_1 <= 1
 0 <= x_0_10_2 <= 1
 0 <= x_0_10_3 <= 1
 0 <= x_0_10_4 <= 1
 0 <= x_0_10_5 <= 1
 0 <= x_0_10_6 <= 1
 0 <= x_0_10_7 <= 1
 0 <= x_0_10_8 <= 1
 0 <= x_0_10_9 <= 1
 0 <= x_0_1_0 <= 1
 0 <= x_0_1_10 <= 1
 0 <= x_0_1_2 <= 1
 0 <= x_0_1_3 <= 1
 0 <= x_0_1_4 <= 1
 0 <= x_0_1_5 <= 1
 0 <= x_0_1_6 <= 1
 0 <= x_0_1_7 <= 1
 0 <= x_0_1_8 <= 1
 0 <= x_0_1_9 <= 1
 0 <= x_0_2_0 <= 1
 0 <= x_0_2_1 <= 1
 0 <= x_0_2_10 <= 1
 0 <= x_0_2_3 <= 1
 0 <= x_0_2_4 <= 1
 0 <= x_0_2_5 <= 1
 0 <= x_0_2_6 <= 1
 0 <= x_0_2_7 <= 1
 0 <= x_0_2_8 <= 1
 0 <= x_0_2_9 <= 1
 0 <= x_0_3_0 <= 1
 0 <= x_0_3_1 <= 1
 0 <= x_0_3_10 <= 1
 0 <= x_0_3_2 <= 1
 0 <= x_0_3_4 <= 1
 0 <= x_0_3_5 <= 1
 0 <= x_0_3_6 <= 1
 0 <= x_0_3_7 <= 1
 0 <= x_0_3_8 <= 1
 0 <= x_0_3_9 <= 1
 0 <= x_0_4_0 <= 1
 0 <= x_0_4_1 <= 1
 0 <= x_0_4_10 <= 1
 0 <= x_0_4_2 <= 1
 0 <= x_0_4_3 <= 1
 0 <= x_0_4_5 <= 1
 0 <= x_0_4_6 <= 1
 0 <= x_0_4_7 <= 1
 0 <= x_0_4_8 <= 1
 0 <= x_0_4_9 <= 1
 0 <= x_0_5_0 <= 1
 0 <= x_0_5_1 <= 1
 0 <= x_0_5_10 <= 1
 0 <= x_0_5_2 <= 1
 0 <= x_0_5_3 <= 1
 0 <= x_0_5_4 <= 1
 0 <= x_0_5_6 <= 1
 0 <= x_0_5_7 <= 1
 0 <= x_0_5_8 <= 1
 0 <= x_0_5_9 <= 1
 0 <= x_0_6_0 <= 1
 0 <= x_0_6_1 <= 1
 0 <= x_0_6_10 <= 1
 0 <= x_0_6_2 <= 1
 0 <= x_0_6_3 <= 1
 0 <= x_0_6_4 <= 1
 0 <= x_0_6_5 <= 1
 0 <= x_0_6_7 <= 1
 0 <= x_0_6_8 <= 1
 0 <= x_0_6_9 <= 1
 0 <= x_0_7_0 <= 1
 0 <= x_0_7_1 <= 1
 0 <= x_0_7_10 <= 1
 0 <= x_0_7_2 <= 1
 0 <= x_0_7_3 <= 1
 0 <= x_0_7_4 <= 1
 0 <= x_0_7_5 <= 1
 0 <= x_0_7_6 <= 1
 0 <= x_0_7_8 <= 1
 0 <= x_0_7_9 <= 1
 0 <= x_0_8_0 <= 1
 0 <= x_0_8_1 <= 1
 0 <= x_0_8_10 <= 1
 0 <= x_0_8_2 <= 1
 0 <= x_0_8_3 <= 1
 0 <= x_0_8_4 <= 1
 0 <= x_0_8_5 <= 1
 0 <= x_0_8_6 <= 1
 0 <= x_0_8_7 <= 1
 0 <= x_0_8_9 <= 1
 0 <= x_0_9_0 <= 1
 0 <= x_0_9_1 <= 1
 0 <= x_0_9_10 <= 1
 0 <= x_0_9_2 <= 1
 0 <= x_0_9_3 <= 1
 0 <= x_0_9_4 <= 1
 0 <= x_0_9_5 <= 1
 0 <= x_0_9_6 <= 1
 0 <= x_0_9_7 <= 1
 0 <= x_0_9_8 <= 1
 0 <= x_1_0_1 <= 1
 0 <= x_1_0_10 <= 1
 0 <= x_1_0_2 <= 1
 0 <= x_1_0_3 <= 1
 0 <= x_1_0_4 <= 1
 0 <= x_1_0_5 <= 1
 0 <= x_1_0_6 <= 1
 0 <= x_1_0_7 <= 1
 0 <= x_1_0_8 <= 1
 0 <= x_1_0_9 <= 1
 0 <= x_1_10_0 <= 1
 0 <= x_1_10_1 <= 1
 0 <= x_1_10_2 <= 1
 0 <= x_1_10_3 <= 1
 0 <= x_1_10_4 <= 1
 0 <= x_1_10_5 <= 1
 0 <= x_1_10_6 <= 1
 0 <= x_1_10_7 <= 1
 0 <= x_1_10_8 <= 1
 0 <= x_1_10_9 <= 1
 0 <= x_1_1_0 <= 1
 0 <= x_1_1_10 <= 1
 0 <= x_1_1_2 <= 1
 0 <= x_1_1_3 <= 1
 0 <= x_1_1_4 <= 1
 0 <= x_1_1_5 <= 1
 0 <= x_1_1_6 <= 1
 0 <= x_1_1_7 <= 1
 0 <= x_1_1_8 <= 1
 0 <= x_1_1_9 <= 1
 0 <= x_1_2_0 <= 1
 0 <= x_1_2_1 <= 1
 0 <= x_1_2_10 <= 1
 0 <= x_1_2_3 <= 1
 0 <= x_1_2_4 <= 1
 0 <= x_1_2_5 <= 1
 0 <= x_1_2_6 <= 1
 0 <= x_1_2_7 <= 1
 0 <= x_1_2_8 <= 1
 0 <= x_1_2_9 <= 1
 0 <= x_1_3_0 <= 1
 0 <= x_1_3_1 <= 1
 0 <= x_1_3_10 <= 1
 0 <= x_1_3_2 <= 1
 0 <= x_1_3_4 <= 1
 0 <= x_1_3_5 <= 1
 0 <= x_1_3_6 <= 1
 0 <= x_1_3_7 <= 1
 0 <= x_1_3_8 <= 1
 0 <= x_1_3_9 <= 1
 0 <= x_1_4_0 <= 1
 0 <= x_1_4_1 <= 1
 0 <= x_1_4_10 <= 1
 0 <= x_1_4_2 <= 1
 0 <= x_1_4_3 <= 1
 0 <= x_1_4_5 <= 1
 0 <= x_1_4_6 <= 1
 0 <= x_1_4_7 <= 1
 0 <= x_1_4_8 <= 1
 0 <= x_1_4_9 <= 1
 0 <= x_1_5_0 <= 1
 0 <= x_1_5_1 <= 1
 0 <= x_1_5_10 <= 1
 0 <= x_1_5_2 <= 1
 0 <= x_1_5_3 <= 1
 0 <= x_1_5_4 <= 1
 0 <= x_1_5_6 <= 1
 0 <= x_1_5_7 <= 1
 0 <= x_1_5_8 <= 1
 0 <= x_1_5_9 <= 1
 0 <= x_1_6_0 <= 1
 0 <= x_1_6_1 <= 1
 0 <= x_1_6_10 <= 1
 0 <= x_1_6_2 <= 1
 0 <= x_1_6_3 <= 1
 0 <= x_1_6_4 <= 1
 0 <= x_1_6_5 <= 1
 0 <= x_1_6_7 <= 1
 0 <= x_1_6_8 <= 1
 0 <= x_1_6_9 <= 1
 0 <= x_1_7_0 <= 1
 0 <= x_1_7_1 <= 1
 0 <= x_1_7_10 <= 1
 0 <= x_1_7_2 <= 1
 0 <= x_1_7_3 <= 1
 0 <= x_1_7_4 <= 1
 0 <= x_1_7_5 <= 1
 0 <= x_1_7_6 <= 1
 0 <= x_1_7_8 <= 1
 0 <= x_1_7_9 <= 1
 0 <= x_1_8_0 <= 1
 0 <= x_1_8_1 <= 1
 0 <= x_1_8_10 <= 1
 0 <= x_1_8_2 <= 1
 0 <= x_1_8_3 <= 1
 0 <= x_1_8_4 <= 1
 0 <= x_1_8_5 <= 1
 0 <= x_1_8_6 <= 1
 0 <= x_1_8_7 <= 1
 0 <= x_1_8_9 <= 1
 0 <= x_1_9_0 <= 1
 0 <= x_1_9_1 <= 1
 0 <= x_1_9_10 <= 1
 0 <= x_1_9_2 <= 1
 0 <= x_1_9_3 <= 1
 0 <= x_1_9_4 <= 1
 0 <= x_1_9_5 <= 1
 0 <= x_1_9_6 <= 1
 0 <= x_1_9_7 <= 1
 0 <= x_1_9_8 <= 1
 0 <= x_2_0_1 <= 1
 0 <= x_2_0_10 <= 1
 0 <= x_2_0_2 <= 1
 0 <= x_2_0_3 <= 1
 0 <= x_2_0_4 <= 1
 0 <= x_2_0_5 <= 1
 0 <= x_2_0_6 <= 1
 0 <= x_2_0_7 <= 1
 0 <= x_2_0_8 <= 1
 0 <= x_2_0_9 <= 1
 0 <= x_2_10_0 <= 1
 0 <= x_2_10_1 <= 1
 0 <= x_2_10_2 <= 1
 0 <= x_2_10_3 <= 1
 0 <= x_2_10_4 <= 1
 0 <= x_2_10_5 <= 1
 0 <= x_2_10_6 <= 1
 0 <= x_2_10_7 <= 1
 0 <= x_2_10_8 <= 1
 0 <= x_2_10_9 <= 1
 0 <= x_2_1_0 <= 1
 0 <= x_2_1_10 <= 1
 0 <= x_2_1_2 <= 1
 0 <= x_2_1_3 <= 1
 0 <= x_2_1_4 <= 1
 0 <= x_2_1_5 <= 1
 0 <= x_2_1_6 <= 1
 0 <= x_2_1_7 <= 1
 0 <= x_2_1_8 <= 1
 0 <= x_2_1_9 <= 1
 0 <= x_2_2_0 <= 1
 0 <= x_2_2_1 <= 1
 0 <= x_2_2_10 <= 1
 0 <= x_2_2_3 <= 1
 0 <= x_2_2_4 <= 1
 0 <= x_2_2_5 <= 1
 0 <= x_2_2_6 <= 1
 0 <= x_2_2_7 <= 1
 0 <= x_2_2_8 <= 1
 0 <= x_2_2_9 <= 1
 0 <= x_2_3_0 <= 1
 0 <= x_2_3_1 <= 1
 0 <= x_2_3_10 <= 1
 0 <= x_2_3_2 <= 1
 0 <= x_2_3_4 <= 1
 0 <= x_2_3_5 <= 1
 0 <= x_2_3_6 <= 1
 0 <= x_2_3_7 <= 1
 0 <= x_2_3_8 <= 1
 0 <= x_2_3_9 <= 1
 0 <= x_2_4_0 <= 1
 0 <= x_2_4_1 <= 1
 0 <= x_2_4_10 <= 1
 0 <= x_2_4_2 <= 1
 0 <= x_2_4_3 <= 1
 0 <= x_2_4_5 <= 1
 0 <= x_2_4_6 <= 1
 0 <= x_2_4_7 <= 1
 0 <= x_2_4_8 <= 1
 0 <= x_2_4_9 <= 1
 0 <= x_2_5_0 <= 1
 0 <= x_2_5_1 <= 1
 0 <= x_2_5_10 <= 1
 0 <= x_2_5_2 <= 1
 0 <= x_2_5_3 <= 1
 0 <= x_2_5_4 <= 1
 0 <= x_2_5_6 <= 1
 0 <= x_2_5_7 <= 1
 0 <= x_2_5_8 <= 1
 0 <= x_2_5_9 <= 1
 0 <= x_2_6_0 <= 1
 0 <= x_2_6_1 <= 1
 0 <= x_2_6_10 <= 1
 0 <= x_2_6_2 <= 1
 0 <= x_2_6_3 <= 1
 0 <= x_2_6_4 <= 1
 0 <= x_2_6_5 <= 1
 0 <= x_2_6_7 <= 1
 0 <= x_2_6_8 <= 1
 0 <= x_2_6_9 <= 1
 0 <= x_2_7_0 <= 1
 0 <= x_2_7_1 <= 1
 0 <= x_2_7_10 <= 1
 0 <= x_2_7_2 <= 1
 0 <= x_2_7_3 <= 1
 0 <= x_2_7_4 <= 1
 0 <= x_2_7_5 <= 1
 0 <= x_2_7_6 <= 1
 0 <= x_2_7_8 <= 1
 0 <= x_2_7_9 <= 1
 0 <= x_2_8_0 <= 1
 0 <= x_2_8_1 <= 1
 0 <= x_2_8_10 <= 1
 0 <= x_2_8_2 <= 1
 0 <= x_2_8_3 <= 1
 0 <= x_2_8_4 <= 1
 0 <= x_2_8_5 <= 1
 0 <= x_2_8_6 <= 1
 0 <= x_2_8_7 <= 1
 0 <= x_2_8_9 <= 1
 0 <= x_2_9_0 <= 1
 0 <= x_2_9_1 <= 1
 0 <= x_2_9_10 <= 1
 0 <= x_2_9_2 <= 1
 0 <= x_2_9_3 <= 1
 0 <= x_2_9_4 <= 1
 0 <= x_2_9_5 <= 1
 0 <= x_2_9_6 <= 1
 0 <= x_2_9_7 <= 1
 0 <= x_2_9_8 <= 1
 0 <= z_0_1 <= 1
 0 <= z_0_10 <= 1
 0 <= z_0_2 <= 1
 0 <= z_0_3 <= 1
 0 <= z_0_4 <= 1
 0 <= z_0_5 <= 1
 0 <= z_0_6 <= 1
 0 <= z_0_7 <= 1
 0 <= z_0_8 <= 1
 0 <= z_0_9 <= 1
 0 <= z_1_1 <= 1
 0 <= z_1_10 <= 1
 0 <= z_1_2 <= 1
 0 <= z_1_3 <= 1
 0 <= z_1_4 <= 1
 0 <= z_1_5 <= 1
 0 <= z_1_6 <= 1
 0 <= z_1_7 <= 1
 0 <= z_1_8 <= 1
 0 <= z_1_9 <= 1
 0 <= z_2_1 <= 1
 0 <= z_2_10 <= 1
 0 <= z_2_2 <= 1
 0 <= z_2_3 <= 1
 0 <= z_2_4 <= 1
 0 <= z_2_5 <= 1
 0 <= z_2_6 <= 1
 0 <= z_2_7 <= 1
 0 <= z_2_8 <= 1
 0 <= z_2_9 <= 1
 0 <= zprod_1 <= 36
 0 <= zprod_10 <= 24
 0 <= zprod_2 <= 24
 0 <= zprod_3 <= 37
 0 <= zprod_4 <= 31
 0 <= zprod_5 <= 34
 0 <= zprod_6 <= 50
 0 <= zprod_7 <= 50
 0 <= zprod_8 <= 38
 0 <= zprod_9 <= 29
Generals
 Y_1
 Y_10
 Y_2
 Y_3
 Y_4
 Y_5
 Y_6
 Y_7
 Y_8
 Y_9
 d_0_1
 d_0_10
 d_0_2
 d_0_3
 d_0_4
 d_0_5
 d_0_6
 d_0_7
 d_0_8
 d_0_9
 d_1_1
 d_1_10
 d_1_2
 d_1_3
 d_1_4
 d_1_5
 d_1_6
 d_1_7
 d_1_8
 d_1_9
 d_2_1
 d_2_10
 d_2_2
 d_2_3
 d_2_4
 d_2_5
 d_2_6
 d_2_7
 d_2_8
 d_2_9
 load_0_1
 load_0_10
 load_0_2
 load_0_3
 load_0_4
 load_0_5
 load_0_6
 load_0_7
 load_0_8
 load_0_9
 load_1_1
 load_1_10
 load_1_2
 load_1_3
 load_1_4
 load_1_5
 load_1_6
 load_1_7
 load_1_8
 load_1_9
 load_2_1
 load_2_10
 load_2_2
 load_2_3
 load_2_4
 load_2_5
 load_2_6
 load_2_7
 load_2_8
 load_2_9
 p_0_1
 p_0_10
 p_0_2
 p_0_3
 p_0_4
 p_0_5
 p_0_6
 p_0_7
 p_0_8
 p_0_9
 p_1_1
 p_1_10
 p_1_2
 p_1_3
 p_1_4
 p_1_5
 p_1_6
 p_1_7
 p_1_8
 p_1_9
 p_2_1
 p_2_10
 p_2_2
 p_2_3
 p_2_4
 p_2_5
 p_2_6
 p_2_7
 p_2_8
 p_2_9
Binaries
 bit_10_0
 bit_10_1
 bit_10_2
 bit_10_3
 bit_10_4
 bit_1_0
 bit_1_1
 bit_1_2
 bit_1_3
 bit_1_4
 bit_1_5
 bit_2_0
 bit_2_1
 bit_2_2
 bit_2_3
 bit_2_4
 bit_3_0
 bit_3_1
 bit_3_2
 bit_3_3
 bit_3_4
 bit_3_5
 bit_4_0
 bit_4_1
 bit_4_2
 bit_4_3
 bit_4_4
 bit_5_0
 bit_5_1
 bit_5_2
 bit_5_3
 bit_5_4
 bit_5_5
 bit_6_0
 bit_6_1
 bit_6_2
 bit_6_3
 bit_6_4
 bit_6_5
 bit_7_0
 bit_7_1
 bit_7_2
 bit_7_3
 bit_7_4
 bit_7_5
 bit_8_0
 bit_8_1
 bit_8_2
 bit_8_3
 bit_8_4
 bit_8_5
 bit_9_0
 bit_9_1
 bit_9_2
 bit_9_3
 bit_9_4
 mode_0_1
 mode_0_10
 mode_0_2
 mode_0_3
 mode_0_4
 mode_0_5
 mode_0_6
 mode_0_7
 mode_0_8
 mode_0_9
 mode_1_1
 mode_1_10
 mode_1_2
 mode_1_3
 mode_1_4
 mode_1_5
 mode_1_6
 mode_1_7
 mode_1_8
 mode_1_9
 mode_2_1
 mode_2_10
 mode_2_2
 mode_2_3
 mode_2_4
 mode_2_5
 mode_2_6
 mode_2_7
 mode_2_8
 mode_2_9
 x_0_0_1
 x_0_0_10
 x_0_0_2
 x_0_0_3
 x_0_0_4
 x_0_0_5
 x_0_0_6
 x_0_0_7
 x_0_0_8
 x_0_0_9
 x_0_10_0
 x_0_10_1
 x_0_10_2
 x_0_10_3
 x_0_10_4
 x_0_10_5
 x_0_10_6
 x_0_10_7
 x_0_10_8
 x_0_10_9
 x_0_1_0
 x_0_1_10
 x_0_1_2
 x_0_1_3
 x_0_1_4
 x_0_1_5
 x_0_1_6
 x_0_1_7
 x_0_1_8
 x_0_1_9
 x_0_2_0
 x_0_2_1
 x_0_2_10
 x_0_2_3
 x_0_2_4
 x_0_2_5
 x_0_2_6
 x_0_2_7
 x_0_2_8
 x_0_2_9
 x_0_3_0
 x_0_3_1
 x_0_3_10
 x_0_3_2
 x_0_3_4
 x_0_3_5
 x_0_3_6
 x_0_3_7
 x_0_3_8
 x_0_3_9
 x_0_4_0
 x_0_4_1
 x_0_4_10
 x_0_4_2
 x_0_4_3
 x_0_4_5
 x_0_4_6
 x_0_4_7
 x_0_4_8
 x_0_4_9
 x_0_5_0
 x_0_5_1
 x_0_5_10
 x_0_5_2
 x_0_5_3
 x_0_5_4
 x_0_5_6
 x_0_5_7
 x_0_5_8
 x_0_5_9
 x_0_6_0
 x_0_6_1
 x_0_6_10
 x_0_6_2
 x_0_6_3
 x_0_6_4
 x_0_6_5
 x_0_6_7
 x_0_6_8
 x_0_6_9
 x_0_7_0
 x_0_7_1
 x_0_7_10
 x_0_7_2
 x_0_7_3
 x_0_7_4
 x_0_7_5
 x_0_7_6
 x_0_7_8
 x_0_7_9
 x_0_8_0
 x_0_8_1
 x_0_8_10
 x_0_8_2
 x_0_8_3
 x_0_8_4
 x_0_8_5
 x_0_8_6
 x_0_8_7
 x_0_8_9
 x_0_9_0
 x_0_9_1
 x_0_9_10
 x_0_9_2
 x_0_9_3
 x_0_9_4
 x_0_9_5
 x_0_9_6
 x_0_9_7
 x_0_9_8
 x_1_0_1
 x_1_0_10
 x_1_0_2
 x_1_0_3
 x_1_0_4
 x_1_0_5
 x_1_0_6
 x_1_0_7
 x_1_0_8
 x_1_0_9
 x_1_10_0
 x_1_10_1
 x_1_10_2
 x_1_10_3
 x_1_10_4
 x_1_10_5
 x_1_10_6
 x_1_10_7
 x_1_10_8
 x_1_10_9
 x_1_1_0
 x_1_1_10
 x_1_1_2
 x_1_1_3
 x_1_1_4
 x_1_1_5
 x_1_1_6
 x_1_1_7
 x_1_1_8
 x_1_1_9
 x_1_2_0
 x_1_2_1
 x_1_2_10
 x_1_2_3
 x_1_2_4
 x_1_2_5
 x_1_2_6
 x_1_2_7
 x_1_2_8
 x_1_2_9
 x_1_3_0
 x_1_3_1
 x_1_3_10
 x_1_3_2
 x_1_3_4
 x_1_3_5
 x_1_3_6
 x_1_3_7
 x_1_3_8
 x_1_3_9
 x_1_4_0
 x_1_4_1
 x_1_4_10
 x_1_4_2
 x_1_4_3
 x_1_4_5
 x_1_4_6
 x_1_4_7
 x_1_4_8
 x_1_4_9
 x_1_5_0
 x_1_5_1
 x_1_5_10
 x_1_5_2
 x_1_5_3
 x_1_5_4
 x_1_5_6
 x_1_5_7
 x_1_5_8
 x_1_5_9
 x_1_6_0
 x_1_6_1
 x_1_6_10
 x_1_6_2
 x_1_6_3
 x_1_6_4
 x_1_6_5
 x_1_6_7
 x_1_6_8
 x_1_6_9
 x_1_7_0
 x_1_7_1
 x_1_7_10
 x_1_7_2
 x_1_7_3
 x_1_7_4
 x_1_7_5
 x_1_7_6
 x_1_7_8
 x_1_7_9
 x_1_8_0
 x_1_8_1
 x_1_8_10
 x_1_8_2
 x_1_8_3
 x_1_8_4
 x_1_8_5
 x_1_8_6
 x_1_8_7
 x_1_8_9
 x_1_9_0
 x_1_9_1
 x_1_9_10
 x_1_9_2
 x_1_9_3
 x_1_9_4
 x_1_9_5
 x_1_9_6
 x_1_9_7
 x_1_9_8
 x_2_0_1
 x_2_0_10
 x_2_0_2
 x_2_0_3
 x_2_0_4
 x_2_0_5
 x_2_0_6
 x_2_0_7
 x_2_0_8
 x_2_0_9
 x_2_10_0
 x_2_10_1
 x_2_10_2
 x_2_10_3
 x_2_10_4
 x_2_10_5
 x_2_10_6
 x_2_10_7
 x_2_10_8
 x_2_10_9
 x_2_1_0
 x_2_1_10
 x_2_1_2
 x_2_1_3
 x_2_1_4
 x_2_1_5
 x_2_1_6
 x_2_1_7
 x_2_1_8
 x_2_1_9
 x_2_2_0
 x_2_2_1
 x_2_2_10
 x_2_2_3
 x_2_2_4
 x_2_2_5
 x_2_2_6
 x_2_2_7
 x_2_2_8
 x_2_2_9
 x_2_3_0
 x_2_3_1
 x_2_3_10
 x_2_3_2
 x_2_3_4
 x_2_3_5
 x_2_3_6
 x_2_3_7
 x_2_3_8
 x_2_3_9
 x_2_4_0
 x_2_4_1
 x_2_4_10
 x_2_4_2
 x_2_4_3
 x_2_4_5
 x_2_4_6
 x_2_4_7
 x_2_4_8
 x_2_4_9
 x_2_5_0
 x_2_5_1
 x_2_5_10
 x_2_5_2
 x_2_5_3
 x_2_5_4
 x_2_5_6
 x_2_5_7
 x_2_5_8
 x_2_5_9
 x_2_6_0
 x_2_6_1
 x_2_6_10
 x_2_6_2
 x_2_6_3
 x_2_6_4
 x_2_6_5
 x_2_6_7
 x_2_6_8
 x_2_6_9
 x_2_7_0
 x_2_7_1
 x_2_7_10
 x_2_7_2
 x_2_7_3
 x_2_7_4
 x_2_7_5
 x_2_7_6
 x_2_7_8
 x_2_7_9
 x_2_8_0
 x_2_8_1
 x_2_8_10
 x_2_8_2
 x_2_8_3
 x_2_8_4
 x_2_8_5
 x_2_8_6
 x_2_8_7
 x_2_8_9
 x_2_9_0
 x_2_9_1
 x_2_9_10
 x_2_9_2
 x_2_9_3
 x_2_9_4
 x_2_9_5
 x_2_9_6
 x_2_9_7
 x_2_9_8
 z_0_1
 z_0_10
 z_0_2
 z_0_3
 z_0_4
 z_0_5
 z_0_6
 z_0_7
 z_0_8
 z_0_9
 z_1_1
 z_1_10
 z_1_2
 z_1_3
 z_1_4
 z_1_5
 z_1_6
 z_1_7
 z_1_8
 z_1_9
 z_2_1
 z_2_10
 z_2_2
 z_2_3
 z_2_4
 z_2_5
 z_2_6
 z_2_7
 z_2_8
 z_2_9
End
