\ ExactEBRP compact MILP generated from C++ command-line runner
Minimize
 obj: G + 0.040384650000000001 e_1 + 0.01724355 e_2 + 0.016817249999999999 e_3 + 0.013450499999999999 e_4 + 0.0087895500000000001 e_5 + 0.14999999999999999 e_6 + 0.016153799999999999 e_7 + 0.013846199999999999 e_8 + 0.0164685 e_9 + 0.014546699999999999 e_10
Subject To
 c1: h_1_10 + h_1_2 + h_1_3 + h_1_4 + h_1_5 + h_1_6 + h_1_7 + h_1_8 + h_1_9 + h_2_10 + h_2_3 + h_2_4 + h_2_5 + h_2_6 + h_2_7 + h_2_8 + h_2_9 + h_3_10 + h_3_4 + h_3_5 + h_3_6 + h_3_7 + h_3_8 + h_3_9 + h_4_10 + h_4_5 + h_4_6 + h_4_7 + h_4_8 + h_4_9 + h_5_10 + h_5_6 + h_5_7 + h_5_8 + h_5_9 + h_6_10 + h_6_7 + h_6_8 + h_6_9 + h_7_10 + h_7_8 + h_7_9 + h_8_10 + h_8_9 + h_9_10 - 0.67348952128472628 r_1 - 0.67348952128472628 r_10 - 0.67348952128472628 r_2 - 0.67348952128472628 r_3 - 0.67348952128472628 r_4 - 0.67348952128472628 r_5 - 0.67348952128472628 r_6 - 0.67348952128472628 r_7 - 0.67348952128472628 r_8 - 0.67348952128472628 r_9 <= 0
 c2: h_1_10 + h_1_2 + h_1_3 + h_1_4 + h_1_5 + h_1_6 + h_1_7 + h_1_8 + h_1_9 + h_2_10 + h_2_3 + h_2_4 + h_2_5 + h_2_6 + h_2_7 + h_2_8 + h_2_9 + h_3_10 + h_3_4 + h_3_5 + h_3_6 + h_3_7 + h_3_8 + h_3_9 + h_4_10 + h_4_5 + h_4_6 + h_4_7 + h_4_8 + h_4_9 + h_5_10 + h_5_6 + h_5_7 + h_5_8 + h_5_9 + h_6_10 + h_6_7 + h_6_8 + h_6_9 + h_7_10 + h_7_8 + h_7_9 + h_8_10 + h_8_9 + h_9_10 - 0.57727673252976541 r_1 - 0.57727673252976541 r_10 - 0.57727673252976541 r_2 - 0.57727673252976541 r_3 - 0.57727673252976541 r_4 - 0.57727673252976541 r_5 - 0.57727673252976541 r_6 - 0.57727673252976541 r_7 - 0.57727673252976541 r_8 - 0.57727673252976541 r_9 >= 0
 c3: - 0.057727673252976536 bit_1_0 + prod_1_0 >= 0
 c4: - 0.067348952128472625 bit_1_0 + prod_1_0 <= 0
 c5: - G - 0.067348952128472625 bit_1_0 + prod_1_0 >= -0.067348952128472625
 c6: - G - 0.057727673252976536 bit_1_0 + prod_1_0 <= -0.057727673252976536
 c7: - 0.057727673252976536 bit_1_1 + prod_1_1 >= 0
 c8: - 0.067348952128472625 bit_1_1 + prod_1_1 <= 0
 c9: - G - 0.067348952128472625 bit_1_1 + prod_1_1 >= -0.067348952128472625
 c10: - G - 0.057727673252976536 bit_1_1 + prod_1_1 <= -0.057727673252976536
 c11: - 0.057727673252976536 bit_1_2 + prod_1_2 >= 0
 c12: - 0.067348952128472625 bit_1_2 + prod_1_2 <= 0
 c13: - G - 0.067348952128472625 bit_1_2 + prod_1_2 >= -0.067348952128472625
 c14: - G - 0.057727673252976536 bit_1_2 + prod_1_2 <= -0.057727673252976536
 c15: - 0.057727673252976536 bit_1_3 + prod_1_3 >= 0
 c16: - 0.067348952128472625 bit_1_3 + prod_1_3 <= 0
 c17: - G - 0.067348952128472625 bit_1_3 + prod_1_3 >= -0.067348952128472625
 c18: - G - 0.057727673252976536 bit_1_3 + prod_1_3 <= -0.057727673252976536
 c19: - 0.057727673252976536 bit_1_4 + prod_1_4 >= 0
 c20: - 0.067348952128472625 bit_1_4 + prod_1_4 <= 0
 c21: - G - 0.067348952128472625 bit_1_4 + prod_1_4 >= -0.067348952128472625
 c22: - G - 0.057727673252976536 bit_1_4 + prod_1_4 <= -0.057727673252976536
 c23: - 0.057727673252976536 bit_2_0 + prod_2_0 >= 0
 c24: - 0.067348952128472625 bit_2_0 + prod_2_0 <= 0
 c25: - G - 0.067348952128472625 bit_2_0 + prod_2_0 >= -0.067348952128472625
 c26: - G - 0.057727673252976536 bit_2_0 + prod_2_0 <= -0.057727673252976536
 c27: - 0.057727673252976536 bit_2_1 + prod_2_1 >= 0
 c28: - 0.067348952128472625 bit_2_1 + prod_2_1 <= 0
 c29: - G - 0.067348952128472625 bit_2_1 + prod_2_1 >= -0.067348952128472625
 c30: - G - 0.057727673252976536 bit_2_1 + prod_2_1 <= -0.057727673252976536
 c31: - 0.057727673252976536 bit_2_2 + prod_2_2 >= 0
 c32: - 0.067348952128472625 bit_2_2 + prod_2_2 <= 0
 c33: - G - 0.067348952128472625 bit_2_2 + prod_2_2 >= -0.067348952128472625
 c34: - G - 0.057727673252976536 bit_2_2 + prod_2_2 <= -0.057727673252976536
 c35: - 0.057727673252976536 bit_2_3 + prod_2_3 >= 0
 c36: - 0.067348952128472625 bit_2_3 + prod_2_3 <= 0
 c37: - G - 0.067348952128472625 bit_2_3 + prod_2_3 >= -0.067348952128472625
 c38: - G - 0.057727673252976536 bit_2_3 + prod_2_3 <= -0.057727673252976536
 c39: - 0.057727673252976536 bit_2_4 + prod_2_4 >= 0
 c40: - 0.067348952128472625 bit_2_4 + prod_2_4 <= 0
 c41: - G - 0.067348952128472625 bit_2_4 + prod_2_4 >= -0.067348952128472625
 c42: - G - 0.057727673252976536 bit_2_4 + prod_2_4 <= -0.057727673252976536
 c43: - 0.057727673252976536 bit_3_0 + prod_3_0 >= 0
 c44: - 0.067348952128472625 bit_3_0 + prod_3_0 <= 0
 c45: - G - 0.067348952128472625 bit_3_0 + prod_3_0 >= -0.067348952128472625
 c46: - G - 0.057727673252976536 bit_3_0 + prod_3_0 <= -0.057727673252976536
 c47: - 0.057727673252976536 bit_3_1 + prod_3_1 >= 0
 c48: - 0.067348952128472625 bit_3_1 + prod_3_1 <= 0
 c49: - G - 0.067348952128472625 bit_3_1 + prod_3_1 >= -0.067348952128472625
 c50: - G - 0.057727673252976536 bit_3_1 + prod_3_1 <= -0.057727673252976536
 c51: - 0.057727673252976536 bit_3_2 + prod_3_2 >= 0
 c52: - 0.067348952128472625 bit_3_2 + prod_3_2 <= 0
 c53: - G - 0.067348952128472625 bit_3_2 + prod_3_2 >= -0.067348952128472625
 c54: - G - 0.057727673252976536 bit_3_2 + prod_3_2 <= -0.057727673252976536
 c55: - 0.057727673252976536 bit_3_3 + prod_3_3 >= 0
 c56: - 0.067348952128472625 bit_3_3 + prod_3_3 <= 0
 c57: - G - 0.067348952128472625 bit_3_3 + prod_3_3 >= -0.067348952128472625
 c58: - G - 0.057727673252976536 bit_3_3 + prod_3_3 <= -0.057727673252976536
 c59: - 0.057727673252976536 bit_3_4 + prod_3_4 >= 0
 c60: - 0.067348952128472625 bit_3_4 + prod_3_4 <= 0
 c61: - G - 0.067348952128472625 bit_3_4 + prod_3_4 >= -0.067348952128472625
 c62: - G - 0.057727673252976536 bit_3_4 + prod_3_4 <= -0.057727673252976536
 c63: - 0.057727673252976536 bit_4_0 + prod_4_0 >= 0
 c64: - 0.067348952128472625 bit_4_0 + prod_4_0 <= 0
 c65: - G - 0.067348952128472625 bit_4_0 + prod_4_0 >= -0.067348952128472625
 c66: - G - 0.057727673252976536 bit_4_0 + prod_4_0 <= -0.057727673252976536
 c67: - 0.057727673252976536 bit_4_1 + prod_4_1 >= 0
 c68: - 0.067348952128472625 bit_4_1 + prod_4_1 <= 0
 c69: - G - 0.067348952128472625 bit_4_1 + prod_4_1 >= -0.067348952128472625
 c70: - G - 0.057727673252976536 bit_4_1 + prod_4_1 <= -0.057727673252976536
 c71: - 0.057727673252976536 bit_4_2 + prod_4_2 >= 0
 c72: - 0.067348952128472625 bit_4_2 + prod_4_2 <= 0
 c73: - G - 0.067348952128472625 bit_4_2 + prod_4_2 >= -0.067348952128472625
 c74: - G - 0.057727673252976536 bit_4_2 + prod_4_2 <= -0.057727673252976536
 c75: - 0.057727673252976536 bit_4_3 + prod_4_3 >= 0
 c76: - 0.067348952128472625 bit_4_3 + prod_4_3 <= 0
 c77: - G - 0.067348952128472625 bit_4_3 + prod_4_3 >= -0.067348952128472625
 c78: - G - 0.057727673252976536 bit_4_3 + prod_4_3 <= -0.057727673252976536
 c79: - 0.057727673252976536 bit_4_4 + prod_4_4 >= 0
 c80: - 0.067348952128472625 bit_4_4 + prod_4_4 <= 0
 c81: - G - 0.067348952128472625 bit_4_4 + prod_4_4 >= -0.067348952128472625
 c82: - G - 0.057727673252976536 bit_4_4 + prod_4_4 <= -0.057727673252976536
 c83: - 0.057727673252976536 bit_4_5 + prod_4_5 >= 0
 c84: - 0.067348952128472625 bit_4_5 + prod_4_5 <= 0
 c85: - G - 0.067348952128472625 bit_4_5 + prod_4_5 >= -0.067348952128472625
 c86: - G - 0.057727673252976536 bit_4_5 + prod_4_5 <= -0.057727673252976536
 c87: - 0.057727673252976536 bit_5_0 + prod_5_0 >= 0
 c88: - 0.067348952128472625 bit_5_0 + prod_5_0 <= 0
 c89: - G - 0.067348952128472625 bit_5_0 + prod_5_0 >= -0.067348952128472625
 c90: - G - 0.057727673252976536 bit_5_0 + prod_5_0 <= -0.057727673252976536
 c91: - 0.057727673252976536 bit_5_1 + prod_5_1 >= 0
 c92: - 0.067348952128472625 bit_5_1 + prod_5_1 <= 0
 c93: - G - 0.067348952128472625 bit_5_1 + prod_5_1 >= -0.067348952128472625
 c94: - G - 0.057727673252976536 bit_5_1 + prod_5_1 <= -0.057727673252976536
 c95: - 0.057727673252976536 bit_5_2 + prod_5_2 >= 0
 c96: - 0.067348952128472625 bit_5_2 + prod_5_2 <= 0
 c97: - G - 0.067348952128472625 bit_5_2 + prod_5_2 >= -0.067348952128472625
 c98: - G - 0.057727673252976536 bit_5_2 + prod_5_2 <= -0.057727673252976536
 c99: - 0.057727673252976536 bit_5_3 + prod_5_3 >= 0
 c100: - 0.067348952128472625 bit_5_3 + prod_5_3 <= 0
 c101: - G - 0.067348952128472625 bit_5_3 + prod_5_3 >= -0.067348952128472625
 c102: - G - 0.057727673252976536 bit_5_3 + prod_5_3 <= -0.057727673252976536
 c103: - 0.057727673252976536 bit_5_4 + prod_5_4 >= 0
 c104: - 0.067348952128472625 bit_5_4 + prod_5_4 <= 0
 c105: - G - 0.067348952128472625 bit_5_4 + prod_5_4 >= -0.067348952128472625
 c106: - G - 0.057727673252976536 bit_5_4 + prod_5_4 <= -0.057727673252976536
 c107: - 0.057727673252976536 bit_5_5 + prod_5_5 >= 0
 c108: - 0.067348952128472625 bit_5_5 + prod_5_5 <= 0
 c109: - G - 0.067348952128472625 bit_5_5 + prod_5_5 >= -0.067348952128472625
 c110: - G - 0.057727673252976536 bit_5_5 + prod_5_5 <= -0.057727673252976536
 c111: - 0.057727673252976536 bit_6_0 + prod_6_0 >= 0
 c112: - 0.067348952128472625 bit_6_0 + prod_6_0 <= 0
 c113: - G - 0.067348952128472625 bit_6_0 + prod_6_0 >= -0.067348952128472625
 c114: - G - 0.057727673252976536 bit_6_0 + prod_6_0 <= -0.057727673252976536
 c115: - 0.057727673252976536 bit_6_1 + prod_6_1 >= 0
 c116: - 0.067348952128472625 bit_6_1 + prod_6_1 <= 0
 c117: - G - 0.067348952128472625 bit_6_1 + prod_6_1 >= -0.067348952128472625
 c118: - G - 0.057727673252976536 bit_6_1 + prod_6_1 <= -0.057727673252976536
 c119: - 0.057727673252976536 bit_6_2 + prod_6_2 >= 0
 c120: - 0.067348952128472625 bit_6_2 + prod_6_2 <= 0
 c121: - G - 0.067348952128472625 bit_6_2 + prod_6_2 >= -0.067348952128472625
 c122: - G - 0.057727673252976536 bit_6_2 + prod_6_2 <= -0.057727673252976536
 c123: - 0.057727673252976536 bit_6_3 + prod_6_3 >= 0
 c124: - 0.067348952128472625 bit_6_3 + prod_6_3 <= 0
 c125: - G - 0.067348952128472625 bit_6_3 + prod_6_3 >= -0.067348952128472625
 c126: - G - 0.057727673252976536 bit_6_3 + prod_6_3 <= -0.057727673252976536
 c127: - 0.057727673252976536 bit_6_4 + prod_6_4 >= 0
 c128: - 0.067348952128472625 bit_6_4 + prod_6_4 <= 0
 c129: - G - 0.067348952128472625 bit_6_4 + prod_6_4 >= -0.067348952128472625
 c130: - G - 0.057727673252976536 bit_6_4 + prod_6_4 <= -0.057727673252976536
 c131: - 0.057727673252976536 bit_7_0 + prod_7_0 >= 0
 c132: - 0.067348952128472625 bit_7_0 + prod_7_0 <= 0
 c133: - G - 0.067348952128472625 bit_7_0 + prod_7_0 >= -0.067348952128472625
 c134: - G - 0.057727673252976536 bit_7_0 + prod_7_0 <= -0.057727673252976536
 c135: - 0.057727673252976536 bit_7_1 + prod_7_1 >= 0
 c136: - 0.067348952128472625 bit_7_1 + prod_7_1 <= 0
 c137: - G - 0.067348952128472625 bit_7_1 + prod_7_1 >= -0.067348952128472625
 c138: - G - 0.057727673252976536 bit_7_1 + prod_7_1 <= -0.057727673252976536
 c139: - 0.057727673252976536 bit_7_2 + prod_7_2 >= 0
 c140: - 0.067348952128472625 bit_7_2 + prod_7_2 <= 0
 c141: - G - 0.067348952128472625 bit_7_2 + prod_7_2 >= -0.067348952128472625
 c142: - G - 0.057727673252976536 bit_7_2 + prod_7_2 <= -0.057727673252976536
 c143: - 0.057727673252976536 bit_7_3 + prod_7_3 >= 0
 c144: - 0.067348952128472625 bit_7_3 + prod_7_3 <= 0
 c145: - G - 0.067348952128472625 bit_7_3 + prod_7_3 >= -0.067348952128472625
 c146: - G - 0.057727673252976536 bit_7_3 + prod_7_3 <= -0.057727673252976536
 c147: - 0.057727673252976536 bit_7_4 + prod_7_4 >= 0
 c148: - 0.067348952128472625 bit_7_4 + prod_7_4 <= 0
 c149: - G - 0.067348952128472625 bit_7_4 + prod_7_4 >= -0.067348952128472625
 c150: - G - 0.057727673252976536 bit_7_4 + prod_7_4 <= -0.057727673252976536
 c151: - 0.057727673252976536 bit_8_0 + prod_8_0 >= 0
 c152: - 0.067348952128472625 bit_8_0 + prod_8_0 <= 0
 c153: - G - 0.067348952128472625 bit_8_0 + prod_8_0 >= -0.067348952128472625
 c154: - G - 0.057727673252976536 bit_8_0 + prod_8_0 <= -0.057727673252976536
 c155: - 0.057727673252976536 bit_8_1 + prod_8_1 >= 0
 c156: - 0.067348952128472625 bit_8_1 + prod_8_1 <= 0
 c157: - G - 0.067348952128472625 bit_8_1 + prod_8_1 >= -0.067348952128472625
 c158: - G - 0.057727673252976536 bit_8_1 + prod_8_1 <= -0.057727673252976536
 c159: - 0.057727673252976536 bit_8_2 + prod_8_2 >= 0
 c160: - 0.067348952128472625 bit_8_2 + prod_8_2 <= 0
 c161: - G - 0.067348952128472625 bit_8_2 + prod_8_2 >= -0.067348952128472625
 c162: - G - 0.057727673252976536 bit_8_2 + prod_8_2 <= -0.057727673252976536
 c163: - 0.057727673252976536 bit_8_3 + prod_8_3 >= 0
 c164: - 0.067348952128472625 bit_8_3 + prod_8_3 <= 0
 c165: - G - 0.067348952128472625 bit_8_3 + prod_8_3 >= -0.067348952128472625
 c166: - G - 0.057727673252976536 bit_8_3 + prod_8_3 <= -0.057727673252976536
 c167: - 0.057727673252976536 bit_8_4 + prod_8_4 >= 0
 c168: - 0.067348952128472625 bit_8_4 + prod_8_4 <= 0
 c169: - G - 0.067348952128472625 bit_8_4 + prod_8_4 >= -0.067348952128472625
 c170: - G - 0.057727673252976536 bit_8_4 + prod_8_4 <= -0.057727673252976536
 c171: - 0.057727673252976536 bit_9_0 + prod_9_0 >= 0
 c172: - 0.067348952128472625 bit_9_0 + prod_9_0 <= 0
 c173: - G - 0.067348952128472625 bit_9_0 + prod_9_0 >= -0.067348952128472625
 c174: - G - 0.057727673252976536 bit_9_0 + prod_9_0 <= -0.057727673252976536
 c175: - 0.057727673252976536 bit_9_1 + prod_9_1 >= 0
 c176: - 0.067348952128472625 bit_9_1 + prod_9_1 <= 0
 c177: - G - 0.067348952128472625 bit_9_1 + prod_9_1 >= -0.067348952128472625
 c178: - G - 0.057727673252976536 bit_9_1 + prod_9_1 <= -0.057727673252976536
 c179: - 0.057727673252976536 bit_9_2 + prod_9_2 >= 0
 c180: - 0.067348952128472625 bit_9_2 + prod_9_2 <= 0
 c181: - G - 0.067348952128472625 bit_9_2 + prod_9_2 >= -0.067348952128472625
 c182: - G - 0.057727673252976536 bit_9_2 + prod_9_2 <= -0.057727673252976536
 c183: - 0.057727673252976536 bit_9_3 + prod_9_3 >= 0
 c184: - 0.067348952128472625 bit_9_3 + prod_9_3 <= 0
 c185: - G - 0.067348952128472625 bit_9_3 + prod_9_3 >= -0.067348952128472625
 c186: - G - 0.057727673252976536 bit_9_3 + prod_9_3 <= -0.057727673252976536
 c187: - 0.057727673252976536 bit_9_4 + prod_9_4 >= 0
 c188: - 0.067348952128472625 bit_9_4 + prod_9_4 <= 0
 c189: - G - 0.067348952128472625 bit_9_4 + prod_9_4 >= -0.067348952128472625
 c190: - G - 0.057727673252976536 bit_9_4 + prod_9_4 <= -0.057727673252976536
 c191: - 0.057727673252976536 bit_9_5 + prod_9_5 >= 0
 c192: - 0.067348952128472625 bit_9_5 + prod_9_5 <= 0
 c193: - G - 0.067348952128472625 bit_9_5 + prod_9_5 >= -0.067348952128472625
 c194: - G - 0.057727673252976536 bit_9_5 + prod_9_5 <= -0.057727673252976536
 c195: - 0.057727673252976536 bit_10_0 + prod_10_0 >= 0
 c196: - 0.067348952128472625 bit_10_0 + prod_10_0 <= 0
 c197: - G - 0.067348952128472625 bit_10_0 + prod_10_0 >= -0.067348952128472625
 c198: - G - 0.057727673252976536 bit_10_0 + prod_10_0 <= -0.057727673252976536
 c199: - 0.057727673252976536 bit_10_1 + prod_10_1 >= 0
 c200: - 0.067348952128472625 bit_10_1 + prod_10_1 <= 0
 c201: - G - 0.067348952128472625 bit_10_1 + prod_10_1 >= -0.067348952128472625
 c202: - G - 0.057727673252976536 bit_10_1 + prod_10_1 <= -0.057727673252976536
 c203: - 0.057727673252976536 bit_10_2 + prod_10_2 >= 0
 c204: - 0.067348952128472625 bit_10_2 + prod_10_2 <= 0
 c205: - G - 0.067348952128472625 bit_10_2 + prod_10_2 >= -0.067348952128472625
 c206: - G - 0.057727673252976536 bit_10_2 + prod_10_2 <= -0.057727673252976536
 c207: - 0.057727673252976536 bit_10_3 + prod_10_3 >= 0
 c208: - 0.067348952128472625 bit_10_3 + prod_10_3 <= 0
 c209: - G - 0.067348952128472625 bit_10_3 + prod_10_3 >= -0.067348952128472625
 c210: - G - 0.057727673252976536 bit_10_3 + prod_10_3 <= -0.057727673252976536
 c211: - 0.057727673252976536 bit_10_4 + prod_10_4 >= 0
 c212: - 0.067348952128472625 bit_10_4 + prod_10_4 <= 0
 c213: - G - 0.067348952128472625 bit_10_4 + prod_10_4 >= -0.067348952128472625
 c214: - G - 0.057727673252976536 bit_10_4 + prod_10_4 <= -0.057727673252976536
 c215: - 0.057727673252976536 bit_10_5 + prod_10_5 >= 0
 c216: - 0.067348952128472625 bit_10_5 + prod_10_5 <= 0
 c217: - G - 0.067348952128472625 bit_10_5 + prod_10_5 >= -0.067348952128472625
 c218: - G - 0.057727673252976536 bit_10_5 + prod_10_5 <= -0.057727673252976536
 c219: 9 h_1_2 - 0.67348952128472628 r_1 - 0.67348952128472628 r_10 - 0.67348952128472628 r_2 - 0.67348952128472628 r_3 - 0.67348952128472628 r_4 - 0.67348952128472628 r_5 - 0.67348952128472628 r_6 - 0.67348952128472628 r_7 - 0.67348952128472628 r_8 - 0.67348952128472628 r_9 <= 0
 c220: 9 h_1_3 - 0.67348952128472628 r_1 - 0.67348952128472628 r_10 - 0.67348952128472628 r_2 - 0.67348952128472628 r_3 - 0.67348952128472628 r_4 - 0.67348952128472628 r_5 - 0.67348952128472628 r_6 - 0.67348952128472628 r_7 - 0.67348952128472628 r_8 - 0.67348952128472628 r_9 <= 0
 c221: 9 h_1_4 - 0.67348952128472628 r_1 - 0.67348952128472628 r_10 - 0.67348952128472628 r_2 - 0.67348952128472628 r_3 - 0.67348952128472628 r_4 - 0.67348952128472628 r_5 - 0.67348952128472628 r_6 - 0.67348952128472628 r_7 - 0.67348952128472628 r_8 - 0.67348952128472628 r_9 <= 0
 c222: 9 h_1_5 - 0.67348952128472628 r_1 - 0.67348952128472628 r_10 - 0.67348952128472628 r_2 - 0.67348952128472628 r_3 - 0.67348952128472628 r_4 - 0.67348952128472628 r_5 - 0.67348952128472628 r_6 - 0.67348952128472628 r_7 - 0.67348952128472628 r_8 - 0.67348952128472628 r_9 <= 0
 c223: 9 h_1_6 - 0.67348952128472628 r_1 - 0.67348952128472628 r_10 - 0.67348952128472628 r_2 - 0.67348952128472628 r_3 - 0.67348952128472628 r_4 - 0.67348952128472628 r_5 - 0.67348952128472628 r_6 - 0.67348952128472628 r_7 - 0.67348952128472628 r_8 - 0.67348952128472628 r_9 <= 0
 c224: 9 h_1_7 - 0.67348952128472628 r_1 - 0.67348952128472628 r_10 - 0.67348952128472628 r_2 - 0.67348952128472628 r_3 - 0.67348952128472628 r_4 - 0.67348952128472628 r_5 - 0.67348952128472628 r_6 - 0.67348952128472628 r_7 - 0.67348952128472628 r_8 - 0.67348952128472628 r_9 <= 0
 c225: 9 h_1_8 - 0.67348952128472628 r_1 - 0.67348952128472628 r_10 - 0.67348952128472628 r_2 - 0.67348952128472628 r_3 - 0.67348952128472628 r_4 - 0.67348952128472628 r_5 - 0.67348952128472628 r_6 - 0.67348952128472628 r_7 - 0.67348952128472628 r_8 - 0.67348952128472628 r_9 <= 0
 c226: 9 h_1_9 - 0.67348952128472628 r_1 - 0.67348952128472628 r_10 - 0.67348952128472628 r_2 - 0.67348952128472628 r_3 - 0.67348952128472628 r_4 - 0.67348952128472628 r_5 - 0.67348952128472628 r_6 - 0.67348952128472628 r_7 - 0.67348952128472628 r_8 - 0.67348952128472628 r_9 <= 0
 c227: 9 h_1_10 - 0.67348952128472628 r_1 - 0.67348952128472628 r_10 - 0.67348952128472628 r_2 - 0.67348952128472628 r_3 - 0.67348952128472628 r_4 - 0.67348952128472628 r_5 - 0.67348952128472628 r_6 - 0.67348952128472628 r_7 - 0.67348952128472628 r_8 - 0.67348952128472628 r_9 <= 0
 c228: 9 h_2_3 - 0.67348952128472628 r_1 - 0.67348952128472628 r_10 - 0.67348952128472628 r_2 - 0.67348952128472628 r_3 - 0.67348952128472628 r_4 - 0.67348952128472628 r_5 - 0.67348952128472628 r_6 - 0.67348952128472628 r_7 - 0.67348952128472628 r_8 - 0.67348952128472628 r_9 <= 0
 c229: 9 h_2_4 - 0.67348952128472628 r_1 - 0.67348952128472628 r_10 - 0.67348952128472628 r_2 - 0.67348952128472628 r_3 - 0.67348952128472628 r_4 - 0.67348952128472628 r_5 - 0.67348952128472628 r_6 - 0.67348952128472628 r_7 - 0.67348952128472628 r_8 - 0.67348952128472628 r_9 <= 0
 c230: 9 h_2_5 - 0.67348952128472628 r_1 - 0.67348952128472628 r_10 - 0.67348952128472628 r_2 - 0.67348952128472628 r_3 - 0.67348952128472628 r_4 - 0.67348952128472628 r_5 - 0.67348952128472628 r_6 - 0.67348952128472628 r_7 - 0.67348952128472628 r_8 - 0.67348952128472628 r_9 <= 0
 c231: 9 h_2_6 - 0.67348952128472628 r_1 - 0.67348952128472628 r_10 - 0.67348952128472628 r_2 - 0.67348952128472628 r_3 - 0.67348952128472628 r_4 - 0.67348952128472628 r_5 - 0.67348952128472628 r_6 - 0.67348952128472628 r_7 - 0.67348952128472628 r_8 - 0.67348952128472628 r_9 <= 0
 c232: 9 h_2_7 - 0.67348952128472628 r_1 - 0.67348952128472628 r_10 - 0.67348952128472628 r_2 - 0.67348952128472628 r_3 - 0.67348952128472628 r_4 - 0.67348952128472628 r_5 - 0.67348952128472628 r_6 - 0.67348952128472628 r_7 - 0.67348952128472628 r_8 - 0.67348952128472628 r_9 <= 0
 c233: 9 h_2_8 - 0.67348952128472628 r_1 - 0.67348952128472628 r_10 - 0.67348952128472628 r_2 - 0.67348952128472628 r_3 - 0.67348952128472628 r_4 - 0.67348952128472628 r_5 - 0.67348952128472628 r_6 - 0.67348952128472628 r_7 - 0.67348952128472628 r_8 - 0.67348952128472628 r_9 <= 0
 c234: 9 h_2_9 - 0.67348952128472628 r_1 - 0.67348952128472628 r_10 - 0.67348952128472628 r_2 - 0.67348952128472628 r_3 - 0.67348952128472628 r_4 - 0.67348952128472628 r_5 - 0.67348952128472628 r_6 - 0.67348952128472628 r_7 - 0.67348952128472628 r_8 - 0.67348952128472628 r_9 <= 0
 c235: 9 h_2_10 - 0.67348952128472628 r_1 - 0.67348952128472628 r_10 - 0.67348952128472628 r_2 - 0.67348952128472628 r_3 - 0.67348952128472628 r_4 - 0.67348952128472628 r_5 - 0.67348952128472628 r_6 - 0.67348952128472628 r_7 - 0.67348952128472628 r_8 - 0.67348952128472628 r_9 <= 0
 c236: 9 h_3_4 - 0.67348952128472628 r_1 - 0.67348952128472628 r_10 - 0.67348952128472628 r_2 - 0.67348952128472628 r_3 - 0.67348952128472628 r_4 - 0.67348952128472628 r_5 - 0.67348952128472628 r_6 - 0.67348952128472628 r_7 - 0.67348952128472628 r_8 - 0.67348952128472628 r_9 <= 0
 c237: 9 h_3_5 - 0.67348952128472628 r_1 - 0.67348952128472628 r_10 - 0.67348952128472628 r_2 - 0.67348952128472628 r_3 - 0.67348952128472628 r_4 - 0.67348952128472628 r_5 - 0.67348952128472628 r_6 - 0.67348952128472628 r_7 - 0.67348952128472628 r_8 - 0.67348952128472628 r_9 <= 0
 c238: 9 h_3_6 - 0.67348952128472628 r_1 - 0.67348952128472628 r_10 - 0.67348952128472628 r_2 - 0.67348952128472628 r_3 - 0.67348952128472628 r_4 - 0.67348952128472628 r_5 - 0.67348952128472628 r_6 - 0.67348952128472628 r_7 - 0.67348952128472628 r_8 - 0.67348952128472628 r_9 <= 0
 c239: 9 h_3_7 - 0.67348952128472628 r_1 - 0.67348952128472628 r_10 - 0.67348952128472628 r_2 - 0.67348952128472628 r_3 - 0.67348952128472628 r_4 - 0.67348952128472628 r_5 - 0.67348952128472628 r_6 - 0.67348952128472628 r_7 - 0.67348952128472628 r_8 - 0.67348952128472628 r_9 <= 0
 c240: 9 h_3_8 - 0.67348952128472628 r_1 - 0.67348952128472628 r_10 - 0.67348952128472628 r_2 - 0.67348952128472628 r_3 - 0.67348952128472628 r_4 - 0.67348952128472628 r_5 - 0.67348952128472628 r_6 - 0.67348952128472628 r_7 - 0.67348952128472628 r_8 - 0.67348952128472628 r_9 <= 0
 c241: 9 h_3_9 - 0.67348952128472628 r_1 - 0.67348952128472628 r_10 - 0.67348952128472628 r_2 - 0.67348952128472628 r_3 - 0.67348952128472628 r_4 - 0.67348952128472628 r_5 - 0.67348952128472628 r_6 - 0.67348952128472628 r_7 - 0.67348952128472628 r_8 - 0.67348952128472628 r_9 <= 0
 c242: 9 h_3_10 - 0.67348952128472628 r_1 - 0.67348952128472628 r_10 - 0.67348952128472628 r_2 - 0.67348952128472628 r_3 - 0.67348952128472628 r_4 - 0.67348952128472628 r_5 - 0.67348952128472628 r_6 - 0.67348952128472628 r_7 - 0.67348952128472628 r_8 - 0.67348952128472628 r_9 <= 0
 c243: 9 h_4_5 - 0.67348952128472628 r_1 - 0.67348952128472628 r_10 - 0.67348952128472628 r_2 - 0.67348952128472628 r_3 - 0.67348952128472628 r_4 - 0.67348952128472628 r_5 - 0.67348952128472628 r_6 - 0.67348952128472628 r_7 - 0.67348952128472628 r_8 - 0.67348952128472628 r_9 <= 0
 c244: 9 h_4_6 - 0.67348952128472628 r_1 - 0.67348952128472628 r_10 - 0.67348952128472628 r_2 - 0.67348952128472628 r_3 - 0.67348952128472628 r_4 - 0.67348952128472628 r_5 - 0.67348952128472628 r_6 - 0.67348952128472628 r_7 - 0.67348952128472628 r_8 - 0.67348952128472628 r_9 <= 0
 c245: 9 h_4_7 - 0.67348952128472628 r_1 - 0.67348952128472628 r_10 - 0.67348952128472628 r_2 - 0.67348952128472628 r_3 - 0.67348952128472628 r_4 - 0.67348952128472628 r_5 - 0.67348952128472628 r_6 - 0.67348952128472628 r_7 - 0.67348952128472628 r_8 - 0.67348952128472628 r_9 <= 0
 c246: 9 h_4_8 - 0.67348952128472628 r_1 - 0.67348952128472628 r_10 - 0.67348952128472628 r_2 - 0.67348952128472628 r_3 - 0.67348952128472628 r_4 - 0.67348952128472628 r_5 - 0.67348952128472628 r_6 - 0.67348952128472628 r_7 - 0.67348952128472628 r_8 - 0.67348952128472628 r_9 <= 0
 c247: 9 h_4_9 - 0.67348952128472628 r_1 - 0.67348952128472628 r_10 - 0.67348952128472628 r_2 - 0.67348952128472628 r_3 - 0.67348952128472628 r_4 - 0.67348952128472628 r_5 - 0.67348952128472628 r_6 - 0.67348952128472628 r_7 - 0.67348952128472628 r_8 - 0.67348952128472628 r_9 <= 0
 c248: 9 h_4_10 - 0.67348952128472628 r_1 - 0.67348952128472628 r_10 - 0.67348952128472628 r_2 - 0.67348952128472628 r_3 - 0.67348952128472628 r_4 - 0.67348952128472628 r_5 - 0.67348952128472628 r_6 - 0.67348952128472628 r_7 - 0.67348952128472628 r_8 - 0.67348952128472628 r_9 <= 0
 c249: 9 h_5_6 - 0.67348952128472628 r_1 - 0.67348952128472628 r_10 - 0.67348952128472628 r_2 - 0.67348952128472628 r_3 - 0.67348952128472628 r_4 - 0.67348952128472628 r_5 - 0.67348952128472628 r_6 - 0.67348952128472628 r_7 - 0.67348952128472628 r_8 - 0.67348952128472628 r_9 <= 0
 c250: 9 h_5_7 - 0.67348952128472628 r_1 - 0.67348952128472628 r_10 - 0.67348952128472628 r_2 - 0.67348952128472628 r_3 - 0.67348952128472628 r_4 - 0.67348952128472628 r_5 - 0.67348952128472628 r_6 - 0.67348952128472628 r_7 - 0.67348952128472628 r_8 - 0.67348952128472628 r_9 <= 0
 c251: 9 h_5_8 - 0.67348952128472628 r_1 - 0.67348952128472628 r_10 - 0.67348952128472628 r_2 - 0.67348952128472628 r_3 - 0.67348952128472628 r_4 - 0.67348952128472628 r_5 - 0.67348952128472628 r_6 - 0.67348952128472628 r_7 - 0.67348952128472628 r_8 - 0.67348952128472628 r_9 <= 0
 c252: 9 h_5_9 - 0.67348952128472628 r_1 - 0.67348952128472628 r_10 - 0.67348952128472628 r_2 - 0.67348952128472628 r_3 - 0.67348952128472628 r_4 - 0.67348952128472628 r_5 - 0.67348952128472628 r_6 - 0.67348952128472628 r_7 - 0.67348952128472628 r_8 - 0.67348952128472628 r_9 <= 0
 c253: 9 h_5_10 - 0.67348952128472628 r_1 - 0.67348952128472628 r_10 - 0.67348952128472628 r_2 - 0.67348952128472628 r_3 - 0.67348952128472628 r_4 - 0.67348952128472628 r_5 - 0.67348952128472628 r_6 - 0.67348952128472628 r_7 - 0.67348952128472628 r_8 - 0.67348952128472628 r_9 <= 0
 c254: 9 h_6_7 - 0.67348952128472628 r_1 - 0.67348952128472628 r_10 - 0.67348952128472628 r_2 - 0.67348952128472628 r_3 - 0.67348952128472628 r_4 - 0.67348952128472628 r_5 - 0.67348952128472628 r_6 - 0.67348952128472628 r_7 - 0.67348952128472628 r_8 - 0.67348952128472628 r_9 <= 0
 c255: 9 h_6_8 - 0.67348952128472628 r_1 - 0.67348952128472628 r_10 - 0.67348952128472628 r_2 - 0.67348952128472628 r_3 - 0.67348952128472628 r_4 - 0.67348952128472628 r_5 - 0.67348952128472628 r_6 - 0.67348952128472628 r_7 - 0.67348952128472628 r_8 - 0.67348952128472628 r_9 <= 0
 c256: 9 h_6_9 - 0.67348952128472628 r_1 - 0.67348952128472628 r_10 - 0.67348952128472628 r_2 - 0.67348952128472628 r_3 - 0.67348952128472628 r_4 - 0.67348952128472628 r_5 - 0.67348952128472628 r_6 - 0.67348952128472628 r_7 - 0.67348952128472628 r_8 - 0.67348952128472628 r_9 <= 0
 c257: 9 h_6_10 - 0.67348952128472628 r_1 - 0.67348952128472628 r_10 - 0.67348952128472628 r_2 - 0.67348952128472628 r_3 - 0.67348952128472628 r_4 - 0.67348952128472628 r_5 - 0.67348952128472628 r_6 - 0.67348952128472628 r_7 - 0.67348952128472628 r_8 - 0.67348952128472628 r_9 <= 0
 c258: 9 h_7_8 - 0.67348952128472628 r_1 - 0.67348952128472628 r_10 - 0.67348952128472628 r_2 - 0.67348952128472628 r_3 - 0.67348952128472628 r_4 - 0.67348952128472628 r_5 - 0.67348952128472628 r_6 - 0.67348952128472628 r_7 - 0.67348952128472628 r_8 - 0.67348952128472628 r_9 <= 0
 c259: 9 h_7_9 - 0.67348952128472628 r_1 - 0.67348952128472628 r_10 - 0.67348952128472628 r_2 - 0.67348952128472628 r_3 - 0.67348952128472628 r_4 - 0.67348952128472628 r_5 - 0.67348952128472628 r_6 - 0.67348952128472628 r_7 - 0.67348952128472628 r_8 - 0.67348952128472628 r_9 <= 0
 c260: 9 h_7_10 - 0.67348952128472628 r_1 - 0.67348952128472628 r_10 - 0.67348952128472628 r_2 - 0.67348952128472628 r_3 - 0.67348952128472628 r_4 - 0.67348952128472628 r_5 - 0.67348952128472628 r_6 - 0.67348952128472628 r_7 - 0.67348952128472628 r_8 - 0.67348952128472628 r_9 <= 0
 c261: 9 h_8_9 - 0.67348952128472628 r_1 - 0.67348952128472628 r_10 - 0.67348952128472628 r_2 - 0.67348952128472628 r_3 - 0.67348952128472628 r_4 - 0.67348952128472628 r_5 - 0.67348952128472628 r_6 - 0.67348952128472628 r_7 - 0.67348952128472628 r_8 - 0.67348952128472628 r_9 <= 0
 c262: 9 h_8_10 - 0.67348952128472628 r_1 - 0.67348952128472628 r_10 - 0.67348952128472628 r_2 - 0.67348952128472628 r_3 - 0.67348952128472628 r_4 - 0.67348952128472628 r_5 - 0.67348952128472628 r_6 - 0.67348952128472628 r_7 - 0.67348952128472628 r_8 - 0.67348952128472628 r_9 <= 0
 c263: 9 h_9_10 - 0.67348952128472628 r_1 - 0.67348952128472628 r_10 - 0.67348952128472628 r_2 - 0.67348952128472628 r_3 - 0.67348952128472628 r_4 - 0.67348952128472628 r_5 - 0.67348952128472628 r_6 - 0.67348952128472628 r_7 - 0.67348952128472628 r_8 - 0.67348952128472628 r_9 <= 0
 c264: - d_0_1 - d_1_1 - d_2_1 + p_0_1 + p_1_1 + p_2_1 >= 4
 c265: - d_0_6 - d_1_6 - d_2_6 + p_0_6 + p_1_6 + p_2_6 >= 13
 c266: r_1 - r_2 <= 1.2629785880595295
 c267: - r_1 + r_2 <= 1.2629785880595295
 c268: r_1 - r_3 <= 1.2629785880595295
 c269: - r_1 + r_3 <= 1.2629785880595295
 c270: r_1 - r_4 <= 1.2629785880595295
 c271: - r_1 + r_4 <= 1.2629785880595295
 c272: r_1 - r_5 <= 1.2629785880595295
 c273: - r_1 + r_5 <= 1.2629785880595295
 c274: r_1 - r_6 <= 1.2629785880595295
 c275: - r_1 + r_6 <= 1.2629785880595295
 c276: r_1 - r_7 <= 1.2629785880595295
 c277: - r_1 + r_7 <= 1.2629785880595295
 c278: r_1 - r_8 <= 1.2629785880595295
 c279: - r_1 + r_8 <= 1.2629785880595295
 c280: r_1 - r_9 <= 1.2629785880595295
 c281: - r_1 + r_9 <= 1.2629785880595295
 c282: r_1 - r_10 <= 1.2629785880595295
 c283: - r_1 + r_10 <= 1.2629785880595295
 c284: r_2 - r_3 <= 1.2629785880595295
 c285: - r_2 + r_3 <= 1.2629785880595295
 c286: r_2 - r_4 <= 1.2629785880595295
 c287: - r_2 + r_4 <= 1.2629785880595295
 c288: r_2 - r_5 <= 1.2629785880595295
 c289: - r_2 + r_5 <= 1.2629785880595295
 c290: r_2 - r_6 <= 1.2629785880595295
 c291: - r_2 + r_6 <= 1.2629785880595295
 c292: r_2 - r_7 <= 1.2629785880595295
 c293: - r_2 + r_7 <= 1.2629785880595295
 c294: r_2 - r_8 <= 1.2629785880595295
 c295: - r_2 + r_8 <= 1.2629785880595295
 c296: r_2 - r_9 <= 1.2629785880595295
 c297: - r_2 + r_9 <= 1.2629785880595295
 c298: - r_10 + r_2 <= 1.2629785880595295
 c299: r_10 - r_2 <= 1.2629785880595295
 c300: r_3 - r_4 <= 1.2629785880595295
 c301: - r_3 + r_4 <= 1.2629785880595295
 c302: r_3 - r_5 <= 1.2629785880595295
 c303: - r_3 + r_5 <= 1.2629785880595295
 c304: r_3 - r_6 <= 1.2629785880595295
 c305: - r_3 + r_6 <= 1.2629785880595295
 c306: r_3 - r_7 <= 1.2629785880595295
 c307: - r_3 + r_7 <= 1.2629785880595295
 c308: r_3 - r_8 <= 1.2629785880595295
 c309: - r_3 + r_8 <= 1.2629785880595295
 c310: r_3 - r_9 <= 1.2629785880595295
 c311: - r_3 + r_9 <= 1.2629785880595295
 c312: - r_10 + r_3 <= 1.2629785880595295
 c313: r_10 - r_3 <= 1.2629785880595295
 c314: r_4 - r_5 <= 1.2629785880595295
 c315: - r_4 + r_5 <= 1.2629785880595295
 c316: r_4 - r_6 <= 1.2629785880595295
 c317: - r_4 + r_6 <= 1.2629785880595295
 c318: r_4 - r_7 <= 1.2629785880595295
 c319: - r_4 + r_7 <= 1.2629785880595295
 c320: r_4 - r_8 <= 1.2629785880595295
 c321: - r_4 + r_8 <= 1.2629785880595295
 c322: r_4 - r_9 <= 1.2629785880595295
 c323: - r_4 + r_9 <= 1.2629785880595295
 c324: - r_10 + r_4 <= 1.2629785880595295
 c325: r_10 - r_4 <= 1.2629785880595295
 c326: r_5 - r_6 <= 1.2629785880595295
 c327: - r_5 + r_6 <= 1.2629785880595295
 c328: r_5 - r_7 <= 1.2629785880595295
 c329: - r_5 + r_7 <= 1.2629785880595295
 c330: r_5 - r_8 <= 1.2629785880595295
 c331: - r_5 + r_8 <= 1.2629785880595295
 c332: r_5 - r_9 <= 1.2629785880595295
 c333: - r_5 + r_9 <= 1.2629785880595295
 c334: - r_10 + r_5 <= 1.2629785880595295
 c335: r_10 - r_5 <= 1.2629785880595295
 c336: r_6 - r_7 <= 1.2629785880595295
 c337: - r_6 + r_7 <= 1.2629785880595295
 c338: r_6 - r_8 <= 1.2629785880595295
 c339: - r_6 + r_8 <= 1.2629785880595295
 c340: r_6 - r_9 <= 1.2629785880595295
 c341: - r_6 + r_9 <= 1.2629785880595295
 c342: - r_10 + r_6 <= 1.2629785880595295
 c343: r_10 - r_6 <= 1.2629785880595295
 c344: r_7 - r_8 <= 1.2629785880595295
 c345: - r_7 + r_8 <= 1.2629785880595295
 c346: r_7 - r_9 <= 1.2629785880595295
 c347: - r_7 + r_9 <= 1.2629785880595295
 c348: - r_10 + r_7 <= 1.2629785880595295
 c349: r_10 - r_7 <= 1.2629785880595295
 c350: r_8 - r_9 <= 1.2629785880595295
 c351: - r_8 + r_9 <= 1.2629785880595295
 c352: - r_10 + r_8 <= 1.2629785880595295
 c353: r_10 - r_8 <= 1.2629785880595295
 c354: - r_10 + r_9 <= 1.2629785880595295
 c355: r_10 - r_9 <= 1.2629785880595295
 c356: 8.3265104787152744 r_1 - 0.67348952128472628 r_10 - 9.6734895212847256 r_2 - 0.67348952128472628 r_3 - 0.67348952128472628 r_4 - 0.67348952128472628 r_5 - 0.67348952128472628 r_6 - 0.67348952128472628 r_7 - 0.67348952128472628 r_8 - 0.67348952128472628 r_9 <= 0
 c357: - 9.6734895212847256 r_1 - 0.67348952128472628 r_10 + 8.3265104787152744 r_2 - 0.67348952128472628 r_3 - 0.67348952128472628 r_4 - 0.67348952128472628 r_5 - 0.67348952128472628 r_6 - 0.67348952128472628 r_7 - 0.67348952128472628 r_8 - 0.67348952128472628 r_9 <= 0
 c358: 8.3265104787152744 r_1 - 0.67348952128472628 r_10 - 0.67348952128472628 r_2 - 9.6734895212847256 r_3 - 0.67348952128472628 r_4 - 0.67348952128472628 r_5 - 0.67348952128472628 r_6 - 0.67348952128472628 r_7 - 0.67348952128472628 r_8 - 0.67348952128472628 r_9 <= 0
 c359: - 9.6734895212847256 r_1 - 0.67348952128472628 r_10 - 0.67348952128472628 r_2 + 8.3265104787152744 r_3 - 0.67348952128472628 r_4 - 0.67348952128472628 r_5 - 0.67348952128472628 r_6 - 0.67348952128472628 r_7 - 0.67348952128472628 r_8 - 0.67348952128472628 r_9 <= 0
 c360: 8.3265104787152744 r_1 - 0.67348952128472628 r_10 - 0.67348952128472628 r_2 - 0.67348952128472628 r_3 - 9.6734895212847256 r_4 - 0.67348952128472628 r_5 - 0.67348952128472628 r_6 - 0.67348952128472628 r_7 - 0.67348952128472628 r_8 - 0.67348952128472628 r_9 <= 0
 c361: - 9.6734895212847256 r_1 - 0.67348952128472628 r_10 - 0.67348952128472628 r_2 - 0.67348952128472628 r_3 + 8.3265104787152744 r_4 - 0.67348952128472628 r_5 - 0.67348952128472628 r_6 - 0.67348952128472628 r_7 - 0.67348952128472628 r_8 - 0.67348952128472628 r_9 <= 0
 c362: 8.3265104787152744 r_1 - 0.67348952128472628 r_10 - 0.67348952128472628 r_2 - 0.67348952128472628 r_3 - 0.67348952128472628 r_4 - 9.6734895212847256 r_5 - 0.67348952128472628 r_6 - 0.67348952128472628 r_7 - 0.67348952128472628 r_8 - 0.67348952128472628 r_9 <= 0
 c363: - 9.6734895212847256 r_1 - 0.67348952128472628 r_10 - 0.67348952128472628 r_2 - 0.67348952128472628 r_3 - 0.67348952128472628 r_4 + 8.3265104787152744 r_5 - 0.67348952128472628 r_6 - 0.67348952128472628 r_7 - 0.67348952128472628 r_8 - 0.67348952128472628 r_9 <= 0
 c364: 8.3265104787152744 r_1 - 0.67348952128472628 r_10 - 0.67348952128472628 r_2 - 0.67348952128472628 r_3 - 0.67348952128472628 r_4 - 0.67348952128472628 r_5 - 9.6734895212847256 r_6 - 0.67348952128472628 r_7 - 0.67348952128472628 r_8 - 0.67348952128472628 r_9 <= 0
 c365: - 9.6734895212847256 r_1 - 0.67348952128472628 r_10 - 0.67348952128472628 r_2 - 0.67348952128472628 r_3 - 0.67348952128472628 r_4 - 0.67348952128472628 r_5 + 8.3265104787152744 r_6 - 0.67348952128472628 r_7 - 0.67348952128472628 r_8 - 0.67348952128472628 r_9 <= 0
 c366: 8.3265104787152744 r_1 - 0.67348952128472628 r_10 - 0.67348952128472628 r_2 - 0.67348952128472628 r_3 - 0.67348952128472628 r_4 - 0.67348952128472628 r_5 - 0.67348952128472628 r_6 - 9.6734895212847256 r_7 - 0.67348952128472628 r_8 - 0.67348952128472628 r_9 <= 0
 c367: - 9.6734895212847256 r_1 - 0.67348952128472628 r_10 - 0.67348952128472628 r_2 - 0.67348952128472628 r_3 - 0.67348952128472628 r_4 - 0.67348952128472628 r_5 - 0.67348952128472628 r_6 + 8.3265104787152744 r_7 - 0.67348952128472628 r_8 - 0.67348952128472628 r_9 <= 0
 c368: 8.3265104787152744 r_1 - 0.67348952128472628 r_10 - 0.67348952128472628 r_2 - 0.67348952128472628 r_3 - 0.67348952128472628 r_4 - 0.67348952128472628 r_5 - 0.67348952128472628 r_6 - 0.67348952128472628 r_7 - 9.6734895212847256 r_8 - 0.67348952128472628 r_9 <= 0
 c369: - 9.6734895212847256 r_1 - 0.67348952128472628 r_10 - 0.67348952128472628 r_2 - 0.67348952128472628 r_3 - 0.67348952128472628 r_4 - 0.67348952128472628 r_5 - 0.67348952128472628 r_6 - 0.67348952128472628 r_7 + 8.3265104787152744 r_8 - 0.67348952128472628 r_9 <= 0
 c370: 8.3265104787152744 r_1 - 0.67348952128472628 r_10 - 0.67348952128472628 r_2 - 0.67348952128472628 r_3 - 0.67348952128472628 r_4 - 0.67348952128472628 r_5 - 0.67348952128472628 r_6 - 0.67348952128472628 r_7 - 0.67348952128472628 r_8 - 9.6734895212847256 r_9 <= 0
 c371: - 9.6734895212847256 r_1 - 0.67348952128472628 r_10 - 0.67348952128472628 r_2 - 0.67348952128472628 r_3 - 0.67348952128472628 r_4 - 0.67348952128472628 r_5 - 0.67348952128472628 r_6 - 0.67348952128472628 r_7 - 0.67348952128472628 r_8 + 8.3265104787152744 r_9 <= 0
 c372: 8.3265104787152744 r_1 - 9.6734895212847256 r_10 - 0.67348952128472628 r_2 - 0.67348952128472628 r_3 - 0.67348952128472628 r_4 - 0.67348952128472628 r_5 - 0.67348952128472628 r_6 - 0.67348952128472628 r_7 - 0.67348952128472628 r_8 - 0.67348952128472628 r_9 <= 0
 c373: - 9.6734895212847256 r_1 + 8.3265104787152744 r_10 - 0.67348952128472628 r_2 - 0.67348952128472628 r_3 - 0.67348952128472628 r_4 - 0.67348952128472628 r_5 - 0.67348952128472628 r_6 - 0.67348952128472628 r_7 - 0.67348952128472628 r_8 - 0.67348952128472628 r_9 <= 0
 c374: - 0.67348952128472628 r_1 - 0.67348952128472628 r_10 + 8.3265104787152744 r_2 - 9.6734895212847256 r_3 - 0.67348952128472628 r_4 - 0.67348952128472628 r_5 - 0.67348952128472628 r_6 - 0.67348952128472628 r_7 - 0.67348952128472628 r_8 - 0.67348952128472628 r_9 <= 0
 c375: - 0.67348952128472628 r_1 - 0.67348952128472628 r_10 - 9.6734895212847256 r_2 + 8.3265104787152744 r_3 - 0.67348952128472628 r_4 - 0.67348952128472628 r_5 - 0.67348952128472628 r_6 - 0.67348952128472628 r_7 - 0.67348952128472628 r_8 - 0.67348952128472628 r_9 <= 0
 c376: - 0.67348952128472628 r_1 - 0.67348952128472628 r_10 + 8.3265104787152744 r_2 - 0.67348952128472628 r_3 - 9.6734895212847256 r_4 - 0.67348952128472628 r_5 - 0.67348952128472628 r_6 - 0.67348952128472628 r_7 - 0.67348952128472628 r_8 - 0.67348952128472628 r_9 <= 0
 c377: - 0.67348952128472628 r_1 - 0.67348952128472628 r_10 - 9.6734895212847256 r_2 - 0.67348952128472628 r_3 + 8.3265104787152744 r_4 - 0.67348952128472628 r_5 - 0.67348952128472628 r_6 - 0.67348952128472628 r_7 - 0.67348952128472628 r_8 - 0.67348952128472628 r_9 <= 0
 c378: - 0.67348952128472628 r_1 - 0.67348952128472628 r_10 + 8.3265104787152744 r_2 - 0.67348952128472628 r_3 - 0.67348952128472628 r_4 - 9.6734895212847256 r_5 - 0.67348952128472628 r_6 - 0.67348952128472628 r_7 - 0.67348952128472628 r_8 - 0.67348952128472628 r_9 <= 0
 c379: - 0.67348952128472628 r_1 - 0.67348952128472628 r_10 - 9.6734895212847256 r_2 - 0.67348952128472628 r_3 - 0.67348952128472628 r_4 + 8.3265104787152744 r_5 - 0.67348952128472628 r_6 - 0.67348952128472628 r_7 - 0.67348952128472628 r_8 - 0.67348952128472628 r_9 <= 0
 c380: - 0.67348952128472628 r_1 - 0.67348952128472628 r_10 + 8.3265104787152744 r_2 - 0.67348952128472628 r_3 - 0.67348952128472628 r_4 - 0.67348952128472628 r_5 - 9.6734895212847256 r_6 - 0.67348952128472628 r_7 - 0.67348952128472628 r_8 - 0.67348952128472628 r_9 <= 0
 c381: - 0.67348952128472628 r_1 - 0.67348952128472628 r_10 - 9.6734895212847256 r_2 - 0.67348952128472628 r_3 - 0.67348952128472628 r_4 - 0.67348952128472628 r_5 + 8.3265104787152744 r_6 - 0.67348952128472628 r_7 - 0.67348952128472628 r_8 - 0.67348952128472628 r_9 <= 0
 c382: - 0.67348952128472628 r_1 - 0.67348952128472628 r_10 + 8.3265104787152744 r_2 - 0.67348952128472628 r_3 - 0.67348952128472628 r_4 - 0.67348952128472628 r_5 - 0.67348952128472628 r_6 - 9.6734895212847256 r_7 - 0.67348952128472628 r_8 - 0.67348952128472628 r_9 <= 0
 c383: - 0.67348952128472628 r_1 - 0.67348952128472628 r_10 - 9.6734895212847256 r_2 - 0.67348952128472628 r_3 - 0.67348952128472628 r_4 - 0.67348952128472628 r_5 - 0.67348952128472628 r_6 + 8.3265104787152744 r_7 - 0.67348952128472628 r_8 - 0.67348952128472628 r_9 <= 0
 c384: - 0.67348952128472628 r_1 - 0.67348952128472628 r_10 + 8.3265104787152744 r_2 - 0.67348952128472628 r_3 - 0.67348952128472628 r_4 - 0.67348952128472628 r_5 - 0.67348952128472628 r_6 - 0.67348952128472628 r_7 - 9.6734895212847256 r_8 - 0.67348952128472628 r_9 <= 0
 c385: - 0.67348952128472628 r_1 - 0.67348952128472628 r_10 - 9.6734895212847256 r_2 - 0.67348952128472628 r_3 - 0.67348952128472628 r_4 - 0.67348952128472628 r_5 - 0.67348952128472628 r_6 - 0.67348952128472628 r_7 + 8.3265104787152744 r_8 - 0.67348952128472628 r_9 <= 0
 c386: - 0.67348952128472628 r_1 - 0.67348952128472628 r_10 + 8.3265104787152744 r_2 - 0.67348952128472628 r_3 - 0.67348952128472628 r_4 - 0.67348952128472628 r_5 - 0.67348952128472628 r_6 - 0.67348952128472628 r_7 - 0.67348952128472628 r_8 - 9.6734895212847256 r_9 <= 0
 c387: - 0.67348952128472628 r_1 - 0.67348952128472628 r_10 - 9.6734895212847256 r_2 - 0.67348952128472628 r_3 - 0.67348952128472628 r_4 - 0.67348952128472628 r_5 - 0.67348952128472628 r_6 - 0.67348952128472628 r_7 - 0.67348952128472628 r_8 + 8.3265104787152744 r_9 <= 0
 c388: - 0.67348952128472628 r_1 - 9.6734895212847256 r_10 + 8.3265104787152744 r_2 - 0.67348952128472628 r_3 - 0.67348952128472628 r_4 - 0.67348952128472628 r_5 - 0.67348952128472628 r_6 - 0.67348952128472628 r_7 - 0.67348952128472628 r_8 - 0.67348952128472628 r_9 <= 0
 c389: - 0.67348952128472628 r_1 + 8.3265104787152744 r_10 - 9.6734895212847256 r_2 - 0.67348952128472628 r_3 - 0.67348952128472628 r_4 - 0.67348952128472628 r_5 - 0.67348952128472628 r_6 - 0.67348952128472628 r_7 - 0.67348952128472628 r_8 - 0.67348952128472628 r_9 <= 0
 c390: - 0.67348952128472628 r_1 - 0.67348952128472628 r_10 - 0.67348952128472628 r_2 + 8.3265104787152744 r_3 - 9.6734895212847256 r_4 - 0.67348952128472628 r_5 - 0.67348952128472628 r_6 - 0.67348952128472628 r_7 - 0.67348952128472628 r_8 - 0.67348952128472628 r_9 <= 0
 c391: - 0.67348952128472628 r_1 - 0.67348952128472628 r_10 - 0.67348952128472628 r_2 - 9.6734895212847256 r_3 + 8.3265104787152744 r_4 - 0.67348952128472628 r_5 - 0.67348952128472628 r_6 - 0.67348952128472628 r_7 - 0.67348952128472628 r_8 - 0.67348952128472628 r_9 <= 0
 c392: - 0.67348952128472628 r_1 - 0.67348952128472628 r_10 - 0.67348952128472628 r_2 + 8.3265104787152744 r_3 - 0.67348952128472628 r_4 - 9.6734895212847256 r_5 - 0.67348952128472628 r_6 - 0.67348952128472628 r_7 - 0.67348952128472628 r_8 - 0.67348952128472628 r_9 <= 0
 c393: - 0.67348952128472628 r_1 - 0.67348952128472628 r_10 - 0.67348952128472628 r_2 - 9.6734895212847256 r_3 - 0.67348952128472628 r_4 + 8.3265104787152744 r_5 - 0.67348952128472628 r_6 - 0.67348952128472628 r_7 - 0.67348952128472628 r_8 - 0.67348952128472628 r_9 <= 0
 c394: - 0.67348952128472628 r_1 - 0.67348952128472628 r_10 - 0.67348952128472628 r_2 + 8.3265104787152744 r_3 - 0.67348952128472628 r_4 - 0.67348952128472628 r_5 - 9.6734895212847256 r_6 - 0.67348952128472628 r_7 - 0.67348952128472628 r_8 - 0.67348952128472628 r_9 <= 0
 c395: - 0.67348952128472628 r_1 - 0.67348952128472628 r_10 - 0.67348952128472628 r_2 - 9.6734895212847256 r_3 - 0.67348952128472628 r_4 - 0.67348952128472628 r_5 + 8.3265104787152744 r_6 - 0.67348952128472628 r_7 - 0.67348952128472628 r_8 - 0.67348952128472628 r_9 <= 0
 c396: - 0.67348952128472628 r_1 - 0.67348952128472628 r_10 - 0.67348952128472628 r_2 + 8.3265104787152744 r_3 - 0.67348952128472628 r_4 - 0.67348952128472628 r_5 - 0.67348952128472628 r_6 - 9.6734895212847256 r_7 - 0.67348952128472628 r_8 - 0.67348952128472628 r_9 <= 0
 c397: - 0.67348952128472628 r_1 - 0.67348952128472628 r_10 - 0.67348952128472628 r_2 - 9.6734895212847256 r_3 - 0.67348952128472628 r_4 - 0.67348952128472628 r_5 - 0.67348952128472628 r_6 + 8.3265104787152744 r_7 - 0.67348952128472628 r_8 - 0.67348952128472628 r_9 <= 0
 c398: - 0.67348952128472628 r_1 - 0.67348952128472628 r_10 - 0.67348952128472628 r_2 + 8.3265104787152744 r_3 - 0.67348952128472628 r_4 - 0.67348952128472628 r_5 - 0.67348952128472628 r_6 - 0.67348952128472628 r_7 - 9.6734895212847256 r_8 - 0.67348952128472628 r_9 <= 0
 c399: - 0.67348952128472628 r_1 - 0.67348952128472628 r_10 - 0.67348952128472628 r_2 - 9.6734895212847256 r_3 - 0.67348952128472628 r_4 - 0.67348952128472628 r_5 - 0.67348952128472628 r_6 - 0.67348952128472628 r_7 + 8.3265104787152744 r_8 - 0.67348952128472628 r_9 <= 0
 c400: - 0.67348952128472628 r_1 - 0.67348952128472628 r_10 - 0.67348952128472628 r_2 + 8.3265104787152744 r_3 - 0.67348952128472628 r_4 - 0.67348952128472628 r_5 - 0.67348952128472628 r_6 - 0.67348952128472628 r_7 - 0.67348952128472628 r_8 - 9.6734895212847256 r_9 <= 0
 c401: - 0.67348952128472628 r_1 - 0.67348952128472628 r_10 - 0.67348952128472628 r_2 - 9.6734895212847256 r_3 - 0.67348952128472628 r_4 - 0.67348952128472628 r_5 - 0.67348952128472628 r_6 - 0.67348952128472628 r_7 - 0.67348952128472628 r_8 + 8.3265104787152744 r_9 <= 0
 c402: - 0.67348952128472628 r_1 - 9.6734895212847256 r_10 - 0.67348952128472628 r_2 + 8.3265104787152744 r_3 - 0.67348952128472628 r_4 - 0.67348952128472628 r_5 - 0.67348952128472628 r_6 - 0.67348952128472628 r_7 - 0.67348952128472628 r_8 - 0.67348952128472628 r_9 <= 0
 c403: - 0.67348952128472628 r_1 + 8.3265104787152744 r_10 - 0.67348952128472628 r_2 - 9.6734895212847256 r_3 - 0.67348952128472628 r_4 - 0.67348952128472628 r_5 - 0.67348952128472628 r_6 - 0.67348952128472628 r_7 - 0.67348952128472628 r_8 - 0.67348952128472628 r_9 <= 0
 c404: - 0.67348952128472628 r_1 - 0.67348952128472628 r_10 - 0.67348952128472628 r_2 - 0.67348952128472628 r_3 + 8.3265104787152744 r_4 - 9.6734895212847256 r_5 - 0.67348952128472628 r_6 - 0.67348952128472628 r_7 - 0.67348952128472628 r_8 - 0.67348952128472628 r_9 <= 0
 c405: - 0.67348952128472628 r_1 - 0.67348952128472628 r_10 - 0.67348952128472628 r_2 - 0.67348952128472628 r_3 - 9.6734895212847256 r_4 + 8.3265104787152744 r_5 - 0.67348952128472628 r_6 - 0.67348952128472628 r_7 - 0.67348952128472628 r_8 - 0.67348952128472628 r_9 <= 0
 c406: - 0.67348952128472628 r_1 - 0.67348952128472628 r_10 - 0.67348952128472628 r_2 - 0.67348952128472628 r_3 + 8.3265104787152744 r_4 - 0.67348952128472628 r_5 - 9.6734895212847256 r_6 - 0.67348952128472628 r_7 - 0.67348952128472628 r_8 - 0.67348952128472628 r_9 <= 0
 c407: - 0.67348952128472628 r_1 - 0.67348952128472628 r_10 - 0.67348952128472628 r_2 - 0.67348952128472628 r_3 - 9.6734895212847256 r_4 - 0.67348952128472628 r_5 + 8.3265104787152744 r_6 - 0.67348952128472628 r_7 - 0.67348952128472628 r_8 - 0.67348952128472628 r_9 <= 0
 c408: - 0.67348952128472628 r_1 - 0.67348952128472628 r_10 - 0.67348952128472628 r_2 - 0.67348952128472628 r_3 + 8.3265104787152744 r_4 - 0.67348952128472628 r_5 - 0.67348952128472628 r_6 - 9.6734895212847256 r_7 - 0.67348952128472628 r_8 - 0.67348952128472628 r_9 <= 0
 c409: - 0.67348952128472628 r_1 - 0.67348952128472628 r_10 - 0.67348952128472628 r_2 - 0.67348952128472628 r_3 - 9.6734895212847256 r_4 - 0.67348952128472628 r_5 - 0.67348952128472628 r_6 + 8.3265104787152744 r_7 - 0.67348952128472628 r_8 - 0.67348952128472628 r_9 <= 0
 c410: - 0.67348952128472628 r_1 - 0.67348952128472628 r_10 - 0.67348952128472628 r_2 - 0.67348952128472628 r_3 + 8.3265104787152744 r_4 - 0.67348952128472628 r_5 - 0.67348952128472628 r_6 - 0.67348952128472628 r_7 - 9.6734895212847256 r_8 - 0.67348952128472628 r_9 <= 0
 c411: - 0.67348952128472628 r_1 - 0.67348952128472628 r_10 - 0.67348952128472628 r_2 - 0.67348952128472628 r_3 - 9.6734895212847256 r_4 - 0.67348952128472628 r_5 - 0.67348952128472628 r_6 - 0.67348952128472628 r_7 + 8.3265104787152744 r_8 - 0.67348952128472628 r_9 <= 0
 c412: - 0.67348952128472628 r_1 - 0.67348952128472628 r_10 - 0.67348952128472628 r_2 - 0.67348952128472628 r_3 + 8.3265104787152744 r_4 - 0.67348952128472628 r_5 - 0.67348952128472628 r_6 - 0.67348952128472628 r_7 - 0.67348952128472628 r_8 - 9.6734895212847256 r_9 <= 0
 c413: - 0.67348952128472628 r_1 - 0.67348952128472628 r_10 - 0.67348952128472628 r_2 - 0.67348952128472628 r_3 - 9.6734895212847256 r_4 - 0.67348952128472628 r_5 - 0.67348952128472628 r_6 - 0.67348952128472628 r_7 - 0.67348952128472628 r_8 + 8.3265104787152744 r_9 <= 0
 c414: - 0.67348952128472628 r_1 - 9.6734895212847256 r_10 - 0.67348952128472628 r_2 - 0.67348952128472628 r_3 + 8.3265104787152744 r_4 - 0.67348952128472628 r_5 - 0.67348952128472628 r_6 - 0.67348952128472628 r_7 - 0.67348952128472628 r_8 - 0.67348952128472628 r_9 <= 0
 c415: - 0.67348952128472628 r_1 + 8.3265104787152744 r_10 - 0.67348952128472628 r_2 - 0.67348952128472628 r_3 - 9.6734895212847256 r_4 - 0.67348952128472628 r_5 - 0.67348952128472628 r_6 - 0.67348952128472628 r_7 - 0.67348952128472628 r_8 - 0.67348952128472628 r_9 <= 0
 c416: - 0.67348952128472628 r_1 - 0.67348952128472628 r_10 - 0.67348952128472628 r_2 - 0.67348952128472628 r_3 - 0.67348952128472628 r_4 + 8.3265104787152744 r_5 - 9.6734895212847256 r_6 - 0.67348952128472628 r_7 - 0.67348952128472628 r_8 - 0.67348952128472628 r_9 <= 0
 c417: - 0.67348952128472628 r_1 - 0.67348952128472628 r_10 - 0.67348952128472628 r_2 - 0.67348952128472628 r_3 - 0.67348952128472628 r_4 - 9.6734895212847256 r_5 + 8.3265104787152744 r_6 - 0.67348952128472628 r_7 - 0.67348952128472628 r_8 - 0.67348952128472628 r_9 <= 0
 c418: - 0.67348952128472628 r_1 - 0.67348952128472628 r_10 - 0.67348952128472628 r_2 - 0.67348952128472628 r_3 - 0.67348952128472628 r_4 + 8.3265104787152744 r_5 - 0.67348952128472628 r_6 - 9.6734895212847256 r_7 - 0.67348952128472628 r_8 - 0.67348952128472628 r_9 <= 0
 c419: - 0.67348952128472628 r_1 - 0.67348952128472628 r_10 - 0.67348952128472628 r_2 - 0.67348952128472628 r_3 - 0.67348952128472628 r_4 - 9.6734895212847256 r_5 - 0.67348952128472628 r_6 + 8.3265104787152744 r_7 - 0.67348952128472628 r_8 - 0.67348952128472628 r_9 <= 0
 c420: - 0.67348952128472628 r_1 - 0.67348952128472628 r_10 - 0.67348952128472628 r_2 - 0.67348952128472628 r_3 - 0.67348952128472628 r_4 + 8.3265104787152744 r_5 - 0.67348952128472628 r_6 - 0.67348952128472628 r_7 - 9.6734895212847256 r_8 - 0.67348952128472628 r_9 <= 0
 c421: - 0.67348952128472628 r_1 - 0.67348952128472628 r_10 - 0.67348952128472628 r_2 - 0.67348952128472628 r_3 - 0.67348952128472628 r_4 - 9.6734895212847256 r_5 - 0.67348952128472628 r_6 - 0.67348952128472628 r_7 + 8.3265104787152744 r_8 - 0.67348952128472628 r_9 <= 0
 c422: - 0.67348952128472628 r_1 - 0.67348952128472628 r_10 - 0.67348952128472628 r_2 - 0.67348952128472628 r_3 - 0.67348952128472628 r_4 + 8.3265104787152744 r_5 - 0.67348952128472628 r_6 - 0.67348952128472628 r_7 - 0.67348952128472628 r_8 - 9.6734895212847256 r_9 <= 0
 c423: - 0.67348952128472628 r_1 - 0.67348952128472628 r_10 - 0.67348952128472628 r_2 - 0.67348952128472628 r_3 - 0.67348952128472628 r_4 - 9.6734895212847256 r_5 - 0.67348952128472628 r_6 - 0.67348952128472628 r_7 - 0.67348952128472628 r_8 + 8.3265104787152744 r_9 <= 0
 c424: - 0.67348952128472628 r_1 - 9.6734895212847256 r_10 - 0.67348952128472628 r_2 - 0.67348952128472628 r_3 - 0.67348952128472628 r_4 + 8.3265104787152744 r_5 - 0.67348952128472628 r_6 - 0.67348952128472628 r_7 - 0.67348952128472628 r_8 - 0.67348952128472628 r_9 <= 0
 c425: - 0.67348952128472628 r_1 + 8.3265104787152744 r_10 - 0.67348952128472628 r_2 - 0.67348952128472628 r_3 - 0.67348952128472628 r_4 - 9.6734895212847256 r_5 - 0.67348952128472628 r_6 - 0.67348952128472628 r_7 - 0.67348952128472628 r_8 - 0.67348952128472628 r_9 <= 0
 c426: - 0.67348952128472628 r_1 - 0.67348952128472628 r_10 - 0.67348952128472628 r_2 - 0.67348952128472628 r_3 - 0.67348952128472628 r_4 - 0.67348952128472628 r_5 + 8.3265104787152744 r_6 - 9.6734895212847256 r_7 - 0.67348952128472628 r_8 - 0.67348952128472628 r_9 <= 0
 c427: - 0.67348952128472628 r_1 - 0.67348952128472628 r_10 - 0.67348952128472628 r_2 - 0.67348952128472628 r_3 - 0.67348952128472628 r_4 - 0.67348952128472628 r_5 - 9.6734895212847256 r_6 + 8.3265104787152744 r_7 - 0.67348952128472628 r_8 - 0.67348952128472628 r_9 <= 0
 c428: - 0.67348952128472628 r_1 - 0.67348952128472628 r_10 - 0.67348952128472628 r_2 - 0.67348952128472628 r_3 - 0.67348952128472628 r_4 - 0.67348952128472628 r_5 + 8.3265104787152744 r_6 - 0.67348952128472628 r_7 - 9.6734895212847256 r_8 - 0.67348952128472628 r_9 <= 0
 c429: - 0.67348952128472628 r_1 - 0.67348952128472628 r_10 - 0.67348952128472628 r_2 - 0.67348952128472628 r_3 - 0.67348952128472628 r_4 - 0.67348952128472628 r_5 - 9.6734895212847256 r_6 - 0.67348952128472628 r_7 + 8.3265104787152744 r_8 - 0.67348952128472628 r_9 <= 0
 c430: - 0.67348952128472628 r_1 - 0.67348952128472628 r_10 - 0.67348952128472628 r_2 - 0.67348952128472628 r_3 - 0.67348952128472628 r_4 - 0.67348952128472628 r_5 + 8.3265104787152744 r_6 - 0.67348952128472628 r_7 - 0.67348952128472628 r_8 - 9.6734895212847256 r_9 <= 0
 c431: - 0.67348952128472628 r_1 - 0.67348952128472628 r_10 - 0.67348952128472628 r_2 - 0.67348952128472628 r_3 - 0.67348952128472628 r_4 - 0.67348952128472628 r_5 - 9.6734895212847256 r_6 - 0.67348952128472628 r_7 - 0.67348952128472628 r_8 + 8.3265104787152744 r_9 <= 0
 c432: - 0.67348952128472628 r_1 - 9.6734895212847256 r_10 - 0.67348952128472628 r_2 - 0.67348952128472628 r_3 - 0.67348952128472628 r_4 - 0.67348952128472628 r_5 + 8.3265104787152744 r_6 - 0.67348952128472628 r_7 - 0.67348952128472628 r_8 - 0.67348952128472628 r_9 <= 0
 c433: - 0.67348952128472628 r_1 + 8.3265104787152744 r_10 - 0.67348952128472628 r_2 - 0.67348952128472628 r_3 - 0.67348952128472628 r_4 - 0.67348952128472628 r_5 - 9.6734895212847256 r_6 - 0.67348952128472628 r_7 - 0.67348952128472628 r_8 - 0.67348952128472628 r_9 <= 0
 c434: - 0.67348952128472628 r_1 - 0.67348952128472628 r_10 - 0.67348952128472628 r_2 - 0.67348952128472628 r_3 - 0.67348952128472628 r_4 - 0.67348952128472628 r_5 - 0.67348952128472628 r_6 + 8.3265104787152744 r_7 - 9.6734895212847256 r_8 - 0.67348952128472628 r_9 <= 0
 c435: - 0.67348952128472628 r_1 - 0.67348952128472628 r_10 - 0.67348952128472628 r_2 - 0.67348952128472628 r_3 - 0.67348952128472628 r_4 - 0.67348952128472628 r_5 - 0.67348952128472628 r_6 - 9.6734895212847256 r_7 + 8.3265104787152744 r_8 - 0.67348952128472628 r_9 <= 0
 c436: - 0.67348952128472628 r_1 - 0.67348952128472628 r_10 - 0.67348952128472628 r_2 - 0.67348952128472628 r_3 - 0.67348952128472628 r_4 - 0.67348952128472628 r_5 - 0.67348952128472628 r_6 + 8.3265104787152744 r_7 - 0.67348952128472628 r_8 - 9.6734895212847256 r_9 <= 0
 c437: - 0.67348952128472628 r_1 - 0.67348952128472628 r_10 - 0.67348952128472628 r_2 - 0.67348952128472628 r_3 - 0.67348952128472628 r_4 - 0.67348952128472628 r_5 - 0.67348952128472628 r_6 - 9.6734895212847256 r_7 - 0.67348952128472628 r_8 + 8.3265104787152744 r_9 <= 0
 c438: - 0.67348952128472628 r_1 - 9.6734895212847256 r_10 - 0.67348952128472628 r_2 - 0.67348952128472628 r_3 - 0.67348952128472628 r_4 - 0.67348952128472628 r_5 - 0.67348952128472628 r_6 + 8.3265104787152744 r_7 - 0.67348952128472628 r_8 - 0.67348952128472628 r_9 <= 0
 c439: - 0.67348952128472628 r_1 + 8.3265104787152744 r_10 - 0.67348952128472628 r_2 - 0.67348952128472628 r_3 - 0.67348952128472628 r_4 - 0.67348952128472628 r_5 - 0.67348952128472628 r_6 - 9.6734895212847256 r_7 - 0.67348952128472628 r_8 - 0.67348952128472628 r_9 <= 0
 c440: - 0.67348952128472628 r_1 - 0.67348952128472628 r_10 - 0.67348952128472628 r_2 - 0.67348952128472628 r_3 - 0.67348952128472628 r_4 - 0.67348952128472628 r_5 - 0.67348952128472628 r_6 - 0.67348952128472628 r_7 + 8.3265104787152744 r_8 - 9.6734895212847256 r_9 <= 0
 c441: - 0.67348952128472628 r_1 - 0.67348952128472628 r_10 - 0.67348952128472628 r_2 - 0.67348952128472628 r_3 - 0.67348952128472628 r_4 - 0.67348952128472628 r_5 - 0.67348952128472628 r_6 - 0.67348952128472628 r_7 - 9.6734895212847256 r_8 + 8.3265104787152744 r_9 <= 0
 c442: - 0.67348952128472628 r_1 - 9.6734895212847256 r_10 - 0.67348952128472628 r_2 - 0.67348952128472628 r_3 - 0.67348952128472628 r_4 - 0.67348952128472628 r_5 - 0.67348952128472628 r_6 - 0.67348952128472628 r_7 + 8.3265104787152744 r_8 - 0.67348952128472628 r_9 <= 0
 c443: - 0.67348952128472628 r_1 + 8.3265104787152744 r_10 - 0.67348952128472628 r_2 - 0.67348952128472628 r_3 - 0.67348952128472628 r_4 - 0.67348952128472628 r_5 - 0.67348952128472628 r_6 - 0.67348952128472628 r_7 - 9.6734895212847256 r_8 - 0.67348952128472628 r_9 <= 0
 c444: - 0.67348952128472628 r_1 - 9.6734895212847256 r_10 - 0.67348952128472628 r_2 - 0.67348952128472628 r_3 - 0.67348952128472628 r_4 - 0.67348952128472628 r_5 - 0.67348952128472628 r_6 - 0.67348952128472628 r_7 - 0.67348952128472628 r_8 + 8.3265104787152744 r_9 <= 0
 c445: - 0.67348952128472628 r_1 + 8.3265104787152744 r_10 - 0.67348952128472628 r_2 - 0.67348952128472628 r_3 - 0.67348952128472628 r_4 - 0.67348952128472628 r_5 - 0.67348952128472628 r_6 - 0.67348952128472628 r_7 - 0.67348952128472628 r_8 - 9.6734895212847256 r_9 <= 0
 c446: G + 0.040384650000000001 e_1 + 0.014546699999999999 e_10 + 0.01724355 e_2 + 0.016817249999999999 e_3 + 0.013450499999999999 e_4 + 0.0087895500000000001 e_5 + 0.14999999999999999 e_6 + 0.016153799999999999 e_7 + 0.013846199999999999 e_8 + 0.0164685 e_9 <= 0.15394046200793743
 c447: 6.8159120464242164 e_1 + 2.455116678384464 e_10 + 2.9102770524968844 e_2 + 2.8383283466051501 e_3 + 2.2701057203771464 e_4 + 1.4834547217234266 e_5 + 25.316223044241625 e_6 + 2.7263546920804691 e_7 + 2.3368899167678561 e_8 + 2.7794681280272879 e_9 + h_1_10 + h_1_2 + h_1_3 + h_1_4 + h_1_5 + h_1_6 + h_1_7 + h_1_8 + h_1_9 + h_2_10 + h_2_3 + h_2_4 + h_2_5 + h_2_6 + h_2_7 + h_2_8 + h_2_9 + h_3_10 + h_3_4 + h_3_5 + h_3_6 + h_3_7 + h_3_8 + h_3_9 + h_4_10 + h_4_5 + h_4_6 + h_4_7 + h_4_8 + h_4_9 + h_5_10 + h_5_6 + h_5_7 + h_5_8 + h_5_9 + h_6_10 + h_6_7 + h_6_8 + h_6_9 + h_7_10 + h_7_8 + h_7_9 + h_8_10 + h_8_9 + h_9_10 <= 25.98127381151032
 c448: 0.269231 e_1 + 0.096977999999999995 e_10 + 0.114957 e_2 + 0.11211500000000001 e_3 + 0.08967 e_4 + 0.058597000000000003 e_5 + e_6 + 0.107692 e_7 + 0.092308000000000001 e_8 + 0.10979 e_9 >= 0
 c449: e_1 <= 2.3824098699620007
 c450: e_2 <= 5.5796392712034875
 c451: e_3 <= 5.7210773910693424
 c452: e_4 <= 7.1531012791316977
 c453: e_5 <= 10.94627014522483
 c454: e_6 <= 0.64141859169973936
 c455: e_7 <= 5.9560467973455724
 c456: e_8 <= 6.948678247819684
 c457: e_9 <= 5.8422314573252514
 c458: e_10 <= 6.6140628977679414
 c459: W_SP - 0.269231 e_1 - 0.096977999999999995 e_10 - 0.114957 e_2 - 0.11211500000000001 e_3 - 0.08967 e_4 - 0.058597000000000003 e_5 - e_6 - 0.107692 e_7 - 0.092308000000000001 e_8 - 0.10979 e_9 >= -0
 c460: W_SP - 4.5439413642828113 e_1 - 1.6367444522563095 e_10 - 1.9401847016645897 e_2 - 1.8922188977367667 e_3 - 1.5134038135847643 e_4 - 0.98896981448228438 e_5 - 16.877482029494416 e_6 - 1.8175697947203127 e_7 - 1.5579266111785706 e_8 - 1.852978752018192 e_9 - 1.5007273764705884 r_1 - 1.5007273764705884 r_10 - 1.5007273764705884 r_2 - 1.5007273764705884 r_3 - 1.5007273764705884 r_4 - 1.5007273764705884 r_5 - 1.5007273764705884 r_6 - 1.5007273764705884 r_7 - 1.5007273764705884 r_8 - 1.5007273764705884 r_9 >= -25.328499327552656
 c461: W_SP - 4.5439413642828113 e_1 - 1.6367444522563095 e_10 - 1.9401847016645897 e_2 - 1.8922188977367667 e_3 - 1.5134038135847643 e_4 - 0.98896981448228438 e_5 - 16.877482029494416 e_6 - 1.8175697947203127 e_7 - 1.5579266111785706 e_8 - 1.852978752018192 e_9 <= -0
 c462: W_SP - 0.269231 e_1 - 0.096977999999999995 e_10 - 0.114957 e_2 - 0.11211500000000001 e_3 - 0.08967 e_4 - 0.058597000000000003 e_5 - e_6 - 0.107692 e_7 - 0.092308000000000001 e_8 - 0.10979 e_9 - 1.5007273764705884 r_1 - 1.5007273764705884 r_10 - 1.5007273764705884 r_2 - 1.5007273764705884 r_3 - 1.5007273764705884 r_4 - 1.5007273764705884 r_5 - 1.5007273764705884 r_6 - 1.5007273764705884 r_7 - 1.5007273764705884 r_8 - 1.5007273764705884 r_9 <= -1.5007273764705884
 c463: 1.5 W_SP + h_1_10 + h_1_2 + h_1_3 + h_1_4 + h_1_5 + h_1_6 + h_1_7 + h_1_8 + h_1_9 + h_2_10 + h_2_3 + h_2_4 + h_2_5 + h_2_6 + h_2_7 + h_2_8 + h_2_9 + h_3_10 + h_3_4 + h_3_5 + h_3_6 + h_3_7 + h_3_8 + h_3_9 + h_4_10 + h_4_5 + h_4_6 + h_4_7 + h_4_8 + h_4_9 + h_5_10 + h_5_6 + h_5_7 + h_5_8 + h_5_9 + h_6_10 + h_6_7 + h_6_8 + h_6_9 + h_7_10 + h_7_8 + h_7_9 + h_8_10 + h_8_9 + h_9_10 - 1.5394046200793743 r_1 - 1.5394046200793743 r_10 - 1.5394046200793743 r_2 - 1.5394046200793743 r_3 - 1.5394046200793743 r_4 - 1.5394046200793743 r_5 - 1.5394046200793743 r_6 - 1.5394046200793743 r_7 - 1.5394046200793743 r_8 - 1.5394046200793743 r_9 <= 0
 c464: x_0_0_1 + x_0_0_10 + x_0_0_2 + x_0_0_3 + x_0_0_4 + x_0_0_5 + x_0_0_6 + x_0_0_7 + x_0_0_8 + x_0_0_9 - x_0_10_0 - x_0_1_0 - x_0_2_0 - x_0_3_0 - x_0_4_0 - x_0_5_0 - x_0_6_0 - x_0_7_0 - x_0_8_0 - x_0_9_0 = 0
 c465: x_0_0_1 + x_0_0_10 + x_0_0_2 + x_0_0_3 + x_0_0_4 + x_0_0_5 + x_0_0_6 + x_0_0_7 + x_0_0_8 + x_0_0_9 <= 1
 c466: x_0_0_1 + x_0_10_1 + x_0_2_1 + x_0_3_1 + x_0_4_1 + x_0_5_1 + x_0_6_1 + x_0_7_1 + x_0_8_1 + x_0_9_1 - z_0_1 = 0
 c467: x_0_1_0 + x_0_1_10 + x_0_1_2 + x_0_1_3 + x_0_1_4 + x_0_1_5 + x_0_1_6 + x_0_1_7 + x_0_1_8 + x_0_1_9 - z_0_1 = 0
 c468: x_0_0_2 + x_0_10_2 + x_0_1_2 + x_0_3_2 + x_0_4_2 + x_0_5_2 + x_0_6_2 + x_0_7_2 + x_0_8_2 + x_0_9_2 - z_0_2 = 0
 c469: x_0_2_0 + x_0_2_1 + x_0_2_10 + x_0_2_3 + x_0_2_4 + x_0_2_5 + x_0_2_6 + x_0_2_7 + x_0_2_8 + x_0_2_9 - z_0_2 = 0
 c470: x_0_0_3 + x_0_10_3 + x_0_1_3 + x_0_2_3 + x_0_4_3 + x_0_5_3 + x_0_6_3 + x_0_7_3 + x_0_8_3 + x_0_9_3 - z_0_3 = 0
 c471: x_0_3_0 + x_0_3_1 + x_0_3_10 + x_0_3_2 + x_0_3_4 + x_0_3_5 + x_0_3_6 + x_0_3_7 + x_0_3_8 + x_0_3_9 - z_0_3 = 0
 c472: x_0_0_4 + x_0_10_4 + x_0_1_4 + x_0_2_4 + x_0_3_4 + x_0_5_4 + x_0_6_4 + x_0_7_4 + x_0_8_4 + x_0_9_4 - z_0_4 = 0
 c473: x_0_4_0 + x_0_4_1 + x_0_4_10 + x_0_4_2 + x_0_4_3 + x_0_4_5 + x_0_4_6 + x_0_4_7 + x_0_4_8 + x_0_4_9 - z_0_4 = 0
 c474: x_0_0_5 + x_0_10_5 + x_0_1_5 + x_0_2_5 + x_0_3_5 + x_0_4_5 + x_0_6_5 + x_0_7_5 + x_0_8_5 + x_0_9_5 - z_0_5 = 0
 c475: x_0_5_0 + x_0_5_1 + x_0_5_10 + x_0_5_2 + x_0_5_3 + x_0_5_4 + x_0_5_6 + x_0_5_7 + x_0_5_8 + x_0_5_9 - z_0_5 = 0
 c476: x_0_0_6 + x_0_10_6 + x_0_1_6 + x_0_2_6 + x_0_3_6 + x_0_4_6 + x_0_5_6 + x_0_7_6 + x_0_8_6 + x_0_9_6 - z_0_6 = 0
 c477: x_0_6_0 + x_0_6_1 + x_0_6_10 + x_0_6_2 + x_0_6_3 + x_0_6_4 + x_0_6_5 + x_0_6_7 + x_0_6_8 + x_0_6_9 - z_0_6 = 0
 c478: x_0_0_7 + x_0_10_7 + x_0_1_7 + x_0_2_7 + x_0_3_7 + x_0_4_7 + x_0_5_7 + x_0_6_7 + x_0_8_7 + x_0_9_7 - z_0_7 = 0
 c479: x_0_7_0 + x_0_7_1 + x_0_7_10 + x_0_7_2 + x_0_7_3 + x_0_7_4 + x_0_7_5 + x_0_7_6 + x_0_7_8 + x_0_7_9 - z_0_7 = 0
 c480: x_0_0_8 + x_0_10_8 + x_0_1_8 + x_0_2_8 + x_0_3_8 + x_0_4_8 + x_0_5_8 + x_0_6_8 + x_0_7_8 + x_0_9_8 - z_0_8 = 0
 c481: x_0_8_0 + x_0_8_1 + x_0_8_10 + x_0_8_2 + x_0_8_3 + x_0_8_4 + x_0_8_5 + x_0_8_6 + x_0_8_7 + x_0_8_9 - z_0_8 = 0
 c482: x_0_0_9 + x_0_10_9 + x_0_1_9 + x_0_2_9 + x_0_3_9 + x_0_4_9 + x_0_5_9 + x_0_6_9 + x_0_7_9 + x_0_8_9 - z_0_9 = 0
 c483: x_0_9_0 + x_0_9_1 + x_0_9_10 + x_0_9_2 + x_0_9_3 + x_0_9_4 + x_0_9_5 + x_0_9_6 + x_0_9_7 + x_0_9_8 - z_0_9 = 0
 c484: x_0_0_10 + x_0_1_10 + x_0_2_10 + x_0_3_10 + x_0_4_10 + x_0_5_10 + x_0_6_10 + x_0_7_10 + x_0_8_10 + x_0_9_10 - z_0_10 = 0
 c485: x_0_10_0 + x_0_10_1 + x_0_10_2 + x_0_10_3 + x_0_10_4 + x_0_10_5 + x_0_10_6 + x_0_10_7 + x_0_10_8 + x_0_10_9 - z_0_10 = 0
 c486: x_1_0_1 + x_1_0_10 + x_1_0_2 + x_1_0_3 + x_1_0_4 + x_1_0_5 + x_1_0_6 + x_1_0_7 + x_1_0_8 + x_1_0_9 - x_1_10_0 - x_1_1_0 - x_1_2_0 - x_1_3_0 - x_1_4_0 - x_1_5_0 - x_1_6_0 - x_1_7_0 - x_1_8_0 - x_1_9_0 = 0
 c487: x_1_0_1 + x_1_0_10 + x_1_0_2 + x_1_0_3 + x_1_0_4 + x_1_0_5 + x_1_0_6 + x_1_0_7 + x_1_0_8 + x_1_0_9 <= 1
 c488: x_1_0_1 + x_1_10_1 + x_1_2_1 + x_1_3_1 + x_1_4_1 + x_1_5_1 + x_1_6_1 + x_1_7_1 + x_1_8_1 + x_1_9_1 - z_1_1 = 0
 c489: x_1_1_0 + x_1_1_10 + x_1_1_2 + x_1_1_3 + x_1_1_4 + x_1_1_5 + x_1_1_6 + x_1_1_7 + x_1_1_8 + x_1_1_9 - z_1_1 = 0
 c490: x_1_0_2 + x_1_10_2 + x_1_1_2 + x_1_3_2 + x_1_4_2 + x_1_5_2 + x_1_6_2 + x_1_7_2 + x_1_8_2 + x_1_9_2 - z_1_2 = 0
 c491: x_1_2_0 + x_1_2_1 + x_1_2_10 + x_1_2_3 + x_1_2_4 + x_1_2_5 + x_1_2_6 + x_1_2_7 + x_1_2_8 + x_1_2_9 - z_1_2 = 0
 c492: x_1_0_3 + x_1_10_3 + x_1_1_3 + x_1_2_3 + x_1_4_3 + x_1_5_3 + x_1_6_3 + x_1_7_3 + x_1_8_3 + x_1_9_3 - z_1_3 = 0
 c493: x_1_3_0 + x_1_3_1 + x_1_3_10 + x_1_3_2 + x_1_3_4 + x_1_3_5 + x_1_3_6 + x_1_3_7 + x_1_3_8 + x_1_3_9 - z_1_3 = 0
 c494: x_1_0_4 + x_1_10_4 + x_1_1_4 + x_1_2_4 + x_1_3_4 + x_1_5_4 + x_1_6_4 + x_1_7_4 + x_1_8_4 + x_1_9_4 - z_1_4 = 0
 c495: x_1_4_0 + x_1_4_1 + x_1_4_10 + x_1_4_2 + x_1_4_3 + x_1_4_5 + x_1_4_6 + x_1_4_7 + x_1_4_8 + x_1_4_9 - z_1_4 = 0
 c496: x_1_0_5 + x_1_10_5 + x_1_1_5 + x_1_2_5 + x_1_3_5 + x_1_4_5 + x_1_6_5 + x_1_7_5 + x_1_8_5 + x_1_9_5 - z_1_5 = 0
 c497: x_1_5_0 + x_1_5_1 + x_1_5_10 + x_1_5_2 + x_1_5_3 + x_1_5_4 + x_1_5_6 + x_1_5_7 + x_1_5_8 + x_1_5_9 - z_1_5 = 0
 c498: x_1_0_6 + x_1_10_6 + x_1_1_6 + x_1_2_6 + x_1_3_6 + x_1_4_6 + x_1_5_6 + x_1_7_6 + x_1_8_6 + x_1_9_6 - z_1_6 = 0
 c499: x_1_6_0 + x_1_6_1 + x_1_6_10 + x_1_6_2 + x_1_6_3 + x_1_6_4 + x_1_6_5 + x_1_6_7 + x_1_6_8 + x_1_6_9 - z_1_6 = 0
 c500: x_1_0_7 + x_1_10_7 + x_1_1_7 + x_1_2_7 + x_1_3_7 + x_1_4_7 + x_1_5_7 + x_1_6_7 + x_1_8_7 + x_1_9_7 - z_1_7 = 0
 c501: x_1_7_0 + x_1_7_1 + x_1_7_10 + x_1_7_2 + x_1_7_3 + x_1_7_4 + x_1_7_5 + x_1_7_6 + x_1_7_8 + x_1_7_9 - z_1_7 = 0
 c502: x_1_0_8 + x_1_10_8 + x_1_1_8 + x_1_2_8 + x_1_3_8 + x_1_4_8 + x_1_5_8 + x_1_6_8 + x_1_7_8 + x_1_9_8 - z_1_8 = 0
 c503: x_1_8_0 + x_1_8_1 + x_1_8_10 + x_1_8_2 + x_1_8_3 + x_1_8_4 + x_1_8_5 + x_1_8_6 + x_1_8_7 + x_1_8_9 - z_1_8 = 0
 c504: x_1_0_9 + x_1_10_9 + x_1_1_9 + x_1_2_9 + x_1_3_9 + x_1_4_9 + x_1_5_9 + x_1_6_9 + x_1_7_9 + x_1_8_9 - z_1_9 = 0
 c505: x_1_9_0 + x_1_9_1 + x_1_9_10 + x_1_9_2 + x_1_9_3 + x_1_9_4 + x_1_9_5 + x_1_9_6 + x_1_9_7 + x_1_9_8 - z_1_9 = 0
 c506: x_1_0_10 + x_1_1_10 + x_1_2_10 + x_1_3_10 + x_1_4_10 + x_1_5_10 + x_1_6_10 + x_1_7_10 + x_1_8_10 + x_1_9_10 - z_1_10 = 0
 c507: x_1_10_0 + x_1_10_1 + x_1_10_2 + x_1_10_3 + x_1_10_4 + x_1_10_5 + x_1_10_6 + x_1_10_7 + x_1_10_8 + x_1_10_9 - z_1_10 = 0
 c508: x_2_0_1 + x_2_0_10 + x_2_0_2 + x_2_0_3 + x_2_0_4 + x_2_0_5 + x_2_0_6 + x_2_0_7 + x_2_0_8 + x_2_0_9 - x_2_10_0 - x_2_1_0 - x_2_2_0 - x_2_3_0 - x_2_4_0 - x_2_5_0 - x_2_6_0 - x_2_7_0 - x_2_8_0 - x_2_9_0 = 0
 c509: x_2_0_1 + x_2_0_10 + x_2_0_2 + x_2_0_3 + x_2_0_4 + x_2_0_5 + x_2_0_6 + x_2_0_7 + x_2_0_8 + x_2_0_9 <= 1
 c510: x_2_0_1 + x_2_10_1 + x_2_2_1 + x_2_3_1 + x_2_4_1 + x_2_5_1 + x_2_6_1 + x_2_7_1 + x_2_8_1 + x_2_9_1 - z_2_1 = 0
 c511: x_2_1_0 + x_2_1_10 + x_2_1_2 + x_2_1_3 + x_2_1_4 + x_2_1_5 + x_2_1_6 + x_2_1_7 + x_2_1_8 + x_2_1_9 - z_2_1 = 0
 c512: x_2_0_2 + x_2_10_2 + x_2_1_2 + x_2_3_2 + x_2_4_2 + x_2_5_2 + x_2_6_2 + x_2_7_2 + x_2_8_2 + x_2_9_2 - z_2_2 = 0
 c513: x_2_2_0 + x_2_2_1 + x_2_2_10 + x_2_2_3 + x_2_2_4 + x_2_2_5 + x_2_2_6 + x_2_2_7 + x_2_2_8 + x_2_2_9 - z_2_2 = 0
 c514: x_2_0_3 + x_2_10_3 + x_2_1_3 + x_2_2_3 + x_2_4_3 + x_2_5_3 + x_2_6_3 + x_2_7_3 + x_2_8_3 + x_2_9_3 - z_2_3 = 0
 c515: x_2_3_0 + x_2_3_1 + x_2_3_10 + x_2_3_2 + x_2_3_4 + x_2_3_5 + x_2_3_6 + x_2_3_7 + x_2_3_8 + x_2_3_9 - z_2_3 = 0
 c516: x_2_0_4 + x_2_10_4 + x_2_1_4 + x_2_2_4 + x_2_3_4 + x_2_5_4 + x_2_6_4 + x_2_7_4 + x_2_8_4 + x_2_9_4 - z_2_4 = 0
 c517: x_2_4_0 + x_2_4_1 + x_2_4_10 + x_2_4_2 + x_2_4_3 + x_2_4_5 + x_2_4_6 + x_2_4_7 + x_2_4_8 + x_2_4_9 - z_2_4 = 0
 c518: x_2_0_5 + x_2_10_5 + x_2_1_5 + x_2_2_5 + x_2_3_5 + x_2_4_5 + x_2_6_5 + x_2_7_5 + x_2_8_5 + x_2_9_5 - z_2_5 = 0
 c519: x_2_5_0 + x_2_5_1 + x_2_5_10 + x_2_5_2 + x_2_5_3 + x_2_5_4 + x_2_5_6 + x_2_5_7 + x_2_5_8 + x_2_5_9 - z_2_5 = 0
 c520: x_2_0_6 + x_2_10_6 + x_2_1_6 + x_2_2_6 + x_2_3_6 + x_2_4_6 + x_2_5_6 + x_2_7_6 + x_2_8_6 + x_2_9_6 - z_2_6 = 0
 c521: x_2_6_0 + x_2_6_1 + x_2_6_10 + x_2_6_2 + x_2_6_3 + x_2_6_4 + x_2_6_5 + x_2_6_7 + x_2_6_8 + x_2_6_9 - z_2_6 = 0
 c522: x_2_0_7 + x_2_10_7 + x_2_1_7 + x_2_2_7 + x_2_3_7 + x_2_4_7 + x_2_5_7 + x_2_6_7 + x_2_8_7 + x_2_9_7 - z_2_7 = 0
 c523: x_2_7_0 + x_2_7_1 + x_2_7_10 + x_2_7_2 + x_2_7_3 + x_2_7_4 + x_2_7_5 + x_2_7_6 + x_2_7_8 + x_2_7_9 - z_2_7 = 0
 c524: x_2_0_8 + x_2_10_8 + x_2_1_8 + x_2_2_8 + x_2_3_8 + x_2_4_8 + x_2_5_8 + x_2_6_8 + x_2_7_8 + x_2_9_8 - z_2_8 = 0
 c525: x_2_8_0 + x_2_8_1 + x_2_8_10 + x_2_8_2 + x_2_8_3 + x_2_8_4 + x_2_8_5 + x_2_8_6 + x_2_8_7 + x_2_8_9 - z_2_8 = 0
 c526: x_2_0_9 + x_2_10_9 + x_2_1_9 + x_2_2_9 + x_2_3_9 + x_2_4_9 + x_2_5_9 + x_2_6_9 + x_2_7_9 + x_2_8_9 - z_2_9 = 0
 c527: x_2_9_0 + x_2_9_1 + x_2_9_10 + x_2_9_2 + x_2_9_3 + x_2_9_4 + x_2_9_5 + x_2_9_6 + x_2_9_7 + x_2_9_8 - z_2_9 = 0
 c528: x_2_0_10 + x_2_1_10 + x_2_2_10 + x_2_3_10 + x_2_4_10 + x_2_5_10 + x_2_6_10 + x_2_7_10 + x_2_8_10 + x_2_9_10 - z_2_10 = 0
 c529: x_2_10_0 + x_2_10_1 + x_2_10_2 + x_2_10_3 + x_2_10_4 + x_2_10_5 + x_2_10_6 + x_2_10_7 + x_2_10_8 + x_2_10_9 - z_2_10 = 0
 c530: conn_0_0_1 - 10 x_0_0_1 <= 0
 c531: conn_0_0_2 - 10 x_0_0_2 <= 0
 c532: conn_0_0_3 - 10 x_0_0_3 <= 0
 c533: conn_0_0_4 - 10 x_0_0_4 <= 0
 c534: conn_0_0_5 - 10 x_0_0_5 <= 0
 c535: conn_0_0_6 - 10 x_0_0_6 <= 0
 c536: conn_0_0_7 - 10 x_0_0_7 <= 0
 c537: conn_0_0_8 - 10 x_0_0_8 <= 0
 c538: conn_0_0_9 - 10 x_0_0_9 <= 0
 c539: conn_0_0_10 - 10 x_0_0_10 <= 0
 c540: conn_0_1_0 - 10 x_0_1_0 <= 0
 c541: conn_0_1_2 - 10 x_0_1_2 <= 0
 c542: conn_0_1_3 - 10 x_0_1_3 <= 0
 c543: conn_0_1_4 - 10 x_0_1_4 <= 0
 c544: conn_0_1_5 - 10 x_0_1_5 <= 0
 c545: conn_0_1_6 - 10 x_0_1_6 <= 0
 c546: conn_0_1_7 - 10 x_0_1_7 <= 0
 c547: conn_0_1_8 - 10 x_0_1_8 <= 0
 c548: conn_0_1_9 - 10 x_0_1_9 <= 0
 c549: conn_0_1_10 - 10 x_0_1_10 <= 0
 c550: conn_0_2_0 - 10 x_0_2_0 <= 0
 c551: conn_0_2_1 - 10 x_0_2_1 <= 0
 c552: conn_0_2_3 - 10 x_0_2_3 <= 0
 c553: conn_0_2_4 - 10 x_0_2_4 <= 0
 c554: conn_0_2_5 - 10 x_0_2_5 <= 0
 c555: conn_0_2_6 - 10 x_0_2_6 <= 0
 c556: conn_0_2_7 - 10 x_0_2_7 <= 0
 c557: conn_0_2_8 - 10 x_0_2_8 <= 0
 c558: conn_0_2_9 - 10 x_0_2_9 <= 0
 c559: conn_0_2_10 - 10 x_0_2_10 <= 0
 c560: conn_0_3_0 - 10 x_0_3_0 <= 0
 c561: conn_0_3_1 - 10 x_0_3_1 <= 0
 c562: conn_0_3_2 - 10 x_0_3_2 <= 0
 c563: conn_0_3_4 - 10 x_0_3_4 <= 0
 c564: conn_0_3_5 - 10 x_0_3_5 <= 0
 c565: conn_0_3_6 - 10 x_0_3_6 <= 0
 c566: conn_0_3_7 - 10 x_0_3_7 <= 0
 c567: conn_0_3_8 - 10 x_0_3_8 <= 0
 c568: conn_0_3_9 - 10 x_0_3_9 <= 0
 c569: conn_0_3_10 - 10 x_0_3_10 <= 0
 c570: conn_0_4_0 - 10 x_0_4_0 <= 0
 c571: conn_0_4_1 - 10 x_0_4_1 <= 0
 c572: conn_0_4_2 - 10 x_0_4_2 <= 0
 c573: conn_0_4_3 - 10 x_0_4_3 <= 0
 c574: conn_0_4_5 - 10 x_0_4_5 <= 0
 c575: conn_0_4_6 - 10 x_0_4_6 <= 0
 c576: conn_0_4_7 - 10 x_0_4_7 <= 0
 c577: conn_0_4_8 - 10 x_0_4_8 <= 0
 c578: conn_0_4_9 - 10 x_0_4_9 <= 0
 c579: conn_0_4_10 - 10 x_0_4_10 <= 0
 c580: conn_0_5_0 - 10 x_0_5_0 <= 0
 c581: conn_0_5_1 - 10 x_0_5_1 <= 0
 c582: conn_0_5_2 - 10 x_0_5_2 <= 0
 c583: conn_0_5_3 - 10 x_0_5_3 <= 0
 c584: conn_0_5_4 - 10 x_0_5_4 <= 0
 c585: conn_0_5_6 - 10 x_0_5_6 <= 0
 c586: conn_0_5_7 - 10 x_0_5_7 <= 0
 c587: conn_0_5_8 - 10 x_0_5_8 <= 0
 c588: conn_0_5_9 - 10 x_0_5_9 <= 0
 c589: conn_0_5_10 - 10 x_0_5_10 <= 0
 c590: conn_0_6_0 - 10 x_0_6_0 <= 0
 c591: conn_0_6_1 - 10 x_0_6_1 <= 0
 c592: conn_0_6_2 - 10 x_0_6_2 <= 0
 c593: conn_0_6_3 - 10 x_0_6_3 <= 0
 c594: conn_0_6_4 - 10 x_0_6_4 <= 0
 c595: conn_0_6_5 - 10 x_0_6_5 <= 0
 c596: conn_0_6_7 - 10 x_0_6_7 <= 0
 c597: conn_0_6_8 - 10 x_0_6_8 <= 0
 c598: conn_0_6_9 - 10 x_0_6_9 <= 0
 c599: conn_0_6_10 - 10 x_0_6_10 <= 0
 c600: conn_0_7_0 - 10 x_0_7_0 <= 0
 c601: conn_0_7_1 - 10 x_0_7_1 <= 0
 c602: conn_0_7_2 - 10 x_0_7_2 <= 0
 c603: conn_0_7_3 - 10 x_0_7_3 <= 0
 c604: conn_0_7_4 - 10 x_0_7_4 <= 0
 c605: conn_0_7_5 - 10 x_0_7_5 <= 0
 c606: conn_0_7_6 - 10 x_0_7_6 <= 0
 c607: conn_0_7_8 - 10 x_0_7_8 <= 0
 c608: conn_0_7_9 - 10 x_0_7_9 <= 0
 c609: conn_0_7_10 - 10 x_0_7_10 <= 0
 c610: conn_0_8_0 - 10 x_0_8_0 <= 0
 c611: conn_0_8_1 - 10 x_0_8_1 <= 0
 c612: conn_0_8_2 - 10 x_0_8_2 <= 0
 c613: conn_0_8_3 - 10 x_0_8_3 <= 0
 c614: conn_0_8_4 - 10 x_0_8_4 <= 0
 c615: conn_0_8_5 - 10 x_0_8_5 <= 0
 c616: conn_0_8_6 - 10 x_0_8_6 <= 0
 c617: conn_0_8_7 - 10 x_0_8_7 <= 0
 c618: conn_0_8_9 - 10 x_0_8_9 <= 0
 c619: conn_0_8_10 - 10 x_0_8_10 <= 0
 c620: conn_0_9_0 - 10 x_0_9_0 <= 0
 c621: conn_0_9_1 - 10 x_0_9_1 <= 0
 c622: conn_0_9_2 - 10 x_0_9_2 <= 0
 c623: conn_0_9_3 - 10 x_0_9_3 <= 0
 c624: conn_0_9_4 - 10 x_0_9_4 <= 0
 c625: conn_0_9_5 - 10 x_0_9_5 <= 0
 c626: conn_0_9_6 - 10 x_0_9_6 <= 0
 c627: conn_0_9_7 - 10 x_0_9_7 <= 0
 c628: conn_0_9_8 - 10 x_0_9_8 <= 0
 c629: conn_0_9_10 - 10 x_0_9_10 <= 0
 c630: conn_0_10_0 - 10 x_0_10_0 <= 0
 c631: conn_0_10_1 - 10 x_0_10_1 <= 0
 c632: conn_0_10_2 - 10 x_0_10_2 <= 0
 c633: conn_0_10_3 - 10 x_0_10_3 <= 0
 c634: conn_0_10_4 - 10 x_0_10_4 <= 0
 c635: conn_0_10_5 - 10 x_0_10_5 <= 0
 c636: conn_0_10_6 - 10 x_0_10_6 <= 0
 c637: conn_0_10_7 - 10 x_0_10_7 <= 0
 c638: conn_0_10_8 - 10 x_0_10_8 <= 0
 c639: conn_0_10_9 - 10 x_0_10_9 <= 0
 c640: conn_0_0_1 + conn_0_10_1 - conn_0_1_0 - conn_0_1_10 - conn_0_1_2 - conn_0_1_3 - conn_0_1_4 - conn_0_1_5 - conn_0_1_6 - conn_0_1_7 - conn_0_1_8 - conn_0_1_9 + conn_0_2_1 + conn_0_3_1 + conn_0_4_1 + conn_0_5_1 + conn_0_6_1 + conn_0_7_1 + conn_0_8_1 + conn_0_9_1 - z_0_1 = 0
 c641: conn_0_0_2 + conn_0_10_2 + conn_0_1_2 - conn_0_2_0 - conn_0_2_1 - conn_0_2_10 - conn_0_2_3 - conn_0_2_4 - conn_0_2_5 - conn_0_2_6 - conn_0_2_7 - conn_0_2_8 - conn_0_2_9 + conn_0_3_2 + conn_0_4_2 + conn_0_5_2 + conn_0_6_2 + conn_0_7_2 + conn_0_8_2 + conn_0_9_2 - z_0_2 = 0
 c642: conn_0_0_3 + conn_0_10_3 + conn_0_1_3 + conn_0_2_3 - conn_0_3_0 - conn_0_3_1 - conn_0_3_10 - conn_0_3_2 - conn_0_3_4 - conn_0_3_5 - conn_0_3_6 - conn_0_3_7 - conn_0_3_8 - conn_0_3_9 + conn_0_4_3 + conn_0_5_3 + conn_0_6_3 + conn_0_7_3 + conn_0_8_3 + conn_0_9_3 - z_0_3 = 0
 c643: conn_0_0_4 + conn_0_10_4 + conn_0_1_4 + conn_0_2_4 + conn_0_3_4 - conn_0_4_0 - conn_0_4_1 - conn_0_4_10 - conn_0_4_2 - conn_0_4_3 - conn_0_4_5 - conn_0_4_6 - conn_0_4_7 - conn_0_4_8 - conn_0_4_9 + conn_0_5_4 + conn_0_6_4 + conn_0_7_4 + conn_0_8_4 + conn_0_9_4 - z_0_4 = 0
 c644: conn_0_0_5 + conn_0_10_5 + conn_0_1_5 + conn_0_2_5 + conn_0_3_5 + conn_0_4_5 - conn_0_5_0 - conn_0_5_1 - conn_0_5_10 - conn_0_5_2 - conn_0_5_3 - conn_0_5_4 - conn_0_5_6 - conn_0_5_7 - conn_0_5_8 - conn_0_5_9 + conn_0_6_5 + conn_0_7_5 + conn_0_8_5 + conn_0_9_5 - z_0_5 = 0
 c645: conn_0_0_6 + conn_0_10_6 + conn_0_1_6 + conn_0_2_6 + conn_0_3_6 + conn_0_4_6 + conn_0_5_6 - conn_0_6_0 - conn_0_6_1 - conn_0_6_10 - conn_0_6_2 - conn_0_6_3 - conn_0_6_4 - conn_0_6_5 - conn_0_6_7 - conn_0_6_8 - conn_0_6_9 + conn_0_7_6 + conn_0_8_6 + conn_0_9_6 - z_0_6 = 0
 c646: conn_0_0_7 + conn_0_10_7 + conn_0_1_7 + conn_0_2_7 + conn_0_3_7 + conn_0_4_7 + conn_0_5_7 + conn_0_6_7 - conn_0_7_0 - conn_0_7_1 - conn_0_7_10 - conn_0_7_2 - conn_0_7_3 - conn_0_7_4 - conn_0_7_5 - conn_0_7_6 - conn_0_7_8 - conn_0_7_9 + conn_0_8_7 + conn_0_9_7 - z_0_7 = 0
 c647: conn_0_0_8 + conn_0_10_8 + conn_0_1_8 + conn_0_2_8 + conn_0_3_8 + conn_0_4_8 + conn_0_5_8 + conn_0_6_8 + conn_0_7_8 - conn_0_8_0 - conn_0_8_1 - conn_0_8_10 - conn_0_8_2 - conn_0_8_3 - conn_0_8_4 - conn_0_8_5 - conn_0_8_6 - conn_0_8_7 - conn_0_8_9 + conn_0_9_8 - z_0_8 = 0
 c648: conn_0_0_9 + conn_0_10_9 + conn_0_1_9 + conn_0_2_9 + conn_0_3_9 + conn_0_4_9 + conn_0_5_9 + conn_0_6_9 + conn_0_7_9 + conn_0_8_9 - conn_0_9_0 - conn_0_9_1 - conn_0_9_10 - conn_0_9_2 - conn_0_9_3 - conn_0_9_4 - conn_0_9_5 - conn_0_9_6 - conn_0_9_7 - conn_0_9_8 - z_0_9 = 0
 c649: conn_0_0_10 - conn_0_10_0 - conn_0_10_1 - conn_0_10_2 - conn_0_10_3 - conn_0_10_4 - conn_0_10_5 - conn_0_10_6 - conn_0_10_7 - conn_0_10_8 - conn_0_10_9 + conn_0_1_10 + conn_0_2_10 + conn_0_3_10 + conn_0_4_10 + conn_0_5_10 + conn_0_6_10 + conn_0_7_10 + conn_0_8_10 + conn_0_9_10 - z_0_10 = 0
 c650: conn_0_0_1 + conn_0_0_10 + conn_0_0_2 + conn_0_0_3 + conn_0_0_4 + conn_0_0_5 + conn_0_0_6 + conn_0_0_7 + conn_0_0_8 + conn_0_0_9 - conn_0_10_0 - conn_0_1_0 - conn_0_2_0 - conn_0_3_0 - conn_0_4_0 - conn_0_5_0 - conn_0_6_0 - conn_0_7_0 - conn_0_8_0 - conn_0_9_0 - z_0_1 - z_0_10 - z_0_2 - z_0_3 - z_0_4 - z_0_5 - z_0_6 - z_0_7 - z_0_8 - z_0_9 = 0
 c651: conn_1_0_1 - 10 x_1_0_1 <= 0
 c652: conn_1_0_2 - 10 x_1_0_2 <= 0
 c653: conn_1_0_3 - 10 x_1_0_3 <= 0
 c654: conn_1_0_4 - 10 x_1_0_4 <= 0
 c655: conn_1_0_5 - 10 x_1_0_5 <= 0
 c656: conn_1_0_6 - 10 x_1_0_6 <= 0
 c657: conn_1_0_7 - 10 x_1_0_7 <= 0
 c658: conn_1_0_8 - 10 x_1_0_8 <= 0
 c659: conn_1_0_9 - 10 x_1_0_9 <= 0
 c660: conn_1_0_10 - 10 x_1_0_10 <= 0
 c661: conn_1_1_0 - 10 x_1_1_0 <= 0
 c662: conn_1_1_2 - 10 x_1_1_2 <= 0
 c663: conn_1_1_3 - 10 x_1_1_3 <= 0
 c664: conn_1_1_4 - 10 x_1_1_4 <= 0
 c665: conn_1_1_5 - 10 x_1_1_5 <= 0
 c666: conn_1_1_6 - 10 x_1_1_6 <= 0
 c667: conn_1_1_7 - 10 x_1_1_7 <= 0
 c668: conn_1_1_8 - 10 x_1_1_8 <= 0
 c669: conn_1_1_9 - 10 x_1_1_9 <= 0
 c670: conn_1_1_10 - 10 x_1_1_10 <= 0
 c671: conn_1_2_0 - 10 x_1_2_0 <= 0
 c672: conn_1_2_1 - 10 x_1_2_1 <= 0
 c673: conn_1_2_3 - 10 x_1_2_3 <= 0
 c674: conn_1_2_4 - 10 x_1_2_4 <= 0
 c675: conn_1_2_5 - 10 x_1_2_5 <= 0
 c676: conn_1_2_6 - 10 x_1_2_6 <= 0
 c677: conn_1_2_7 - 10 x_1_2_7 <= 0
 c678: conn_1_2_8 - 10 x_1_2_8 <= 0
 c679: conn_1_2_9 - 10 x_1_2_9 <= 0
 c680: conn_1_2_10 - 10 x_1_2_10 <= 0
 c681: conn_1_3_0 - 10 x_1_3_0 <= 0
 c682: conn_1_3_1 - 10 x_1_3_1 <= 0
 c683: conn_1_3_2 - 10 x_1_3_2 <= 0
 c684: conn_1_3_4 - 10 x_1_3_4 <= 0
 c685: conn_1_3_5 - 10 x_1_3_5 <= 0
 c686: conn_1_3_6 - 10 x_1_3_6 <= 0
 c687: conn_1_3_7 - 10 x_1_3_7 <= 0
 c688: conn_1_3_8 - 10 x_1_3_8 <= 0
 c689: conn_1_3_9 - 10 x_1_3_9 <= 0
 c690: conn_1_3_10 - 10 x_1_3_10 <= 0
 c691: conn_1_4_0 - 10 x_1_4_0 <= 0
 c692: conn_1_4_1 - 10 x_1_4_1 <= 0
 c693: conn_1_4_2 - 10 x_1_4_2 <= 0
 c694: conn_1_4_3 - 10 x_1_4_3 <= 0
 c695: conn_1_4_5 - 10 x_1_4_5 <= 0
 c696: conn_1_4_6 - 10 x_1_4_6 <= 0
 c697: conn_1_4_7 - 10 x_1_4_7 <= 0
 c698: conn_1_4_8 - 10 x_1_4_8 <= 0
 c699: conn_1_4_9 - 10 x_1_4_9 <= 0
 c700: conn_1_4_10 - 10 x_1_4_10 <= 0
 c701: conn_1_5_0 - 10 x_1_5_0 <= 0
 c702: conn_1_5_1 - 10 x_1_5_1 <= 0
 c703: conn_1_5_2 - 10 x_1_5_2 <= 0
 c704: conn_1_5_3 - 10 x_1_5_3 <= 0
 c705: conn_1_5_4 - 10 x_1_5_4 <= 0
 c706: conn_1_5_6 - 10 x_1_5_6 <= 0
 c707: conn_1_5_7 - 10 x_1_5_7 <= 0
 c708: conn_1_5_8 - 10 x_1_5_8 <= 0
 c709: conn_1_5_9 - 10 x_1_5_9 <= 0
 c710: conn_1_5_10 - 10 x_1_5_10 <= 0
 c711: conn_1_6_0 - 10 x_1_6_0 <= 0
 c712: conn_1_6_1 - 10 x_1_6_1 <= 0
 c713: conn_1_6_2 - 10 x_1_6_2 <= 0
 c714: conn_1_6_3 - 10 x_1_6_3 <= 0
 c715: conn_1_6_4 - 10 x_1_6_4 <= 0
 c716: conn_1_6_5 - 10 x_1_6_5 <= 0
 c717: conn_1_6_7 - 10 x_1_6_7 <= 0
 c718: conn_1_6_8 - 10 x_1_6_8 <= 0
 c719: conn_1_6_9 - 10 x_1_6_9 <= 0
 c720: conn_1_6_10 - 10 x_1_6_10 <= 0
 c721: conn_1_7_0 - 10 x_1_7_0 <= 0
 c722: conn_1_7_1 - 10 x_1_7_1 <= 0
 c723: conn_1_7_2 - 10 x_1_7_2 <= 0
 c724: conn_1_7_3 - 10 x_1_7_3 <= 0
 c725: conn_1_7_4 - 10 x_1_7_4 <= 0
 c726: conn_1_7_5 - 10 x_1_7_5 <= 0
 c727: conn_1_7_6 - 10 x_1_7_6 <= 0
 c728: conn_1_7_8 - 10 x_1_7_8 <= 0
 c729: conn_1_7_9 - 10 x_1_7_9 <= 0
 c730: conn_1_7_10 - 10 x_1_7_10 <= 0
 c731: conn_1_8_0 - 10 x_1_8_0 <= 0
 c732: conn_1_8_1 - 10 x_1_8_1 <= 0
 c733: conn_1_8_2 - 10 x_1_8_2 <= 0
 c734: conn_1_8_3 - 10 x_1_8_3 <= 0
 c735: conn_1_8_4 - 10 x_1_8_4 <= 0
 c736: conn_1_8_5 - 10 x_1_8_5 <= 0
 c737: conn_1_8_6 - 10 x_1_8_6 <= 0
 c738: conn_1_8_7 - 10 x_1_8_7 <= 0
 c739: conn_1_8_9 - 10 x_1_8_9 <= 0
 c740: conn_1_8_10 - 10 x_1_8_10 <= 0
 c741: conn_1_9_0 - 10 x_1_9_0 <= 0
 c742: conn_1_9_1 - 10 x_1_9_1 <= 0
 c743: conn_1_9_2 - 10 x_1_9_2 <= 0
 c744: conn_1_9_3 - 10 x_1_9_3 <= 0
 c745: conn_1_9_4 - 10 x_1_9_4 <= 0
 c746: conn_1_9_5 - 10 x_1_9_5 <= 0
 c747: conn_1_9_6 - 10 x_1_9_6 <= 0
 c748: conn_1_9_7 - 10 x_1_9_7 <= 0
 c749: conn_1_9_8 - 10 x_1_9_8 <= 0
 c750: conn_1_9_10 - 10 x_1_9_10 <= 0
 c751: conn_1_10_0 - 10 x_1_10_0 <= 0
 c752: conn_1_10_1 - 10 x_1_10_1 <= 0
 c753: conn_1_10_2 - 10 x_1_10_2 <= 0
 c754: conn_1_10_3 - 10 x_1_10_3 <= 0
 c755: conn_1_10_4 - 10 x_1_10_4 <= 0
 c756: conn_1_10_5 - 10 x_1_10_5 <= 0
 c757: conn_1_10_6 - 10 x_1_10_6 <= 0
 c758: conn_1_10_7 - 10 x_1_10_7 <= 0
 c759: conn_1_10_8 - 10 x_1_10_8 <= 0
 c760: conn_1_10_9 - 10 x_1_10_9 <= 0
 c761: conn_1_0_1 + conn_1_10_1 - conn_1_1_0 - conn_1_1_10 - conn_1_1_2 - conn_1_1_3 - conn_1_1_4 - conn_1_1_5 - conn_1_1_6 - conn_1_1_7 - conn_1_1_8 - conn_1_1_9 + conn_1_2_1 + conn_1_3_1 + conn_1_4_1 + conn_1_5_1 + conn_1_6_1 + conn_1_7_1 + conn_1_8_1 + conn_1_9_1 - z_1_1 = 0
 c762: conn_1_0_2 + conn_1_10_2 + conn_1_1_2 - conn_1_2_0 - conn_1_2_1 - conn_1_2_10 - conn_1_2_3 - conn_1_2_4 - conn_1_2_5 - conn_1_2_6 - conn_1_2_7 - conn_1_2_8 - conn_1_2_9 + conn_1_3_2 + conn_1_4_2 + conn_1_5_2 + conn_1_6_2 + conn_1_7_2 + conn_1_8_2 + conn_1_9_2 - z_1_2 = 0
 c763: conn_1_0_3 + conn_1_10_3 + conn_1_1_3 + conn_1_2_3 - conn_1_3_0 - conn_1_3_1 - conn_1_3_10 - conn_1_3_2 - conn_1_3_4 - conn_1_3_5 - conn_1_3_6 - conn_1_3_7 - conn_1_3_8 - conn_1_3_9 + conn_1_4_3 + conn_1_5_3 + conn_1_6_3 + conn_1_7_3 + conn_1_8_3 + conn_1_9_3 - z_1_3 = 0
 c764: conn_1_0_4 + conn_1_10_4 + conn_1_1_4 + conn_1_2_4 + conn_1_3_4 - conn_1_4_0 - conn_1_4_1 - conn_1_4_10 - conn_1_4_2 - conn_1_4_3 - conn_1_4_5 - conn_1_4_6 - conn_1_4_7 - conn_1_4_8 - conn_1_4_9 + conn_1_5_4 + conn_1_6_4 + conn_1_7_4 + conn_1_8_4 + conn_1_9_4 - z_1_4 = 0
 c765: conn_1_0_5 + conn_1_10_5 + conn_1_1_5 + conn_1_2_5 + conn_1_3_5 + conn_1_4_5 - conn_1_5_0 - conn_1_5_1 - conn_1_5_10 - conn_1_5_2 - conn_1_5_3 - conn_1_5_4 - conn_1_5_6 - conn_1_5_7 - conn_1_5_8 - conn_1_5_9 + conn_1_6_5 + conn_1_7_5 + conn_1_8_5 + conn_1_9_5 - z_1_5 = 0
 c766: conn_1_0_6 + conn_1_10_6 + conn_1_1_6 + conn_1_2_6 + conn_1_3_6 + conn_1_4_6 + conn_1_5_6 - conn_1_6_0 - conn_1_6_1 - conn_1_6_10 - conn_1_6_2 - conn_1_6_3 - conn_1_6_4 - conn_1_6_5 - conn_1_6_7 - conn_1_6_8 - conn_1_6_9 + conn_1_7_6 + conn_1_8_6 + conn_1_9_6 - z_1_6 = 0
 c767: conn_1_0_7 + conn_1_10_7 + conn_1_1_7 + conn_1_2_7 + conn_1_3_7 + conn_1_4_7 + conn_1_5_7 + conn_1_6_7 - conn_1_7_0 - conn_1_7_1 - conn_1_7_10 - conn_1_7_2 - conn_1_7_3 - conn_1_7_4 - conn_1_7_5 - conn_1_7_6 - conn_1_7_8 - conn_1_7_9 + conn_1_8_7 + conn_1_9_7 - z_1_7 = 0
 c768: conn_1_0_8 + conn_1_10_8 + conn_1_1_8 + conn_1_2_8 + conn_1_3_8 + conn_1_4_8 + conn_1_5_8 + conn_1_6_8 + conn_1_7_8 - conn_1_8_0 - conn_1_8_1 - conn_1_8_10 - conn_1_8_2 - conn_1_8_3 - conn_1_8_4 - conn_1_8_5 - conn_1_8_6 - conn_1_8_7 - conn_1_8_9 + conn_1_9_8 - z_1_8 = 0
 c769: conn_1_0_9 + conn_1_10_9 + conn_1_1_9 + conn_1_2_9 + conn_1_3_9 + conn_1_4_9 + conn_1_5_9 + conn_1_6_9 + conn_1_7_9 + conn_1_8_9 - conn_1_9_0 - conn_1_9_1 - conn_1_9_10 - conn_1_9_2 - conn_1_9_3 - conn_1_9_4 - conn_1_9_5 - conn_1_9_6 - conn_1_9_7 - conn_1_9_8 - z_1_9 = 0
 c770: conn_1_0_10 - conn_1_10_0 - conn_1_10_1 - conn_1_10_2 - conn_1_10_3 - conn_1_10_4 - conn_1_10_5 - conn_1_10_6 - conn_1_10_7 - conn_1_10_8 - conn_1_10_9 + conn_1_1_10 + conn_1_2_10 + conn_1_3_10 + conn_1_4_10 + conn_1_5_10 + conn_1_6_10 + conn_1_7_10 + conn_1_8_10 + conn_1_9_10 - z_1_10 = 0
 c771: conn_1_0_1 + conn_1_0_10 + conn_1_0_2 + conn_1_0_3 + conn_1_0_4 + conn_1_0_5 + conn_1_0_6 + conn_1_0_7 + conn_1_0_8 + conn_1_0_9 - conn_1_10_0 - conn_1_1_0 - conn_1_2_0 - conn_1_3_0 - conn_1_4_0 - conn_1_5_0 - conn_1_6_0 - conn_1_7_0 - conn_1_8_0 - conn_1_9_0 - z_1_1 - z_1_10 - z_1_2 - z_1_3 - z_1_4 - z_1_5 - z_1_6 - z_1_7 - z_1_8 - z_1_9 = 0
 c772: conn_2_0_1 - 10 x_2_0_1 <= 0
 c773: conn_2_0_2 - 10 x_2_0_2 <= 0
 c774: conn_2_0_3 - 10 x_2_0_3 <= 0
 c775: conn_2_0_4 - 10 x_2_0_4 <= 0
 c776: conn_2_0_5 - 10 x_2_0_5 <= 0
 c777: conn_2_0_6 - 10 x_2_0_6 <= 0
 c778: conn_2_0_7 - 10 x_2_0_7 <= 0
 c779: conn_2_0_8 - 10 x_2_0_8 <= 0
 c780: conn_2_0_9 - 10 x_2_0_9 <= 0
 c781: conn_2_0_10 - 10 x_2_0_10 <= 0
 c782: conn_2_1_0 - 10 x_2_1_0 <= 0
 c783: conn_2_1_2 - 10 x_2_1_2 <= 0
 c784: conn_2_1_3 - 10 x_2_1_3 <= 0
 c785: conn_2_1_4 - 10 x_2_1_4 <= 0
 c786: conn_2_1_5 - 10 x_2_1_5 <= 0
 c787: conn_2_1_6 - 10 x_2_1_6 <= 0
 c788: conn_2_1_7 - 10 x_2_1_7 <= 0
 c789: conn_2_1_8 - 10 x_2_1_8 <= 0
 c790: conn_2_1_9 - 10 x_2_1_9 <= 0
 c791: conn_2_1_10 - 10 x_2_1_10 <= 0
 c792: conn_2_2_0 - 10 x_2_2_0 <= 0
 c793: conn_2_2_1 - 10 x_2_2_1 <= 0
 c794: conn_2_2_3 - 10 x_2_2_3 <= 0
 c795: conn_2_2_4 - 10 x_2_2_4 <= 0
 c796: conn_2_2_5 - 10 x_2_2_5 <= 0
 c797: conn_2_2_6 - 10 x_2_2_6 <= 0
 c798: conn_2_2_7 - 10 x_2_2_7 <= 0
 c799: conn_2_2_8 - 10 x_2_2_8 <= 0
 c800: conn_2_2_9 - 10 x_2_2_9 <= 0
 c801: conn_2_2_10 - 10 x_2_2_10 <= 0
 c802: conn_2_3_0 - 10 x_2_3_0 <= 0
 c803: conn_2_3_1 - 10 x_2_3_1 <= 0
 c804: conn_2_3_2 - 10 x_2_3_2 <= 0
 c805: conn_2_3_4 - 10 x_2_3_4 <= 0
 c806: conn_2_3_5 - 10 x_2_3_5 <= 0
 c807: conn_2_3_6 - 10 x_2_3_6 <= 0
 c808: conn_2_3_7 - 10 x_2_3_7 <= 0
 c809: conn_2_3_8 - 10 x_2_3_8 <= 0
 c810: conn_2_3_9 - 10 x_2_3_9 <= 0
 c811: conn_2_3_10 - 10 x_2_3_10 <= 0
 c812: conn_2_4_0 - 10 x_2_4_0 <= 0
 c813: conn_2_4_1 - 10 x_2_4_1 <= 0
 c814: conn_2_4_2 - 10 x_2_4_2 <= 0
 c815: conn_2_4_3 - 10 x_2_4_3 <= 0
 c816: conn_2_4_5 - 10 x_2_4_5 <= 0
 c817: conn_2_4_6 - 10 x_2_4_6 <= 0
 c818: conn_2_4_7 - 10 x_2_4_7 <= 0
 c819: conn_2_4_8 - 10 x_2_4_8 <= 0
 c820: conn_2_4_9 - 10 x_2_4_9 <= 0
 c821: conn_2_4_10 - 10 x_2_4_10 <= 0
 c822: conn_2_5_0 - 10 x_2_5_0 <= 0
 c823: conn_2_5_1 - 10 x_2_5_1 <= 0
 c824: conn_2_5_2 - 10 x_2_5_2 <= 0
 c825: conn_2_5_3 - 10 x_2_5_3 <= 0
 c826: conn_2_5_4 - 10 x_2_5_4 <= 0
 c827: conn_2_5_6 - 10 x_2_5_6 <= 0
 c828: conn_2_5_7 - 10 x_2_5_7 <= 0
 c829: conn_2_5_8 - 10 x_2_5_8 <= 0
 c830: conn_2_5_9 - 10 x_2_5_9 <= 0
 c831: conn_2_5_10 - 10 x_2_5_10 <= 0
 c832: conn_2_6_0 - 10 x_2_6_0 <= 0
 c833: conn_2_6_1 - 10 x_2_6_1 <= 0
 c834: conn_2_6_2 - 10 x_2_6_2 <= 0
 c835: conn_2_6_3 - 10 x_2_6_3 <= 0
 c836: conn_2_6_4 - 10 x_2_6_4 <= 0
 c837: conn_2_6_5 - 10 x_2_6_5 <= 0
 c838: conn_2_6_7 - 10 x_2_6_7 <= 0
 c839: conn_2_6_8 - 10 x_2_6_8 <= 0
 c840: conn_2_6_9 - 10 x_2_6_9 <= 0
 c841: conn_2_6_10 - 10 x_2_6_10 <= 0
 c842: conn_2_7_0 - 10 x_2_7_0 <= 0
 c843: conn_2_7_1 - 10 x_2_7_1 <= 0
 c844: conn_2_7_2 - 10 x_2_7_2 <= 0
 c845: conn_2_7_3 - 10 x_2_7_3 <= 0
 c846: conn_2_7_4 - 10 x_2_7_4 <= 0
 c847: conn_2_7_5 - 10 x_2_7_5 <= 0
 c848: conn_2_7_6 - 10 x_2_7_6 <= 0
 c849: conn_2_7_8 - 10 x_2_7_8 <= 0
 c850: conn_2_7_9 - 10 x_2_7_9 <= 0
 c851: conn_2_7_10 - 10 x_2_7_10 <= 0
 c852: conn_2_8_0 - 10 x_2_8_0 <= 0
 c853: conn_2_8_1 - 10 x_2_8_1 <= 0
 c854: conn_2_8_2 - 10 x_2_8_2 <= 0
 c855: conn_2_8_3 - 10 x_2_8_3 <= 0
 c856: conn_2_8_4 - 10 x_2_8_4 <= 0
 c857: conn_2_8_5 - 10 x_2_8_5 <= 0
 c858: conn_2_8_6 - 10 x_2_8_6 <= 0
 c859: conn_2_8_7 - 10 x_2_8_7 <= 0
 c860: conn_2_8_9 - 10 x_2_8_9 <= 0
 c861: conn_2_8_10 - 10 x_2_8_10 <= 0
 c862: conn_2_9_0 - 10 x_2_9_0 <= 0
 c863: conn_2_9_1 - 10 x_2_9_1 <= 0
 c864: conn_2_9_2 - 10 x_2_9_2 <= 0
 c865: conn_2_9_3 - 10 x_2_9_3 <= 0
 c866: conn_2_9_4 - 10 x_2_9_4 <= 0
 c867: conn_2_9_5 - 10 x_2_9_5 <= 0
 c868: conn_2_9_6 - 10 x_2_9_6 <= 0
 c869: conn_2_9_7 - 10 x_2_9_7 <= 0
 c870: conn_2_9_8 - 10 x_2_9_8 <= 0
 c871: conn_2_9_10 - 10 x_2_9_10 <= 0
 c872: conn_2_10_0 - 10 x_2_10_0 <= 0
 c873: conn_2_10_1 - 10 x_2_10_1 <= 0
 c874: conn_2_10_2 - 10 x_2_10_2 <= 0
 c875: conn_2_10_3 - 10 x_2_10_3 <= 0
 c876: conn_2_10_4 - 10 x_2_10_4 <= 0
 c877: conn_2_10_5 - 10 x_2_10_5 <= 0
 c878: conn_2_10_6 - 10 x_2_10_6 <= 0
 c879: conn_2_10_7 - 10 x_2_10_7 <= 0
 c880: conn_2_10_8 - 10 x_2_10_8 <= 0
 c881: conn_2_10_9 - 10 x_2_10_9 <= 0
 c882: conn_2_0_1 + conn_2_10_1 - conn_2_1_0 - conn_2_1_10 - conn_2_1_2 - conn_2_1_3 - conn_2_1_4 - conn_2_1_5 - conn_2_1_6 - conn_2_1_7 - conn_2_1_8 - conn_2_1_9 + conn_2_2_1 + conn_2_3_1 + conn_2_4_1 + conn_2_5_1 + conn_2_6_1 + conn_2_7_1 + conn_2_8_1 + conn_2_9_1 - z_2_1 = 0
 c883: conn_2_0_2 + conn_2_10_2 + conn_2_1_2 - conn_2_2_0 - conn_2_2_1 - conn_2_2_10 - conn_2_2_3 - conn_2_2_4 - conn_2_2_5 - conn_2_2_6 - conn_2_2_7 - conn_2_2_8 - conn_2_2_9 + conn_2_3_2 + conn_2_4_2 + conn_2_5_2 + conn_2_6_2 + conn_2_7_2 + conn_2_8_2 + conn_2_9_2 - z_2_2 = 0
 c884: conn_2_0_3 + conn_2_10_3 + conn_2_1_3 + conn_2_2_3 - conn_2_3_0 - conn_2_3_1 - conn_2_3_10 - conn_2_3_2 - conn_2_3_4 - conn_2_3_5 - conn_2_3_6 - conn_2_3_7 - conn_2_3_8 - conn_2_3_9 + conn_2_4_3 + conn_2_5_3 + conn_2_6_3 + conn_2_7_3 + conn_2_8_3 + conn_2_9_3 - z_2_3 = 0
 c885: conn_2_0_4 + conn_2_10_4 + conn_2_1_4 + conn_2_2_4 + conn_2_3_4 - conn_2_4_0 - conn_2_4_1 - conn_2_4_10 - conn_2_4_2 - conn_2_4_3 - conn_2_4_5 - conn_2_4_6 - conn_2_4_7 - conn_2_4_8 - conn_2_4_9 + conn_2_5_4 + conn_2_6_4 + conn_2_7_4 + conn_2_8_4 + conn_2_9_4 - z_2_4 = 0
 c886: conn_2_0_5 + conn_2_10_5 + conn_2_1_5 + conn_2_2_5 + conn_2_3_5 + conn_2_4_5 - conn_2_5_0 - conn_2_5_1 - conn_2_5_10 - conn_2_5_2 - conn_2_5_3 - conn_2_5_4 - conn_2_5_6 - conn_2_5_7 - conn_2_5_8 - conn_2_5_9 + conn_2_6_5 + conn_2_7_5 + conn_2_8_5 + conn_2_9_5 - z_2_5 = 0
 c887: conn_2_0_6 + conn_2_10_6 + conn_2_1_6 + conn_2_2_6 + conn_2_3_6 + conn_2_4_6 + conn_2_5_6 - conn_2_6_0 - conn_2_6_1 - conn_2_6_10 - conn_2_6_2 - conn_2_6_3 - conn_2_6_4 - conn_2_6_5 - conn_2_6_7 - conn_2_6_8 - conn_2_6_9 + conn_2_7_6 + conn_2_8_6 + conn_2_9_6 - z_2_6 = 0
 c888: conn_2_0_7 + conn_2_10_7 + conn_2_1_7 + conn_2_2_7 + conn_2_3_7 + conn_2_4_7 + conn_2_5_7 + conn_2_6_7 - conn_2_7_0 - conn_2_7_1 - conn_2_7_10 - conn_2_7_2 - conn_2_7_3 - conn_2_7_4 - conn_2_7_5 - conn_2_7_6 - conn_2_7_8 - conn_2_7_9 + conn_2_8_7 + conn_2_9_7 - z_2_7 = 0
 c889: conn_2_0_8 + conn_2_10_8 + conn_2_1_8 + conn_2_2_8 + conn_2_3_8 + conn_2_4_8 + conn_2_5_8 + conn_2_6_8 + conn_2_7_8 - conn_2_8_0 - conn_2_8_1 - conn_2_8_10 - conn_2_8_2 - conn_2_8_3 - conn_2_8_4 - conn_2_8_5 - conn_2_8_6 - conn_2_8_7 - conn_2_8_9 + conn_2_9_8 - z_2_8 = 0
 c890: conn_2_0_9 + conn_2_10_9 + conn_2_1_9 + conn_2_2_9 + conn_2_3_9 + conn_2_4_9 + conn_2_5_9 + conn_2_6_9 + conn_2_7_9 + conn_2_8_9 - conn_2_9_0 - conn_2_9_1 - conn_2_9_10 - conn_2_9_2 - conn_2_9_3 - conn_2_9_4 - conn_2_9_5 - conn_2_9_6 - conn_2_9_7 - conn_2_9_8 - z_2_9 = 0
 c891: conn_2_0_10 - conn_2_10_0 - conn_2_10_1 - conn_2_10_2 - conn_2_10_3 - conn_2_10_4 - conn_2_10_5 - conn_2_10_6 - conn_2_10_7 - conn_2_10_8 - conn_2_10_9 + conn_2_1_10 + conn_2_2_10 + conn_2_3_10 + conn_2_4_10 + conn_2_5_10 + conn_2_6_10 + conn_2_7_10 + conn_2_8_10 + conn_2_9_10 - z_2_10 = 0
 c892: conn_2_0_1 + conn_2_0_10 + conn_2_0_2 + conn_2_0_3 + conn_2_0_4 + conn_2_0_5 + conn_2_0_6 + conn_2_0_7 + conn_2_0_8 + conn_2_0_9 - conn_2_10_0 - conn_2_1_0 - conn_2_2_0 - conn_2_3_0 - conn_2_4_0 - conn_2_5_0 - conn_2_6_0 - conn_2_7_0 - conn_2_8_0 - conn_2_9_0 - z_2_1 - z_2_10 - z_2_2 - z_2_3 - z_2_4 - z_2_5 - z_2_6 - z_2_7 - z_2_8 - z_2_9 = 0
 c893: z_0_1 + z_1_1 + z_2_1 <= 1
 c894: z_0_2 + z_1_2 + z_2_2 <= 1
 c895: z_0_3 + z_1_3 + z_2_3 <= 1
 c896: z_0_4 + z_1_4 + z_2_4 <= 1
 c897: z_0_5 + z_1_5 + z_2_5 <= 1
 c898: z_0_6 + z_1_6 + z_2_6 <= 1
 c899: z_0_7 + z_1_7 + z_2_7 <= 1
 c900: z_0_8 + z_1_8 + z_2_8 <= 1
 c901: z_0_9 + z_1_9 + z_2_9 <= 1
 c902: z_0_10 + z_1_10 + z_2_10 <= 1
 c903: Y_1 + Y_10 + Y_2 + Y_3 + Y_4 + Y_5 + Y_6 + Y_7 + Y_8 + Y_9 <= 95
 c904: Y_1 + Y_10 + Y_2 + Y_3 + Y_4 + Y_5 + Y_6 + Y_7 + Y_8 + Y_9 >= 5
 c905: d_0_1 - p_0_10 - p_0_2 - p_0_3 - p_0_4 - p_0_5 - p_0_6 - p_0_7 - p_0_8 - p_0_9 <= 0
 c906: d_0_2 - p_0_1 - p_0_10 - p_0_3 - p_0_4 - p_0_5 - p_0_6 - p_0_7 - p_0_8 - p_0_9 <= 0
 c907: d_0_3 - p_0_1 - p_0_10 - p_0_2 - p_0_4 - p_0_5 - p_0_6 - p_0_7 - p_0_8 - p_0_9 <= 0
 c908: d_0_4 - p_0_1 - p_0_10 - p_0_2 - p_0_3 - p_0_5 - p_0_6 - p_0_7 - p_0_8 - p_0_9 <= 0
 c909: d_0_5 - p_0_1 - p_0_10 - p_0_2 - p_0_3 - p_0_4 - p_0_6 - p_0_7 - p_0_8 - p_0_9 <= 0
 c910: d_0_6 - p_0_1 - p_0_10 - p_0_2 - p_0_3 - p_0_4 - p_0_5 - p_0_7 - p_0_8 - p_0_9 <= 0
 c911: d_0_7 - p_0_1 - p_0_10 - p_0_2 - p_0_3 - p_0_4 - p_0_5 - p_0_6 - p_0_8 - p_0_9 <= 0
 c912: d_0_8 - p_0_1 - p_0_10 - p_0_2 - p_0_3 - p_0_4 - p_0_5 - p_0_6 - p_0_7 - p_0_9 <= 0
 c913: d_0_9 - p_0_1 - p_0_10 - p_0_2 - p_0_3 - p_0_4 - p_0_5 - p_0_6 - p_0_7 - p_0_8 <= 0
 c914: d_0_10 - p_0_1 - p_0_2 - p_0_3 - p_0_4 - p_0_5 - p_0_6 - p_0_7 - p_0_8 - p_0_9 <= 0
 c915: d_1_1 - p_1_10 - p_1_2 - p_1_3 - p_1_4 - p_1_5 - p_1_6 - p_1_7 - p_1_8 - p_1_9 <= 0
 c916: d_1_2 - p_1_1 - p_1_10 - p_1_3 - p_1_4 - p_1_5 - p_1_6 - p_1_7 - p_1_8 - p_1_9 <= 0
 c917: d_1_3 - p_1_1 - p_1_10 - p_1_2 - p_1_4 - p_1_5 - p_1_6 - p_1_7 - p_1_8 - p_1_9 <= 0
 c918: d_1_4 - p_1_1 - p_1_10 - p_1_2 - p_1_3 - p_1_5 - p_1_6 - p_1_7 - p_1_8 - p_1_9 <= 0
 c919: d_1_5 - p_1_1 - p_1_10 - p_1_2 - p_1_3 - p_1_4 - p_1_6 - p_1_7 - p_1_8 - p_1_9 <= 0
 c920: d_1_6 - p_1_1 - p_1_10 - p_1_2 - p_1_3 - p_1_4 - p_1_5 - p_1_7 - p_1_8 - p_1_9 <= 0
 c921: d_1_7 - p_1_1 - p_1_10 - p_1_2 - p_1_3 - p_1_4 - p_1_5 - p_1_6 - p_1_8 - p_1_9 <= 0
 c922: d_1_8 - p_1_1 - p_1_10 - p_1_2 - p_1_3 - p_1_4 - p_1_5 - p_1_6 - p_1_7 - p_1_9 <= 0
 c923: d_1_9 - p_1_1 - p_1_10 - p_1_2 - p_1_3 - p_1_4 - p_1_5 - p_1_6 - p_1_7 - p_1_8 <= 0
 c924: d_1_10 - p_1_1 - p_1_2 - p_1_3 - p_1_4 - p_1_5 - p_1_6 - p_1_7 - p_1_8 - p_1_9 <= 0
 c925: d_2_1 - p_2_10 - p_2_2 - p_2_3 - p_2_4 - p_2_5 - p_2_6 - p_2_7 - p_2_8 - p_2_9 <= 0
 c926: d_2_2 - p_2_1 - p_2_10 - p_2_3 - p_2_4 - p_2_5 - p_2_6 - p_2_7 - p_2_8 - p_2_9 <= 0
 c927: d_2_3 - p_2_1 - p_2_10 - p_2_2 - p_2_4 - p_2_5 - p_2_6 - p_2_7 - p_2_8 - p_2_9 <= 0
 c928: d_2_4 - p_2_1 - p_2_10 - p_2_2 - p_2_3 - p_2_5 - p_2_6 - p_2_7 - p_2_8 - p_2_9 <= 0
 c929: d_2_5 - p_2_1 - p_2_10 - p_2_2 - p_2_3 - p_2_4 - p_2_6 - p_2_7 - p_2_8 - p_2_9 <= 0
 c930: d_2_6 - p_2_1 - p_2_10 - p_2_2 - p_2_3 - p_2_4 - p_2_5 - p_2_7 - p_2_8 - p_2_9 <= 0
 c931: d_2_7 - p_2_1 - p_2_10 - p_2_2 - p_2_3 - p_2_4 - p_2_5 - p_2_6 - p_2_8 - p_2_9 <= 0
 c932: d_2_8 - p_2_1 - p_2_10 - p_2_2 - p_2_3 - p_2_4 - p_2_5 - p_2_6 - p_2_7 - p_2_9 <= 0
 c933: d_2_9 - p_2_1 - p_2_10 - p_2_2 - p_2_3 - p_2_4 - p_2_5 - p_2_6 - p_2_7 - p_2_8 <= 0
 c934: d_2_10 - p_2_1 - p_2_2 - p_2_3 - p_2_4 - p_2_5 - p_2_6 - p_2_7 - p_2_8 - p_2_9 <= 0
 c935: ord_0_1 - z_0_1 >= 0
 c936: ord_0_1 - 10 z_0_1 <= 0
 c937: ord_0_2 - z_0_2 >= 0
 c938: ord_0_2 - 10 z_0_2 <= 0
 c939: ord_0_3 - z_0_3 >= 0
 c940: ord_0_3 - 10 z_0_3 <= 0
 c941: ord_0_4 - z_0_4 >= 0
 c942: ord_0_4 - 10 z_0_4 <= 0
 c943: ord_0_5 - z_0_5 >= 0
 c944: ord_0_5 - 10 z_0_5 <= 0
 c945: ord_0_6 - z_0_6 >= 0
 c946: ord_0_6 - 10 z_0_6 <= 0
 c947: ord_0_7 - z_0_7 >= 0
 c948: ord_0_7 - 10 z_0_7 <= 0
 c949: ord_0_8 - z_0_8 >= 0
 c950: ord_0_8 - 10 z_0_8 <= 0
 c951: ord_0_9 - z_0_9 >= 0
 c952: ord_0_9 - 10 z_0_9 <= 0
 c953: ord_0_10 - z_0_10 >= 0
 c954: ord_0_10 - 10 z_0_10 <= 0
 c955: ord_0_1 - ord_0_2 + 10 x_0_1_2 <= 9
 c956: ord_0_1 - ord_0_3 + 10 x_0_1_3 <= 9
 c957: ord_0_1 - ord_0_4 + 10 x_0_1_4 <= 9
 c958: ord_0_1 - ord_0_5 + 10 x_0_1_5 <= 9
 c959: ord_0_1 - ord_0_6 + 10 x_0_1_6 <= 9
 c960: ord_0_1 - ord_0_7 + 10 x_0_1_7 <= 9
 c961: ord_0_1 - ord_0_8 + 10 x_0_1_8 <= 9
 c962: ord_0_1 - ord_0_9 + 10 x_0_1_9 <= 9
 c963: ord_0_1 - ord_0_10 + 10 x_0_1_10 <= 9
 c964: - ord_0_1 + ord_0_2 + 10 x_0_2_1 <= 9
 c965: ord_0_2 - ord_0_3 + 10 x_0_2_3 <= 9
 c966: ord_0_2 - ord_0_4 + 10 x_0_2_4 <= 9
 c967: ord_0_2 - ord_0_5 + 10 x_0_2_5 <= 9
 c968: ord_0_2 - ord_0_6 + 10 x_0_2_6 <= 9
 c969: ord_0_2 - ord_0_7 + 10 x_0_2_7 <= 9
 c970: ord_0_2 - ord_0_8 + 10 x_0_2_8 <= 9
 c971: ord_0_2 - ord_0_9 + 10 x_0_2_9 <= 9
 c972: - ord_0_10 + ord_0_2 + 10 x_0_2_10 <= 9
 c973: - ord_0_1 + ord_0_3 + 10 x_0_3_1 <= 9
 c974: - ord_0_2 + ord_0_3 + 10 x_0_3_2 <= 9
 c975: ord_0_3 - ord_0_4 + 10 x_0_3_4 <= 9
 c976: ord_0_3 - ord_0_5 + 10 x_0_3_5 <= 9
 c977: ord_0_3 - ord_0_6 + 10 x_0_3_6 <= 9
 c978: ord_0_3 - ord_0_7 + 10 x_0_3_7 <= 9
 c979: ord_0_3 - ord_0_8 + 10 x_0_3_8 <= 9
 c980: ord_0_3 - ord_0_9 + 10 x_0_3_9 <= 9
 c981: - ord_0_10 + ord_0_3 + 10 x_0_3_10 <= 9
 c982: - ord_0_1 + ord_0_4 + 10 x_0_4_1 <= 9
 c983: - ord_0_2 + ord_0_4 + 10 x_0_4_2 <= 9
 c984: - ord_0_3 + ord_0_4 + 10 x_0_4_3 <= 9
 c985: ord_0_4 - ord_0_5 + 10 x_0_4_5 <= 9
 c986: ord_0_4 - ord_0_6 + 10 x_0_4_6 <= 9
 c987: ord_0_4 - ord_0_7 + 10 x_0_4_7 <= 9
 c988: ord_0_4 - ord_0_8 + 10 x_0_4_8 <= 9
 c989: ord_0_4 - ord_0_9 + 10 x_0_4_9 <= 9
 c990: - ord_0_10 + ord_0_4 + 10 x_0_4_10 <= 9
 c991: - ord_0_1 + ord_0_5 + 10 x_0_5_1 <= 9
 c992: - ord_0_2 + ord_0_5 + 10 x_0_5_2 <= 9
 c993: - ord_0_3 + ord_0_5 + 10 x_0_5_3 <= 9
 c994: - ord_0_4 + ord_0_5 + 10 x_0_5_4 <= 9
 c995: ord_0_5 - ord_0_6 + 10 x_0_5_6 <= 9
 c996: ord_0_5 - ord_0_7 + 10 x_0_5_7 <= 9
 c997: ord_0_5 - ord_0_8 + 10 x_0_5_8 <= 9
 c998: ord_0_5 - ord_0_9 + 10 x_0_5_9 <= 9
 c999: - ord_0_10 + ord_0_5 + 10 x_0_5_10 <= 9
 c1000: - ord_0_1 + ord_0_6 + 10 x_0_6_1 <= 9
 c1001: - ord_0_2 + ord_0_6 + 10 x_0_6_2 <= 9
 c1002: - ord_0_3 + ord_0_6 + 10 x_0_6_3 <= 9
 c1003: - ord_0_4 + ord_0_6 + 10 x_0_6_4 <= 9
 c1004: - ord_0_5 + ord_0_6 + 10 x_0_6_5 <= 9
 c1005: ord_0_6 - ord_0_7 + 10 x_0_6_7 <= 9
 c1006: ord_0_6 - ord_0_8 + 10 x_0_6_8 <= 9
 c1007: ord_0_6 - ord_0_9 + 10 x_0_6_9 <= 9
 c1008: - ord_0_10 + ord_0_6 + 10 x_0_6_10 <= 9
 c1009: - ord_0_1 + ord_0_7 + 10 x_0_7_1 <= 9
 c1010: - ord_0_2 + ord_0_7 + 10 x_0_7_2 <= 9
 c1011: - ord_0_3 + ord_0_7 + 10 x_0_7_3 <= 9
 c1012: - ord_0_4 + ord_0_7 + 10 x_0_7_4 <= 9
 c1013: - ord_0_5 + ord_0_7 + 10 x_0_7_5 <= 9
 c1014: - ord_0_6 + ord_0_7 + 10 x_0_7_6 <= 9
 c1015: ord_0_7 - ord_0_8 + 10 x_0_7_8 <= 9
 c1016: ord_0_7 - ord_0_9 + 10 x_0_7_9 <= 9
 c1017: - ord_0_10 + ord_0_7 + 10 x_0_7_10 <= 9
 c1018: - ord_0_1 + ord_0_8 + 10 x_0_8_1 <= 9
 c1019: - ord_0_2 + ord_0_8 + 10 x_0_8_2 <= 9
 c1020: - ord_0_3 + ord_0_8 + 10 x_0_8_3 <= 9
 c1021: - ord_0_4 + ord_0_8 + 10 x_0_8_4 <= 9
 c1022: - ord_0_5 + ord_0_8 + 10 x_0_8_5 <= 9
 c1023: - ord_0_6 + ord_0_8 + 10 x_0_8_6 <= 9
 c1024: - ord_0_7 + ord_0_8 + 10 x_0_8_7 <= 9
 c1025: ord_0_8 - ord_0_9 + 10 x_0_8_9 <= 9
 c1026: - ord_0_10 + ord_0_8 + 10 x_0_8_10 <= 9
 c1027: - ord_0_1 + ord_0_9 + 10 x_0_9_1 <= 9
 c1028: - ord_0_2 + ord_0_9 + 10 x_0_9_2 <= 9
 c1029: - ord_0_3 + ord_0_9 + 10 x_0_9_3 <= 9
 c1030: - ord_0_4 + ord_0_9 + 10 x_0_9_4 <= 9
 c1031: - ord_0_5 + ord_0_9 + 10 x_0_9_5 <= 9
 c1032: - ord_0_6 + ord_0_9 + 10 x_0_9_6 <= 9
 c1033: - ord_0_7 + ord_0_9 + 10 x_0_9_7 <= 9
 c1034: - ord_0_8 + ord_0_9 + 10 x_0_9_8 <= 9
 c1035: - ord_0_10 + ord_0_9 + 10 x_0_9_10 <= 9
 c1036: - ord_0_1 + ord_0_10 + 10 x_0_10_1 <= 9
 c1037: ord_0_10 - ord_0_2 + 10 x_0_10_2 <= 9
 c1038: ord_0_10 - ord_0_3 + 10 x_0_10_3 <= 9
 c1039: ord_0_10 - ord_0_4 + 10 x_0_10_4 <= 9
 c1040: ord_0_10 - ord_0_5 + 10 x_0_10_5 <= 9
 c1041: ord_0_10 - ord_0_6 + 10 x_0_10_6 <= 9
 c1042: ord_0_10 - ord_0_7 + 10 x_0_10_7 <= 9
 c1043: ord_0_10 - ord_0_8 + 10 x_0_10_8 <= 9
 c1044: ord_0_10 - ord_0_9 + 10 x_0_10_9 <= 9
 c1045: ord_1_1 - z_1_1 >= 0
 c1046: ord_1_1 - 10 z_1_1 <= 0
 c1047: ord_1_2 - z_1_2 >= 0
 c1048: ord_1_2 - 10 z_1_2 <= 0
 c1049: ord_1_3 - z_1_3 >= 0
 c1050: ord_1_3 - 10 z_1_3 <= 0
 c1051: ord_1_4 - z_1_4 >= 0
 c1052: ord_1_4 - 10 z_1_4 <= 0
 c1053: ord_1_5 - z_1_5 >= 0
 c1054: ord_1_5 - 10 z_1_5 <= 0
 c1055: ord_1_6 - z_1_6 >= 0
 c1056: ord_1_6 - 10 z_1_6 <= 0
 c1057: ord_1_7 - z_1_7 >= 0
 c1058: ord_1_7 - 10 z_1_7 <= 0
 c1059: ord_1_8 - z_1_8 >= 0
 c1060: ord_1_8 - 10 z_1_8 <= 0
 c1061: ord_1_9 - z_1_9 >= 0
 c1062: ord_1_9 - 10 z_1_9 <= 0
 c1063: ord_1_10 - z_1_10 >= 0
 c1064: ord_1_10 - 10 z_1_10 <= 0
 c1065: ord_1_1 - ord_1_2 + 10 x_1_1_2 <= 9
 c1066: ord_1_1 - ord_1_3 + 10 x_1_1_3 <= 9
 c1067: ord_1_1 - ord_1_4 + 10 x_1_1_4 <= 9
 c1068: ord_1_1 - ord_1_5 + 10 x_1_1_5 <= 9
 c1069: ord_1_1 - ord_1_6 + 10 x_1_1_6 <= 9
 c1070: ord_1_1 - ord_1_7 + 10 x_1_1_7 <= 9
 c1071: ord_1_1 - ord_1_8 + 10 x_1_1_8 <= 9
 c1072: ord_1_1 - ord_1_9 + 10 x_1_1_9 <= 9
 c1073: ord_1_1 - ord_1_10 + 10 x_1_1_10 <= 9
 c1074: - ord_1_1 + ord_1_2 + 10 x_1_2_1 <= 9
 c1075: ord_1_2 - ord_1_3 + 10 x_1_2_3 <= 9
 c1076: ord_1_2 - ord_1_4 + 10 x_1_2_4 <= 9
 c1077: ord_1_2 - ord_1_5 + 10 x_1_2_5 <= 9
 c1078: ord_1_2 - ord_1_6 + 10 x_1_2_6 <= 9
 c1079: ord_1_2 - ord_1_7 + 10 x_1_2_7 <= 9
 c1080: ord_1_2 - ord_1_8 + 10 x_1_2_8 <= 9
 c1081: ord_1_2 - ord_1_9 + 10 x_1_2_9 <= 9
 c1082: - ord_1_10 + ord_1_2 + 10 x_1_2_10 <= 9
 c1083: - ord_1_1 + ord_1_3 + 10 x_1_3_1 <= 9
 c1084: - ord_1_2 + ord_1_3 + 10 x_1_3_2 <= 9
 c1085: ord_1_3 - ord_1_4 + 10 x_1_3_4 <= 9
 c1086: ord_1_3 - ord_1_5 + 10 x_1_3_5 <= 9
 c1087: ord_1_3 - ord_1_6 + 10 x_1_3_6 <= 9
 c1088: ord_1_3 - ord_1_7 + 10 x_1_3_7 <= 9
 c1089: ord_1_3 - ord_1_8 + 10 x_1_3_8 <= 9
 c1090: ord_1_3 - ord_1_9 + 10 x_1_3_9 <= 9
 c1091: - ord_1_10 + ord_1_3 + 10 x_1_3_10 <= 9
 c1092: - ord_1_1 + ord_1_4 + 10 x_1_4_1 <= 9
 c1093: - ord_1_2 + ord_1_4 + 10 x_1_4_2 <= 9
 c1094: - ord_1_3 + ord_1_4 + 10 x_1_4_3 <= 9
 c1095: ord_1_4 - ord_1_5 + 10 x_1_4_5 <= 9
 c1096: ord_1_4 - ord_1_6 + 10 x_1_4_6 <= 9
 c1097: ord_1_4 - ord_1_7 + 10 x_1_4_7 <= 9
 c1098: ord_1_4 - ord_1_8 + 10 x_1_4_8 <= 9
 c1099: ord_1_4 - ord_1_9 + 10 x_1_4_9 <= 9
 c1100: - ord_1_10 + ord_1_4 + 10 x_1_4_10 <= 9
 c1101: - ord_1_1 + ord_1_5 + 10 x_1_5_1 <= 9
 c1102: - ord_1_2 + ord_1_5 + 10 x_1_5_2 <= 9
 c1103: - ord_1_3 + ord_1_5 + 10 x_1_5_3 <= 9
 c1104: - ord_1_4 + ord_1_5 + 10 x_1_5_4 <= 9
 c1105: ord_1_5 - ord_1_6 + 10 x_1_5_6 <= 9
 c1106: ord_1_5 - ord_1_7 + 10 x_1_5_7 <= 9
 c1107: ord_1_5 - ord_1_8 + 10 x_1_5_8 <= 9
 c1108: ord_1_5 - ord_1_9 + 10 x_1_5_9 <= 9
 c1109: - ord_1_10 + ord_1_5 + 10 x_1_5_10 <= 9
 c1110: - ord_1_1 + ord_1_6 + 10 x_1_6_1 <= 9
 c1111: - ord_1_2 + ord_1_6 + 10 x_1_6_2 <= 9
 c1112: - ord_1_3 + ord_1_6 + 10 x_1_6_3 <= 9
 c1113: - ord_1_4 + ord_1_6 + 10 x_1_6_4 <= 9
 c1114: - ord_1_5 + ord_1_6 + 10 x_1_6_5 <= 9
 c1115: ord_1_6 - ord_1_7 + 10 x_1_6_7 <= 9
 c1116: ord_1_6 - ord_1_8 + 10 x_1_6_8 <= 9
 c1117: ord_1_6 - ord_1_9 + 10 x_1_6_9 <= 9
 c1118: - ord_1_10 + ord_1_6 + 10 x_1_6_10 <= 9
 c1119: - ord_1_1 + ord_1_7 + 10 x_1_7_1 <= 9
 c1120: - ord_1_2 + ord_1_7 + 10 x_1_7_2 <= 9
 c1121: - ord_1_3 + ord_1_7 + 10 x_1_7_3 <= 9
 c1122: - ord_1_4 + ord_1_7 + 10 x_1_7_4 <= 9
 c1123: - ord_1_5 + ord_1_7 + 10 x_1_7_5 <= 9
 c1124: - ord_1_6 + ord_1_7 + 10 x_1_7_6 <= 9
 c1125: ord_1_7 - ord_1_8 + 10 x_1_7_8 <= 9
 c1126: ord_1_7 - ord_1_9 + 10 x_1_7_9 <= 9
 c1127: - ord_1_10 + ord_1_7 + 10 x_1_7_10 <= 9
 c1128: - ord_1_1 + ord_1_8 + 10 x_1_8_1 <= 9
 c1129: - ord_1_2 + ord_1_8 + 10 x_1_8_2 <= 9
 c1130: - ord_1_3 + ord_1_8 + 10 x_1_8_3 <= 9
 c1131: - ord_1_4 + ord_1_8 + 10 x_1_8_4 <= 9
 c1132: - ord_1_5 + ord_1_8 + 10 x_1_8_5 <= 9
 c1133: - ord_1_6 + ord_1_8 + 10 x_1_8_6 <= 9
 c1134: - ord_1_7 + ord_1_8 + 10 x_1_8_7 <= 9
 c1135: ord_1_8 - ord_1_9 + 10 x_1_8_9 <= 9
 c1136: - ord_1_10 + ord_1_8 + 10 x_1_8_10 <= 9
 c1137: - ord_1_1 + ord_1_9 + 10 x_1_9_1 <= 9
 c1138: - ord_1_2 + ord_1_9 + 10 x_1_9_2 <= 9
 c1139: - ord_1_3 + ord_1_9 + 10 x_1_9_3 <= 9
 c1140: - ord_1_4 + ord_1_9 + 10 x_1_9_4 <= 9
 c1141: - ord_1_5 + ord_1_9 + 10 x_1_9_5 <= 9
 c1142: - ord_1_6 + ord_1_9 + 10 x_1_9_6 <= 9
 c1143: - ord_1_7 + ord_1_9 + 10 x_1_9_7 <= 9
 c1144: - ord_1_8 + ord_1_9 + 10 x_1_9_8 <= 9
 c1145: - ord_1_10 + ord_1_9 + 10 x_1_9_10 <= 9
 c1146: - ord_1_1 + ord_1_10 + 10 x_1_10_1 <= 9
 c1147: ord_1_10 - ord_1_2 + 10 x_1_10_2 <= 9
 c1148: ord_1_10 - ord_1_3 + 10 x_1_10_3 <= 9
 c1149: ord_1_10 - ord_1_4 + 10 x_1_10_4 <= 9
 c1150: ord_1_10 - ord_1_5 + 10 x_1_10_5 <= 9
 c1151: ord_1_10 - ord_1_6 + 10 x_1_10_6 <= 9
 c1152: ord_1_10 - ord_1_7 + 10 x_1_10_7 <= 9
 c1153: ord_1_10 - ord_1_8 + 10 x_1_10_8 <= 9
 c1154: ord_1_10 - ord_1_9 + 10 x_1_10_9 <= 9
 c1155: ord_2_1 - z_2_1 >= 0
 c1156: ord_2_1 - 10 z_2_1 <= 0
 c1157: ord_2_2 - z_2_2 >= 0
 c1158: ord_2_2 - 10 z_2_2 <= 0
 c1159: ord_2_3 - z_2_3 >= 0
 c1160: ord_2_3 - 10 z_2_3 <= 0
 c1161: ord_2_4 - z_2_4 >= 0
 c1162: ord_2_4 - 10 z_2_4 <= 0
 c1163: ord_2_5 - z_2_5 >= 0
 c1164: ord_2_5 - 10 z_2_5 <= 0
 c1165: ord_2_6 - z_2_6 >= 0
 c1166: ord_2_6 - 10 z_2_6 <= 0
 c1167: ord_2_7 - z_2_7 >= 0
 c1168: ord_2_7 - 10 z_2_7 <= 0
 c1169: ord_2_8 - z_2_8 >= 0
 c1170: ord_2_8 - 10 z_2_8 <= 0
 c1171: ord_2_9 - z_2_9 >= 0
 c1172: ord_2_9 - 10 z_2_9 <= 0
 c1173: ord_2_10 - z_2_10 >= 0
 c1174: ord_2_10 - 10 z_2_10 <= 0
 c1175: ord_2_1 - ord_2_2 + 10 x_2_1_2 <= 9
 c1176: ord_2_1 - ord_2_3 + 10 x_2_1_3 <= 9
 c1177: ord_2_1 - ord_2_4 + 10 x_2_1_4 <= 9
 c1178: ord_2_1 - ord_2_5 + 10 x_2_1_5 <= 9
 c1179: ord_2_1 - ord_2_6 + 10 x_2_1_6 <= 9
 c1180: ord_2_1 - ord_2_7 + 10 x_2_1_7 <= 9
 c1181: ord_2_1 - ord_2_8 + 10 x_2_1_8 <= 9
 c1182: ord_2_1 - ord_2_9 + 10 x_2_1_9 <= 9
 c1183: ord_2_1 - ord_2_10 + 10 x_2_1_10 <= 9
 c1184: - ord_2_1 + ord_2_2 + 10 x_2_2_1 <= 9
 c1185: ord_2_2 - ord_2_3 + 10 x_2_2_3 <= 9
 c1186: ord_2_2 - ord_2_4 + 10 x_2_2_4 <= 9
 c1187: ord_2_2 - ord_2_5 + 10 x_2_2_5 <= 9
 c1188: ord_2_2 - ord_2_6 + 10 x_2_2_6 <= 9
 c1189: ord_2_2 - ord_2_7 + 10 x_2_2_7 <= 9
 c1190: ord_2_2 - ord_2_8 + 10 x_2_2_8 <= 9
 c1191: ord_2_2 - ord_2_9 + 10 x_2_2_9 <= 9
 c1192: - ord_2_10 + ord_2_2 + 10 x_2_2_10 <= 9
 c1193: - ord_2_1 + ord_2_3 + 10 x_2_3_1 <= 9
 c1194: - ord_2_2 + ord_2_3 + 10 x_2_3_2 <= 9
 c1195: ord_2_3 - ord_2_4 + 10 x_2_3_4 <= 9
 c1196: ord_2_3 - ord_2_5 + 10 x_2_3_5 <= 9
 c1197: ord_2_3 - ord_2_6 + 10 x_2_3_6 <= 9
 c1198: ord_2_3 - ord_2_7 + 10 x_2_3_7 <= 9
 c1199: ord_2_3 - ord_2_8 + 10 x_2_3_8 <= 9
 c1200: ord_2_3 - ord_2_9 + 10 x_2_3_9 <= 9
 c1201: - ord_2_10 + ord_2_3 + 10 x_2_3_10 <= 9
 c1202: - ord_2_1 + ord_2_4 + 10 x_2_4_1 <= 9
 c1203: - ord_2_2 + ord_2_4 + 10 x_2_4_2 <= 9
 c1204: - ord_2_3 + ord_2_4 + 10 x_2_4_3 <= 9
 c1205: ord_2_4 - ord_2_5 + 10 x_2_4_5 <= 9
 c1206: ord_2_4 - ord_2_6 + 10 x_2_4_6 <= 9
 c1207: ord_2_4 - ord_2_7 + 10 x_2_4_7 <= 9
 c1208: ord_2_4 - ord_2_8 + 10 x_2_4_8 <= 9
 c1209: ord_2_4 - ord_2_9 + 10 x_2_4_9 <= 9
 c1210: - ord_2_10 + ord_2_4 + 10 x_2_4_10 <= 9
 c1211: - ord_2_1 + ord_2_5 + 10 x_2_5_1 <= 9
 c1212: - ord_2_2 + ord_2_5 + 10 x_2_5_2 <= 9
 c1213: - ord_2_3 + ord_2_5 + 10 x_2_5_3 <= 9
 c1214: - ord_2_4 + ord_2_5 + 10 x_2_5_4 <= 9
 c1215: ord_2_5 - ord_2_6 + 10 x_2_5_6 <= 9
 c1216: ord_2_5 - ord_2_7 + 10 x_2_5_7 <= 9
 c1217: ord_2_5 - ord_2_8 + 10 x_2_5_8 <= 9
 c1218: ord_2_5 - ord_2_9 + 10 x_2_5_9 <= 9
 c1219: - ord_2_10 + ord_2_5 + 10 x_2_5_10 <= 9
 c1220: - ord_2_1 + ord_2_6 + 10 x_2_6_1 <= 9
 c1221: - ord_2_2 + ord_2_6 + 10 x_2_6_2 <= 9
 c1222: - ord_2_3 + ord_2_6 + 10 x_2_6_3 <= 9
 c1223: - ord_2_4 + ord_2_6 + 10 x_2_6_4 <= 9
 c1224: - ord_2_5 + ord_2_6 + 10 x_2_6_5 <= 9
 c1225: ord_2_6 - ord_2_7 + 10 x_2_6_7 <= 9
 c1226: ord_2_6 - ord_2_8 + 10 x_2_6_8 <= 9
 c1227: ord_2_6 - ord_2_9 + 10 x_2_6_9 <= 9
 c1228: - ord_2_10 + ord_2_6 + 10 x_2_6_10 <= 9
 c1229: - ord_2_1 + ord_2_7 + 10 x_2_7_1 <= 9
 c1230: - ord_2_2 + ord_2_7 + 10 x_2_7_2 <= 9
 c1231: - ord_2_3 + ord_2_7 + 10 x_2_7_3 <= 9
 c1232: - ord_2_4 + ord_2_7 + 10 x_2_7_4 <= 9
 c1233: - ord_2_5 + ord_2_7 + 10 x_2_7_5 <= 9
 c1234: - ord_2_6 + ord_2_7 + 10 x_2_7_6 <= 9
 c1235: ord_2_7 - ord_2_8 + 10 x_2_7_8 <= 9
 c1236: ord_2_7 - ord_2_9 + 10 x_2_7_9 <= 9
 c1237: - ord_2_10 + ord_2_7 + 10 x_2_7_10 <= 9
 c1238: - ord_2_1 + ord_2_8 + 10 x_2_8_1 <= 9
 c1239: - ord_2_2 + ord_2_8 + 10 x_2_8_2 <= 9
 c1240: - ord_2_3 + ord_2_8 + 10 x_2_8_3 <= 9
 c1241: - ord_2_4 + ord_2_8 + 10 x_2_8_4 <= 9
 c1242: - ord_2_5 + ord_2_8 + 10 x_2_8_5 <= 9
 c1243: - ord_2_6 + ord_2_8 + 10 x_2_8_6 <= 9
 c1244: - ord_2_7 + ord_2_8 + 10 x_2_8_7 <= 9
 c1245: ord_2_8 - ord_2_9 + 10 x_2_8_9 <= 9
 c1246: - ord_2_10 + ord_2_8 + 10 x_2_8_10 <= 9
 c1247: - ord_2_1 + ord_2_9 + 10 x_2_9_1 <= 9
 c1248: - ord_2_2 + ord_2_9 + 10 x_2_9_2 <= 9
 c1249: - ord_2_3 + ord_2_9 + 10 x_2_9_3 <= 9
 c1250: - ord_2_4 + ord_2_9 + 10 x_2_9_4 <= 9
 c1251: - ord_2_5 + ord_2_9 + 10 x_2_9_5 <= 9
 c1252: - ord_2_6 + ord_2_9 + 10 x_2_9_6 <= 9
 c1253: - ord_2_7 + ord_2_9 + 10 x_2_9_7 <= 9
 c1254: - ord_2_8 + ord_2_9 + 10 x_2_9_8 <= 9
 c1255: - ord_2_10 + ord_2_9 + 10 x_2_9_10 <= 9
 c1256: - ord_2_1 + ord_2_10 + 10 x_2_10_1 <= 9
 c1257: ord_2_10 - ord_2_2 + 10 x_2_10_2 <= 9
 c1258: ord_2_10 - ord_2_3 + 10 x_2_10_3 <= 9
 c1259: ord_2_10 - ord_2_4 + 10 x_2_10_4 <= 9
 c1260: ord_2_10 - ord_2_5 + 10 x_2_10_5 <= 9
 c1261: ord_2_10 - ord_2_6 + 10 x_2_10_6 <= 9
 c1262: ord_2_10 - ord_2_7 + 10 x_2_10_7 <= 9
 c1263: ord_2_10 - ord_2_8 + 10 x_2_10_8 <= 9
 c1264: ord_2_10 - ord_2_9 + 10 x_2_10_9 <= 9
 c1265: p_0_1 - 20 z_0_1 <= 0
 c1266: d_0_1 - 9 z_0_1 <= 0
 c1267: mode_0_1 - z_0_1 <= 0
 c1268: - 20 mode_0_1 + p_0_1 <= 0
 c1269: d_0_1 + 9 mode_0_1 - 9 z_0_1 <= 0
 c1270: d_0_1 + p_0_1 - z_0_1 >= 0
 c1271: load_0_1 - 30 z_0_1 <= 0
 c1272: p_0_2 - z_0_2 <= 0
 c1273: d_0_2 - 25 z_0_2 <= 0
 c1274: mode_0_2 - z_0_2 <= 0
 c1275: - mode_0_2 + p_0_2 <= 0
 c1276: d_0_2 + 25 mode_0_2 - 25 z_0_2 <= 0
 c1277: d_0_2 + p_0_2 - z_0_2 >= 0
 c1278: load_0_2 - 30 z_0_2 <= 0
 c1279: p_0_3 - 3 z_0_3 <= 0
 c1280: d_0_3 - 27 z_0_3 <= 0
 c1281: mode_0_3 - z_0_3 <= 0
 c1282: - 3 mode_0_3 + p_0_3 <= 0
 c1283: d_0_3 + 27 mode_0_3 - 27 z_0_3 <= 0
 c1284: d_0_3 + p_0_3 - z_0_3 >= 0
 c1285: load_0_3 - 30 z_0_3 <= 0
 c1286: p_0_4 - 16 z_0_4 <= 0
 c1287: d_0_4 - 30 z_0_4 <= 0
 c1288: mode_0_4 - z_0_4 <= 0
 c1289: - 16 mode_0_4 + p_0_4 <= 0
 c1290: d_0_4 + 30 mode_0_4 - 30 z_0_4 <= 0
 c1291: d_0_4 + p_0_4 - z_0_4 >= 0
 c1292: load_0_4 - 30 z_0_4 <= 0
 c1293: p_0_5 - 15 z_0_5 <= 0
 c1294: d_0_5 - 30 z_0_5 <= 0
 c1295: mode_0_5 - z_0_5 <= 0
 c1296: - 15 mode_0_5 + p_0_5 <= 0
 c1297: d_0_5 + 30 mode_0_5 - 30 z_0_5 <= 0
 c1298: d_0_5 + p_0_5 - z_0_5 >= 0
 c1299: load_0_5 - 30 z_0_5 <= 0
 c1300: p_0_6 - 14 z_0_6 <= 0
 c1301: d_0_6 - 9 z_0_6 <= 0
 c1302: mode_0_6 - z_0_6 <= 0
 c1303: - 14 mode_0_6 + p_0_6 <= 0
 c1304: d_0_6 + 9 mode_0_6 - 9 z_0_6 <= 0
 c1305: d_0_6 + p_0_6 - z_0_6 >= 0
 c1306: load_0_6 - 30 z_0_6 <= 0
 c1307: p_0_7 - 4 z_0_7 <= 0
 c1308: d_0_7 - 18 z_0_7 <= 0
 c1309: mode_0_7 - z_0_7 <= 0
 c1310: - 4 mode_0_7 + p_0_7 <= 0
 c1311: d_0_7 + 18 mode_0_7 - 18 z_0_7 <= 0
 c1312: d_0_7 + p_0_7 - z_0_7 >= 0
 c1313: load_0_7 - 30 z_0_7 <= 0
 c1314: p_0_8 - 8 z_0_8 <= 0
 c1315: d_0_8 - 14 z_0_8 <= 0
 c1316: mode_0_8 - z_0_8 <= 0
 c1317: - 8 mode_0_8 + p_0_8 <= 0
 c1318: d_0_8 + 14 mode_0_8 - 14 z_0_8 <= 0
 c1319: d_0_8 + p_0_8 - z_0_8 >= 0
 c1320: load_0_8 - 30 z_0_8 <= 0
 c1321: p_0_9 - 4 z_0_9 <= 0
 c1322: d_0_9 - 29 z_0_9 <= 0
 c1323: mode_0_9 - z_0_9 <= 0
 c1324: - 4 mode_0_9 + p_0_9 <= 0
 c1325: d_0_9 + 29 mode_0_9 - 29 z_0_9 <= 0
 c1326: d_0_9 + p_0_9 - z_0_9 >= 0
 c1327: load_0_9 - 30 z_0_9 <= 0
 c1328: p_0_10 - 10 z_0_10 <= 0
 c1329: d_0_10 - 22 z_0_10 <= 0
 c1330: mode_0_10 - z_0_10 <= 0
 c1331: - 10 mode_0_10 + p_0_10 <= 0
 c1332: d_0_10 + 22 mode_0_10 - 22 z_0_10 <= 0
 c1333: d_0_10 + p_0_10 - z_0_10 >= 0
 c1334: load_0_10 - 30 z_0_10 <= 0
 c1335: d_0_1 + load_0_1 - p_0_1 + 30 x_0_0_1 <= 30
 c1336: d_0_1 + load_0_1 - p_0_1 - 30 x_0_0_1 >= -30
 c1337: d_0_2 + load_0_2 - p_0_2 + 30 x_0_0_2 <= 30
 c1338: d_0_2 + load_0_2 - p_0_2 - 30 x_0_0_2 >= -30
 c1339: d_0_3 + load_0_3 - p_0_3 + 30 x_0_0_3 <= 30
 c1340: d_0_3 + load_0_3 - p_0_3 - 30 x_0_0_3 >= -30
 c1341: d_0_4 + load_0_4 - p_0_4 + 30 x_0_0_4 <= 30
 c1342: d_0_4 + load_0_4 - p_0_4 - 30 x_0_0_4 >= -30
 c1343: d_0_5 + load_0_5 - p_0_5 + 30 x_0_0_5 <= 30
 c1344: d_0_5 + load_0_5 - p_0_5 - 30 x_0_0_5 >= -30
 c1345: d_0_6 + load_0_6 - p_0_6 + 30 x_0_0_6 <= 30
 c1346: d_0_6 + load_0_6 - p_0_6 - 30 x_0_0_6 >= -30
 c1347: d_0_7 + load_0_7 - p_0_7 + 30 x_0_0_7 <= 30
 c1348: d_0_7 + load_0_7 - p_0_7 - 30 x_0_0_7 >= -30
 c1349: d_0_8 + load_0_8 - p_0_8 + 30 x_0_0_8 <= 30
 c1350: d_0_8 + load_0_8 - p_0_8 - 30 x_0_0_8 >= -30
 c1351: d_0_9 + load_0_9 - p_0_9 + 30 x_0_0_9 <= 30
 c1352: d_0_9 + load_0_9 - p_0_9 - 30 x_0_0_9 >= -30
 c1353: d_0_10 + load_0_10 - p_0_10 + 30 x_0_0_10 <= 30
 c1354: d_0_10 + load_0_10 - p_0_10 - 30 x_0_0_10 >= -30
 c1355: d_0_2 - load_0_1 + load_0_2 - p_0_2 + 30 x_0_1_2 <= 30
 c1356: d_0_2 - load_0_1 + load_0_2 - p_0_2 - 30 x_0_1_2 >= -30
 c1357: d_0_3 - load_0_1 + load_0_3 - p_0_3 + 30 x_0_1_3 <= 30
 c1358: d_0_3 - load_0_1 + load_0_3 - p_0_3 - 30 x_0_1_3 >= -30
 c1359: d_0_4 - load_0_1 + load_0_4 - p_0_4 + 30 x_0_1_4 <= 30
 c1360: d_0_4 - load_0_1 + load_0_4 - p_0_4 - 30 x_0_1_4 >= -30
 c1361: d_0_5 - load_0_1 + load_0_5 - p_0_5 + 30 x_0_1_5 <= 30
 c1362: d_0_5 - load_0_1 + load_0_5 - p_0_5 - 30 x_0_1_5 >= -30
 c1363: d_0_6 - load_0_1 + load_0_6 - p_0_6 + 30 x_0_1_6 <= 30
 c1364: d_0_6 - load_0_1 + load_0_6 - p_0_6 - 30 x_0_1_6 >= -30
 c1365: d_0_7 - load_0_1 + load_0_7 - p_0_7 + 30 x_0_1_7 <= 30
 c1366: d_0_7 - load_0_1 + load_0_7 - p_0_7 - 30 x_0_1_7 >= -30
 c1367: d_0_8 - load_0_1 + load_0_8 - p_0_8 + 30 x_0_1_8 <= 30
 c1368: d_0_8 - load_0_1 + load_0_8 - p_0_8 - 30 x_0_1_8 >= -30
 c1369: d_0_9 - load_0_1 + load_0_9 - p_0_9 + 30 x_0_1_9 <= 30
 c1370: d_0_9 - load_0_1 + load_0_9 - p_0_9 - 30 x_0_1_9 >= -30
 c1371: d_0_10 - load_0_1 + load_0_10 - p_0_10 + 30 x_0_1_10 <= 30
 c1372: d_0_10 - load_0_1 + load_0_10 - p_0_10 - 30 x_0_1_10 >= -30
 c1373: d_0_1 + load_0_1 - load_0_2 - p_0_1 + 30 x_0_2_1 <= 30
 c1374: d_0_1 + load_0_1 - load_0_2 - p_0_1 - 30 x_0_2_1 >= -30
 c1375: d_0_3 - load_0_2 + load_0_3 - p_0_3 + 30 x_0_2_3 <= 30
 c1376: d_0_3 - load_0_2 + load_0_3 - p_0_3 - 30 x_0_2_3 >= -30
 c1377: d_0_4 - load_0_2 + load_0_4 - p_0_4 + 30 x_0_2_4 <= 30
 c1378: d_0_4 - load_0_2 + load_0_4 - p_0_4 - 30 x_0_2_4 >= -30
 c1379: d_0_5 - load_0_2 + load_0_5 - p_0_5 + 30 x_0_2_5 <= 30
 c1380: d_0_5 - load_0_2 + load_0_5 - p_0_5 - 30 x_0_2_5 >= -30
 c1381: d_0_6 - load_0_2 + load_0_6 - p_0_6 + 30 x_0_2_6 <= 30
 c1382: d_0_6 - load_0_2 + load_0_6 - p_0_6 - 30 x_0_2_6 >= -30
 c1383: d_0_7 - load_0_2 + load_0_7 - p_0_7 + 30 x_0_2_7 <= 30
 c1384: d_0_7 - load_0_2 + load_0_7 - p_0_7 - 30 x_0_2_7 >= -30
 c1385: d_0_8 - load_0_2 + load_0_8 - p_0_8 + 30 x_0_2_8 <= 30
 c1386: d_0_8 - load_0_2 + load_0_8 - p_0_8 - 30 x_0_2_8 >= -30
 c1387: d_0_9 - load_0_2 + load_0_9 - p_0_9 + 30 x_0_2_9 <= 30
 c1388: d_0_9 - load_0_2 + load_0_9 - p_0_9 - 30 x_0_2_9 >= -30
 c1389: d_0_10 + load_0_10 - load_0_2 - p_0_10 + 30 x_0_2_10 <= 30
 c1390: d_0_10 + load_0_10 - load_0_2 - p_0_10 - 30 x_0_2_10 >= -30
 c1391: d_0_1 + load_0_1 - load_0_3 - p_0_1 + 30 x_0_3_1 <= 30
 c1392: d_0_1 + load_0_1 - load_0_3 - p_0_1 - 30 x_0_3_1 >= -30
 c1393: d_0_2 + load_0_2 - load_0_3 - p_0_2 + 30 x_0_3_2 <= 30
 c1394: d_0_2 + load_0_2 - load_0_3 - p_0_2 - 30 x_0_3_2 >= -30
 c1395: d_0_4 - load_0_3 + load_0_4 - p_0_4 + 30 x_0_3_4 <= 30
 c1396: d_0_4 - load_0_3 + load_0_4 - p_0_4 - 30 x_0_3_4 >= -30
 c1397: d_0_5 - load_0_3 + load_0_5 - p_0_5 + 30 x_0_3_5 <= 30
 c1398: d_0_5 - load_0_3 + load_0_5 - p_0_5 - 30 x_0_3_5 >= -30
 c1399: d_0_6 - load_0_3 + load_0_6 - p_0_6 + 30 x_0_3_6 <= 30
 c1400: d_0_6 - load_0_3 + load_0_6 - p_0_6 - 30 x_0_3_6 >= -30
 c1401: d_0_7 - load_0_3 + load_0_7 - p_0_7 + 30 x_0_3_7 <= 30
 c1402: d_0_7 - load_0_3 + load_0_7 - p_0_7 - 30 x_0_3_7 >= -30
 c1403: d_0_8 - load_0_3 + load_0_8 - p_0_8 + 30 x_0_3_8 <= 30
 c1404: d_0_8 - load_0_3 + load_0_8 - p_0_8 - 30 x_0_3_8 >= -30
 c1405: d_0_9 - load_0_3 + load_0_9 - p_0_9 + 30 x_0_3_9 <= 30
 c1406: d_0_9 - load_0_3 + load_0_9 - p_0_9 - 30 x_0_3_9 >= -30
 c1407: d_0_10 + load_0_10 - load_0_3 - p_0_10 + 30 x_0_3_10 <= 30
 c1408: d_0_10 + load_0_10 - load_0_3 - p_0_10 - 30 x_0_3_10 >= -30
 c1409: d_0_1 + load_0_1 - load_0_4 - p_0_1 + 30 x_0_4_1 <= 30
 c1410: d_0_1 + load_0_1 - load_0_4 - p_0_1 - 30 x_0_4_1 >= -30
 c1411: d_0_2 + load_0_2 - load_0_4 - p_0_2 + 30 x_0_4_2 <= 30
 c1412: d_0_2 + load_0_2 - load_0_4 - p_0_2 - 30 x_0_4_2 >= -30
 c1413: d_0_3 + load_0_3 - load_0_4 - p_0_3 + 30 x_0_4_3 <= 30
 c1414: d_0_3 + load_0_3 - load_0_4 - p_0_3 - 30 x_0_4_3 >= -30
 c1415: d_0_5 - load_0_4 + load_0_5 - p_0_5 + 30 x_0_4_5 <= 30
 c1416: d_0_5 - load_0_4 + load_0_5 - p_0_5 - 30 x_0_4_5 >= -30
 c1417: d_0_6 - load_0_4 + load_0_6 - p_0_6 + 30 x_0_4_6 <= 30
 c1418: d_0_6 - load_0_4 + load_0_6 - p_0_6 - 30 x_0_4_6 >= -30
 c1419: d_0_7 - load_0_4 + load_0_7 - p_0_7 + 30 x_0_4_7 <= 30
 c1420: d_0_7 - load_0_4 + load_0_7 - p_0_7 - 30 x_0_4_7 >= -30
 c1421: d_0_8 - load_0_4 + load_0_8 - p_0_8 + 30 x_0_4_8 <= 30
 c1422: d_0_8 - load_0_4 + load_0_8 - p_0_8 - 30 x_0_4_8 >= -30
 c1423: d_0_9 - load_0_4 + load_0_9 - p_0_9 + 30 x_0_4_9 <= 30
 c1424: d_0_9 - load_0_4 + load_0_9 - p_0_9 - 30 x_0_4_9 >= -30
 c1425: d_0_10 + load_0_10 - load_0_4 - p_0_10 + 30 x_0_4_10 <= 30
 c1426: d_0_10 + load_0_10 - load_0_4 - p_0_10 - 30 x_0_4_10 >= -30
 c1427: d_0_1 + load_0_1 - load_0_5 - p_0_1 + 30 x_0_5_1 <= 30
 c1428: d_0_1 + load_0_1 - load_0_5 - p_0_1 - 30 x_0_5_1 >= -30
 c1429: d_0_2 + load_0_2 - load_0_5 - p_0_2 + 30 x_0_5_2 <= 30
 c1430: d_0_2 + load_0_2 - load_0_5 - p_0_2 - 30 x_0_5_2 >= -30
 c1431: d_0_3 + load_0_3 - load_0_5 - p_0_3 + 30 x_0_5_3 <= 30
 c1432: d_0_3 + load_0_3 - load_0_5 - p_0_3 - 30 x_0_5_3 >= -30
 c1433: d_0_4 + load_0_4 - load_0_5 - p_0_4 + 30 x_0_5_4 <= 30
 c1434: d_0_4 + load_0_4 - load_0_5 - p_0_4 - 30 x_0_5_4 >= -30
 c1435: d_0_6 - load_0_5 + load_0_6 - p_0_6 + 30 x_0_5_6 <= 30
 c1436: d_0_6 - load_0_5 + load_0_6 - p_0_6 - 30 x_0_5_6 >= -30
 c1437: d_0_7 - load_0_5 + load_0_7 - p_0_7 + 30 x_0_5_7 <= 30
 c1438: d_0_7 - load_0_5 + load_0_7 - p_0_7 - 30 x_0_5_7 >= -30
 c1439: d_0_8 - load_0_5 + load_0_8 - p_0_8 + 30 x_0_5_8 <= 30
 c1440: d_0_8 - load_0_5 + load_0_8 - p_0_8 - 30 x_0_5_8 >= -30
 c1441: d_0_9 - load_0_5 + load_0_9 - p_0_9 + 30 x_0_5_9 <= 30
 c1442: d_0_9 - load_0_5 + load_0_9 - p_0_9 - 30 x_0_5_9 >= -30
 c1443: d_0_10 + load_0_10 - load_0_5 - p_0_10 + 30 x_0_5_10 <= 30
 c1444: d_0_10 + load_0_10 - load_0_5 - p_0_10 - 30 x_0_5_10 >= -30
 c1445: d_0_1 + load_0_1 - load_0_6 - p_0_1 + 30 x_0_6_1 <= 30
 c1446: d_0_1 + load_0_1 - load_0_6 - p_0_1 - 30 x_0_6_1 >= -30
 c1447: d_0_2 + load_0_2 - load_0_6 - p_0_2 + 30 x_0_6_2 <= 30
 c1448: d_0_2 + load_0_2 - load_0_6 - p_0_2 - 30 x_0_6_2 >= -30
 c1449: d_0_3 + load_0_3 - load_0_6 - p_0_3 + 30 x_0_6_3 <= 30
 c1450: d_0_3 + load_0_3 - load_0_6 - p_0_3 - 30 x_0_6_3 >= -30
 c1451: d_0_4 + load_0_4 - load_0_6 - p_0_4 + 30 x_0_6_4 <= 30
 c1452: d_0_4 + load_0_4 - load_0_6 - p_0_4 - 30 x_0_6_4 >= -30
 c1453: d_0_5 + load_0_5 - load_0_6 - p_0_5 + 30 x_0_6_5 <= 30
 c1454: d_0_5 + load_0_5 - load_0_6 - p_0_5 - 30 x_0_6_5 >= -30
 c1455: d_0_7 - load_0_6 + load_0_7 - p_0_7 + 30 x_0_6_7 <= 30
 c1456: d_0_7 - load_0_6 + load_0_7 - p_0_7 - 30 x_0_6_7 >= -30
 c1457: d_0_8 - load_0_6 + load_0_8 - p_0_8 + 30 x_0_6_8 <= 30
 c1458: d_0_8 - load_0_6 + load_0_8 - p_0_8 - 30 x_0_6_8 >= -30
 c1459: d_0_9 - load_0_6 + load_0_9 - p_0_9 + 30 x_0_6_9 <= 30
 c1460: d_0_9 - load_0_6 + load_0_9 - p_0_9 - 30 x_0_6_9 >= -30
 c1461: d_0_10 + load_0_10 - load_0_6 - p_0_10 + 30 x_0_6_10 <= 30
 c1462: d_0_10 + load_0_10 - load_0_6 - p_0_10 - 30 x_0_6_10 >= -30
 c1463: d_0_1 + load_0_1 - load_0_7 - p_0_1 + 30 x_0_7_1 <= 30
 c1464: d_0_1 + load_0_1 - load_0_7 - p_0_1 - 30 x_0_7_1 >= -30
 c1465: d_0_2 + load_0_2 - load_0_7 - p_0_2 + 30 x_0_7_2 <= 30
 c1466: d_0_2 + load_0_2 - load_0_7 - p_0_2 - 30 x_0_7_2 >= -30
 c1467: d_0_3 + load_0_3 - load_0_7 - p_0_3 + 30 x_0_7_3 <= 30
 c1468: d_0_3 + load_0_3 - load_0_7 - p_0_3 - 30 x_0_7_3 >= -30
 c1469: d_0_4 + load_0_4 - load_0_7 - p_0_4 + 30 x_0_7_4 <= 30
 c1470: d_0_4 + load_0_4 - load_0_7 - p_0_4 - 30 x_0_7_4 >= -30
 c1471: d_0_5 + load_0_5 - load_0_7 - p_0_5 + 30 x_0_7_5 <= 30
 c1472: d_0_5 + load_0_5 - load_0_7 - p_0_5 - 30 x_0_7_5 >= -30
 c1473: d_0_6 + load_0_6 - load_0_7 - p_0_6 + 30 x_0_7_6 <= 30
 c1474: d_0_6 + load_0_6 - load_0_7 - p_0_6 - 30 x_0_7_6 >= -30
 c1475: d_0_8 - load_0_7 + load_0_8 - p_0_8 + 30 x_0_7_8 <= 30
 c1476: d_0_8 - load_0_7 + load_0_8 - p_0_8 - 30 x_0_7_8 >= -30
 c1477: d_0_9 - load_0_7 + load_0_9 - p_0_9 + 30 x_0_7_9 <= 30
 c1478: d_0_9 - load_0_7 + load_0_9 - p_0_9 - 30 x_0_7_9 >= -30
 c1479: d_0_10 + load_0_10 - load_0_7 - p_0_10 + 30 x_0_7_10 <= 30
 c1480: d_0_10 + load_0_10 - load_0_7 - p_0_10 - 30 x_0_7_10 >= -30
 c1481: d_0_1 + load_0_1 - load_0_8 - p_0_1 + 30 x_0_8_1 <= 30
 c1482: d_0_1 + load_0_1 - load_0_8 - p_0_1 - 30 x_0_8_1 >= -30
 c1483: d_0_2 + load_0_2 - load_0_8 - p_0_2 + 30 x_0_8_2 <= 30
 c1484: d_0_2 + load_0_2 - load_0_8 - p_0_2 - 30 x_0_8_2 >= -30
 c1485: d_0_3 + load_0_3 - load_0_8 - p_0_3 + 30 x_0_8_3 <= 30
 c1486: d_0_3 + load_0_3 - load_0_8 - p_0_3 - 30 x_0_8_3 >= -30
 c1487: d_0_4 + load_0_4 - load_0_8 - p_0_4 + 30 x_0_8_4 <= 30
 c1488: d_0_4 + load_0_4 - load_0_8 - p_0_4 - 30 x_0_8_4 >= -30
 c1489: d_0_5 + load_0_5 - load_0_8 - p_0_5 + 30 x_0_8_5 <= 30
 c1490: d_0_5 + load_0_5 - load_0_8 - p_0_5 - 30 x_0_8_5 >= -30
 c1491: d_0_6 + load_0_6 - load_0_8 - p_0_6 + 30 x_0_8_6 <= 30
 c1492: d_0_6 + load_0_6 - load_0_8 - p_0_6 - 30 x_0_8_6 >= -30
 c1493: d_0_7 + load_0_7 - load_0_8 - p_0_7 + 30 x_0_8_7 <= 30
 c1494: d_0_7 + load_0_7 - load_0_8 - p_0_7 - 30 x_0_8_7 >= -30
 c1495: d_0_9 - load_0_8 + load_0_9 - p_0_9 + 30 x_0_8_9 <= 30
 c1496: d_0_9 - load_0_8 + load_0_9 - p_0_9 - 30 x_0_8_9 >= -30
 c1497: d_0_10 + load_0_10 - load_0_8 - p_0_10 + 30 x_0_8_10 <= 30
 c1498: d_0_10 + load_0_10 - load_0_8 - p_0_10 - 30 x_0_8_10 >= -30
 c1499: d_0_1 + load_0_1 - load_0_9 - p_0_1 + 30 x_0_9_1 <= 30
 c1500: d_0_1 + load_0_1 - load_0_9 - p_0_1 - 30 x_0_9_1 >= -30
 c1501: d_0_2 + load_0_2 - load_0_9 - p_0_2 + 30 x_0_9_2 <= 30
 c1502: d_0_2 + load_0_2 - load_0_9 - p_0_2 - 30 x_0_9_2 >= -30
 c1503: d_0_3 + load_0_3 - load_0_9 - p_0_3 + 30 x_0_9_3 <= 30
 c1504: d_0_3 + load_0_3 - load_0_9 - p_0_3 - 30 x_0_9_3 >= -30
 c1505: d_0_4 + load_0_4 - load_0_9 - p_0_4 + 30 x_0_9_4 <= 30
 c1506: d_0_4 + load_0_4 - load_0_9 - p_0_4 - 30 x_0_9_4 >= -30
 c1507: d_0_5 + load_0_5 - load_0_9 - p_0_5 + 30 x_0_9_5 <= 30
 c1508: d_0_5 + load_0_5 - load_0_9 - p_0_5 - 30 x_0_9_5 >= -30
 c1509: d_0_6 + load_0_6 - load_0_9 - p_0_6 + 30 x_0_9_6 <= 30
 c1510: d_0_6 + load_0_6 - load_0_9 - p_0_6 - 30 x_0_9_6 >= -30
 c1511: d_0_7 + load_0_7 - load_0_9 - p_0_7 + 30 x_0_9_7 <= 30
 c1512: d_0_7 + load_0_7 - load_0_9 - p_0_7 - 30 x_0_9_7 >= -30
 c1513: d_0_8 + load_0_8 - load_0_9 - p_0_8 + 30 x_0_9_8 <= 30
 c1514: d_0_8 + load_0_8 - load_0_9 - p_0_8 - 30 x_0_9_8 >= -30
 c1515: d_0_10 + load_0_10 - load_0_9 - p_0_10 + 30 x_0_9_10 <= 30
 c1516: d_0_10 + load_0_10 - load_0_9 - p_0_10 - 30 x_0_9_10 >= -30
 c1517: d_0_1 + load_0_1 - load_0_10 - p_0_1 + 30 x_0_10_1 <= 30
 c1518: d_0_1 + load_0_1 - load_0_10 - p_0_1 - 30 x_0_10_1 >= -30
 c1519: d_0_2 - load_0_10 + load_0_2 - p_0_2 + 30 x_0_10_2 <= 30
 c1520: d_0_2 - load_0_10 + load_0_2 - p_0_2 - 30 x_0_10_2 >= -30
 c1521: d_0_3 - load_0_10 + load_0_3 - p_0_3 + 30 x_0_10_3 <= 30
 c1522: d_0_3 - load_0_10 + load_0_3 - p_0_3 - 30 x_0_10_3 >= -30
 c1523: d_0_4 - load_0_10 + load_0_4 - p_0_4 + 30 x_0_10_4 <= 30
 c1524: d_0_4 - load_0_10 + load_0_4 - p_0_4 - 30 x_0_10_4 >= -30
 c1525: d_0_5 - load_0_10 + load_0_5 - p_0_5 + 30 x_0_10_5 <= 30
 c1526: d_0_5 - load_0_10 + load_0_5 - p_0_5 - 30 x_0_10_5 >= -30
 c1527: d_0_6 - load_0_10 + load_0_6 - p_0_6 + 30 x_0_10_6 <= 30
 c1528: d_0_6 - load_0_10 + load_0_6 - p_0_6 - 30 x_0_10_6 >= -30
 c1529: d_0_7 - load_0_10 + load_0_7 - p_0_7 + 30 x_0_10_7 <= 30
 c1530: d_0_7 - load_0_10 + load_0_7 - p_0_7 - 30 x_0_10_7 >= -30
 c1531: d_0_8 - load_0_10 + load_0_8 - p_0_8 + 30 x_0_10_8 <= 30
 c1532: d_0_8 - load_0_10 + load_0_8 - p_0_8 - 30 x_0_10_8 >= -30
 c1533: d_0_9 - load_0_10 + load_0_9 - p_0_9 + 30 x_0_10_9 <= 30
 c1534: d_0_9 - load_0_10 + load_0_9 - p_0_9 - 30 x_0_10_9 >= -30
 c1535: - d_0_1 - d_0_10 - d_0_2 - d_0_3 - d_0_4 - d_0_5 - d_0_6 - d_0_7 - d_0_8 - d_0_9 + p_0_1 + p_0_10 + p_0_2 + p_0_3 + p_0_4 + p_0_5 + p_0_6 + p_0_7 + p_0_8 + p_0_9 >= 0
 c1536: 120 p_0_1 + 120 p_0_10 + 120 p_0_2 + 120 p_0_3 + 120 p_0_4 + 120 p_0_5 + 120 p_0_6 + 120 p_0_7 + 120 p_0_8 + 120 p_0_9 + 221.77539060964057 x_0_0_1 + 293.44449221746567 x_0_0_10 + 198.76475395359725 x_0_0_2 + 284.844859483547 x_0_0_3 + 233.24323917201173 x_0_0_4 + 198.12934057217862 x_0_0_5 + 255.01058185947099 x_0_0_6 + 313.27537670501539 x_0_0_7 + 256.56248933592894 x_0_0_8 + 260.63742516276437 x_0_0_9 + 293.44449221746567 x_0_10_0 + 74.014350262990632 x_0_10_1 + 463.97909066709934 x_0_10_2 + 487.80660614010418 x_0_10_3 + 62.700164185491737 x_0_10_4 + 435.18922464222095 x_0_10_5 + 471.69873539410702 x_0_10_6 + 41.830351537815091 x_0_10_7 + 472.7240704196617 x_0_10_8 + 505.83314303436413 x_0_10_9 + 221.77539060964057 x_0_1_0 + 74.014350262990632 x_0_1_10 + 390.11742249171431 x_0_1_2 + 438.07522623217392 x_0_1_3 + 11.535228283321837 x_0_1_4 + 362.47534420360131 x_0_1_5 + 418.57333803176948 x_0_1_6 + 92.409690424648034 x_0_1_7 + 402.09318651058834 x_0_1_8 + 447.3446849916175 x_0_1_9 + 198.76475395359725 x_0_2_0 + 390.11742249171431 x_0_2_1 + 463.97909066709934 x_0_2_10 + 386.61646737370779 x_0_2_3 + 401.30325732912888 x_0_2_4 + 58.050183179018518 x_0_2_5 + 352.69348339749973 x_0_2_6 + 472.23022155331881 x_0_2_7 + 103.32866613108594 x_0_2_8 + 322.32054064795108 x_0_2_9 + 284.844859483547 x_0_3_0 + 438.07522623217392 x_0_3_1 + 487.80660614010418 x_0_3_10 + 386.61646737370779 x_0_3_2 + 446.85195117813578 x_0_3_4 + 423.65449141498812 x_0_3_5 + 33.971363692431929 x_0_3_6 + 523.27540428146824 x_0_3_7 + 483.87300854671099 x_0_3_8 + 82.810768215490441 x_0_3_9 + 233.24323917201173 x_0_4_0 + 11.535228283321837 x_0_4_1 + 62.700164185491737 x_0_4_10 + 401.30325732912888 x_0_4_2 + 446.85195117813578 x_0_4_3 + 373.18631048827984 x_0_4_5 + 427.81544944984461 x_0_4_6 + 81.378912261704173 x_0_4_7 + 412.19785107633538 x_0_4_8 + 457.34309516165507 x_0_4_9 + 198.12934057217862 x_0_5_0 + 362.47534420360131 x_0_5_1 + 435.18922464222095 x_0_5_10 + 58.050183179018518 x_0_5_2 + 423.65449141498812 x_0_5_3 + 373.18631048827984 x_0_5_4 + 389.74853390921226 x_0_5_6 + 438.95242089401978 x_0_5_7 + 61.710638434520121 x_0_5_8 + 365.60706291383718 x_0_5_9 + 255.01058185947099 x_0_6_0 + 418.57333803176948 x_0_6_1 + 471.69873539410702 x_0_6_10 + 352.69348339749973 x_0_6_2 + 33.971363692431929 x_0_6_3 + 427.81544944984461 x_0_6_4 + 389.74853390921226 x_0_6_5 + 505.78749280212236 x_0_6_7 + 449.91779350341903 x_0_6_8 + 59.786466190531058 x_0_6_9 + 313.27537670501539 x_0_7_0 + 92.409690424648034 x_0_7_1 + 41.830351537815091 x_0_7_10 + 472.23022155331881 x_0_7_2 + 523.27540428146824 x_0_7_3 + 81.378912261704173 x_0_7_4 + 438.95242089401978 x_0_7_5 + 505.78749280212236 x_0_7_6 + 471.82590883308961 x_0_7_8 + 537.35851524081318 x_0_7_9 + 256.56248933592894 x_0_8_0 + 402.09318651058834 x_0_8_1 + 472.7240704196617 x_0_8_10 + 103.32866613108594 x_0_8_2 + 483.87300854671099 x_0_8_3 + 412.19785107633538 x_0_8_4 + 61.710638434520121 x_0_8_5 + 449.91779350341903 x_0_8_6 + 471.82590883308961 x_0_8_7 + 423.41608733304685 x_0_8_9 + 260.63742516276437 x_0_9_0 + 447.3446849916175 x_0_9_1 + 505.83314303436413 x_0_9_10 + 322.32054064795108 x_0_9_2 + 82.810768215490441 x_0_9_3 + 457.34309516165507 x_0_9_4 + 365.60706291383718 x_0_9_5 + 59.786466190531058 x_0_9_6 + 537.35851524081318 x_0_9_7 + 423.41608733304685 x_0_9_8 <= 3600
 c1537: p_1_1 - 20 z_1_1 <= 0
 c1538: d_1_1 - 9 z_1_1 <= 0
 c1539: mode_1_1 - z_1_1 <= 0
 c1540: - 20 mode_1_1 + p_1_1 <= 0
 c1541: d_1_1 + 9 mode_1_1 - 9 z_1_1 <= 0
 c1542: d_1_1 + p_1_1 - z_1_1 >= 0
 c1543: load_1_1 - 30 z_1_1 <= 0
 c1544: p_1_2 - z_1_2 <= 0
 c1545: d_1_2 - 25 z_1_2 <= 0
 c1546: mode_1_2 - z_1_2 <= 0
 c1547: - mode_1_2 + p_1_2 <= 0
 c1548: d_1_2 + 25 mode_1_2 - 25 z_1_2 <= 0
 c1549: d_1_2 + p_1_2 - z_1_2 >= 0
 c1550: load_1_2 - 30 z_1_2 <= 0
 c1551: p_1_3 - 3 z_1_3 <= 0
 c1552: d_1_3 - 27 z_1_3 <= 0
 c1553: mode_1_3 - z_1_3 <= 0
 c1554: - 3 mode_1_3 + p_1_3 <= 0
 c1555: d_1_3 + 27 mode_1_3 - 27 z_1_3 <= 0
 c1556: d_1_3 + p_1_3 - z_1_3 >= 0
 c1557: load_1_3 - 30 z_1_3 <= 0
 c1558: p_1_4 - 16 z_1_4 <= 0
 c1559: d_1_4 - 30 z_1_4 <= 0
 c1560: mode_1_4 - z_1_4 <= 0
 c1561: - 16 mode_1_4 + p_1_4 <= 0
 c1562: d_1_4 + 30 mode_1_4 - 30 z_1_4 <= 0
 c1563: d_1_4 + p_1_4 - z_1_4 >= 0
 c1564: load_1_4 - 30 z_1_4 <= 0
 c1565: p_1_5 - 15 z_1_5 <= 0
 c1566: d_1_5 - 30 z_1_5 <= 0
 c1567: mode_1_5 - z_1_5 <= 0
 c1568: - 15 mode_1_5 + p_1_5 <= 0
 c1569: d_1_5 + 30 mode_1_5 - 30 z_1_5 <= 0
 c1570: d_1_5 + p_1_5 - z_1_5 >= 0
 c1571: load_1_5 - 30 z_1_5 <= 0
 c1572: p_1_6 - 14 z_1_6 <= 0
 c1573: d_1_6 - 9 z_1_6 <= 0
 c1574: mode_1_6 - z_1_6 <= 0
 c1575: - 14 mode_1_6 + p_1_6 <= 0
 c1576: d_1_6 + 9 mode_1_6 - 9 z_1_6 <= 0
 c1577: d_1_6 + p_1_6 - z_1_6 >= 0
 c1578: load_1_6 - 30 z_1_6 <= 0
 c1579: p_1_7 - 4 z_1_7 <= 0
 c1580: d_1_7 - 18 z_1_7 <= 0
 c1581: mode_1_7 - z_1_7 <= 0
 c1582: - 4 mode_1_7 + p_1_7 <= 0
 c1583: d_1_7 + 18 mode_1_7 - 18 z_1_7 <= 0
 c1584: d_1_7 + p_1_7 - z_1_7 >= 0
 c1585: load_1_7 - 30 z_1_7 <= 0
 c1586: p_1_8 - 8 z_1_8 <= 0
 c1587: d_1_8 - 14 z_1_8 <= 0
 c1588: mode_1_8 - z_1_8 <= 0
 c1589: - 8 mode_1_8 + p_1_8 <= 0
 c1590: d_1_8 + 14 mode_1_8 - 14 z_1_8 <= 0
 c1591: d_1_8 + p_1_8 - z_1_8 >= 0
 c1592: load_1_8 - 30 z_1_8 <= 0
 c1593: p_1_9 - 4 z_1_9 <= 0
 c1594: d_1_9 - 29 z_1_9 <= 0
 c1595: mode_1_9 - z_1_9 <= 0
 c1596: - 4 mode_1_9 + p_1_9 <= 0
 c1597: d_1_9 + 29 mode_1_9 - 29 z_1_9 <= 0
 c1598: d_1_9 + p_1_9 - z_1_9 >= 0
 c1599: load_1_9 - 30 z_1_9 <= 0
 c1600: p_1_10 - 10 z_1_10 <= 0
 c1601: d_1_10 - 22 z_1_10 <= 0
 c1602: mode_1_10 - z_1_10 <= 0
 c1603: - 10 mode_1_10 + p_1_10 <= 0
 c1604: d_1_10 + 22 mode_1_10 - 22 z_1_10 <= 0
 c1605: d_1_10 + p_1_10 - z_1_10 >= 0
 c1606: load_1_10 - 30 z_1_10 <= 0
 c1607: d_1_1 + load_1_1 - p_1_1 + 30 x_1_0_1 <= 30
 c1608: d_1_1 + load_1_1 - p_1_1 - 30 x_1_0_1 >= -30
 c1609: d_1_2 + load_1_2 - p_1_2 + 30 x_1_0_2 <= 30
 c1610: d_1_2 + load_1_2 - p_1_2 - 30 x_1_0_2 >= -30
 c1611: d_1_3 + load_1_3 - p_1_3 + 30 x_1_0_3 <= 30
 c1612: d_1_3 + load_1_3 - p_1_3 - 30 x_1_0_3 >= -30
 c1613: d_1_4 + load_1_4 - p_1_4 + 30 x_1_0_4 <= 30
 c1614: d_1_4 + load_1_4 - p_1_4 - 30 x_1_0_4 >= -30
 c1615: d_1_5 + load_1_5 - p_1_5 + 30 x_1_0_5 <= 30
 c1616: d_1_5 + load_1_5 - p_1_5 - 30 x_1_0_5 >= -30
 c1617: d_1_6 + load_1_6 - p_1_6 + 30 x_1_0_6 <= 30
 c1618: d_1_6 + load_1_6 - p_1_6 - 30 x_1_0_6 >= -30
 c1619: d_1_7 + load_1_7 - p_1_7 + 30 x_1_0_7 <= 30
 c1620: d_1_7 + load_1_7 - p_1_7 - 30 x_1_0_7 >= -30
 c1621: d_1_8 + load_1_8 - p_1_8 + 30 x_1_0_8 <= 30
 c1622: d_1_8 + load_1_8 - p_1_8 - 30 x_1_0_8 >= -30
 c1623: d_1_9 + load_1_9 - p_1_9 + 30 x_1_0_9 <= 30
 c1624: d_1_9 + load_1_9 - p_1_9 - 30 x_1_0_9 >= -30
 c1625: d_1_10 + load_1_10 - p_1_10 + 30 x_1_0_10 <= 30
 c1626: d_1_10 + load_1_10 - p_1_10 - 30 x_1_0_10 >= -30
 c1627: d_1_2 - load_1_1 + load_1_2 - p_1_2 + 30 x_1_1_2 <= 30
 c1628: d_1_2 - load_1_1 + load_1_2 - p_1_2 - 30 x_1_1_2 >= -30
 c1629: d_1_3 - load_1_1 + load_1_3 - p_1_3 + 30 x_1_1_3 <= 30
 c1630: d_1_3 - load_1_1 + load_1_3 - p_1_3 - 30 x_1_1_3 >= -30
 c1631: d_1_4 - load_1_1 + load_1_4 - p_1_4 + 30 x_1_1_4 <= 30
 c1632: d_1_4 - load_1_1 + load_1_4 - p_1_4 - 30 x_1_1_4 >= -30
 c1633: d_1_5 - load_1_1 + load_1_5 - p_1_5 + 30 x_1_1_5 <= 30
 c1634: d_1_5 - load_1_1 + load_1_5 - p_1_5 - 30 x_1_1_5 >= -30
 c1635: d_1_6 - load_1_1 + load_1_6 - p_1_6 + 30 x_1_1_6 <= 30
 c1636: d_1_6 - load_1_1 + load_1_6 - p_1_6 - 30 x_1_1_6 >= -30
 c1637: d_1_7 - load_1_1 + load_1_7 - p_1_7 + 30 x_1_1_7 <= 30
 c1638: d_1_7 - load_1_1 + load_1_7 - p_1_7 - 30 x_1_1_7 >= -30
 c1639: d_1_8 - load_1_1 + load_1_8 - p_1_8 + 30 x_1_1_8 <= 30
 c1640: d_1_8 - load_1_1 + load_1_8 - p_1_8 - 30 x_1_1_8 >= -30
 c1641: d_1_9 - load_1_1 + load_1_9 - p_1_9 + 30 x_1_1_9 <= 30
 c1642: d_1_9 - load_1_1 + load_1_9 - p_1_9 - 30 x_1_1_9 >= -30
 c1643: d_1_10 - load_1_1 + load_1_10 - p_1_10 + 30 x_1_1_10 <= 30
 c1644: d_1_10 - load_1_1 + load_1_10 - p_1_10 - 30 x_1_1_10 >= -30
 c1645: d_1_1 + load_1_1 - load_1_2 - p_1_1 + 30 x_1_2_1 <= 30
 c1646: d_1_1 + load_1_1 - load_1_2 - p_1_1 - 30 x_1_2_1 >= -30
 c1647: d_1_3 - load_1_2 + load_1_3 - p_1_3 + 30 x_1_2_3 <= 30
 c1648: d_1_3 - load_1_2 + load_1_3 - p_1_3 - 30 x_1_2_3 >= -30
 c1649: d_1_4 - load_1_2 + load_1_4 - p_1_4 + 30 x_1_2_4 <= 30
 c1650: d_1_4 - load_1_2 + load_1_4 - p_1_4 - 30 x_1_2_4 >= -30
 c1651: d_1_5 - load_1_2 + load_1_5 - p_1_5 + 30 x_1_2_5 <= 30
 c1652: d_1_5 - load_1_2 + load_1_5 - p_1_5 - 30 x_1_2_5 >= -30
 c1653: d_1_6 - load_1_2 + load_1_6 - p_1_6 + 30 x_1_2_6 <= 30
 c1654: d_1_6 - load_1_2 + load_1_6 - p_1_6 - 30 x_1_2_6 >= -30
 c1655: d_1_7 - load_1_2 + load_1_7 - p_1_7 + 30 x_1_2_7 <= 30
 c1656: d_1_7 - load_1_2 + load_1_7 - p_1_7 - 30 x_1_2_7 >= -30
 c1657: d_1_8 - load_1_2 + load_1_8 - p_1_8 + 30 x_1_2_8 <= 30
 c1658: d_1_8 - load_1_2 + load_1_8 - p_1_8 - 30 x_1_2_8 >= -30
 c1659: d_1_9 - load_1_2 + load_1_9 - p_1_9 + 30 x_1_2_9 <= 30
 c1660: d_1_9 - load_1_2 + load_1_9 - p_1_9 - 30 x_1_2_9 >= -30
 c1661: d_1_10 + load_1_10 - load_1_2 - p_1_10 + 30 x_1_2_10 <= 30
 c1662: d_1_10 + load_1_10 - load_1_2 - p_1_10 - 30 x_1_2_10 >= -30
 c1663: d_1_1 + load_1_1 - load_1_3 - p_1_1 + 30 x_1_3_1 <= 30
 c1664: d_1_1 + load_1_1 - load_1_3 - p_1_1 - 30 x_1_3_1 >= -30
 c1665: d_1_2 + load_1_2 - load_1_3 - p_1_2 + 30 x_1_3_2 <= 30
 c1666: d_1_2 + load_1_2 - load_1_3 - p_1_2 - 30 x_1_3_2 >= -30
 c1667: d_1_4 - load_1_3 + load_1_4 - p_1_4 + 30 x_1_3_4 <= 30
 c1668: d_1_4 - load_1_3 + load_1_4 - p_1_4 - 30 x_1_3_4 >= -30
 c1669: d_1_5 - load_1_3 + load_1_5 - p_1_5 + 30 x_1_3_5 <= 30
 c1670: d_1_5 - load_1_3 + load_1_5 - p_1_5 - 30 x_1_3_5 >= -30
 c1671: d_1_6 - load_1_3 + load_1_6 - p_1_6 + 30 x_1_3_6 <= 30
 c1672: d_1_6 - load_1_3 + load_1_6 - p_1_6 - 30 x_1_3_6 >= -30
 c1673: d_1_7 - load_1_3 + load_1_7 - p_1_7 + 30 x_1_3_7 <= 30
 c1674: d_1_7 - load_1_3 + load_1_7 - p_1_7 - 30 x_1_3_7 >= -30
 c1675: d_1_8 - load_1_3 + load_1_8 - p_1_8 + 30 x_1_3_8 <= 30
 c1676: d_1_8 - load_1_3 + load_1_8 - p_1_8 - 30 x_1_3_8 >= -30
 c1677: d_1_9 - load_1_3 + load_1_9 - p_1_9 + 30 x_1_3_9 <= 30
 c1678: d_1_9 - load_1_3 + load_1_9 - p_1_9 - 30 x_1_3_9 >= -30
 c1679: d_1_10 + load_1_10 - load_1_3 - p_1_10 + 30 x_1_3_10 <= 30
 c1680: d_1_10 + load_1_10 - load_1_3 - p_1_10 - 30 x_1_3_10 >= -30
 c1681: d_1_1 + load_1_1 - load_1_4 - p_1_1 + 30 x_1_4_1 <= 30
 c1682: d_1_1 + load_1_1 - load_1_4 - p_1_1 - 30 x_1_4_1 >= -30
 c1683: d_1_2 + load_1_2 - load_1_4 - p_1_2 + 30 x_1_4_2 <= 30
 c1684: d_1_2 + load_1_2 - load_1_4 - p_1_2 - 30 x_1_4_2 >= -30
 c1685: d_1_3 + load_1_3 - load_1_4 - p_1_3 + 30 x_1_4_3 <= 30
 c1686: d_1_3 + load_1_3 - load_1_4 - p_1_3 - 30 x_1_4_3 >= -30
 c1687: d_1_5 - load_1_4 + load_1_5 - p_1_5 + 30 x_1_4_5 <= 30
 c1688: d_1_5 - load_1_4 + load_1_5 - p_1_5 - 30 x_1_4_5 >= -30
 c1689: d_1_6 - load_1_4 + load_1_6 - p_1_6 + 30 x_1_4_6 <= 30
 c1690: d_1_6 - load_1_4 + load_1_6 - p_1_6 - 30 x_1_4_6 >= -30
 c1691: d_1_7 - load_1_4 + load_1_7 - p_1_7 + 30 x_1_4_7 <= 30
 c1692: d_1_7 - load_1_4 + load_1_7 - p_1_7 - 30 x_1_4_7 >= -30
 c1693: d_1_8 - load_1_4 + load_1_8 - p_1_8 + 30 x_1_4_8 <= 30
 c1694: d_1_8 - load_1_4 + load_1_8 - p_1_8 - 30 x_1_4_8 >= -30
 c1695: d_1_9 - load_1_4 + load_1_9 - p_1_9 + 30 x_1_4_9 <= 30
 c1696: d_1_9 - load_1_4 + load_1_9 - p_1_9 - 30 x_1_4_9 >= -30
 c1697: d_1_10 + load_1_10 - load_1_4 - p_1_10 + 30 x_1_4_10 <= 30
 c1698: d_1_10 + load_1_10 - load_1_4 - p_1_10 - 30 x_1_4_10 >= -30
 c1699: d_1_1 + load_1_1 - load_1_5 - p_1_1 + 30 x_1_5_1 <= 30
 c1700: d_1_1 + load_1_1 - load_1_5 - p_1_1 - 30 x_1_5_1 >= -30
 c1701: d_1_2 + load_1_2 - load_1_5 - p_1_2 + 30 x_1_5_2 <= 30
 c1702: d_1_2 + load_1_2 - load_1_5 - p_1_2 - 30 x_1_5_2 >= -30
 c1703: d_1_3 + load_1_3 - load_1_5 - p_1_3 + 30 x_1_5_3 <= 30
 c1704: d_1_3 + load_1_3 - load_1_5 - p_1_3 - 30 x_1_5_3 >= -30
 c1705: d_1_4 + load_1_4 - load_1_5 - p_1_4 + 30 x_1_5_4 <= 30
 c1706: d_1_4 + load_1_4 - load_1_5 - p_1_4 - 30 x_1_5_4 >= -30
 c1707: d_1_6 - load_1_5 + load_1_6 - p_1_6 + 30 x_1_5_6 <= 30
 c1708: d_1_6 - load_1_5 + load_1_6 - p_1_6 - 30 x_1_5_6 >= -30
 c1709: d_1_7 - load_1_5 + load_1_7 - p_1_7 + 30 x_1_5_7 <= 30
 c1710: d_1_7 - load_1_5 + load_1_7 - p_1_7 - 30 x_1_5_7 >= -30
 c1711: d_1_8 - load_1_5 + load_1_8 - p_1_8 + 30 x_1_5_8 <= 30
 c1712: d_1_8 - load_1_5 + load_1_8 - p_1_8 - 30 x_1_5_8 >= -30
 c1713: d_1_9 - load_1_5 + load_1_9 - p_1_9 + 30 x_1_5_9 <= 30
 c1714: d_1_9 - load_1_5 + load_1_9 - p_1_9 - 30 x_1_5_9 >= -30
 c1715: d_1_10 + load_1_10 - load_1_5 - p_1_10 + 30 x_1_5_10 <= 30
 c1716: d_1_10 + load_1_10 - load_1_5 - p_1_10 - 30 x_1_5_10 >= -30
 c1717: d_1_1 + load_1_1 - load_1_6 - p_1_1 + 30 x_1_6_1 <= 30
 c1718: d_1_1 + load_1_1 - load_1_6 - p_1_1 - 30 x_1_6_1 >= -30
 c1719: d_1_2 + load_1_2 - load_1_6 - p_1_2 + 30 x_1_6_2 <= 30
 c1720: d_1_2 + load_1_2 - load_1_6 - p_1_2 - 30 x_1_6_2 >= -30
 c1721: d_1_3 + load_1_3 - load_1_6 - p_1_3 + 30 x_1_6_3 <= 30
 c1722: d_1_3 + load_1_3 - load_1_6 - p_1_3 - 30 x_1_6_3 >= -30
 c1723: d_1_4 + load_1_4 - load_1_6 - p_1_4 + 30 x_1_6_4 <= 30
 c1724: d_1_4 + load_1_4 - load_1_6 - p_1_4 - 30 x_1_6_4 >= -30
 c1725: d_1_5 + load_1_5 - load_1_6 - p_1_5 + 30 x_1_6_5 <= 30
 c1726: d_1_5 + load_1_5 - load_1_6 - p_1_5 - 30 x_1_6_5 >= -30
 c1727: d_1_7 - load_1_6 + load_1_7 - p_1_7 + 30 x_1_6_7 <= 30
 c1728: d_1_7 - load_1_6 + load_1_7 - p_1_7 - 30 x_1_6_7 >= -30
 c1729: d_1_8 - load_1_6 + load_1_8 - p_1_8 + 30 x_1_6_8 <= 30
 c1730: d_1_8 - load_1_6 + load_1_8 - p_1_8 - 30 x_1_6_8 >= -30
 c1731: d_1_9 - load_1_6 + load_1_9 - p_1_9 + 30 x_1_6_9 <= 30
 c1732: d_1_9 - load_1_6 + load_1_9 - p_1_9 - 30 x_1_6_9 >= -30
 c1733: d_1_10 + load_1_10 - load_1_6 - p_1_10 + 30 x_1_6_10 <= 30
 c1734: d_1_10 + load_1_10 - load_1_6 - p_1_10 - 30 x_1_6_10 >= -30
 c1735: d_1_1 + load_1_1 - load_1_7 - p_1_1 + 30 x_1_7_1 <= 30
 c1736: d_1_1 + load_1_1 - load_1_7 - p_1_1 - 30 x_1_7_1 >= -30
 c1737: d_1_2 + load_1_2 - load_1_7 - p_1_2 + 30 x_1_7_2 <= 30
 c1738: d_1_2 + load_1_2 - load_1_7 - p_1_2 - 30 x_1_7_2 >= -30
 c1739: d_1_3 + load_1_3 - load_1_7 - p_1_3 + 30 x_1_7_3 <= 30
 c1740: d_1_3 + load_1_3 - load_1_7 - p_1_3 - 30 x_1_7_3 >= -30
 c1741: d_1_4 + load_1_4 - load_1_7 - p_1_4 + 30 x_1_7_4 <= 30
 c1742: d_1_4 + load_1_4 - load_1_7 - p_1_4 - 30 x_1_7_4 >= -30
 c1743: d_1_5 + load_1_5 - load_1_7 - p_1_5 + 30 x_1_7_5 <= 30
 c1744: d_1_5 + load_1_5 - load_1_7 - p_1_5 - 30 x_1_7_5 >= -30
 c1745: d_1_6 + load_1_6 - load_1_7 - p_1_6 + 30 x_1_7_6 <= 30
 c1746: d_1_6 + load_1_6 - load_1_7 - p_1_6 - 30 x_1_7_6 >= -30
 c1747: d_1_8 - load_1_7 + load_1_8 - p_1_8 + 30 x_1_7_8 <= 30
 c1748: d_1_8 - load_1_7 + load_1_8 - p_1_8 - 30 x_1_7_8 >= -30
 c1749: d_1_9 - load_1_7 + load_1_9 - p_1_9 + 30 x_1_7_9 <= 30
 c1750: d_1_9 - load_1_7 + load_1_9 - p_1_9 - 30 x_1_7_9 >= -30
 c1751: d_1_10 + load_1_10 - load_1_7 - p_1_10 + 30 x_1_7_10 <= 30
 c1752: d_1_10 + load_1_10 - load_1_7 - p_1_10 - 30 x_1_7_10 >= -30
 c1753: d_1_1 + load_1_1 - load_1_8 - p_1_1 + 30 x_1_8_1 <= 30
 c1754: d_1_1 + load_1_1 - load_1_8 - p_1_1 - 30 x_1_8_1 >= -30
 c1755: d_1_2 + load_1_2 - load_1_8 - p_1_2 + 30 x_1_8_2 <= 30
 c1756: d_1_2 + load_1_2 - load_1_8 - p_1_2 - 30 x_1_8_2 >= -30
 c1757: d_1_3 + load_1_3 - load_1_8 - p_1_3 + 30 x_1_8_3 <= 30
 c1758: d_1_3 + load_1_3 - load_1_8 - p_1_3 - 30 x_1_8_3 >= -30
 c1759: d_1_4 + load_1_4 - load_1_8 - p_1_4 + 30 x_1_8_4 <= 30
 c1760: d_1_4 + load_1_4 - load_1_8 - p_1_4 - 30 x_1_8_4 >= -30
 c1761: d_1_5 + load_1_5 - load_1_8 - p_1_5 + 30 x_1_8_5 <= 30
 c1762: d_1_5 + load_1_5 - load_1_8 - p_1_5 - 30 x_1_8_5 >= -30
 c1763: d_1_6 + load_1_6 - load_1_8 - p_1_6 + 30 x_1_8_6 <= 30
 c1764: d_1_6 + load_1_6 - load_1_8 - p_1_6 - 30 x_1_8_6 >= -30
 c1765: d_1_7 + load_1_7 - load_1_8 - p_1_7 + 30 x_1_8_7 <= 30
 c1766: d_1_7 + load_1_7 - load_1_8 - p_1_7 - 30 x_1_8_7 >= -30
 c1767: d_1_9 - load_1_8 + load_1_9 - p_1_9 + 30 x_1_8_9 <= 30
 c1768: d_1_9 - load_1_8 + load_1_9 - p_1_9 - 30 x_1_8_9 >= -30
 c1769: d_1_10 + load_1_10 - load_1_8 - p_1_10 + 30 x_1_8_10 <= 30
 c1770: d_1_10 + load_1_10 - load_1_8 - p_1_10 - 30 x_1_8_10 >= -30
 c1771: d_1_1 + load_1_1 - load_1_9 - p_1_1 + 30 x_1_9_1 <= 30
 c1772: d_1_1 + load_1_1 - load_1_9 - p_1_1 - 30 x_1_9_1 >= -30
 c1773: d_1_2 + load_1_2 - load_1_9 - p_1_2 + 30 x_1_9_2 <= 30
 c1774: d_1_2 + load_1_2 - load_1_9 - p_1_2 - 30 x_1_9_2 >= -30
 c1775: d_1_3 + load_1_3 - load_1_9 - p_1_3 + 30 x_1_9_3 <= 30
 c1776: d_1_3 + load_1_3 - load_1_9 - p_1_3 - 30 x_1_9_3 >= -30
 c1777: d_1_4 + load_1_4 - load_1_9 - p_1_4 + 30 x_1_9_4 <= 30
 c1778: d_1_4 + load_1_4 - load_1_9 - p_1_4 - 30 x_1_9_4 >= -30
 c1779: d_1_5 + load_1_5 - load_1_9 - p_1_5 + 30 x_1_9_5 <= 30
 c1780: d_1_5 + load_1_5 - load_1_9 - p_1_5 - 30 x_1_9_5 >= -30
 c1781: d_1_6 + load_1_6 - load_1_9 - p_1_6 + 30 x_1_9_6 <= 30
 c1782: d_1_6 + load_1_6 - load_1_9 - p_1_6 - 30 x_1_9_6 >= -30
 c1783: d_1_7 + load_1_7 - load_1_9 - p_1_7 + 30 x_1_9_7 <= 30
 c1784: d_1_7 + load_1_7 - load_1_9 - p_1_7 - 30 x_1_9_7 >= -30
 c1785: d_1_8 + load_1_8 - load_1_9 - p_1_8 + 30 x_1_9_8 <= 30
 c1786: d_1_8 + load_1_8 - load_1_9 - p_1_8 - 30 x_1_9_8 >= -30
 c1787: d_1_10 + load_1_10 - load_1_9 - p_1_10 + 30 x_1_9_10 <= 30
 c1788: d_1_10 + load_1_10 - load_1_9 - p_1_10 - 30 x_1_9_10 >= -30
 c1789: d_1_1 + load_1_1 - load_1_10 - p_1_1 + 30 x_1_10_1 <= 30
 c1790: d_1_1 + load_1_1 - load_1_10 - p_1_1 - 30 x_1_10_1 >= -30
 c1791: d_1_2 - load_1_10 + load_1_2 - p_1_2 + 30 x_1_10_2 <= 30
 c1792: d_1_2 - load_1_10 + load_1_2 - p_1_2 - 30 x_1_10_2 >= -30
 c1793: d_1_3 - load_1_10 + load_1_3 - p_1_3 + 30 x_1_10_3 <= 30
 c1794: d_1_3 - load_1_10 + load_1_3 - p_1_3 - 30 x_1_10_3 >= -30
 c1795: d_1_4 - load_1_10 + load_1_4 - p_1_4 + 30 x_1_10_4 <= 30
 c1796: d_1_4 - load_1_10 + load_1_4 - p_1_4 - 30 x_1_10_4 >= -30
 c1797: d_1_5 - load_1_10 + load_1_5 - p_1_5 + 30 x_1_10_5 <= 30
 c1798: d_1_5 - load_1_10 + load_1_5 - p_1_5 - 30 x_1_10_5 >= -30
 c1799: d_1_6 - load_1_10 + load_1_6 - p_1_6 + 30 x_1_10_6 <= 30
 c1800: d_1_6 - load_1_10 + load_1_6 - p_1_6 - 30 x_1_10_6 >= -30
 c1801: d_1_7 - load_1_10 + load_1_7 - p_1_7 + 30 x_1_10_7 <= 30
 c1802: d_1_7 - load_1_10 + load_1_7 - p_1_7 - 30 x_1_10_7 >= -30
 c1803: d_1_8 - load_1_10 + load_1_8 - p_1_8 + 30 x_1_10_8 <= 30
 c1804: d_1_8 - load_1_10 + load_1_8 - p_1_8 - 30 x_1_10_8 >= -30
 c1805: d_1_9 - load_1_10 + load_1_9 - p_1_9 + 30 x_1_10_9 <= 30
 c1806: d_1_9 - load_1_10 + load_1_9 - p_1_9 - 30 x_1_10_9 >= -30
 c1807: - d_1_1 - d_1_10 - d_1_2 - d_1_3 - d_1_4 - d_1_5 - d_1_6 - d_1_7 - d_1_8 - d_1_9 + p_1_1 + p_1_10 + p_1_2 + p_1_3 + p_1_4 + p_1_5 + p_1_6 + p_1_7 + p_1_8 + p_1_9 >= 0
 c1808: 120 p_1_1 + 120 p_1_10 + 120 p_1_2 + 120 p_1_3 + 120 p_1_4 + 120 p_1_5 + 120 p_1_6 + 120 p_1_7 + 120 p_1_8 + 120 p_1_9 + 221.77539060964057 x_1_0_1 + 293.44449221746567 x_1_0_10 + 198.76475395359725 x_1_0_2 + 284.844859483547 x_1_0_3 + 233.24323917201173 x_1_0_4 + 198.12934057217862 x_1_0_5 + 255.01058185947099 x_1_0_6 + 313.27537670501539 x_1_0_7 + 256.56248933592894 x_1_0_8 + 260.63742516276437 x_1_0_9 + 293.44449221746567 x_1_10_0 + 74.014350262990632 x_1_10_1 + 463.97909066709934 x_1_10_2 + 487.80660614010418 x_1_10_3 + 62.700164185491737 x_1_10_4 + 435.18922464222095 x_1_10_5 + 471.69873539410702 x_1_10_6 + 41.830351537815091 x_1_10_7 + 472.7240704196617 x_1_10_8 + 505.83314303436413 x_1_10_9 + 221.77539060964057 x_1_1_0 + 74.014350262990632 x_1_1_10 + 390.11742249171431 x_1_1_2 + 438.07522623217392 x_1_1_3 + 11.535228283321837 x_1_1_4 + 362.47534420360131 x_1_1_5 + 418.57333803176948 x_1_1_6 + 92.409690424648034 x_1_1_7 + 402.09318651058834 x_1_1_8 + 447.3446849916175 x_1_1_9 + 198.76475395359725 x_1_2_0 + 390.11742249171431 x_1_2_1 + 463.97909066709934 x_1_2_10 + 386.61646737370779 x_1_2_3 + 401.30325732912888 x_1_2_4 + 58.050183179018518 x_1_2_5 + 352.69348339749973 x_1_2_6 + 472.23022155331881 x_1_2_7 + 103.32866613108594 x_1_2_8 + 322.32054064795108 x_1_2_9 + 284.844859483547 x_1_3_0 + 438.07522623217392 x_1_3_1 + 487.80660614010418 x_1_3_10 + 386.61646737370779 x_1_3_2 + 446.85195117813578 x_1_3_4 + 423.65449141498812 x_1_3_5 + 33.971363692431929 x_1_3_6 + 523.27540428146824 x_1_3_7 + 483.87300854671099 x_1_3_8 + 82.810768215490441 x_1_3_9 + 233.24323917201173 x_1_4_0 + 11.535228283321837 x_1_4_1 + 62.700164185491737 x_1_4_10 + 401.30325732912888 x_1_4_2 + 446.85195117813578 x_1_4_3 + 373.18631048827984 x_1_4_5 + 427.81544944984461 x_1_4_6 + 81.378912261704173 x_1_4_7 + 412.19785107633538 x_1_4_8 + 457.34309516165507 x_1_4_9 + 198.12934057217862 x_1_5_0 + 362.47534420360131 x_1_5_1 + 435.18922464222095 x_1_5_10 + 58.050183179018518 x_1_5_2 + 423.65449141498812 x_1_5_3 + 373.18631048827984 x_1_5_4 + 389.74853390921226 x_1_5_6 + 438.95242089401978 x_1_5_7 + 61.710638434520121 x_1_5_8 + 365.60706291383718 x_1_5_9 + 255.01058185947099 x_1_6_0 + 418.57333803176948 x_1_6_1 + 471.69873539410702 x_1_6_10 + 352.69348339749973 x_1_6_2 + 33.971363692431929 x_1_6_3 + 427.81544944984461 x_1_6_4 + 389.74853390921226 x_1_6_5 + 505.78749280212236 x_1_6_7 + 449.91779350341903 x_1_6_8 + 59.786466190531058 x_1_6_9 + 313.27537670501539 x_1_7_0 + 92.409690424648034 x_1_7_1 + 41.830351537815091 x_1_7_10 + 472.23022155331881 x_1_7_2 + 523.27540428146824 x_1_7_3 + 81.378912261704173 x_1_7_4 + 438.95242089401978 x_1_7_5 + 505.78749280212236 x_1_7_6 + 471.82590883308961 x_1_7_8 + 537.35851524081318 x_1_7_9 + 256.56248933592894 x_1_8_0 + 402.09318651058834 x_1_8_1 + 472.7240704196617 x_1_8_10 + 103.32866613108594 x_1_8_2 + 483.87300854671099 x_1_8_3 + 412.19785107633538 x_1_8_4 + 61.710638434520121 x_1_8_5 + 449.91779350341903 x_1_8_6 + 471.82590883308961 x_1_8_7 + 423.41608733304685 x_1_8_9 + 260.63742516276437 x_1_9_0 + 447.3446849916175 x_1_9_1 + 505.83314303436413 x_1_9_10 + 322.32054064795108 x_1_9_2 + 82.810768215490441 x_1_9_3 + 457.34309516165507 x_1_9_4 + 365.60706291383718 x_1_9_5 + 59.786466190531058 x_1_9_6 + 537.35851524081318 x_1_9_7 + 423.41608733304685 x_1_9_8 <= 3600
 c1809: p_2_1 - 20 z_2_1 <= 0
 c1810: d_2_1 - 9 z_2_1 <= 0
 c1811: mode_2_1 - z_2_1 <= 0
 c1812: - 20 mode_2_1 + p_2_1 <= 0
 c1813: d_2_1 + 9 mode_2_1 - 9 z_2_1 <= 0
 c1814: d_2_1 + p_2_1 - z_2_1 >= 0
 c1815: load_2_1 - 30 z_2_1 <= 0
 c1816: p_2_2 - z_2_2 <= 0
 c1817: d_2_2 - 25 z_2_2 <= 0
 c1818: mode_2_2 - z_2_2 <= 0
 c1819: - mode_2_2 + p_2_2 <= 0
 c1820: d_2_2 + 25 mode_2_2 - 25 z_2_2 <= 0
 c1821: d_2_2 + p_2_2 - z_2_2 >= 0
 c1822: load_2_2 - 30 z_2_2 <= 0
 c1823: p_2_3 - 3 z_2_3 <= 0
 c1824: d_2_3 - 27 z_2_3 <= 0
 c1825: mode_2_3 - z_2_3 <= 0
 c1826: - 3 mode_2_3 + p_2_3 <= 0
 c1827: d_2_3 + 27 mode_2_3 - 27 z_2_3 <= 0
 c1828: d_2_3 + p_2_3 - z_2_3 >= 0
 c1829: load_2_3 - 30 z_2_3 <= 0
 c1830: p_2_4 - 16 z_2_4 <= 0
 c1831: d_2_4 - 30 z_2_4 <= 0
 c1832: mode_2_4 - z_2_4 <= 0
 c1833: - 16 mode_2_4 + p_2_4 <= 0
 c1834: d_2_4 + 30 mode_2_4 - 30 z_2_4 <= 0
 c1835: d_2_4 + p_2_4 - z_2_4 >= 0
 c1836: load_2_4 - 30 z_2_4 <= 0
 c1837: p_2_5 - 15 z_2_5 <= 0
 c1838: d_2_5 - 30 z_2_5 <= 0
 c1839: mode_2_5 - z_2_5 <= 0
 c1840: - 15 mode_2_5 + p_2_5 <= 0
 c1841: d_2_5 + 30 mode_2_5 - 30 z_2_5 <= 0
 c1842: d_2_5 + p_2_5 - z_2_5 >= 0
 c1843: load_2_5 - 30 z_2_5 <= 0
 c1844: p_2_6 - 14 z_2_6 <= 0
 c1845: d_2_6 - 9 z_2_6 <= 0
 c1846: mode_2_6 - z_2_6 <= 0
 c1847: - 14 mode_2_6 + p_2_6 <= 0
 c1848: d_2_6 + 9 mode_2_6 - 9 z_2_6 <= 0
 c1849: d_2_6 + p_2_6 - z_2_6 >= 0
 c1850: load_2_6 - 30 z_2_6 <= 0
 c1851: p_2_7 - 4 z_2_7 <= 0
 c1852: d_2_7 - 18 z_2_7 <= 0
 c1853: mode_2_7 - z_2_7 <= 0
 c1854: - 4 mode_2_7 + p_2_7 <= 0
 c1855: d_2_7 + 18 mode_2_7 - 18 z_2_7 <= 0
 c1856: d_2_7 + p_2_7 - z_2_7 >= 0
 c1857: load_2_7 - 30 z_2_7 <= 0
 c1858: p_2_8 - 8 z_2_8 <= 0
 c1859: d_2_8 - 14 z_2_8 <= 0
 c1860: mode_2_8 - z_2_8 <= 0
 c1861: - 8 mode_2_8 + p_2_8 <= 0
 c1862: d_2_8 + 14 mode_2_8 - 14 z_2_8 <= 0
 c1863: d_2_8 + p_2_8 - z_2_8 >= 0
 c1864: load_2_8 - 30 z_2_8 <= 0
 c1865: p_2_9 - 4 z_2_9 <= 0
 c1866: d_2_9 - 29 z_2_9 <= 0
 c1867: mode_2_9 - z_2_9 <= 0
 c1868: - 4 mode_2_9 + p_2_9 <= 0
 c1869: d_2_9 + 29 mode_2_9 - 29 z_2_9 <= 0
 c1870: d_2_9 + p_2_9 - z_2_9 >= 0
 c1871: load_2_9 - 30 z_2_9 <= 0
 c1872: p_2_10 - 10 z_2_10 <= 0
 c1873: d_2_10 - 22 z_2_10 <= 0
 c1874: mode_2_10 - z_2_10 <= 0
 c1875: - 10 mode_2_10 + p_2_10 <= 0
 c1876: d_2_10 + 22 mode_2_10 - 22 z_2_10 <= 0
 c1877: d_2_10 + p_2_10 - z_2_10 >= 0
 c1878: load_2_10 - 30 z_2_10 <= 0
 c1879: d_2_1 + load_2_1 - p_2_1 + 30 x_2_0_1 <= 30
 c1880: d_2_1 + load_2_1 - p_2_1 - 30 x_2_0_1 >= -30
 c1881: d_2_2 + load_2_2 - p_2_2 + 30 x_2_0_2 <= 30
 c1882: d_2_2 + load_2_2 - p_2_2 - 30 x_2_0_2 >= -30
 c1883: d_2_3 + load_2_3 - p_2_3 + 30 x_2_0_3 <= 30
 c1884: d_2_3 + load_2_3 - p_2_3 - 30 x_2_0_3 >= -30
 c1885: d_2_4 + load_2_4 - p_2_4 + 30 x_2_0_4 <= 30
 c1886: d_2_4 + load_2_4 - p_2_4 - 30 x_2_0_4 >= -30
 c1887: d_2_5 + load_2_5 - p_2_5 + 30 x_2_0_5 <= 30
 c1888: d_2_5 + load_2_5 - p_2_5 - 30 x_2_0_5 >= -30
 c1889: d_2_6 + load_2_6 - p_2_6 + 30 x_2_0_6 <= 30
 c1890: d_2_6 + load_2_6 - p_2_6 - 30 x_2_0_6 >= -30
 c1891: d_2_7 + load_2_7 - p_2_7 + 30 x_2_0_7 <= 30
 c1892: d_2_7 + load_2_7 - p_2_7 - 30 x_2_0_7 >= -30
 c1893: d_2_8 + load_2_8 - p_2_8 + 30 x_2_0_8 <= 30
 c1894: d_2_8 + load_2_8 - p_2_8 - 30 x_2_0_8 >= -30
 c1895: d_2_9 + load_2_9 - p_2_9 + 30 x_2_0_9 <= 30
 c1896: d_2_9 + load_2_9 - p_2_9 - 30 x_2_0_9 >= -30
 c1897: d_2_10 + load_2_10 - p_2_10 + 30 x_2_0_10 <= 30
 c1898: d_2_10 + load_2_10 - p_2_10 - 30 x_2_0_10 >= -30
 c1899: d_2_2 - load_2_1 + load_2_2 - p_2_2 + 30 x_2_1_2 <= 30
 c1900: d_2_2 - load_2_1 + load_2_2 - p_2_2 - 30 x_2_1_2 >= -30
 c1901: d_2_3 - load_2_1 + load_2_3 - p_2_3 + 30 x_2_1_3 <= 30
 c1902: d_2_3 - load_2_1 + load_2_3 - p_2_3 - 30 x_2_1_3 >= -30
 c1903: d_2_4 - load_2_1 + load_2_4 - p_2_4 + 30 x_2_1_4 <= 30
 c1904: d_2_4 - load_2_1 + load_2_4 - p_2_4 - 30 x_2_1_4 >= -30
 c1905: d_2_5 - load_2_1 + load_2_5 - p_2_5 + 30 x_2_1_5 <= 30
 c1906: d_2_5 - load_2_1 + load_2_5 - p_2_5 - 30 x_2_1_5 >= -30
 c1907: d_2_6 - load_2_1 + load_2_6 - p_2_6 + 30 x_2_1_6 <= 30
 c1908: d_2_6 - load_2_1 + load_2_6 - p_2_6 - 30 x_2_1_6 >= -30
 c1909: d_2_7 - load_2_1 + load_2_7 - p_2_7 + 30 x_2_1_7 <= 30
 c1910: d_2_7 - load_2_1 + load_2_7 - p_2_7 - 30 x_2_1_7 >= -30
 c1911: d_2_8 - load_2_1 + load_2_8 - p_2_8 + 30 x_2_1_8 <= 30
 c1912: d_2_8 - load_2_1 + load_2_8 - p_2_8 - 30 x_2_1_8 >= -30
 c1913: d_2_9 - load_2_1 + load_2_9 - p_2_9 + 30 x_2_1_9 <= 30
 c1914: d_2_9 - load_2_1 + load_2_9 - p_2_9 - 30 x_2_1_9 >= -30
 c1915: d_2_10 - load_2_1 + load_2_10 - p_2_10 + 30 x_2_1_10 <= 30
 c1916: d_2_10 - load_2_1 + load_2_10 - p_2_10 - 30 x_2_1_10 >= -30
 c1917: d_2_1 + load_2_1 - load_2_2 - p_2_1 + 30 x_2_2_1 <= 30
 c1918: d_2_1 + load_2_1 - load_2_2 - p_2_1 - 30 x_2_2_1 >= -30
 c1919: d_2_3 - load_2_2 + load_2_3 - p_2_3 + 30 x_2_2_3 <= 30
 c1920: d_2_3 - load_2_2 + load_2_3 - p_2_3 - 30 x_2_2_3 >= -30
 c1921: d_2_4 - load_2_2 + load_2_4 - p_2_4 + 30 x_2_2_4 <= 30
 c1922: d_2_4 - load_2_2 + load_2_4 - p_2_4 - 30 x_2_2_4 >= -30
 c1923: d_2_5 - load_2_2 + load_2_5 - p_2_5 + 30 x_2_2_5 <= 30
 c1924: d_2_5 - load_2_2 + load_2_5 - p_2_5 - 30 x_2_2_5 >= -30
 c1925: d_2_6 - load_2_2 + load_2_6 - p_2_6 + 30 x_2_2_6 <= 30
 c1926: d_2_6 - load_2_2 + load_2_6 - p_2_6 - 30 x_2_2_6 >= -30
 c1927: d_2_7 - load_2_2 + load_2_7 - p_2_7 + 30 x_2_2_7 <= 30
 c1928: d_2_7 - load_2_2 + load_2_7 - p_2_7 - 30 x_2_2_7 >= -30
 c1929: d_2_8 - load_2_2 + load_2_8 - p_2_8 + 30 x_2_2_8 <= 30
 c1930: d_2_8 - load_2_2 + load_2_8 - p_2_8 - 30 x_2_2_8 >= -30
 c1931: d_2_9 - load_2_2 + load_2_9 - p_2_9 + 30 x_2_2_9 <= 30
 c1932: d_2_9 - load_2_2 + load_2_9 - p_2_9 - 30 x_2_2_9 >= -30
 c1933: d_2_10 + load_2_10 - load_2_2 - p_2_10 + 30 x_2_2_10 <= 30
 c1934: d_2_10 + load_2_10 - load_2_2 - p_2_10 - 30 x_2_2_10 >= -30
 c1935: d_2_1 + load_2_1 - load_2_3 - p_2_1 + 30 x_2_3_1 <= 30
 c1936: d_2_1 + load_2_1 - load_2_3 - p_2_1 - 30 x_2_3_1 >= -30
 c1937: d_2_2 + load_2_2 - load_2_3 - p_2_2 + 30 x_2_3_2 <= 30
 c1938: d_2_2 + load_2_2 - load_2_3 - p_2_2 - 30 x_2_3_2 >= -30
 c1939: d_2_4 - load_2_3 + load_2_4 - p_2_4 + 30 x_2_3_4 <= 30
 c1940: d_2_4 - load_2_3 + load_2_4 - p_2_4 - 30 x_2_3_4 >= -30
 c1941: d_2_5 - load_2_3 + load_2_5 - p_2_5 + 30 x_2_3_5 <= 30
 c1942: d_2_5 - load_2_3 + load_2_5 - p_2_5 - 30 x_2_3_5 >= -30
 c1943: d_2_6 - load_2_3 + load_2_6 - p_2_6 + 30 x_2_3_6 <= 30
 c1944: d_2_6 - load_2_3 + load_2_6 - p_2_6 - 30 x_2_3_6 >= -30
 c1945: d_2_7 - load_2_3 + load_2_7 - p_2_7 + 30 x_2_3_7 <= 30
 c1946: d_2_7 - load_2_3 + load_2_7 - p_2_7 - 30 x_2_3_7 >= -30
 c1947: d_2_8 - load_2_3 + load_2_8 - p_2_8 + 30 x_2_3_8 <= 30
 c1948: d_2_8 - load_2_3 + load_2_8 - p_2_8 - 30 x_2_3_8 >= -30
 c1949: d_2_9 - load_2_3 + load_2_9 - p_2_9 + 30 x_2_3_9 <= 30
 c1950: d_2_9 - load_2_3 + load_2_9 - p_2_9 - 30 x_2_3_9 >= -30
 c1951: d_2_10 + load_2_10 - load_2_3 - p_2_10 + 30 x_2_3_10 <= 30
 c1952: d_2_10 + load_2_10 - load_2_3 - p_2_10 - 30 x_2_3_10 >= -30
 c1953: d_2_1 + load_2_1 - load_2_4 - p_2_1 + 30 x_2_4_1 <= 30
 c1954: d_2_1 + load_2_1 - load_2_4 - p_2_1 - 30 x_2_4_1 >= -30
 c1955: d_2_2 + load_2_2 - load_2_4 - p_2_2 + 30 x_2_4_2 <= 30
 c1956: d_2_2 + load_2_2 - load_2_4 - p_2_2 - 30 x_2_4_2 >= -30
 c1957: d_2_3 + load_2_3 - load_2_4 - p_2_3 + 30 x_2_4_3 <= 30
 c1958: d_2_3 + load_2_3 - load_2_4 - p_2_3 - 30 x_2_4_3 >= -30
 c1959: d_2_5 - load_2_4 + load_2_5 - p_2_5 + 30 x_2_4_5 <= 30
 c1960: d_2_5 - load_2_4 + load_2_5 - p_2_5 - 30 x_2_4_5 >= -30
 c1961: d_2_6 - load_2_4 + load_2_6 - p_2_6 + 30 x_2_4_6 <= 30
 c1962: d_2_6 - load_2_4 + load_2_6 - p_2_6 - 30 x_2_4_6 >= -30
 c1963: d_2_7 - load_2_4 + load_2_7 - p_2_7 + 30 x_2_4_7 <= 30
 c1964: d_2_7 - load_2_4 + load_2_7 - p_2_7 - 30 x_2_4_7 >= -30
 c1965: d_2_8 - load_2_4 + load_2_8 - p_2_8 + 30 x_2_4_8 <= 30
 c1966: d_2_8 - load_2_4 + load_2_8 - p_2_8 - 30 x_2_4_8 >= -30
 c1967: d_2_9 - load_2_4 + load_2_9 - p_2_9 + 30 x_2_4_9 <= 30
 c1968: d_2_9 - load_2_4 + load_2_9 - p_2_9 - 30 x_2_4_9 >= -30
 c1969: d_2_10 + load_2_10 - load_2_4 - p_2_10 + 30 x_2_4_10 <= 30
 c1970: d_2_10 + load_2_10 - load_2_4 - p_2_10 - 30 x_2_4_10 >= -30
 c1971: d_2_1 + load_2_1 - load_2_5 - p_2_1 + 30 x_2_5_1 <= 30
 c1972: d_2_1 + load_2_1 - load_2_5 - p_2_1 - 30 x_2_5_1 >= -30
 c1973: d_2_2 + load_2_2 - load_2_5 - p_2_2 + 30 x_2_5_2 <= 30
 c1974: d_2_2 + load_2_2 - load_2_5 - p_2_2 - 30 x_2_5_2 >= -30
 c1975: d_2_3 + load_2_3 - load_2_5 - p_2_3 + 30 x_2_5_3 <= 30
 c1976: d_2_3 + load_2_3 - load_2_5 - p_2_3 - 30 x_2_5_3 >= -30
 c1977: d_2_4 + load_2_4 - load_2_5 - p_2_4 + 30 x_2_5_4 <= 30
 c1978: d_2_4 + load_2_4 - load_2_5 - p_2_4 - 30 x_2_5_4 >= -30
 c1979: d_2_6 - load_2_5 + load_2_6 - p_2_6 + 30 x_2_5_6 <= 30
 c1980: d_2_6 - load_2_5 + load_2_6 - p_2_6 - 30 x_2_5_6 >= -30
 c1981: d_2_7 - load_2_5 + load_2_7 - p_2_7 + 30 x_2_5_7 <= 30
 c1982: d_2_7 - load_2_5 + load_2_7 - p_2_7 - 30 x_2_5_7 >= -30
 c1983: d_2_8 - load_2_5 + load_2_8 - p_2_8 + 30 x_2_5_8 <= 30
 c1984: d_2_8 - load_2_5 + load_2_8 - p_2_8 - 30 x_2_5_8 >= -30
 c1985: d_2_9 - load_2_5 + load_2_9 - p_2_9 + 30 x_2_5_9 <= 30
 c1986: d_2_9 - load_2_5 + load_2_9 - p_2_9 - 30 x_2_5_9 >= -30
 c1987: d_2_10 + load_2_10 - load_2_5 - p_2_10 + 30 x_2_5_10 <= 30
 c1988: d_2_10 + load_2_10 - load_2_5 - p_2_10 - 30 x_2_5_10 >= -30
 c1989: d_2_1 + load_2_1 - load_2_6 - p_2_1 + 30 x_2_6_1 <= 30
 c1990: d_2_1 + load_2_1 - load_2_6 - p_2_1 - 30 x_2_6_1 >= -30
 c1991: d_2_2 + load_2_2 - load_2_6 - p_2_2 + 30 x_2_6_2 <= 30
 c1992: d_2_2 + load_2_2 - load_2_6 - p_2_2 - 30 x_2_6_2 >= -30
 c1993: d_2_3 + load_2_3 - load_2_6 - p_2_3 + 30 x_2_6_3 <= 30
 c1994: d_2_3 + load_2_3 - load_2_6 - p_2_3 - 30 x_2_6_3 >= -30
 c1995: d_2_4 + load_2_4 - load_2_6 - p_2_4 + 30 x_2_6_4 <= 30
 c1996: d_2_4 + load_2_4 - load_2_6 - p_2_4 - 30 x_2_6_4 >= -30
 c1997: d_2_5 + load_2_5 - load_2_6 - p_2_5 + 30 x_2_6_5 <= 30
 c1998: d_2_5 + load_2_5 - load_2_6 - p_2_5 - 30 x_2_6_5 >= -30
 c1999: d_2_7 - load_2_6 + load_2_7 - p_2_7 + 30 x_2_6_7 <= 30
 c2000: d_2_7 - load_2_6 + load_2_7 - p_2_7 - 30 x_2_6_7 >= -30
 c2001: d_2_8 - load_2_6 + load_2_8 - p_2_8 + 30 x_2_6_8 <= 30
 c2002: d_2_8 - load_2_6 + load_2_8 - p_2_8 - 30 x_2_6_8 >= -30
 c2003: d_2_9 - load_2_6 + load_2_9 - p_2_9 + 30 x_2_6_9 <= 30
 c2004: d_2_9 - load_2_6 + load_2_9 - p_2_9 - 30 x_2_6_9 >= -30
 c2005: d_2_10 + load_2_10 - load_2_6 - p_2_10 + 30 x_2_6_10 <= 30
 c2006: d_2_10 + load_2_10 - load_2_6 - p_2_10 - 30 x_2_6_10 >= -30
 c2007: d_2_1 + load_2_1 - load_2_7 - p_2_1 + 30 x_2_7_1 <= 30
 c2008: d_2_1 + load_2_1 - load_2_7 - p_2_1 - 30 x_2_7_1 >= -30
 c2009: d_2_2 + load_2_2 - load_2_7 - p_2_2 + 30 x_2_7_2 <= 30
 c2010: d_2_2 + load_2_2 - load_2_7 - p_2_2 - 30 x_2_7_2 >= -30
 c2011: d_2_3 + load_2_3 - load_2_7 - p_2_3 + 30 x_2_7_3 <= 30
 c2012: d_2_3 + load_2_3 - load_2_7 - p_2_3 - 30 x_2_7_3 >= -30
 c2013: d_2_4 + load_2_4 - load_2_7 - p_2_4 + 30 x_2_7_4 <= 30
 c2014: d_2_4 + load_2_4 - load_2_7 - p_2_4 - 30 x_2_7_4 >= -30
 c2015: d_2_5 + load_2_5 - load_2_7 - p_2_5 + 30 x_2_7_5 <= 30
 c2016: d_2_5 + load_2_5 - load_2_7 - p_2_5 - 30 x_2_7_5 >= -30
 c2017: d_2_6 + load_2_6 - load_2_7 - p_2_6 + 30 x_2_7_6 <= 30
 c2018: d_2_6 + load_2_6 - load_2_7 - p_2_6 - 30 x_2_7_6 >= -30
 c2019: d_2_8 - load_2_7 + load_2_8 - p_2_8 + 30 x_2_7_8 <= 30
 c2020: d_2_8 - load_2_7 + load_2_8 - p_2_8 - 30 x_2_7_8 >= -30
 c2021: d_2_9 - load_2_7 + load_2_9 - p_2_9 + 30 x_2_7_9 <= 30
 c2022: d_2_9 - load_2_7 + load_2_9 - p_2_9 - 30 x_2_7_9 >= -30
 c2023: d_2_10 + load_2_10 - load_2_7 - p_2_10 + 30 x_2_7_10 <= 30
 c2024: d_2_10 + load_2_10 - load_2_7 - p_2_10 - 30 x_2_7_10 >= -30
 c2025: d_2_1 + load_2_1 - load_2_8 - p_2_1 + 30 x_2_8_1 <= 30
 c2026: d_2_1 + load_2_1 - load_2_8 - p_2_1 - 30 x_2_8_1 >= -30
 c2027: d_2_2 + load_2_2 - load_2_8 - p_2_2 + 30 x_2_8_2 <= 30
 c2028: d_2_2 + load_2_2 - load_2_8 - p_2_2 - 30 x_2_8_2 >= -30
 c2029: d_2_3 + load_2_3 - load_2_8 - p_2_3 + 30 x_2_8_3 <= 30
 c2030: d_2_3 + load_2_3 - load_2_8 - p_2_3 - 30 x_2_8_3 >= -30
 c2031: d_2_4 + load_2_4 - load_2_8 - p_2_4 + 30 x_2_8_4 <= 30
 c2032: d_2_4 + load_2_4 - load_2_8 - p_2_4 - 30 x_2_8_4 >= -30
 c2033: d_2_5 + load_2_5 - load_2_8 - p_2_5 + 30 x_2_8_5 <= 30
 c2034: d_2_5 + load_2_5 - load_2_8 - p_2_5 - 30 x_2_8_5 >= -30
 c2035: d_2_6 + load_2_6 - load_2_8 - p_2_6 + 30 x_2_8_6 <= 30
 c2036: d_2_6 + load_2_6 - load_2_8 - p_2_6 - 30 x_2_8_6 >= -30
 c2037: d_2_7 + load_2_7 - load_2_8 - p_2_7 + 30 x_2_8_7 <= 30
 c2038: d_2_7 + load_2_7 - load_2_8 - p_2_7 - 30 x_2_8_7 >= -30
 c2039: d_2_9 - load_2_8 + load_2_9 - p_2_9 + 30 x_2_8_9 <= 30
 c2040: d_2_9 - load_2_8 + load_2_9 - p_2_9 - 30 x_2_8_9 >= -30
 c2041: d_2_10 + load_2_10 - load_2_8 - p_2_10 + 30 x_2_8_10 <= 30
 c2042: d_2_10 + load_2_10 - load_2_8 - p_2_10 - 30 x_2_8_10 >= -30
 c2043: d_2_1 + load_2_1 - load_2_9 - p_2_1 + 30 x_2_9_1 <= 30
 c2044: d_2_1 + load_2_1 - load_2_9 - p_2_1 - 30 x_2_9_1 >= -30
 c2045: d_2_2 + load_2_2 - load_2_9 - p_2_2 + 30 x_2_9_2 <= 30
 c2046: d_2_2 + load_2_2 - load_2_9 - p_2_2 - 30 x_2_9_2 >= -30
 c2047: d_2_3 + load_2_3 - load_2_9 - p_2_3 + 30 x_2_9_3 <= 30
 c2048: d_2_3 + load_2_3 - load_2_9 - p_2_3 - 30 x_2_9_3 >= -30
 c2049: d_2_4 + load_2_4 - load_2_9 - p_2_4 + 30 x_2_9_4 <= 30
 c2050: d_2_4 + load_2_4 - load_2_9 - p_2_4 - 30 x_2_9_4 >= -30
 c2051: d_2_5 + load_2_5 - load_2_9 - p_2_5 + 30 x_2_9_5 <= 30
 c2052: d_2_5 + load_2_5 - load_2_9 - p_2_5 - 30 x_2_9_5 >= -30
 c2053: d_2_6 + load_2_6 - load_2_9 - p_2_6 + 30 x_2_9_6 <= 30
 c2054: d_2_6 + load_2_6 - load_2_9 - p_2_6 - 30 x_2_9_6 >= -30
 c2055: d_2_7 + load_2_7 - load_2_9 - p_2_7 + 30 x_2_9_7 <= 30
 c2056: d_2_7 + load_2_7 - load_2_9 - p_2_7 - 30 x_2_9_7 >= -30
 c2057: d_2_8 + load_2_8 - load_2_9 - p_2_8 + 30 x_2_9_8 <= 30
 c2058: d_2_8 + load_2_8 - load_2_9 - p_2_8 - 30 x_2_9_8 >= -30
 c2059: d_2_10 + load_2_10 - load_2_9 - p_2_10 + 30 x_2_9_10 <= 30
 c2060: d_2_10 + load_2_10 - load_2_9 - p_2_10 - 30 x_2_9_10 >= -30
 c2061: d_2_1 + load_2_1 - load_2_10 - p_2_1 + 30 x_2_10_1 <= 30
 c2062: d_2_1 + load_2_1 - load_2_10 - p_2_1 - 30 x_2_10_1 >= -30
 c2063: d_2_2 - load_2_10 + load_2_2 - p_2_2 + 30 x_2_10_2 <= 30
 c2064: d_2_2 - load_2_10 + load_2_2 - p_2_2 - 30 x_2_10_2 >= -30
 c2065: d_2_3 - load_2_10 + load_2_3 - p_2_3 + 30 x_2_10_3 <= 30
 c2066: d_2_3 - load_2_10 + load_2_3 - p_2_3 - 30 x_2_10_3 >= -30
 c2067: d_2_4 - load_2_10 + load_2_4 - p_2_4 + 30 x_2_10_4 <= 30
 c2068: d_2_4 - load_2_10 + load_2_4 - p_2_4 - 30 x_2_10_4 >= -30
 c2069: d_2_5 - load_2_10 + load_2_5 - p_2_5 + 30 x_2_10_5 <= 30
 c2070: d_2_5 - load_2_10 + load_2_5 - p_2_5 - 30 x_2_10_5 >= -30
 c2071: d_2_6 - load_2_10 + load_2_6 - p_2_6 + 30 x_2_10_6 <= 30
 c2072: d_2_6 - load_2_10 + load_2_6 - p_2_6 - 30 x_2_10_6 >= -30
 c2073: d_2_7 - load_2_10 + load_2_7 - p_2_7 + 30 x_2_10_7 <= 30
 c2074: d_2_7 - load_2_10 + load_2_7 - p_2_7 - 30 x_2_10_7 >= -30
 c2075: d_2_8 - load_2_10 + load_2_8 - p_2_8 + 30 x_2_10_8 <= 30
 c2076: d_2_8 - load_2_10 + load_2_8 - p_2_8 - 30 x_2_10_8 >= -30
 c2077: d_2_9 - load_2_10 + load_2_9 - p_2_9 + 30 x_2_10_9 <= 30
 c2078: d_2_9 - load_2_10 + load_2_9 - p_2_9 - 30 x_2_10_9 >= -30
 c2079: - d_2_1 - d_2_10 - d_2_2 - d_2_3 - d_2_4 - d_2_5 - d_2_6 - d_2_7 - d_2_8 - d_2_9 + p_2_1 + p_2_10 + p_2_2 + p_2_3 + p_2_4 + p_2_5 + p_2_6 + p_2_7 + p_2_8 + p_2_9 >= 0
 c2080: 120 p_2_1 + 120 p_2_10 + 120 p_2_2 + 120 p_2_3 + 120 p_2_4 + 120 p_2_5 + 120 p_2_6 + 120 p_2_7 + 120 p_2_8 + 120 p_2_9 + 221.77539060964057 x_2_0_1 + 293.44449221746567 x_2_0_10 + 198.76475395359725 x_2_0_2 + 284.844859483547 x_2_0_3 + 233.24323917201173 x_2_0_4 + 198.12934057217862 x_2_0_5 + 255.01058185947099 x_2_0_6 + 313.27537670501539 x_2_0_7 + 256.56248933592894 x_2_0_8 + 260.63742516276437 x_2_0_9 + 293.44449221746567 x_2_10_0 + 74.014350262990632 x_2_10_1 + 463.97909066709934 x_2_10_2 + 487.80660614010418 x_2_10_3 + 62.700164185491737 x_2_10_4 + 435.18922464222095 x_2_10_5 + 471.69873539410702 x_2_10_6 + 41.830351537815091 x_2_10_7 + 472.7240704196617 x_2_10_8 + 505.83314303436413 x_2_10_9 + 221.77539060964057 x_2_1_0 + 74.014350262990632 x_2_1_10 + 390.11742249171431 x_2_1_2 + 438.07522623217392 x_2_1_3 + 11.535228283321837 x_2_1_4 + 362.47534420360131 x_2_1_5 + 418.57333803176948 x_2_1_6 + 92.409690424648034 x_2_1_7 + 402.09318651058834 x_2_1_8 + 447.3446849916175 x_2_1_9 + 198.76475395359725 x_2_2_0 + 390.11742249171431 x_2_2_1 + 463.97909066709934 x_2_2_10 + 386.61646737370779 x_2_2_3 + 401.30325732912888 x_2_2_4 + 58.050183179018518 x_2_2_5 + 352.69348339749973 x_2_2_6 + 472.23022155331881 x_2_2_7 + 103.32866613108594 x_2_2_8 + 322.32054064795108 x_2_2_9 + 284.844859483547 x_2_3_0 + 438.07522623217392 x_2_3_1 + 487.80660614010418 x_2_3_10 + 386.61646737370779 x_2_3_2 + 446.85195117813578 x_2_3_4 + 423.65449141498812 x_2_3_5 + 33.971363692431929 x_2_3_6 + 523.27540428146824 x_2_3_7 + 483.87300854671099 x_2_3_8 + 82.810768215490441 x_2_3_9 + 233.24323917201173 x_2_4_0 + 11.535228283321837 x_2_4_1 + 62.700164185491737 x_2_4_10 + 401.30325732912888 x_2_4_2 + 446.85195117813578 x_2_4_3 + 373.18631048827984 x_2_4_5 + 427.81544944984461 x_2_4_6 + 81.378912261704173 x_2_4_7 + 412.19785107633538 x_2_4_8 + 457.34309516165507 x_2_4_9 + 198.12934057217862 x_2_5_0 + 362.47534420360131 x_2_5_1 + 435.18922464222095 x_2_5_10 + 58.050183179018518 x_2_5_2 + 423.65449141498812 x_2_5_3 + 373.18631048827984 x_2_5_4 + 389.74853390921226 x_2_5_6 + 438.95242089401978 x_2_5_7 + 61.710638434520121 x_2_5_8 + 365.60706291383718 x_2_5_9 + 255.01058185947099 x_2_6_0 + 418.57333803176948 x_2_6_1 + 471.69873539410702 x_2_6_10 + 352.69348339749973 x_2_6_2 + 33.971363692431929 x_2_6_3 + 427.81544944984461 x_2_6_4 + 389.74853390921226 x_2_6_5 + 505.78749280212236 x_2_6_7 + 449.91779350341903 x_2_6_8 + 59.786466190531058 x_2_6_9 + 313.27537670501539 x_2_7_0 + 92.409690424648034 x_2_7_1 + 41.830351537815091 x_2_7_10 + 472.23022155331881 x_2_7_2 + 523.27540428146824 x_2_7_3 + 81.378912261704173 x_2_7_4 + 438.95242089401978 x_2_7_5 + 505.78749280212236 x_2_7_6 + 471.82590883308961 x_2_7_8 + 537.35851524081318 x_2_7_9 + 256.56248933592894 x_2_8_0 + 402.09318651058834 x_2_8_1 + 472.7240704196617 x_2_8_10 + 103.32866613108594 x_2_8_2 + 483.87300854671099 x_2_8_3 + 412.19785107633538 x_2_8_4 + 61.710638434520121 x_2_8_5 + 449.91779350341903 x_2_8_6 + 471.82590883308961 x_2_8_7 + 423.41608733304685 x_2_8_9 + 260.63742516276437 x_2_9_0 + 447.3446849916175 x_2_9_1 + 505.83314303436413 x_2_9_10 + 322.32054064795108 x_2_9_2 + 82.810768215490441 x_2_9_3 + 457.34309516165507 x_2_9_4 + 365.60706291383718 x_2_9_5 + 59.786466190531058 x_2_9_6 + 537.35851524081318 x_2_9_7 + 423.41608733304685 x_2_9_8 <= 3600
 c2081: 120 p_0_1 + 100000 z_0_1 <= 103156.44921878072
 c2082: 120 p_0_2 + 100000 z_0_2 <= 103202.47049209281
 c2083: 120 p_0_1 + 120 p_0_2 + 100000 z_0_1 + 100000 z_0_2 <= 202789.34243294504
 c2084: 120 p_0_3 + 100000 z_0_3 <= 103030.3102810329
 c2085: 120 p_0_1 + 120 p_0_3 + 100000 z_0_1 + 100000 z_0_3 <= 202655.30452367463
 c2086: 120 p_0_2 + 120 p_0_3 + 100000 z_0_2 + 100000 z_0_3 <= 202729.77391918915
 c2087: 120 p_0_1 + 120 p_0_2 + 120 p_0_3 + 100000 z_0_1 + 100000 z_0_2 + 100000 z_0_3 <= 302354.7681618309
 c2088: 120 p_0_4 + 100000 z_0_4 <= 103133.51352165597
 c2089: 120 p_0_1 + 120 p_0_4 + 100000 z_0_1 + 100000 z_0_4 <= 203133.44614193501
 c2090: 120 p_0_2 + 120 p_0_4 + 100000 z_0_2 + 100000 z_0_4 <= 202766.68874954525
 c2091: 120 p_0_1 + 120 p_0_2 + 120 p_0_4 + 100000 z_0_1 + 100000 z_0_2 + 100000 z_0_4 <= 302766.62136982434
 c2092: 120 p_0_3 + 120 p_0_4 + 100000 z_0_3 + 100000 z_0_4 <= 202635.05995016629
 c2093: 120 p_0_1 + 120 p_0_3 + 120 p_0_4 + 100000 z_0_1 + 100000 z_0_3 + 100000 z_0_4 <= 302634.99257044535
 c2094: 120 p_0_2 + 120 p_0_3 + 120 p_0_4 + 100000 z_0_2 + 100000 z_0_3 + 100000 z_0_4 <= 302334.52358832257
 c2095: 120 p_0_1 + 120 p_0_2 + 120 p_0_3 + 120 p_0_4 + 100000 z_0_1 + 100000 z_0_2 + 100000 z_0_3 + 100000 z_0_4 <= 402334.45620860159
 c2096: 120 p_0_5 + 100000 z_0_5 <= 103203.74131885564
 c2097: 120 p_0_1 + 120 p_0_5 + 100000 z_0_1 + 100000 z_0_5 <= 202817.61992461458
 c2098: 120 p_0_2 + 120 p_0_5 + 100000 z_0_2 + 100000 z_0_5 <= 203145.05572229522
 c2099: 120 p_0_1 + 120 p_0_2 + 120 p_0_5 + 100000 z_0_1 + 100000 z_0_2 + 100000 z_0_5 <= 302758.93432805414
 c2100: 120 p_0_3 + 120 p_0_5 + 100000 z_0_3 + 100000 z_0_5 <= 202693.37130852928
 c2101: 120 p_0_1 + 120 p_0_3 + 120 p_0_5 + 100000 z_0_1 + 100000 z_0_3 + 100000 z_0_5 <= 302318.36555117101
 c2102: 120 p_0_2 + 120 p_0_3 + 120 p_0_5 + 100000 z_0_2 + 100000 z_0_3 + 100000 z_0_5 <= 302672.35914939153
 c2103: 120 p_0_1 + 120 p_0_2 + 120 p_0_3 + 120 p_0_5 + 100000 z_0_1 + 100000 z_0_2 + 100000 z_0_3 + 100000 z_0_5 <= 402297.35339203326
 c2104: 120 p_0_4 + 120 p_0_5 + 100000 z_0_4 + 100000 z_0_5 <= 202795.44110976753
 c2105: 120 p_0_1 + 120 p_0_4 + 120 p_0_5 + 100000 z_0_1 + 100000 z_0_4 + 100000 z_0_5 <= 302795.37373004656
 c2106: 120 p_0_2 + 120 p_0_4 + 120 p_0_5 + 100000 z_0_2 + 100000 z_0_4 + 100000 z_0_5 <= 302736.75551320711
 c2107: 120 p_0_1 + 120 p_0_2 + 120 p_0_4 + 120 p_0_5 + 100000 z_0_1 + 100000 z_0_2 + 100000 z_0_4 + 100000 z_0_5 <= 402736.68813348614
 c2108: 120 p_0_3 + 120 p_0_4 + 120 p_0_5 + 100000 z_0_3 + 100000 z_0_4 + 100000 z_0_5 <= 302298.12097766268
 c2109: 120 p_0_1 + 120 p_0_3 + 120 p_0_4 + 120 p_0_5 + 100000 z_0_1 + 100000 z_0_3 + 100000 z_0_4 + 100000 z_0_5 <= 402298.05359794176
 c2110: 120 p_0_2 + 120 p_0_3 + 120 p_0_4 + 120 p_0_5 + 100000 z_0_2 + 100000 z_0_3 + 100000 z_0_4 + 100000 z_0_5 <= 402277.10881852492
 c2111: 120 p_0_1 + 120 p_0_2 + 120 p_0_3 + 120 p_0_4 + 120 p_0_5 + 100000 z_0_1 + 100000 z_0_2 + 100000 z_0_3 + 100000 z_0_4 + 100000 z_0_5 <= 502277.04143880401
 c2112: 120 p_0_6 + 100000 z_0_6 <= 103089.97883628107
 c2113: 120 p_0_1 + 120 p_0_6 + 100000 z_0_1 + 100000 z_0_6 <= 202704.64068949912
 c2114: 120 p_0_2 + 120 p_0_6 + 100000 z_0_2 + 100000 z_0_6 <= 202793.53118078943
 c2115: 120 p_0_1 + 120 p_0_2 + 120 p_0_6 + 100000 z_0_1 + 100000 z_0_2 + 100000 z_0_6 <= 302408.19303400751
 c2116: 120 p_0_3 + 120 p_0_6 + 100000 z_0_3 + 100000 z_0_6 <= 203026.17319496456
 c2117: 120 p_0_1 + 120 p_0_3 + 120 p_0_6 + 100000 z_0_1 + 100000 z_0_3 + 100000 z_0_6 <= 302651.16743760626
 c2118: 120 p_0_2 + 120 p_0_3 + 120 p_0_6 + 100000 z_0_2 + 100000 z_0_3 + 100000 z_0_6 <= 302729.72553947294
 c2119: 120 p_0_1 + 120 p_0_2 + 120 p_0_3 + 120 p_0_6 + 100000 z_0_1 + 100000 z_0_2 + 100000 z_0_3 + 100000 z_0_6 <= 402354.71978211467
 c2120: 120 p_0_4 + 120 p_0_6 + 100000 z_0_4 + 100000 z_0_6 <= 202683.93072951867
 c2121: 120 p_0_1 + 120 p_0_4 + 120 p_0_6 + 100000 z_0_1 + 100000 z_0_4 + 100000 z_0_6 <= 302683.86334979773
 c2122: 120 p_0_2 + 120 p_0_4 + 120 p_0_6 + 100000 z_0_2 + 100000 z_0_4 + 100000 z_0_6 <= 302387.48307402706
 c2123: 120 p_0_1 + 120 p_0_2 + 120 p_0_4 + 120 p_0_6 + 100000 z_0_1 + 100000 z_0_2 + 100000 z_0_4 + 100000 z_0_6 <= 402387.41569430608
 c2124: 120 p_0_3 + 120 p_0_4 + 120 p_0_6 + 100000 z_0_3 + 100000 z_0_4 + 100000 z_0_6 <= 302630.92286409793
 c2125: 120 p_0_1 + 120 p_0_3 + 120 p_0_4 + 120 p_0_6 + 100000 z_0_1 + 100000 z_0_3 + 100000 z_0_4 + 100000 z_0_6 <= 402630.85548437701
 c2126: 120 p_0_2 + 120 p_0_3 + 120 p_0_4 + 120 p_0_6 + 100000 z_0_2 + 100000 z_0_3 + 100000 z_0_4 + 100000 z_0_6 <= 402334.47520860634
 c2127: 120 p_0_1 + 120 p_0_2 + 120 p_0_3 + 120 p_0_4 + 120 p_0_6 + 100000 z_0_1 + 100000 z_0_2 + 100000 z_0_3 + 100000 z_0_4 + 100000 z_0_6 <= 502334.40782888536
 c2128: 120 p_0_5 + 120 p_0_6 + 100000 z_0_5 + 100000 z_0_6 <= 202757.11154365915
 c2129: 120 p_0_1 + 120 p_0_5 + 120 p_0_6 + 100000 z_0_1 + 100000 z_0_5 + 100000 z_0_6 <= 302371.77339687722
 c2130: 120 p_0_2 + 120 p_0_5 + 120 p_0_6 + 100000 z_0_2 + 100000 z_0_5 + 100000 z_0_6 <= 302736.11641099182
 c2131: 120 p_0_1 + 120 p_0_2 + 120 p_0_5 + 120 p_0_6 + 100000 z_0_1 + 100000 z_0_2 + 100000 z_0_5 + 100000 z_0_6 <= 402350.77826420992
 c2132: 120 p_0_3 + 120 p_0_5 + 120 p_0_6 + 100000 z_0_3 + 100000 z_0_5 + 100000 z_0_6 <= 302693.3059023426
 c2133: 120 p_0_1 + 120 p_0_3 + 120 p_0_5 + 120 p_0_6 + 100000 z_0_1 + 100000 z_0_3 + 100000 z_0_5 + 100000 z_0_6 <= 402318.30014498439
 c2134: 120 p_0_2 + 120 p_0_3 + 120 p_0_5 + 120 p_0_6 + 100000 z_0_2 + 100000 z_0_3 + 100000 z_0_5 + 100000 z_0_6 <= 402672.3107696753
 c2135: 120 p_0_1 + 120 p_0_2 + 120 p_0_3 + 120 p_0_5 + 120 p_0_6 + 100000 z_0_1 + 100000 z_0_2 + 100000 z_0_3 + 100000 z_0_5 + 100000 z_0_6 <= 502297.30501231708
 c2136: 120 p_0_4 + 120 p_0_5 + 120 p_0_6 + 100000 z_0_4 + 100000 z_0_5 + 100000 z_0_6 <= 302351.06343689677
 c2137: 120 p_0_1 + 120 p_0_4 + 120 p_0_5 + 120 p_0_6 + 100000 z_0_1 + 100000 z_0_4 + 100000 z_0_5 + 100000 z_0_6 <= 402350.9960571758
 c2138: 120 p_0_2 + 120 p_0_4 + 120 p_0_5 + 120 p_0_6 + 100000 z_0_2 + 100000 z_0_4 + 100000 z_0_5 + 100000 z_0_6 <= 402330.06830422947
 c2139: 120 p_0_1 + 120 p_0_2 + 120 p_0_4 + 120 p_0_5 + 120 p_0_6 + 100000 z_0_1 + 100000 z_0_2 + 100000 z_0_4 + 100000 z_0_5 + 100000 z_0_6 <= 502330.00092450849
 c2140: 120 p_0_3 + 120 p_0_4 + 120 p_0_5 + 120 p_0_6 + 100000 z_0_3 + 100000 z_0_4 + 100000 z_0_5 + 100000 z_0_6 <= 402298.05557147606
 c2141: 120 p_0_1 + 120 p_0_3 + 120 p_0_4 + 120 p_0_5 + 120 p_0_6 + 100000 z_0_1 + 100000 z_0_3 + 100000 z_0_4 + 100000 z_0_5 + 100000 z_0_6 <= 502297.98819175508
 c2142: 120 p_0_2 + 120 p_0_3 + 120 p_0_4 + 120 p_0_5 + 120 p_0_6 + 100000 z_0_2 + 100000 z_0_3 + 100000 z_0_4 + 100000 z_0_5 + 100000 z_0_6 <= 502277.06043880875
 c2143: 120 p_0_1 + 120 p_0_2 + 120 p_0_3 + 120 p_0_4 + 120 p_0_5 + 120 p_0_6 + 100000 z_0_1 + 100000 z_0_2 + 100000 z_0_3 + 100000 z_0_4 + 100000 z_0_5 + 100000 z_0_6 <= 602276.99305908778
 c2144: 120 p_0_7 + 100000 z_0_7 <= 102973.44924658997
 c2145: 120 p_0_1 + 120 p_0_7 + 100000 z_0_1 + 100000 z_0_7 <= 202972.5395422607
 c2146: 120 p_0_2 + 120 p_0_7 + 100000 z_0_2 + 100000 z_0_7 <= 202615.72964778807
 c2147: 120 p_0_1 + 120 p_0_2 + 120 p_0_7 + 100000 z_0_1 + 100000 z_0_2 + 100000 z_0_7 <= 302614.81994345877
 c2148: 120 p_0_3 + 120 p_0_7 + 100000 z_0_3 + 100000 z_0_7 <= 202478.60435952997
 c2149: 120 p_0_1 + 120 p_0_3 + 120 p_0_7 + 100000 z_0_1 + 100000 z_0_3 + 100000 z_0_7 <= 302477.6946552007
 c2150: 120 p_0_2 + 120 p_0_3 + 120 p_0_7 + 100000 z_0_2 + 100000 z_0_3 + 100000 z_0_7 <= 302178.06799768622
 c2151: 120 p_0_1 + 120 p_0_2 + 120 p_0_3 + 120 p_0_7 + 100000 z_0_1 + 100000 z_0_2 + 100000 z_0_3 + 100000 z_0_7 <= 402177.15829335694
 c2152: 120 p_0_4 + 120 p_0_7 + 100000 z_0_4 + 100000 z_0_7 <= 202972.10247186126
 c2153: 120 p_0_1 + 120 p_0_4 + 120 p_0_7 + 100000 z_0_1 + 100000 z_0_4 + 100000 z_0_7 <= 302972.03509214032
 c2154: 120 p_0_2 + 120 p_0_4 + 120 p_0_7 + 100000 z_0_2 + 100000 z_0_4 + 100000 z_0_7 <= 302614.38287305937
 c2155: 120 p_0_1 + 120 p_0_2 + 120 p_0_4 + 120 p_0_7 + 100000 z_0_1 + 100000 z_0_2 + 100000 z_0_4 + 100000 z_0_7 <= 402614.31549333839
 c2156: 120 p_0_3 + 120 p_0_4 + 120 p_0_7 + 100000 z_0_3 + 100000 z_0_4 + 100000 z_0_7 <= 302477.25758480129
 c2157: 120 p_0_1 + 120 p_0_3 + 120 p_0_4 + 120 p_0_7 + 100000 z_0_1 + 100000 z_0_3 + 100000 z_0_4 + 100000 z_0_7 <= 402477.19020508032
 c2158: 120 p_0_2 + 120 p_0_3 + 120 p_0_4 + 120 p_0_7 + 100000 z_0_2 + 100000 z_0_3 + 100000 z_0_4 + 100000 z_0_7 <= 402176.72122295754
 c2159: 120 p_0_1 + 120 p_0_2 + 120 p_0_3 + 120 p_0_4 + 120 p_0_7 + 100000 z_0_1 + 100000 z_0_2 + 100000 z_0_3 + 100000 z_0_4 + 100000 z_0_7 <= 502176.65384323656
 c2160: 120 p_0_5 + 120 p_0_7 + 100000 z_0_5 + 100000 z_0_7 <= 202649.64286182879
 c2161: 120 p_0_1 + 120 p_0_5 + 120 p_0_7 + 100000 z_0_1 + 100000 z_0_5 + 100000 z_0_7 <= 302648.73315749952
 c2162: 120 p_0_2 + 120 p_0_5 + 120 p_0_7 + 100000 z_0_2 + 100000 z_0_5 + 100000 z_0_7 <= 302590.95726526837
 c2163: 120 p_0_1 + 120 p_0_2 + 120 p_0_5 + 120 p_0_7 + 100000 z_0_1 + 100000 z_0_2 + 100000 z_0_5 + 100000 z_0_7 <= 402590.0475609391
 c2164: 120 p_0_3 + 120 p_0_5 + 120 p_0_7 + 100000 z_0_3 + 100000 z_0_5 + 100000 z_0_7 <= 302154.79797476879
 c2165: 120 p_0_1 + 120 p_0_3 + 120 p_0_5 + 120 p_0_7 + 100000 z_0_1 + 100000 z_0_3 + 100000 z_0_5 + 100000 z_0_7 <= 402147.58846239344
 c2166: 120 p_0_2 + 120 p_0_3 + 120 p_0_5 + 120 p_0_7 + 100000 z_0_2 + 100000 z_0_3 + 100000 z_0_5 + 100000 z_0_7 <= 402120.65322788863
 c2167: 120 p_0_1 + 120 p_0_2 + 120 p_0_3 + 120 p_0_5 + 120 p_0_7 + 100000 z_0_1 + 100000 z_0_2 + 100000 z_0_3 + 100000 z_0_5 + 100000 z_0_7 <= 502119.74352355936
 c2168: 120 p_0_4 + 120 p_0_5 + 120 p_0_7 + 100000 z_0_4 + 100000 z_0_5 + 100000 z_0_7 <= 302648.29608710011
 c2169: 120 p_0_1 + 120 p_0_4 + 120 p_0_5 + 120 p_0_7 + 100000 z_0_1 + 100000 z_0_4 + 100000 z_0_5 + 100000 z_0_7 <= 402648.22870737914
 c2170: 120 p_0_2 + 120 p_0_4 + 120 p_0_5 + 120 p_0_7 + 100000 z_0_2 + 100000 z_0_4 + 100000 z_0_5 + 100000 z_0_7 <= 402589.61049053964
 c2171: 120 p_0_1 + 120 p_0_2 + 120 p_0_4 + 120 p_0_5 + 120 p_0_7 + 100000 z_0_1 + 100000 z_0_2 + 100000 z_0_4 + 100000 z_0_5 + 100000 z_0_7 <= 502589.54311081872
 c2172: 120 p_0_3 + 120 p_0_4 + 120 p_0_5 + 120 p_0_7 + 100000 z_0_3 + 100000 z_0_4 + 100000 z_0_5 + 100000 z_0_7 <= 402149.84251561039
 c2173: 120 p_0_1 + 120 p_0_3 + 120 p_0_4 + 120 p_0_5 + 120 p_0_7 + 100000 z_0_1 + 100000 z_0_3 + 100000 z_0_4 + 100000 z_0_5 + 100000 z_0_7 <= 502147.08401227306
 c2174: 120 p_0_2 + 120 p_0_3 + 120 p_0_4 + 120 p_0_5 + 120 p_0_7 + 100000 z_0_2 + 100000 z_0_3 + 100000 z_0_4 + 100000 z_0_5 + 100000 z_0_7 <= 502119.30645315989
 c2175: 120 p_0_1 + 120 p_0_2 + 120 p_0_3 + 120 p_0_4 + 120 p_0_5 + 120 p_0_7 + 100000 z_0_1 + 100000 z_0_2 + 100000 z_0_3 + 100000 z_0_4 + 100000 z_0_5 + 100000 z_0_7 <= 602119.23907343892
 c2176: 120 p_0_6 + 120 p_0_7 + 100000 z_0_6 + 100000 z_0_7 <= 202525.9265486334
 c2177: 120 p_0_1 + 120 p_0_6 + 120 p_0_7 + 100000 z_0_1 + 100000 z_0_6 + 100000 z_0_7 <= 302525.0168443041
 c2178: 120 p_0_2 + 120 p_0_6 + 120 p_0_7 + 100000 z_0_2 + 100000 z_0_6 + 100000 z_0_7 <= 302229.47889314179
 c2179: 120 p_0_1 + 120 p_0_2 + 120 p_0_6 + 120 p_0_7 + 100000 z_0_1 + 100000 z_0_2 + 100000 z_0_6 + 100000 z_0_7 <= 402228.56918881251
 c2180: 120 p_0_3 + 120 p_0_6 + 120 p_0_7 + 100000 z_0_3 + 100000 z_0_6 + 100000 z_0_7 <= 302474.46727346163
 c2181: 120 p_0_1 + 120 p_0_3 + 120 p_0_6 + 120 p_0_7 + 100000 z_0_1 + 100000 z_0_3 + 100000 z_0_6 + 100000 z_0_7 <= 402473.55756913236
 c2182: 120 p_0_2 + 120 p_0_3 + 120 p_0_6 + 120 p_0_7 + 100000 z_0_2 + 100000 z_0_3 + 100000 z_0_6 + 100000 z_0_7 <= 402178.01961796999
 c2183: 120 p_0_1 + 120 p_0_2 + 120 p_0_3 + 120 p_0_6 + 120 p_0_7 + 100000 z_0_1 + 100000 z_0_2 + 100000 z_0_3 + 100000 z_0_6 + 100000 z_0_7 <= 502177.10991364071
 c2184: 120 p_0_4 + 120 p_0_6 + 120 p_0_7 + 100000 z_0_4 + 100000 z_0_6 + 100000 z_0_7 <= 302524.5797739047
 c2185: 120 p_0_1 + 120 p_0_4 + 120 p_0_6 + 120 p_0_7 + 100000 z_0_1 + 100000 z_0_4 + 100000 z_0_6 + 100000 z_0_7 <= 402524.51239418372
 c2186: 120 p_0_2 + 120 p_0_4 + 120 p_0_6 + 120 p_0_7 + 100000 z_0_2 + 100000 z_0_4 + 100000 z_0_6 + 100000 z_0_7 <= 402228.13211841305
 c2187: 120 p_0_1 + 120 p_0_2 + 120 p_0_4 + 120 p_0_6 + 120 p_0_7 + 100000 z_0_1 + 100000 z_0_2 + 100000 z_0_4 + 100000 z_0_6 + 100000 z_0_7 <= 502228.06473869213
 c2188: 120 p_0_3 + 120 p_0_4 + 120 p_0_6 + 120 p_0_7 + 100000 z_0_3 + 100000 z_0_4 + 100000 z_0_6 + 100000 z_0_7 <= 402473.1204987329
 c2189: 120 p_0_1 + 120 p_0_3 + 120 p_0_4 + 120 p_0_6 + 120 p_0_7 + 100000 z_0_1 + 100000 z_0_3 + 100000 z_0_4 + 100000 z_0_6 + 100000 z_0_7 <= 502473.05311901198
 c2190: 120 p_0_2 + 120 p_0_3 + 120 p_0_4 + 120 p_0_6 + 120 p_0_7 + 100000 z_0_2 + 100000 z_0_3 + 100000 z_0_4 + 100000 z_0_6 + 100000 z_0_7 <= 502176.67284324131
 c2191: 120 p_0_1 + 120 p_0_2 + 120 p_0_3 + 120 p_0_4 + 120 p_0_6 + 120 p_0_7 + 100000 z_0_1 + 100000 z_0_2 + 100000 z_0_3 + 100000 z_0_4 + 100000 z_0_6 + 100000 z_0_7 <= 602176.60546352039
 c2192: 120 p_0_5 + 120 p_0_6 + 120 p_0_7 + 100000 z_0_5 + 100000 z_0_6 + 100000 z_0_7 <= 302203.0130866323
 c2193: 120 p_0_1 + 120 p_0_5 + 120 p_0_6 + 120 p_0_7 + 100000 z_0_1 + 100000 z_0_5 + 100000 z_0_6 + 100000 z_0_7 <= 402202.10338230303
 c2194: 120 p_0_2 + 120 p_0_5 + 120 p_0_6 + 120 p_0_7 + 100000 z_0_2 + 100000 z_0_5 + 100000 z_0_6 + 100000 z_0_7 <= 402182.017953965
 c2195: 120 p_0_1 + 120 p_0_2 + 120 p_0_5 + 120 p_0_6 + 120 p_0_7 + 100000 z_0_1 + 100000 z_0_2 + 100000 z_0_5 + 100000 z_0_6 + 100000 z_0_7 <= 502181.10824963573
 c2196: 120 p_0_3 + 120 p_0_5 + 120 p_0_6 + 120 p_0_7 + 100000 z_0_3 + 100000 z_0_5 + 100000 z_0_6 + 100000 z_0_7 <= 402150.66088870045
 c2197: 120 p_0_1 + 120 p_0_3 + 120 p_0_5 + 120 p_0_6 + 120 p_0_7 + 100000 z_0_1 + 100000 z_0_3 + 100000 z_0_5 + 100000 z_0_6 + 100000 z_0_7 <= 502143.4513763251
 c2198: 120 p_0_2 + 120 p_0_3 + 120 p_0_5 + 120 p_0_6 + 120 p_0_7 + 100000 z_0_2 + 100000 z_0_3 + 100000 z_0_5 + 100000 z_0_6 + 100000 z_0_7 <= 502120.6048481724
 c2199: 120 p_0_1 + 120 p_0_2 + 120 p_0_3 + 120 p_0_5 + 120 p_0_6 + 120 p_0_7 + 100000 z_0_1 + 100000 z_0_2 + 100000 z_0_3 + 100000 z_0_5 + 100000 z_0_6 + 100000 z_0_7 <= 602119.69514384307
 c2200: 120 p_0_4 + 120 p_0_5 + 120 p_0_6 + 120 p_0_7 + 100000 z_0_4 + 100000 z_0_5 + 100000 z_0_6 + 100000 z_0_7 <= 402201.66631190357
 c2201: 120 p_0_1 + 120 p_0_4 + 120 p_0_5 + 120 p_0_6 + 120 p_0_7 + 100000 z_0_1 + 100000 z_0_4 + 100000 z_0_5 + 100000 z_0_6 + 100000 z_0_7 <= 502201.59893218265
 c2202: 120 p_0_2 + 120 p_0_4 + 120 p_0_5 + 120 p_0_6 + 120 p_0_7 + 100000 z_0_2 + 100000 z_0_4 + 100000 z_0_5 + 100000 z_0_6 + 100000 z_0_7 <= 502180.67117923626
 c2203: 120 p_0_1 + 120 p_0_2 + 120 p_0_4 + 120 p_0_5 + 120 p_0_6 + 120 p_0_7 + 100000 z_0_1 + 100000 z_0_2 + 100000 z_0_4 + 100000 z_0_5 + 100000 z_0_6 + 100000 z_0_7 <= 602180.60379951529
 c2204: 120 p_0_3 + 120 p_0_4 + 120 p_0_5 + 120 p_0_6 + 120 p_0_7 + 100000 z_0_3 + 100000 z_0_4 + 100000 z_0_5 + 100000 z_0_6 + 100000 z_0_7 <= 502145.70542954205
 c2205: 120 p_0_1 + 120 p_0_3 + 120 p_0_4 + 120 p_0_5 + 120 p_0_6 + 120 p_0_7 + 100000 z_0_1 + 100000 z_0_3 + 100000 z_0_4 + 100000 z_0_5 + 100000 z_0_6 + 100000 z_0_7 <= 602142.94692620472
 c2206: 120 p_0_2 + 120 p_0_3 + 120 p_0_4 + 120 p_0_5 + 120 p_0_6 + 120 p_0_7 + 100000 z_0_2 + 100000 z_0_3 + 100000 z_0_4 + 100000 z_0_5 + 100000 z_0_6 + 100000 z_0_7 <= 602119.25807344366
 c2207: 120 p_0_1 + 120 p_0_2 + 120 p_0_3 + 120 p_0_4 + 120 p_0_5 + 120 p_0_6 + 120 p_0_7 + 100000 z_0_1 + 100000 z_0_2 + 100000 z_0_3 + 100000 z_0_4 + 100000 z_0_5 + 100000 z_0_6 + 100000 z_0_7 <= 702119.19069372269
 c2208: 120 p_0_8 + 100000 z_0_8 <= 103086.87502132815
 c2209: 120 p_0_1 + 120 p_0_8 + 100000 z_0_1 + 100000 z_0_8 <= 202719.56893354384
 c2210: 120 p_0_2 + 120 p_0_8 + 100000 z_0_2 + 100000 z_0_8 <= 203041.3440905794
 c2211: 120 p_0_1 + 120 p_0_2 + 120 p_0_8 + 100000 z_0_1 + 100000 z_0_2 + 100000 z_0_8 <= 302674.03800279507
 c2212: 120 p_0_3 + 120 p_0_8 + 100000 z_0_3 + 100000 z_0_8 <= 202574.71964263381
 c2213: 120 p_0_1 + 120 p_0_3 + 120 p_0_8 + 100000 z_0_1 + 100000 z_0_3 + 100000 z_0_8 <= 302218.42423843779
 c2214: 120 p_0_2 + 120 p_0_3 + 120 p_0_8 + 100000 z_0_2 + 100000 z_0_3 + 100000 z_0_8 <= 302568.64751767571
 c2215: 120 p_0_1 + 120 p_0_2 + 120 p_0_3 + 120 p_0_8 + 100000 z_0_1 + 100000 z_0_2 + 100000 z_0_3 + 100000 z_0_8 <= 402201.34142989141
 c2216: 120 p_0_4 + 120 p_0_8 + 100000 z_0_4 + 100000 z_0_8 <= 202697.99642041573
 c2217: 120 p_0_1 + 120 p_0_4 + 120 p_0_8 + 100000 z_0_1 + 100000 z_0_4 + 100000 z_0_8 <= 302697.92904069478
 c2218: 120 p_0_2 + 120 p_0_4 + 120 p_0_8 + 100000 z_0_2 + 100000 z_0_4 + 100000 z_0_8 <= 302652.46548966697
 c2219: 120 p_0_1 + 120 p_0_2 + 120 p_0_4 + 120 p_0_8 + 100000 z_0_1 + 100000 z_0_2 + 100000 z_0_4 + 100000 z_0_8 <= 402652.39810994599
 c2220: 120 p_0_3 + 120 p_0_4 + 120 p_0_8 + 100000 z_0_3 + 100000 z_0_4 + 100000 z_0_8 <= 302199.54284892604
 c2221: 120 p_0_1 + 120 p_0_3 + 120 p_0_4 + 120 p_0_8 + 100000 z_0_1 + 100000 z_0_3 + 100000 z_0_4 + 100000 z_0_8 <= 402198.11228520848
 c2222: 120 p_0_2 + 120 p_0_3 + 120 p_0_4 + 120 p_0_8 + 100000 z_0_2 + 100000 z_0_3 + 100000 z_0_4 + 100000 z_0_8 <= 402179.76891676331
 c2223: 120 p_0_1 + 120 p_0_2 + 120 p_0_3 + 120 p_0_4 + 120 p_0_8 + 100000 z_0_1 + 100000 z_0_2 + 100000 z_0_3 + 100000 z_0_4 + 100000 z_0_8 <= 502179.70153704239
 c2224: 120 p_0_5 + 120 p_0_8 + 100000 z_0_5 + 100000 z_0_8 <= 203083.59753165737
 c2225: 120 p_0_1 + 120 p_0_5 + 120 p_0_8 + 100000 z_0_1 + 100000 z_0_5 + 100000 z_0_8 <= 302716.29144387308
 c2226: 120 p_0_2 + 120 p_0_5 + 120 p_0_8 + 100000 z_0_2 + 100000 z_0_5 + 100000 z_0_8 <= 303038.06660090864
 c2227: 120 p_0_1 + 120 p_0_2 + 120 p_0_5 + 120 p_0_8 + 100000 z_0_1 + 100000 z_0_2 + 100000 z_0_5 + 100000 z_0_8 <= 402657.60584731266
 c2228: 120 p_0_3 + 120 p_0_5 + 120 p_0_8 + 100000 z_0_3 + 100000 z_0_5 + 100000 z_0_8 <= 302573.22752133099
 c2229: 120 p_0_1 + 120 p_0_3 + 120 p_0_5 + 120 p_0_8 + 100000 z_0_1 + 100000 z_0_3 + 100000 z_0_5 + 100000 z_0_8 <= 402215.146748767
 c2230: 120 p_0_2 + 120 p_0_3 + 120 p_0_5 + 120 p_0_8 + 100000 z_0_2 + 100000 z_0_3 + 100000 z_0_5 + 100000 z_0_8 <= 402565.37002800498
 c2231: 120 p_0_1 + 120 p_0_2 + 120 p_0_3 + 120 p_0_5 + 120 p_0_8 + 100000 z_0_1 + 100000 z_0_2 + 100000 z_0_3 + 100000 z_0_5 + 100000 z_0_8 <= 502190.36427064671
 c2232: 120 p_0_4 + 120 p_0_5 + 120 p_0_8 + 100000 z_0_4 + 100000 z_0_5 + 100000 z_0_8 <= 302694.71893074497
 c2233: 120 p_0_1 + 120 p_0_4 + 120 p_0_5 + 120 p_0_8 + 100000 z_0_1 + 100000 z_0_4 + 100000 z_0_5 + 100000 z_0_8 <= 402694.651551024
 c2234: 120 p_0_2 + 120 p_0_4 + 120 p_0_5 + 120 p_0_8 + 100000 z_0_2 + 100000 z_0_4 + 100000 z_0_5 + 100000 z_0_8 <= 402636.0333341845
 c2235: 120 p_0_1 + 120 p_0_2 + 120 p_0_4 + 120 p_0_5 + 120 p_0_8 + 100000 z_0_1 + 100000 z_0_2 + 100000 z_0_4 + 100000 z_0_5 + 100000 z_0_8 <= 502635.96595446358
 c2236: 120 p_0_3 + 120 p_0_4 + 120 p_0_5 + 120 p_0_8 + 100000 z_0_3 + 100000 z_0_4 + 100000 z_0_5 + 100000 z_0_8 <= 402196.26535925531
 c2237: 120 p_0_1 + 120 p_0_3 + 120 p_0_4 + 120 p_0_5 + 120 p_0_8 + 100000 z_0_1 + 100000 z_0_3 + 100000 z_0_4 + 100000 z_0_5 + 100000 z_0_8 <= 502194.8347955377
 c2238: 120 p_0_2 + 120 p_0_3 + 120 p_0_4 + 120 p_0_5 + 120 p_0_8 + 100000 z_0_2 + 100000 z_0_3 + 100000 z_0_4 + 100000 z_0_5 + 100000 z_0_8 <= 502170.11969713838
 c2239: 120 p_0_1 + 120 p_0_2 + 120 p_0_3 + 120 p_0_4 + 120 p_0_5 + 120 p_0_8 + 100000 z_0_1 + 100000 z_0_2 + 100000 z_0_3 + 100000 z_0_4 + 100000 z_0_5 + 100000 z_0_8 <= 602170.05231741746
 c2240: 120 p_0_6 + 120 p_0_8 + 100000 z_0_6 + 100000 z_0_8 <= 202638.50913530117
 c2241: 120 p_0_1 + 120 p_0_6 + 120 p_0_8 + 100000 z_0_1 + 100000 z_0_6 + 100000 z_0_8 <= 302271.20304751687
 c2242: 120 p_0_2 + 120 p_0_6 + 120 p_0_8 + 100000 z_0_2 + 100000 z_0_6 + 100000 z_0_8 <= 302632.404779276
 c2243: 120 p_0_1 + 120 p_0_2 + 120 p_0_6 + 120 p_0_8 + 100000 z_0_1 + 100000 z_0_2 + 100000 z_0_6 + 100000 z_0_8 <= 402265.0986914917
 c2244: 120 p_0_3 + 120 p_0_6 + 120 p_0_8 + 100000 z_0_3 + 100000 z_0_6 + 100000 z_0_8 <= 302574.70349398465
 c2245: 120 p_0_1 + 120 p_0_3 + 120 p_0_6 + 120 p_0_8 + 100000 z_0_1 + 100000 z_0_3 + 100000 z_0_6 + 100000 z_0_8 <= 402214.28715236939
 c2246: 120 p_0_2 + 120 p_0_3 + 120 p_0_6 + 120 p_0_8 + 100000 z_0_2 + 100000 z_0_3 + 100000 z_0_6 + 100000 z_0_8 <= 402568.59913795948
 c2247: 120 p_0_1 + 120 p_0_2 + 120 p_0_3 + 120 p_0_6 + 120 p_0_8 + 100000 z_0_1 + 100000 z_0_2 + 100000 z_0_3 + 100000 z_0_6 + 100000 z_0_8 <= 502201.29305017518
 c2248: 120 p_0_4 + 120 p_0_6 + 120 p_0_8 + 100000 z_0_4 + 100000 z_0_6 + 100000 z_0_8 <= 302249.63053438877
 c2249: 120 p_0_1 + 120 p_0_4 + 120 p_0_6 + 120 p_0_8 + 100000 z_0_1 + 100000 z_0_4 + 100000 z_0_6 + 100000 z_0_8 <= 402249.56315466779
 c2250: 120 p_0_2 + 120 p_0_4 + 120 p_0_6 + 120 p_0_8 + 100000 z_0_2 + 100000 z_0_4 + 100000 z_0_6 + 100000 z_0_8 <= 402243.52617836359
 c2251: 120 p_0_1 + 120 p_0_2 + 120 p_0_4 + 120 p_0_6 + 120 p_0_8 + 100000 z_0_1 + 100000 z_0_2 + 100000 z_0_4 + 100000 z_0_6 + 100000 z_0_8 <= 502243.45879864262
 c2252: 120 p_0_3 + 120 p_0_4 + 120 p_0_6 + 120 p_0_8 + 100000 z_0_3 + 100000 z_0_4 + 100000 z_0_6 + 100000 z_0_8 <= 402195.4057628577
 c2253: 120 p_0_1 + 120 p_0_3 + 120 p_0_4 + 120 p_0_6 + 120 p_0_8 + 100000 z_0_1 + 100000 z_0_3 + 100000 z_0_4 + 100000 z_0_6 + 100000 z_0_8 <= 502193.97519914014
 c2254: 120 p_0_2 + 120 p_0_3 + 120 p_0_4 + 120 p_0_6 + 120 p_0_8 + 100000 z_0_2 + 100000 z_0_3 + 100000 z_0_4 + 100000 z_0_6 + 100000 z_0_8 <= 502179.72053704708
 c2255: 120 p_0_1 + 120 p_0_2 + 120 p_0_3 + 120 p_0_4 + 120 p_0_6 + 120 p_0_8 + 100000 z_0_1 + 100000 z_0_2 + 100000 z_0_3 + 100000 z_0_4 + 100000 z_0_6 + 100000 z_0_8 <= 602179.65315732616
 c2256: 120 p_0_5 + 120 p_0_6 + 120 p_0_8 + 100000 z_0_5 + 100000 z_0_6 + 100000 z_0_8 <= 302636.96775646089
 c2257: 120 p_0_1 + 120 p_0_5 + 120 p_0_6 + 120 p_0_8 + 100000 z_0_1 + 100000 z_0_5 + 100000 z_0_6 + 100000 z_0_8 <= 402269.66166867659
 c2258: 120 p_0_2 + 120 p_0_5 + 120 p_0_6 + 120 p_0_8 + 100000 z_0_2 + 100000 z_0_5 + 100000 z_0_6 + 100000 z_0_8 <= 402629.12728960527
 c2259: 120 p_0_1 + 120 p_0_2 + 120 p_0_5 + 120 p_0_6 + 120 p_0_8 + 100000 z_0_1 + 100000 z_0_2 + 100000 z_0_5 + 100000 z_0_6 + 100000 z_0_8 <= 502248.66653600929
 c2260: 120 p_0_3 + 120 p_0_5 + 120 p_0_6 + 120 p_0_8 + 100000 z_0_3 + 100000 z_0_5 + 100000 z_0_6 + 100000 z_0_8 <= 402573.16211514437
 c2261: 120 p_0_1 + 120 p_0_3 + 120 p_0_5 + 120 p_0_6 + 120 p_0_8 + 100000 z_0_1 + 100000 z_0_3 + 100000 z_0_5 + 100000 z_0_6 + 100000 z_0_8 <= 502211.00966269866
 c2262: 120 p_0_2 + 120 p_0_3 + 120 p_0_5 + 120 p_0_6 + 120 p_0_8 + 100000 z_0_2 + 100000 z_0_3 + 100000 z_0_5 + 100000 z_0_6 + 100000 z_0_8 <= 502565.32164828875
 c2263: 120 p_0_1 + 120 p_0_2 + 120 p_0_3 + 120 p_0_5 + 120 p_0_6 + 120 p_0_8 + 100000 z_0_1 + 100000 z_0_2 + 100000 z_0_3 + 100000 z_0_5 + 100000 z_0_6 + 100000 z_0_8 <= 602190.31589093048
 c2264: 120 p_0_4 + 120 p_0_5 + 120 p_0_6 + 120 p_0_8 + 100000 z_0_4 + 100000 z_0_5 + 100000 z_0_6 + 100000 z_0_8 <= 402248.08915554843
 c2265: 120 p_0_1 + 120 p_0_4 + 120 p_0_5 + 120 p_0_6 + 120 p_0_8 + 100000 z_0_1 + 100000 z_0_4 + 100000 z_0_5 + 100000 z_0_6 + 100000 z_0_8 <= 502248.02177582751
 c2266: 120 p_0_2 + 120 p_0_4 + 120 p_0_5 + 120 p_0_6 + 120 p_0_8 + 100000 z_0_2 + 100000 z_0_4 + 100000 z_0_5 + 100000 z_0_6 + 100000 z_0_8 <= 502227.09402288112
 c2267: 120 p_0_1 + 120 p_0_2 + 120 p_0_4 + 120 p_0_5 + 120 p_0_6 + 120 p_0_8 + 100000 z_0_1 + 100000 z_0_2 + 100000 z_0_4 + 100000 z_0_5 + 100000 z_0_6 + 100000 z_0_8 <= 602227.02664316015
 c2268: 120 p_0_3 + 120 p_0_4 + 120 p_0_5 + 120 p_0_6 + 120 p_0_8 + 100000 z_0_3 + 100000 z_0_4 + 100000 z_0_5 + 100000 z_0_6 + 100000 z_0_8 <= 502192.12827318691
 c2269: 120 p_0_1 + 120 p_0_3 + 120 p_0_4 + 120 p_0_5 + 120 p_0_6 + 120 p_0_8 + 100000 z_0_1 + 100000 z_0_3 + 100000 z_0_4 + 100000 z_0_5 + 100000 z_0_6 + 100000 z_0_8 <= 602190.69770946936
 c2270: 120 p_0_2 + 120 p_0_3 + 120 p_0_4 + 120 p_0_5 + 120 p_0_6 + 120 p_0_8 + 100000 z_0_2 + 100000 z_0_3 + 100000 z_0_4 + 100000 z_0_5 + 100000 z_0_6 + 100000 z_0_8 <= 602170.07131742209
 c2271: 120 p_0_1 + 120 p_0_2 + 120 p_0_3 + 120 p_0_4 + 120 p_0_5 + 120 p_0_6 + 120 p_0_8 + 100000 z_0_1 + 100000 z_0_2 + 100000 z_0_3 + 100000 z_0_4 + 100000 z_0_5 + 100000 z_0_6 + 100000 z_0_8 <= 702170.00393770123
 c2272: 120 p_0_7 + 120 p_0_8 + 100000 z_0_7 + 100000 z_0_8 <= 202558.33622512597
 c2273: 120 p_0_1 + 120 p_0_7 + 120 p_0_8 + 100000 z_0_1 + 100000 z_0_7 + 100000 z_0_8 <= 302557.42652079667
 c2274: 120 p_0_2 + 120 p_0_7 + 120 p_0_8 + 100000 z_0_2 + 100000 z_0_7 + 100000 z_0_8 <= 302512.80529437721
 c2275: 120 p_0_1 + 120 p_0_2 + 120 p_0_7 + 120 p_0_8 + 100000 z_0_1 + 100000 z_0_2 + 100000 z_0_7 + 100000 z_0_8 <= 402511.89559004793
 c2276: 120 p_0_3 + 120 p_0_7 + 120 p_0_8 + 100000 z_0_3 + 100000 z_0_7 + 100000 z_0_8 <= 302063.49133806594
 c2277: 120 p_0_1 + 120 p_0_3 + 120 p_0_7 + 120 p_0_8 + 100000 z_0_1 + 100000 z_0_3 + 100000 z_0_7 + 100000 z_0_8 <= 402056.28182569059
 c2278: 120 p_0_2 + 120 p_0_3 + 120 p_0_7 + 120 p_0_8 + 100000 z_0_2 + 100000 z_0_3 + 100000 z_0_7 + 100000 z_0_8 <= 402040.10872147355
 c2279: 120 p_0_1 + 120 p_0_2 + 120 p_0_3 + 120 p_0_7 + 120 p_0_8 + 100000 z_0_1 + 100000 z_0_2 + 100000 z_0_3 + 100000 z_0_7 + 100000 z_0_8 <= 502039.19901714427
 c2280: 120 p_0_4 + 120 p_0_7 + 120 p_0_8 + 100000 z_0_4 + 100000 z_0_7 + 100000 z_0_8 <= 302556.98945039726
 c2281: 120 p_0_1 + 120 p_0_4 + 120 p_0_7 + 120 p_0_8 + 100000 z_0_1 + 100000 z_0_4 + 100000 z_0_7 + 100000 z_0_8 <= 402556.92207067629
 c2282: 120 p_0_2 + 120 p_0_4 + 120 p_0_7 + 120 p_0_8 + 100000 z_0_2 + 100000 z_0_4 + 100000 z_0_7 + 100000 z_0_8 <= 402511.45851964853
 c2283: 120 p_0_1 + 120 p_0_2 + 120 p_0_4 + 120 p_0_7 + 120 p_0_8 + 100000 z_0_1 + 100000 z_0_2 + 100000 z_0_4 + 100000 z_0_7 + 100000 z_0_8 <= 502511.39113992755
 c2284: 120 p_0_3 + 120 p_0_4 + 120 p_0_7 + 120 p_0_8 + 100000 z_0_3 + 100000 z_0_4 + 100000 z_0_7 + 100000 z_0_8 <= 402058.5358789076
 c2285: 120 p_0_1 + 120 p_0_3 + 120 p_0_4 + 120 p_0_7 + 120 p_0_8 + 100000 z_0_1 + 100000 z_0_3 + 100000 z_0_4 + 100000 z_0_7 + 100000 z_0_8 <= 502055.77737557021
 c2286: 120 p_0_2 + 120 p_0_3 + 120 p_0_4 + 120 p_0_7 + 120 p_0_8 + 100000 z_0_2 + 100000 z_0_3 + 100000 z_0_4 + 100000 z_0_7 + 100000 z_0_8 <= 502038.76194674487
 c2287: 120 p_0_1 + 120 p_0_2 + 120 p_0_3 + 120 p_0_4 + 120 p_0_7 + 120 p_0_8 + 100000 z_0_1 + 100000 z_0_2 + 100000 z_0_3 + 100000 z_0_4 + 100000 z_0_7 + 100000 z_0_8 <= 602038.69456702389
 c2288: 120 p_0_5 + 120 p_0_7 + 120 p_0_8 + 100000 z_0_5 + 100000 z_0_7 + 100000 z_0_8 <= 302555.05873545521
 c2289: 120 p_0_1 + 120 p_0_5 + 120 p_0_7 + 120 p_0_8 + 100000 z_0_1 + 100000 z_0_5 + 100000 z_0_7 + 100000 z_0_8 <= 402554.14903112594
 c2290: 120 p_0_2 + 120 p_0_5 + 120 p_0_7 + 120 p_0_8 + 100000 z_0_2 + 100000 z_0_5 + 100000 z_0_7 + 100000 z_0_8 <= 402496.37313889473
 c2291: 120 p_0_1 + 120 p_0_2 + 120 p_0_5 + 120 p_0_7 + 120 p_0_8 + 100000 z_0_1 + 100000 z_0_2 + 100000 z_0_5 + 100000 z_0_7 + 100000 z_0_8 <= 502495.46343456546
 c2292: 120 p_0_3 + 120 p_0_5 + 120 p_0_7 + 120 p_0_8 + 100000 z_0_3 + 100000 z_0_5 + 100000 z_0_7 + 100000 z_0_8 <= 402060.21384839521
 c2293: 120 p_0_1 + 120 p_0_3 + 120 p_0_5 + 120 p_0_7 + 120 p_0_8 + 100000 z_0_1 + 100000 z_0_3 + 100000 z_0_5 + 100000 z_0_7 + 100000 z_0_8 <= 502053.00433601986
 c2294: 120 p_0_2 + 120 p_0_3 + 120 p_0_5 + 120 p_0_7 + 120 p_0_8 + 100000 z_0_2 + 100000 z_0_3 + 100000 z_0_5 + 100000 z_0_7 + 100000 z_0_8 <= 502023.67656599107
 c2295: 120 p_0_1 + 120 p_0_2 + 120 p_0_3 + 120 p_0_5 + 120 p_0_7 + 120 p_0_8 + 100000 z_0_1 + 100000 z_0_2 + 100000 z_0_3 + 100000 z_0_5 + 100000 z_0_7 + 100000 z_0_8 <= 602022.7668616618
 c2296: 120 p_0_4 + 120 p_0_5 + 120 p_0_7 + 120 p_0_8 + 100000 z_0_4 + 100000 z_0_5 + 100000 z_0_7 + 100000 z_0_8 <= 402553.71196072648
 c2297: 120 p_0_1 + 120 p_0_4 + 120 p_0_5 + 120 p_0_7 + 120 p_0_8 + 100000 z_0_1 + 100000 z_0_4 + 100000 z_0_5 + 100000 z_0_7 + 100000 z_0_8 <= 502553.64458100556
 c2298: 120 p_0_2 + 120 p_0_4 + 120 p_0_5 + 120 p_0_7 + 120 p_0_8 + 100000 z_0_2 + 100000 z_0_4 + 100000 z_0_5 + 100000 z_0_7 + 100000 z_0_8 <= 502495.02636416606
 c2299: 120 p_0_1 + 120 p_0_2 + 120 p_0_4 + 120 p_0_5 + 120 p_0_7 + 120 p_0_8 + 100000 z_0_1 + 100000 z_0_2 + 100000 z_0_4 + 100000 z_0_5 + 100000 z_0_7 + 100000 z_0_8 <= 602494.95898444508
 c2300: 120 p_0_3 + 120 p_0_4 + 120 p_0_5 + 120 p_0_7 + 120 p_0_8 + 100000 z_0_3 + 100000 z_0_4 + 100000 z_0_5 + 100000 z_0_7 + 100000 z_0_8 <= 502055.25838923681
 c2301: 120 p_0_1 + 120 p_0_3 + 120 p_0_4 + 120 p_0_5 + 120 p_0_7 + 120 p_0_8 + 100000 z_0_1 + 100000 z_0_3 + 100000 z_0_4 + 100000 z_0_5 + 100000 z_0_7 + 100000 z_0_8 <= 602052.49988589948
 c2302: 120 p_0_2 + 120 p_0_3 + 120 p_0_4 + 120 p_0_5 + 120 p_0_7 + 120 p_0_8 + 100000 z_0_2 + 100000 z_0_3 + 100000 z_0_4 + 100000 z_0_5 + 100000 z_0_7 + 100000 z_0_8 <= 602022.3297912624
 c2303: 120 p_0_1 + 120 p_0_2 + 120 p_0_3 + 120 p_0_4 + 120 p_0_5 + 120 p_0_7 + 120 p_0_8 + 100000 z_0_1 + 100000 z_0_2 + 100000 z_0_3 + 100000 z_0_4 + 100000 z_0_5 + 100000 z_0_7 + 100000 z_0_8 <= 702022.26241154142
 c2304: 120 p_0_6 + 120 p_0_7 + 120 p_0_8 + 100000 z_0_6 + 100000 z_0_7 + 100000 z_0_8 <= 302110.8135271694
 c2305: 120 p_0_1 + 120 p_0_6 + 120 p_0_7 + 120 p_0_8 + 100000 z_0_1 + 100000 z_0_6 + 100000 z_0_7 + 100000 z_0_8 <= 402109.06063476973
 c2306: 120 p_0_2 + 120 p_0_6 + 120 p_0_7 + 120 p_0_8 + 100000 z_0_2 + 100000 z_0_6 + 100000 z_0_7 + 100000 z_0_8 <= 402103.86598307383
 c2307: 120 p_0_1 + 120 p_0_2 + 120 p_0_6 + 120 p_0_7 + 120 p_0_8 + 100000 z_0_1 + 100000 z_0_2 + 100000 z_0_6 + 100000 z_0_7 + 100000 z_0_8 <= 502102.95627874456
 c2308: 120 p_0_3 + 120 p_0_6 + 120 p_0_7 + 120 p_0_8 + 100000 z_0_3 + 100000 z_0_6 + 100000 z_0_7 + 100000 z_0_8 <= 402059.3542519976
 c2309: 120 p_0_1 + 120 p_0_3 + 120 p_0_6 + 120 p_0_7 + 120 p_0_8 + 100000 z_0_1 + 100000 z_0_3 + 100000 z_0_6 + 100000 z_0_7 + 100000 z_0_8 <= 502052.14473962225
 c2310: 120 p_0_2 + 120 p_0_3 + 120 p_0_6 + 120 p_0_7 + 120 p_0_8 + 100000 z_0_2 + 100000 z_0_3 + 100000 z_0_6 + 100000 z_0_7 + 100000 z_0_8 <= 502040.06034175731
 c2311: 120 p_0_1 + 120 p_0_2 + 120 p_0_3 + 120 p_0_6 + 120 p_0_7 + 120 p_0_8 + 100000 z_0_1 + 100000 z_0_2 + 100000 z_0_3 + 100000 z_0_6 + 100000 z_0_7 + 100000 z_0_8 <= 602039.15063742804
 c2312: 120 p_0_4 + 120 p_0_6 + 120 p_0_7 + 120 p_0_8 + 100000 z_0_4 + 100000 z_0_6 + 100000 z_0_7 + 100000 z_0_8 <= 402108.62356437033
 c2313: 120 p_0_1 + 120 p_0_4 + 120 p_0_6 + 120 p_0_7 + 120 p_0_8 + 100000 z_0_1 + 100000 z_0_4 + 100000 z_0_6 + 100000 z_0_7 + 100000 z_0_8 <= 502108.55618464935
 c2314: 120 p_0_2 + 120 p_0_4 + 120 p_0_6 + 120 p_0_7 + 120 p_0_8 + 100000 z_0_2 + 100000 z_0_4 + 100000 z_0_6 + 100000 z_0_7 + 100000 z_0_8 <= 502102.51920834515
 c2315: 120 p_0_1 + 120 p_0_2 + 120 p_0_4 + 120 p_0_6 + 120 p_0_7 + 120 p_0_8 + 100000 z_0_1 + 100000 z_0_2 + 100000 z_0_4 + 100000 z_0_6 + 100000 z_0_7 + 100000 z_0_8 <= 602102.45182862424
 c2316: 120 p_0_3 + 120 p_0_4 + 120 p_0_6 + 120 p_0_7 + 120 p_0_8 + 100000 z_0_3 + 100000 z_0_4 + 100000 z_0_6 + 100000 z_0_7 + 100000 z_0_8 <= 502054.39879283926
 c2317: 120 p_0_1 + 120 p_0_3 + 120 p_0_4 + 120 p_0_6 + 120 p_0_7 + 120 p_0_8 + 100000 z_0_1 + 100000 z_0_3 + 100000 z_0_4 + 100000 z_0_6 + 100000 z_0_7 + 100000 z_0_8 <= 602051.64028950187
 c2318: 120 p_0_2 + 120 p_0_3 + 120 p_0_4 + 120 p_0_6 + 120 p_0_7 + 120 p_0_8 + 100000 z_0_2 + 100000 z_0_3 + 100000 z_0_4 + 100000 z_0_6 + 100000 z_0_7 + 100000 z_0_8 <= 602038.71356702864
 c2319: 120 p_0_1 + 120 p_0_2 + 120 p_0_3 + 120 p_0_4 + 120 p_0_6 + 120 p_0_7 + 120 p_0_8 + 100000 z_0_1 + 100000 z_0_2 + 100000 z_0_3 + 100000 z_0_4 + 100000 z_0_6 + 100000 z_0_7 + 100000 z_0_8 <= 702038.64618730766
 c2320: 120 p_0_5 + 120 p_0_6 + 120 p_0_7 + 120 p_0_8 + 100000 z_0_5 + 100000 z_0_6 + 100000 z_0_7 + 100000 z_0_8 <= 402108.42896025867
 c2321: 120 p_0_1 + 120 p_0_5 + 120 p_0_6 + 120 p_0_7 + 120 p_0_8 + 100000 z_0_1 + 100000 z_0_5 + 100000 z_0_6 + 100000 z_0_7 + 100000 z_0_8 <= 502107.51925592939
 c2322: 120 p_0_2 + 120 p_0_5 + 120 p_0_6 + 120 p_0_7 + 120 p_0_8 + 100000 z_0_2 + 100000 z_0_5 + 100000 z_0_6 + 100000 z_0_7 + 100000 z_0_8 <= 502087.43382759136
 c2323: 120 p_0_1 + 120 p_0_2 + 120 p_0_5 + 120 p_0_6 + 120 p_0_7 + 120 p_0_8 + 100000 z_0_1 + 100000 z_0_2 + 100000 z_0_5 + 100000 z_0_6 + 100000 z_0_7 + 100000 z_0_8 <= 602086.52412326215
 c2324: 120 p_0_3 + 120 p_0_5 + 120 p_0_6 + 120 p_0_7 + 120 p_0_8 + 100000 z_0_3 + 100000 z_0_5 + 100000 z_0_6 + 100000 z_0_7 + 100000 z_0_8 <= 502056.07676232682
 c2325: 120 p_0_1 + 120 p_0_3 + 120 p_0_5 + 120 p_0_6 + 120 p_0_7 + 120 p_0_8 + 100000 z_0_1 + 100000 z_0_3 + 100000 z_0_5 + 100000 z_0_6 + 100000 z_0_7 + 100000 z_0_8 <= 602048.86724995147
 c2326: 120 p_0_2 + 120 p_0_3 + 120 p_0_5 + 120 p_0_6 + 120 p_0_7 + 120 p_0_8 + 100000 z_0_2 + 100000 z_0_3 + 100000 z_0_5 + 100000 z_0_6 + 100000 z_0_7 + 100000 z_0_8 <= 602023.6281862749
 c2327: 120 p_0_1 + 120 p_0_2 + 120 p_0_3 + 120 p_0_5 + 120 p_0_6 + 120 p_0_7 + 120 p_0_8 + 100000 z_0_1 + 100000 z_0_2 + 100000 z_0_3 + 100000 z_0_5 + 100000 z_0_6 + 100000 z_0_7 + 100000 z_0_8 <= 702022.71848194557
 c2328: 120 p_0_4 + 120 p_0_5 + 120 p_0_6 + 120 p_0_7 + 120 p_0_8 + 100000 z_0_4 + 100000 z_0_5 + 100000 z_0_6 + 100000 z_0_7 + 100000 z_0_8 <= 502107.08218552999
 c2329: 120 p_0_1 + 120 p_0_4 + 120 p_0_5 + 120 p_0_6 + 120 p_0_7 + 120 p_0_8 + 100000 z_0_1 + 100000 z_0_4 + 100000 z_0_5 + 100000 z_0_6 + 100000 z_0_7 + 100000 z_0_8 <= 602107.01480580901
 c2330: 120 p_0_2 + 120 p_0_4 + 120 p_0_5 + 120 p_0_6 + 120 p_0_7 + 120 p_0_8 + 100000 z_0_2 + 100000 z_0_4 + 100000 z_0_5 + 100000 z_0_6 + 100000 z_0_7 + 100000 z_0_8 <= 602086.08705286274
 c2331: 120 p_0_1 + 120 p_0_2 + 120 p_0_4 + 120 p_0_5 + 120 p_0_6 + 120 p_0_7 + 120 p_0_8 + 100000 z_0_1 + 100000 z_0_2 + 100000 z_0_4 + 100000 z_0_5 + 100000 z_0_6 + 100000 z_0_7 + 100000 z_0_8 <= 702086.01967314177
 c2332: 120 p_0_3 + 120 p_0_4 + 120 p_0_5 + 120 p_0_6 + 120 p_0_7 + 120 p_0_8 + 100000 z_0_3 + 100000 z_0_4 + 100000 z_0_5 + 100000 z_0_6 + 100000 z_0_7 + 100000 z_0_8 <= 602051.12130316847
 c2333: 120 p_0_1 + 120 p_0_3 + 120 p_0_4 + 120 p_0_5 + 120 p_0_6 + 120 p_0_7 + 120 p_0_8 + 100000 z_0_1 + 100000 z_0_3 + 100000 z_0_4 + 100000 z_0_5 + 100000 z_0_6 + 100000 z_0_7 + 100000 z_0_8 <= 702048.36279983108
 c2334: 120 p_0_2 + 120 p_0_3 + 120 p_0_4 + 120 p_0_5 + 120 p_0_6 + 120 p_0_7 + 120 p_0_8 + 100000 z_0_2 + 100000 z_0_3 + 100000 z_0_4 + 100000 z_0_5 + 100000 z_0_6 + 100000 z_0_7 + 100000 z_0_8 <= 702022.28141154617
 c2335: 120 p_0_1 + 120 p_0_2 + 120 p_0_3 + 120 p_0_4 + 120 p_0_5 + 120 p_0_6 + 120 p_0_7 + 120 p_0_8 + 100000 z_0_1 + 100000 z_0_2 + 100000 z_0_3 + 100000 z_0_4 + 100000 z_0_5 + 100000 z_0_6 + 100000 z_0_7 + 100000 z_0_8 <= 802022.21403182519
 c2336: 120 p_0_9 + 100000 z_0_9 <= 103078.72514967447
 c2337: 120 p_0_1 + 120 p_0_9 + 100000 z_0_1 + 100000 z_0_9 <= 202670.24249923599
 c2338: 120 p_0_2 + 120 p_0_9 + 100000 z_0_2 + 100000 z_0_9 <= 202818.27728023569
 c2339: 120 p_0_1 + 120 p_0_2 + 120 p_0_9 + 100000 z_0_1 + 100000 z_0_2 + 100000 z_0_9 <= 302409.79462979722
 c2340: 120 p_0_3 + 120 p_0_9 + 100000 z_0_3 + 100000 z_0_9 <= 202971.70694713818
 c2341: 120 p_0_1 + 120 p_0_3 + 120 p_0_9 + 100000 z_0_1 + 100000 z_0_3 + 100000 z_0_9 <= 302596.70118977991
 c2342: 120 p_0_2 + 120 p_0_3 + 120 p_0_9 + 100000 z_0_2 + 100000 z_0_3 + 100000 z_0_9 <= 302711.25907769939
 c2343: 120 p_0_1 + 120 p_0_2 + 120 p_0_3 + 120 p_0_9 + 100000 z_0_1 + 100000 z_0_2 + 100000 z_0_3 + 100000 z_0_9 <= 402336.25332034117
 c2344: 120 p_0_4 + 120 p_0_9 + 100000 z_0_4 + 100000 z_0_9 <= 202648.77624050356
 c2345: 120 p_0_1 + 120 p_0_4 + 120 p_0_9 + 100000 z_0_1 + 100000 z_0_4 + 100000 z_0_9 <= 302648.70886078262
 c2346: 120 p_0_2 + 120 p_0_4 + 120 p_0_9 + 100000 z_0_2 + 100000 z_0_4 + 100000 z_0_9 <= 302388.3283710648
 c2347: 120 p_0_1 + 120 p_0_2 + 120 p_0_4 + 120 p_0_9 + 100000 z_0_1 + 100000 z_0_2 + 100000 z_0_4 + 100000 z_0_9 <= 402388.26099134382
 c2348: 120 p_0_3 + 120 p_0_4 + 120 p_0_9 + 100000 z_0_3 + 100000 z_0_4 + 100000 z_0_9 <= 302576.45661627158
 c2349: 120 p_0_1 + 120 p_0_3 + 120 p_0_4 + 120 p_0_9 + 100000 z_0_1 + 100000 z_0_3 + 100000 z_0_4 + 100000 z_0_9 <= 402576.38923655066
 c2350: 120 p_0_2 + 120 p_0_3 + 120 p_0_4 + 120 p_0_9 + 100000 z_0_2 + 100000 z_0_3 + 100000 z_0_4 + 100000 z_0_9 <= 402316.00874683284
 c2351: 120 p_0_1 + 120 p_0_2 + 120 p_0_3 + 120 p_0_4 + 120 p_0_9 + 100000 z_0_1 + 100000 z_0_2 + 100000 z_0_3 + 100000 z_0_4 + 100000 z_0_9 <= 502315.94136711187
 c2352: 120 p_0_5 + 120 p_0_9 + 100000 z_0_5 + 100000 z_0_9 <= 202775.62617135121
 c2353: 120 p_0_1 + 120 p_0_5 + 120 p_0_9 + 100000 z_0_1 + 100000 z_0_5 + 100000 z_0_9 <= 302389.50477711018
 c2354: 120 p_0_2 + 120 p_0_5 + 120 p_0_9 + 100000 z_0_2 + 100000 z_0_5 + 100000 z_0_9 <= 302760.86251043808
 c2355: 120 p_0_1 + 120 p_0_2 + 120 p_0_5 + 120 p_0_9 + 100000 z_0_1 + 100000 z_0_2 + 100000 z_0_5 + 100000 z_0_9 <= 402374.74111619702
 c2356: 120 p_0_3 + 120 p_0_5 + 120 p_0_9 + 100000 z_0_3 + 100000 z_0_5 + 100000 z_0_9 <= 302668.60796881496
 c2357: 120 p_0_1 + 120 p_0_3 + 120 p_0_5 + 120 p_0_9 + 100000 z_0_1 + 100000 z_0_3 + 100000 z_0_5 + 100000 z_0_9 <= 402293.60221145669
 c2358: 120 p_0_2 + 120 p_0_3 + 120 p_0_5 + 120 p_0_9 + 100000 z_0_2 + 100000 z_0_3 + 100000 z_0_5 + 100000 z_0_9 <= 402653.8443079018
 c2359: 120 p_0_1 + 120 p_0_2 + 120 p_0_3 + 120 p_0_5 + 120 p_0_9 + 100000 z_0_1 + 100000 z_0_2 + 100000 z_0_3 + 100000 z_0_5 + 100000 z_0_9 <= 502278.83855054353
 c2360: 120 p_0_4 + 120 p_0_5 + 120 p_0_9 + 100000 z_0_4 + 100000 z_0_5 + 100000 z_0_9 <= 302367.3259622631
 c2361: 120 p_0_1 + 120 p_0_4 + 120 p_0_5 + 120 p_0_9 + 100000 z_0_1 + 100000 z_0_4 + 100000 z_0_5 + 100000 z_0_9 <= 402367.25858254218
 c2362: 120 p_0_2 + 120 p_0_4 + 120 p_0_5 + 120 p_0_9 + 100000 z_0_2 + 100000 z_0_4 + 100000 z_0_5 + 100000 z_0_9 <= 402352.56230135
 c2363: 120 p_0_1 + 120 p_0_2 + 120 p_0_4 + 120 p_0_5 + 120 p_0_9 + 100000 z_0_1 + 100000 z_0_2 + 100000 z_0_4 + 100000 z_0_5 + 100000 z_0_9 <= 502352.49492162903
 c2364: 120 p_0_3 + 120 p_0_4 + 120 p_0_5 + 120 p_0_9 + 100000 z_0_3 + 100000 z_0_4 + 100000 z_0_5 + 100000 z_0_9 <= 402273.35763794836
 c2365: 120 p_0_1 + 120 p_0_3 + 120 p_0_4 + 120 p_0_5 + 120 p_0_9 + 100000 z_0_1 + 100000 z_0_3 + 100000 z_0_4 + 100000 z_0_5 + 100000 z_0_9 <= 502273.29025822738
 c2366: 120 p_0_2 + 120 p_0_3 + 120 p_0_4 + 120 p_0_5 + 120 p_0_9 + 100000 z_0_2 + 100000 z_0_3 + 100000 z_0_4 + 100000 z_0_5 + 100000 z_0_9 <= 502258.5939770352
 c2367: 120 p_0_1 + 120 p_0_2 + 120 p_0_3 + 120 p_0_4 + 120 p_0_5 + 120 p_0_9 + 100000 z_0_1 + 100000 z_0_2 + 100000 z_0_3 + 100000 z_0_4 + 100000 z_0_5 + 100000 z_0_9 <= 602258.52659731428
 c2368: 120 p_0_6 + 120 p_0_9 + 100000 z_0_6 + 100000 z_0_9 <= 203024.56552678722
 c2369: 120 p_0_1 + 120 p_0_6 + 120 p_0_9 + 100000 z_0_1 + 100000 z_0_6 + 100000 z_0_9 <= 302639.22738000529
 c2370: 120 p_0_2 + 120 p_0_6 + 120 p_0_9 + 100000 z_0_2 + 100000 z_0_6 + 100000 z_0_9 <= 302764.11765734846
 c2371: 120 p_0_1 + 120 p_0_2 + 120 p_0_6 + 120 p_0_9 + 100000 z_0_1 + 100000 z_0_2 + 100000 z_0_6 + 100000 z_0_9 <= 402378.7795105665
 c2372: 120 p_0_3 + 120 p_0_6 + 120 p_0_9 + 100000 z_0_3 + 100000 z_0_6 + 100000 z_0_9 <= 302967.56986106985
 c2373: 120 p_0_1 + 120 p_0_3 + 120 p_0_6 + 120 p_0_9 + 100000 z_0_1 + 100000 z_0_3 + 100000 z_0_6 + 100000 z_0_9 <= 402585.75412811246
 c2374: 120 p_0_2 + 120 p_0_3 + 120 p_0_6 + 120 p_0_9 + 100000 z_0_2 + 100000 z_0_3 + 100000 z_0_6 + 100000 z_0_9 <= 402707.12199163105
 c2375: 120 p_0_1 + 120 p_0_2 + 120 p_0_3 + 120 p_0_6 + 120 p_0_9 + 100000 z_0_1 + 100000 z_0_2 + 100000 z_0_3 + 100000 z_0_6 + 100000 z_0_9 <= 502325.30625867366
 c2376: 120 p_0_4 + 120 p_0_6 + 120 p_0_9 + 100000 z_0_4 + 100000 z_0_6 + 100000 z_0_9 <= 302618.51742002484
 c2377: 120 p_0_1 + 120 p_0_4 + 120 p_0_6 + 120 p_0_9 + 100000 z_0_1 + 100000 z_0_4 + 100000 z_0_6 + 100000 z_0_9 <= 402618.45004030387
 c2378: 120 p_0_2 + 120 p_0_4 + 120 p_0_6 + 120 p_0_9 + 100000 z_0_2 + 100000 z_0_4 + 100000 z_0_6 + 100000 z_0_9 <= 402358.06955058605
 c2379: 120 p_0_1 + 120 p_0_2 + 120 p_0_4 + 120 p_0_6 + 120 p_0_9 + 100000 z_0_1 + 100000 z_0_2 + 100000 z_0_4 + 100000 z_0_6 + 100000 z_0_9 <= 502358.00217086513
 c2380: 120 p_0_3 + 120 p_0_4 + 120 p_0_6 + 120 p_0_9 + 100000 z_0_3 + 100000 z_0_4 + 100000 z_0_6 + 100000 z_0_9 <= 402565.50955460413
 c2381: 120 p_0_1 + 120 p_0_3 + 120 p_0_4 + 120 p_0_6 + 120 p_0_9 + 100000 z_0_1 + 100000 z_0_3 + 100000 z_0_4 + 100000 z_0_6 + 100000 z_0_9 <= 502565.44217488315
 c2382: 120 p_0_2 + 120 p_0_3 + 120 p_0_4 + 120 p_0_6 + 120 p_0_9 + 100000 z_0_2 + 100000 z_0_3 + 100000 z_0_4 + 100000 z_0_6 + 100000 z_0_9 <= 502305.06168516533
 c2383: 120 p_0_1 + 120 p_0_2 + 120 p_0_3 + 120 p_0_4 + 120 p_0_6 + 120 p_0_9 + 100000 z_0_1 + 100000 z_0_2 + 100000 z_0_3 + 100000 z_0_4 + 100000 z_0_6 + 100000 z_0_9 <= 602304.99430544442
 c2384: 120 p_0_5 + 120 p_0_6 + 120 p_0_9 + 100000 z_0_5 + 100000 z_0_6 + 100000 z_0_9 <= 302721.46654846397
 c2385: 120 p_0_1 + 120 p_0_5 + 120 p_0_6 + 120 p_0_9 + 100000 z_0_1 + 100000 z_0_5 + 100000 z_0_6 + 100000 z_0_9 <= 402336.12840168207
 c2386: 120 p_0_2 + 120 p_0_5 + 120 p_0_6 + 120 p_0_9 + 100000 z_0_2 + 100000 z_0_5 + 100000 z_0_6 + 100000 z_0_9 <= 402706.70288755087
 c2387: 120 p_0_1 + 120 p_0_2 + 120 p_0_5 + 120 p_0_6 + 120 p_0_9 + 100000 z_0_1 + 100000 z_0_2 + 100000 z_0_5 + 100000 z_0_6 + 100000 z_0_9 <= 502321.36474076891
 c2388: 120 p_0_3 + 120 p_0_5 + 120 p_0_6 + 120 p_0_9 + 100000 z_0_3 + 100000 z_0_5 + 100000 z_0_6 + 100000 z_0_9 <= 402664.47088274657
 c2389: 120 p_0_1 + 120 p_0_3 + 120 p_0_5 + 120 p_0_6 + 120 p_0_9 + 100000 z_0_1 + 100000 z_0_3 + 100000 z_0_5 + 100000 z_0_6 + 100000 z_0_9 <= 502282.65514978918
 c2390: 120 p_0_2 + 120 p_0_3 + 120 p_0_5 + 120 p_0_6 + 120 p_0_9 + 100000 z_0_2 + 100000 z_0_3 + 100000 z_0_5 + 100000 z_0_6 + 100000 z_0_9 <= 502649.70722183347
 c2391: 120 p_0_1 + 120 p_0_2 + 120 p_0_3 + 120 p_0_5 + 120 p_0_6 + 120 p_0_9 + 100000 z_0_1 + 100000 z_0_2 + 100000 z_0_3 + 100000 z_0_5 + 100000 z_0_6 + 100000 z_0_9 <= 602267.89148887608
 c2392: 120 p_0_4 + 120 p_0_5 + 120 p_0_6 + 120 p_0_9 + 100000 z_0_4 + 100000 z_0_5 + 100000 z_0_6 + 100000 z_0_9 <= 402315.41844170162
 c2393: 120 p_0_1 + 120 p_0_4 + 120 p_0_5 + 120 p_0_6 + 120 p_0_9 + 100000 z_0_1 + 100000 z_0_4 + 100000 z_0_5 + 100000 z_0_6 + 100000 z_0_9 <= 502315.35106198065
 c2394: 120 p_0_2 + 120 p_0_4 + 120 p_0_5 + 120 p_0_6 + 120 p_0_9 + 100000 z_0_2 + 100000 z_0_4 + 100000 z_0_5 + 100000 z_0_6 + 100000 z_0_9 <= 502300.65478078846
 c2395: 120 p_0_1 + 120 p_0_2 + 120 p_0_4 + 120 p_0_5 + 120 p_0_6 + 120 p_0_9 + 100000 z_0_1 + 100000 z_0_2 + 100000 z_0_4 + 100000 z_0_5 + 100000 z_0_6 + 100000 z_0_9 <= 602300.58740106749
 c2396: 120 p_0_3 + 120 p_0_4 + 120 p_0_5 + 120 p_0_6 + 120 p_0_9 + 100000 z_0_3 + 100000 z_0_4 + 100000 z_0_5 + 100000 z_0_6 + 100000 z_0_9 <= 502262.41057628085
 c2397: 120 p_0_1 + 120 p_0_3 + 120 p_0_4 + 120 p_0_5 + 120 p_0_6 + 120 p_0_9 + 100000 z_0_1 + 100000 z_0_3 + 100000 z_0_4 + 100000 z_0_5 + 100000 z_0_6 + 100000 z_0_9 <= 602262.34319655993
 c2398: 120 p_0_2 + 120 p_0_3 + 120 p_0_4 + 120 p_0_5 + 120 p_0_6 + 120 p_0_9 + 100000 z_0_2 + 100000 z_0_3 + 100000 z_0_4 + 100000 z_0_5 + 100000 z_0_6 + 100000 z_0_9 <= 602247.64691536769
 c2399: 120 p_0_1 + 120 p_0_2 + 120 p_0_3 + 120 p_0_4 + 120 p_0_5 + 120 p_0_6 + 120 p_0_9 + 100000 z_0_1 + 100000 z_0_2 + 100000 z_0_3 + 100000 z_0_4 + 100000 z_0_5 + 100000 z_0_6 + 100000 z_0_9 <= 702247.57953564683
 c2400: 120 p_0_7 + 120 p_0_9 + 100000 z_0_7 + 100000 z_0_9 <= 202488.72868289141
 c2401: 120 p_0_1 + 120 p_0_7 + 120 p_0_9 + 100000 z_0_1 + 100000 z_0_7 + 100000 z_0_9 <= 302487.81897856214
 c2402: 120 p_0_2 + 120 p_0_7 + 120 p_0_9 + 100000 z_0_2 + 100000 z_0_7 + 100000 z_0_9 <= 302231.53643593093
 c2403: 120 p_0_1 + 120 p_0_2 + 120 p_0_7 + 120 p_0_9 + 100000 z_0_1 + 100000 z_0_2 + 100000 z_0_7 + 100000 z_0_9 <= 402230.62673160166
 c2404: 120 p_0_3 + 120 p_0_7 + 120 p_0_9 + 100000 z_0_3 + 100000 z_0_7 + 100000 z_0_9 <= 302420.00102563528
 c2405: 120 p_0_1 + 120 p_0_3 + 120 p_0_7 + 120 p_0_9 + 100000 z_0_1 + 100000 z_0_3 + 100000 z_0_7 + 100000 z_0_9 <= 402419.09132130601
 c2406: 120 p_0_2 + 120 p_0_3 + 120 p_0_7 + 120 p_0_9 + 100000 z_0_2 + 100000 z_0_3 + 100000 z_0_7 + 100000 z_0_9 <= 402159.55315619649
 c2407: 120 p_0_1 + 120 p_0_2 + 120 p_0_3 + 120 p_0_7 + 120 p_0_9 + 100000 z_0_1 + 100000 z_0_2 + 100000 z_0_3 + 100000 z_0_7 + 100000 z_0_9 <= 502158.64345186722
 c2408: 120 p_0_4 + 120 p_0_7 + 120 p_0_9 + 100000 z_0_4 + 100000 z_0_7 + 100000 z_0_9 <= 302487.38190816273
 c2409: 120 p_0_1 + 120 p_0_4 + 120 p_0_7 + 120 p_0_9 + 100000 z_0_1 + 100000 z_0_4 + 100000 z_0_7 + 100000 z_0_9 <= 402487.31452844176
 c2410: 120 p_0_2 + 120 p_0_4 + 120 p_0_7 + 120 p_0_9 + 100000 z_0_2 + 100000 z_0_4 + 100000 z_0_7 + 100000 z_0_9 <= 402230.18966120225
 c2411: 120 p_0_1 + 120 p_0_2 + 120 p_0_4 + 120 p_0_7 + 120 p_0_9 + 100000 z_0_1 + 100000 z_0_2 + 100000 z_0_4 + 100000 z_0_7 + 100000 z_0_9 <= 502230.12228148128
 c2412: 120 p_0_3 + 120 p_0_4 + 120 p_0_7 + 120 p_0_9 + 100000 z_0_3 + 100000 z_0_4 + 100000 z_0_7 + 100000 z_0_9 <= 402418.65425090655
 c2413: 120 p_0_1 + 120 p_0_3 + 120 p_0_4 + 120 p_0_7 + 120 p_0_9 + 100000 z_0_1 + 100000 z_0_3 + 100000 z_0_4 + 100000 z_0_7 + 100000 z_0_9 <= 502418.58687118563
 c2414: 120 p_0_2 + 120 p_0_3 + 120 p_0_4 + 120 p_0_7 + 120 p_0_9 + 100000 z_0_2 + 100000 z_0_3 + 100000 z_0_4 + 100000 z_0_7 + 100000 z_0_9 <= 502158.20638146775
 c2415: 120 p_0_1 + 120 p_0_2 + 120 p_0_3 + 120 p_0_4 + 120 p_0_7 + 120 p_0_9 + 100000 z_0_1 + 100000 z_0_2 + 100000 z_0_3 + 100000 z_0_4 + 100000 z_0_7 + 100000 z_0_9 <= 602158.13900174678
 c2416: 120 p_0_5 + 120 p_0_7 + 120 p_0_9 + 100000 z_0_5 + 100000 z_0_7 + 100000 z_0_9 <= 302221.52771432436
 c2417: 120 p_0_1 + 120 p_0_5 + 120 p_0_7 + 120 p_0_9 + 100000 z_0_1 + 100000 z_0_5 + 100000 z_0_7 + 100000 z_0_9 <= 402220.61800999509
 c2418: 120 p_0_2 + 120 p_0_5 + 120 p_0_7 + 120 p_0_9 + 100000 z_0_2 + 100000 z_0_5 + 100000 z_0_7 + 100000 z_0_9 <= 402206.76405341126
 c2419: 120 p_0_1 + 120 p_0_2 + 120 p_0_5 + 120 p_0_7 + 120 p_0_9 + 100000 z_0_1 + 100000 z_0_2 + 100000 z_0_5 + 100000 z_0_7 + 100000 z_0_9 <= 502205.85434908199
 c2420: 120 p_0_3 + 120 p_0_5 + 120 p_0_7 + 120 p_0_9 + 100000 z_0_3 + 100000 z_0_5 + 100000 z_0_7 + 100000 z_0_9 <= 402116.902047312
 c2421: 120 p_0_1 + 120 p_0_3 + 120 p_0_5 + 120 p_0_7 + 120 p_0_9 + 100000 z_0_1 + 100000 z_0_3 + 100000 z_0_5 + 100000 z_0_7 + 100000 z_0_9 <= 502115.99234298273
 c2422: 120 p_0_2 + 120 p_0_3 + 120 p_0_5 + 120 p_0_7 + 120 p_0_9 + 100000 z_0_2 + 100000 z_0_3 + 100000 z_0_5 + 100000 z_0_7 + 100000 z_0_9 <= 502102.1383863989
 c2423: 120 p_0_1 + 120 p_0_2 + 120 p_0_3 + 120 p_0_5 + 120 p_0_7 + 120 p_0_9 + 100000 z_0_1 + 100000 z_0_2 + 100000 z_0_3 + 100000 z_0_5 + 100000 z_0_7 + 100000 z_0_9 <= 602101.22868206957
 c2424: 120 p_0_4 + 120 p_0_5 + 120 p_0_7 + 120 p_0_9 + 100000 z_0_4 + 100000 z_0_5 + 100000 z_0_7 + 100000 z_0_9 <= 402220.18093959568
 c2425: 120 p_0_1 + 120 p_0_4 + 120 p_0_5 + 120 p_0_7 + 120 p_0_9 + 100000 z_0_1 + 100000 z_0_4 + 100000 z_0_5 + 100000 z_0_7 + 100000 z_0_9 <= 502220.11355987471
 c2426: 120 p_0_2 + 120 p_0_4 + 120 p_0_5 + 120 p_0_7 + 120 p_0_9 + 100000 z_0_2 + 100000 z_0_4 + 100000 z_0_5 + 100000 z_0_7 + 100000 z_0_9 <= 502205.41727868252
 c2427: 120 p_0_1 + 120 p_0_2 + 120 p_0_4 + 120 p_0_5 + 120 p_0_7 + 120 p_0_9 + 100000 z_0_1 + 100000 z_0_2 + 100000 z_0_4 + 100000 z_0_5 + 100000 z_0_7 + 100000 z_0_9 <= 602205.34989896161
 c2428: 120 p_0_3 + 120 p_0_4 + 120 p_0_5 + 120 p_0_7 + 120 p_0_9 + 100000 z_0_3 + 100000 z_0_4 + 100000 z_0_5 + 100000 z_0_7 + 100000 z_0_9 <= 502115.55527258333
 c2429: 120 p_0_1 + 120 p_0_3 + 120 p_0_4 + 120 p_0_5 + 120 p_0_7 + 120 p_0_9 + 100000 z_0_1 + 100000 z_0_3 + 100000 z_0_4 + 100000 z_0_5 + 100000 z_0_7 + 100000 z_0_9 <= 602115.48789286241
 c2430: 120 p_0_2 + 120 p_0_3 + 120 p_0_4 + 120 p_0_5 + 120 p_0_7 + 120 p_0_9 + 100000 z_0_2 + 100000 z_0_3 + 100000 z_0_4 + 100000 z_0_5 + 100000 z_0_7 + 100000 z_0_9 <= 602100.79161167017
 c2431: 120 p_0_1 + 120 p_0_2 + 120 p_0_3 + 120 p_0_4 + 120 p_0_5 + 120 p_0_7 + 120 p_0_9 + 100000 z_0_1 + 100000 z_0_2 + 100000 z_0_3 + 100000 z_0_4 + 100000 z_0_5 + 100000 z_0_7 + 100000 z_0_9 <= 702100.72423194919
 c2432: 120 p_0_6 + 120 p_0_7 + 120 p_0_9 + 100000 z_0_6 + 100000 z_0_7 + 100000 z_0_9 <= 302460.51323913957
 c2433: 120 p_0_1 + 120 p_0_6 + 120 p_0_7 + 120 p_0_9 + 100000 z_0_1 + 100000 z_0_6 + 100000 z_0_7 + 100000 z_0_9 <= 402459.6035348103
 c2434: 120 p_0_2 + 120 p_0_6 + 120 p_0_7 + 120 p_0_9 + 100000 z_0_2 + 100000 z_0_6 + 100000 z_0_7 + 100000 z_0_9 <= 402200.06536970078
 c2435: 120 p_0_1 + 120 p_0_2 + 120 p_0_6 + 120 p_0_7 + 120 p_0_9 + 100000 z_0_1 + 100000 z_0_2 + 100000 z_0_6 + 100000 z_0_7 + 100000 z_0_9 <= 502199.15566537151
 c2436: 120 p_0_3 + 120 p_0_6 + 120 p_0_7 + 120 p_0_9 + 100000 z_0_3 + 100000 z_0_6 + 100000 z_0_7 + 100000 z_0_9 <= 402409.05396396777
 c2437: 120 p_0_1 + 120 p_0_3 + 120 p_0_6 + 120 p_0_7 + 120 p_0_9 + 100000 z_0_1 + 100000 z_0_3 + 100000 z_0_6 + 100000 z_0_7 + 100000 z_0_9 <= 502408.1442596385
 c2438: 120 p_0_2 + 120 p_0_3 + 120 p_0_6 + 120 p_0_7 + 120 p_0_9 + 100000 z_0_2 + 100000 z_0_3 + 100000 z_0_6 + 100000 z_0_7 + 100000 z_0_9 <= 502148.60609452898
 c2439: 120 p_0_1 + 120 p_0_2 + 120 p_0_3 + 120 p_0_6 + 120 p_0_7 + 120 p_0_9 + 100000 z_0_1 + 100000 z_0_2 + 100000 z_0_3 + 100000 z_0_6 + 100000 z_0_7 + 100000 z_0_9 <= 602147.69639019971
 c2440: 120 p_0_4 + 120 p_0_6 + 120 p_0_7 + 120 p_0_9 + 100000 z_0_4 + 100000 z_0_6 + 100000 z_0_7 + 100000 z_0_9 <= 402459.16646441084
 c2441: 120 p_0_1 + 120 p_0_4 + 120 p_0_6 + 120 p_0_7 + 120 p_0_9 + 100000 z_0_1 + 100000 z_0_4 + 100000 z_0_6 + 100000 z_0_7 + 100000 z_0_9 <= 502459.09908468992
 c2442: 120 p_0_2 + 120 p_0_4 + 120 p_0_6 + 120 p_0_7 + 120 p_0_9 + 100000 z_0_2 + 100000 z_0_4 + 100000 z_0_6 + 100000 z_0_7 + 100000 z_0_9 <= 502198.7185949721
 c2443: 120 p_0_1 + 120 p_0_2 + 120 p_0_4 + 120 p_0_6 + 120 p_0_7 + 120 p_0_9 + 100000 z_0_1 + 100000 z_0_2 + 100000 z_0_4 + 100000 z_0_6 + 100000 z_0_7 + 100000 z_0_9 <= 602198.65121525119
 c2444: 120 p_0_3 + 120 p_0_4 + 120 p_0_6 + 120 p_0_7 + 120 p_0_9 + 100000 z_0_3 + 100000 z_0_4 + 100000 z_0_6 + 100000 z_0_7 + 100000 z_0_9 <= 502407.7071892391
 c2445: 120 p_0_1 + 120 p_0_3 + 120 p_0_4 + 120 p_0_6 + 120 p_0_7 + 120 p_0_9 + 100000 z_0_1 + 100000 z_0_3 + 100000 z_0_4 + 100000 z_0_6 + 100000 z_0_7 + 100000 z_0_9 <= 602407.63980951812
 c2446: 120 p_0_2 + 120 p_0_3 + 120 p_0_4 + 120 p_0_6 + 120 p_0_7 + 120 p_0_9 + 100000 z_0_2 + 100000 z_0_3 + 100000 z_0_4 + 100000 z_0_6 + 100000 z_0_7 + 100000 z_0_9 <= 602147.2593198003
 c2447: 120 p_0_1 + 120 p_0_2 + 120 p_0_3 + 120 p_0_4 + 120 p_0_6 + 120 p_0_7 + 120 p_0_9 + 100000 z_0_1 + 100000 z_0_2 + 100000 z_0_3 + 100000 z_0_4 + 100000 z_0_6 + 100000 z_0_7 + 100000 z_0_9 <= 702147.19194007933
 c2448: 120 p_0_5 + 120 p_0_6 + 120 p_0_7 + 120 p_0_9 + 100000 z_0_5 + 100000 z_0_6 + 100000 z_0_7 + 100000 z_0_9 <= 402167.36809143715
 c2449: 120 p_0_1 + 120 p_0_5 + 120 p_0_6 + 120 p_0_7 + 120 p_0_9 + 100000 z_0_1 + 100000 z_0_5 + 100000 z_0_6 + 100000 z_0_7 + 100000 z_0_9 <= 502166.45838710788
 c2450: 120 p_0_2 + 120 p_0_5 + 120 p_0_6 + 120 p_0_7 + 120 p_0_9 + 100000 z_0_2 + 100000 z_0_5 + 100000 z_0_6 + 100000 z_0_7 + 100000 z_0_9 <= 502152.60443052399
 c2451: 120 p_0_1 + 120 p_0_2 + 120 p_0_5 + 120 p_0_6 + 120 p_0_7 + 120 p_0_9 + 100000 z_0_1 + 100000 z_0_2 + 100000 z_0_5 + 100000 z_0_6 + 100000 z_0_7 + 100000 z_0_9 <= 602151.69472619472
 c2452: 120 p_0_3 + 120 p_0_5 + 120 p_0_6 + 120 p_0_7 + 120 p_0_9 + 100000 z_0_3 + 100000 z_0_5 + 100000 z_0_6 + 100000 z_0_7 + 100000 z_0_9 <= 502110.37242571975
 c2453: 120 p_0_1 + 120 p_0_3 + 120 p_0_5 + 120 p_0_6 + 120 p_0_7 + 120 p_0_9 + 100000 z_0_1 + 100000 z_0_3 + 100000 z_0_5 + 100000 z_0_6 + 100000 z_0_7 + 100000 z_0_9 <= 602109.46272139042
 c2454: 120 p_0_2 + 120 p_0_3 + 120 p_0_5 + 120 p_0_6 + 120 p_0_7 + 120 p_0_9 + 100000 z_0_2 + 100000 z_0_3 + 100000 z_0_5 + 100000 z_0_6 + 100000 z_0_7 + 100000 z_0_9 <= 602095.60876480665
 c2455: 120 p_0_1 + 120 p_0_2 + 120 p_0_3 + 120 p_0_5 + 120 p_0_6 + 120 p_0_7 + 120 p_0_9 + 100000 z_0_1 + 100000 z_0_2 + 100000 z_0_3 + 100000 z_0_5 + 100000 z_0_6 + 100000 z_0_7 + 100000 z_0_9 <= 702094.69906047732
 c2456: 120 p_0_4 + 120 p_0_5 + 120 p_0_6 + 120 p_0_7 + 120 p_0_9 + 100000 z_0_4 + 100000 z_0_5 + 100000 z_0_6 + 100000 z_0_7 + 100000 z_0_9 <= 502166.02131670841
 c2457: 120 p_0_1 + 120 p_0_4 + 120 p_0_5 + 120 p_0_6 + 120 p_0_7 + 120 p_0_9 + 100000 z_0_1 + 100000 z_0_4 + 100000 z_0_5 + 100000 z_0_6 + 100000 z_0_7 + 100000 z_0_9 <= 602165.95393698744
 c2458: 120 p_0_2 + 120 p_0_4 + 120 p_0_5 + 120 p_0_6 + 120 p_0_7 + 120 p_0_9 + 100000 z_0_2 + 100000 z_0_4 + 100000 z_0_5 + 100000 z_0_6 + 100000 z_0_7 + 100000 z_0_9 <= 602151.25765579531
 c2459: 120 p_0_1 + 120 p_0_2 + 120 p_0_4 + 120 p_0_5 + 120 p_0_6 + 120 p_0_7 + 120 p_0_9 + 100000 z_0_1 + 100000 z_0_2 + 100000 z_0_4 + 100000 z_0_5 + 100000 z_0_6 + 100000 z_0_7 + 100000 z_0_9 <= 702151.19027607434
 c2460: 120 p_0_3 + 120 p_0_4 + 120 p_0_5 + 120 p_0_6 + 120 p_0_7 + 120 p_0_9 + 100000 z_0_3 + 100000 z_0_4 + 100000 z_0_5 + 100000 z_0_6 + 100000 z_0_7 + 100000 z_0_9 <= 602109.02565099101
 c2461: 120 p_0_1 + 120 p_0_3 + 120 p_0_4 + 120 p_0_5 + 120 p_0_6 + 120 p_0_7 + 120 p_0_9 + 100000 z_0_1 + 100000 z_0_3 + 100000 z_0_4 + 100000 z_0_5 + 100000 z_0_6 + 100000 z_0_7 + 100000 z_0_9 <= 702108.95827127004
 c2462: 120 p_0_2 + 120 p_0_3 + 120 p_0_4 + 120 p_0_5 + 120 p_0_6 + 120 p_0_7 + 120 p_0_9 + 100000 z_0_2 + 100000 z_0_3 + 100000 z_0_4 + 100000 z_0_5 + 100000 z_0_6 + 100000 z_0_7 + 100000 z_0_9 <= 702094.26199007791
 c2463: 120 p_0_1 + 120 p_0_2 + 120 p_0_3 + 120 p_0_4 + 120 p_0_5 + 120 p_0_6 + 120 p_0_7 + 120 p_0_9 + 100000 z_0_1 + 100000 z_0_2 + 100000 z_0_3 + 100000 z_0_4 + 100000 z_0_5 + 100000 z_0_6 + 100000 z_0_7 + 100000 z_0_9 <= 802094.19461035694
 c2464: 120 p_0_8 + 120 p_0_9 + 100000 z_0_8 + 100000 z_0_9 <= 202659.38399816825
 c2465: 120 p_0_1 + 120 p_0_8 + 120 p_0_9 + 100000 z_0_1 + 100000 z_0_8 + 100000 z_0_9 <= 302292.07791038399
 c2466: 120 p_0_2 + 120 p_0_8 + 120 p_0_9 + 100000 z_0_2 + 100000 z_0_8 + 100000 z_0_9 <= 302657.15087872226
 c2467: 120 p_0_1 + 120 p_0_2 + 120 p_0_8 + 120 p_0_9 + 100000 z_0_1 + 100000 z_0_2 + 100000 z_0_8 + 100000 z_0_9 <= 402289.84479093796
 c2468: 120 p_0_3 + 120 p_0_8 + 120 p_0_9 + 100000 z_0_3 + 100000 z_0_8 + 100000 z_0_9 <= 302552.36579563201
 c2469: 120 p_0_1 + 120 p_0_3 + 120 p_0_8 + 120 p_0_9 + 100000 z_0_1 + 100000 z_0_3 + 100000 z_0_8 + 100000 z_0_9 <= 402185.05970784771
 c2470: 120 p_0_2 + 120 p_0_3 + 120 p_0_8 + 120 p_0_9 + 100000 z_0_2 + 100000 z_0_3 + 100000 z_0_8 + 100000 z_0_9 <= 402550.13267618598
 c2471: 120 p_0_1 + 120 p_0_2 + 120 p_0_3 + 120 p_0_8 + 120 p_0_9 + 100000 z_0_1 + 100000 z_0_2 + 100000 z_0_3 + 100000 z_0_8 + 100000 z_0_9 <= 502182.82658840169
 c2472: 120 p_0_4 + 120 p_0_8 + 120 p_0_9 + 100000 z_0_4 + 100000 z_0_8 + 100000 z_0_9 <= 302270.50539725582
 c2473: 120 p_0_1 + 120 p_0_4 + 120 p_0_8 + 120 p_0_9 + 100000 z_0_1 + 100000 z_0_4 + 100000 z_0_8 + 100000 z_0_9 <= 402270.43801753491
 c2474: 120 p_0_2 + 120 p_0_4 + 120 p_0_8 + 120 p_0_9 + 100000 z_0_2 + 100000 z_0_4 + 100000 z_0_8 + 100000 z_0_9 <= 402268.27227780985
 c2475: 120 p_0_1 + 120 p_0_2 + 120 p_0_4 + 120 p_0_8 + 120 p_0_9 + 100000 z_0_1 + 100000 z_0_2 + 100000 z_0_4 + 100000 z_0_8 + 100000 z_0_9 <= 502268.20489808888
 c2476: 120 p_0_3 + 120 p_0_4 + 120 p_0_8 + 120 p_0_9 + 100000 z_0_3 + 100000 z_0_4 + 100000 z_0_8 + 100000 z_0_9 <= 402163.48719471955
 c2477: 120 p_0_1 + 120 p_0_3 + 120 p_0_4 + 120 p_0_8 + 120 p_0_9 + 100000 z_0_1 + 100000 z_0_3 + 100000 z_0_4 + 100000 z_0_8 + 100000 z_0_9 <= 502163.41981499863
 c2478: 120 p_0_2 + 120 p_0_3 + 120 p_0_4 + 120 p_0_8 + 120 p_0_9 + 100000 z_0_2 + 100000 z_0_3 + 100000 z_0_4 + 100000 z_0_8 + 100000 z_0_9 <= 502161.25407527358
 c2479: 120 p_0_1 + 120 p_0_2 + 120 p_0_3 + 120 p_0_4 + 120 p_0_8 + 120 p_0_9 + 100000 z_0_1 + 100000 z_0_2 + 100000 z_0_3 + 100000 z_0_4 + 100000 z_0_8 + 100000 z_0_9 <= 602161.18669555266
 c2480: 120 p_0_5 + 120 p_0_8 + 120 p_0_9 + 100000 z_0_5 + 100000 z_0_8 + 100000 z_0_9 <= 302656.1065084975
 c2481: 120 p_0_1 + 120 p_0_5 + 120 p_0_8 + 120 p_0_9 + 100000 z_0_1 + 100000 z_0_5 + 100000 z_0_8 + 100000 z_0_9 <= 402288.17629636865
 c2482: 120 p_0_2 + 120 p_0_5 + 120 p_0_8 + 120 p_0_9 + 100000 z_0_2 + 100000 z_0_5 + 100000 z_0_8 + 100000 z_0_9 <= 402653.87338905153
 c2483: 120 p_0_1 + 120 p_0_2 + 120 p_0_5 + 120 p_0_8 + 120 p_0_9 + 100000 z_0_1 + 100000 z_0_2 + 100000 z_0_5 + 100000 z_0_8 + 100000 z_0_9 <= 502273.41263545549
 c2484: 120 p_0_3 + 120 p_0_5 + 120 p_0_8 + 120 p_0_9 + 100000 z_0_3 + 100000 z_0_5 + 100000 z_0_8 + 100000 z_0_9 <= 402549.08830596122
 c2485: 120 p_0_1 + 120 p_0_3 + 120 p_0_5 + 120 p_0_8 + 120 p_0_9 + 100000 z_0_1 + 100000 z_0_3 + 100000 z_0_5 + 100000 z_0_8 + 100000 z_0_9 <= 502181.15809383238
 c2486: 120 p_0_2 + 120 p_0_3 + 120 p_0_5 + 120 p_0_8 + 120 p_0_9 + 100000 z_0_2 + 100000 z_0_3 + 100000 z_0_5 + 100000 z_0_8 + 100000 z_0_9 <= 502546.85518651525
 c2487: 120 p_0_1 + 120 p_0_2 + 120 p_0_3 + 120 p_0_5 + 120 p_0_8 + 120 p_0_9 + 100000 z_0_1 + 100000 z_0_2 + 100000 z_0_3 + 100000 z_0_5 + 100000 z_0_8 + 100000 z_0_9 <= 602171.84942915698
 c2488: 120 p_0_4 + 120 p_0_5 + 120 p_0_8 + 120 p_0_9 + 100000 z_0_4 + 100000 z_0_5 + 100000 z_0_8 + 100000 z_0_9 <= 402266.60378324054
 c2489: 120 p_0_1 + 120 p_0_4 + 120 p_0_5 + 120 p_0_8 + 120 p_0_9 + 100000 z_0_1 + 100000 z_0_4 + 100000 z_0_5 + 100000 z_0_8 + 100000 z_0_9 <= 502266.53640351957
 c2490: 120 p_0_2 + 120 p_0_4 + 120 p_0_5 + 120 p_0_8 + 120 p_0_9 + 100000 z_0_2 + 100000 z_0_4 + 100000 z_0_5 + 100000 z_0_8 + 100000 z_0_9 <= 502251.84012232738
 c2491: 120 p_0_1 + 120 p_0_2 + 120 p_0_4 + 120 p_0_5 + 120 p_0_8 + 120 p_0_9 + 100000 z_0_1 + 100000 z_0_2 + 100000 z_0_4 + 100000 z_0_5 + 100000 z_0_8 + 100000 z_0_9 <= 602251.77274260647
 c2492: 120 p_0_3 + 120 p_0_4 + 120 p_0_5 + 120 p_0_8 + 120 p_0_9 + 100000 z_0_3 + 100000 z_0_4 + 100000 z_0_5 + 100000 z_0_8 + 100000 z_0_9 <= 502159.58558070427
 c2493: 120 p_0_1 + 120 p_0_3 + 120 p_0_4 + 120 p_0_5 + 120 p_0_8 + 120 p_0_9 + 100000 z_0_1 + 100000 z_0_3 + 100000 z_0_4 + 100000 z_0_5 + 100000 z_0_8 + 100000 z_0_9 <= 602159.51820098329
 c2494: 120 p_0_2 + 120 p_0_3 + 120 p_0_4 + 120 p_0_5 + 120 p_0_8 + 120 p_0_9 + 100000 z_0_2 + 100000 z_0_3 + 100000 z_0_4 + 100000 z_0_5 + 100000 z_0_8 + 100000 z_0_9 <= 602151.60485564859
 c2495: 120 p_0_1 + 120 p_0_2 + 120 p_0_3 + 120 p_0_4 + 120 p_0_5 + 120 p_0_8 + 120 p_0_9 + 100000 z_0_1 + 100000 z_0_2 + 100000 z_0_3 + 100000 z_0_4 + 100000 z_0_5 + 100000 z_0_8 + 100000 z_0_9 <= 702151.53747592773
 c2496: 120 p_0_6 + 120 p_0_8 + 120 p_0_9 + 100000 z_0_6 + 100000 z_0_8 + 100000 z_0_9 <= 302605.22437528102
 c2497: 120 p_0_1 + 120 p_0_6 + 120 p_0_8 + 120 p_0_9 + 100000 z_0_1 + 100000 z_0_6 + 100000 z_0_8 + 100000 z_0_9 <= 402237.91828749672
 c2498: 120 p_0_2 + 120 p_0_6 + 120 p_0_8 + 120 p_0_9 + 100000 z_0_2 + 100000 z_0_6 + 100000 z_0_8 + 100000 z_0_9 <= 402602.99125583505
 c2499: 120 p_0_1 + 120 p_0_2 + 120 p_0_6 + 120 p_0_8 + 120 p_0_9 + 100000 z_0_1 + 100000 z_0_2 + 100000 z_0_6 + 100000 z_0_8 + 100000 z_0_9 <= 502235.68516805075
 c2500: 120 p_0_3 + 120 p_0_6 + 120 p_0_8 + 120 p_0_9 + 100000 z_0_3 + 100000 z_0_6 + 100000 z_0_8 + 100000 z_0_9 <= 402548.22870956361
 c2501: 120 p_0_1 + 120 p_0_3 + 120 p_0_6 + 120 p_0_8 + 120 p_0_9 + 100000 z_0_1 + 100000 z_0_3 + 100000 z_0_6 + 100000 z_0_8 + 100000 z_0_9 <= 502180.92262177932
 c2502: 120 p_0_2 + 120 p_0_3 + 120 p_0_6 + 120 p_0_8 + 120 p_0_9 + 100000 z_0_2 + 100000 z_0_3 + 100000 z_0_6 + 100000 z_0_8 + 100000 z_0_9 <= 502545.99559011764
 c2503: 120 p_0_1 + 120 p_0_2 + 120 p_0_3 + 120 p_0_6 + 120 p_0_8 + 120 p_0_9 + 100000 z_0_1 + 100000 z_0_2 + 100000 z_0_3 + 100000 z_0_6 + 100000 z_0_8 + 100000 z_0_9 <= 602178.68950233329
 c2504: 120 p_0_4 + 120 p_0_6 + 120 p_0_8 + 120 p_0_9 + 100000 z_0_4 + 100000 z_0_6 + 100000 z_0_8 + 100000 z_0_9 <= 402216.34577436862
 c2505: 120 p_0_1 + 120 p_0_4 + 120 p_0_6 + 120 p_0_8 + 120 p_0_9 + 100000 z_0_1 + 100000 z_0_4 + 100000 z_0_6 + 100000 z_0_8 + 100000 z_0_9 <= 502216.27839464764
 c2506: 120 p_0_2 + 120 p_0_4 + 120 p_0_6 + 120 p_0_8 + 120 p_0_9 + 100000 z_0_2 + 100000 z_0_4 + 100000 z_0_6 + 100000 z_0_8 + 100000 z_0_9 <= 502214.11265492259
 c2507: 120 p_0_1 + 120 p_0_2 + 120 p_0_4 + 120 p_0_6 + 120 p_0_8 + 120 p_0_9 + 100000 z_0_1 + 100000 z_0_2 + 100000 z_0_4 + 100000 z_0_6 + 100000 z_0_8 + 100000 z_0_9 <= 602214.04527520167
 c2508: 120 p_0_3 + 120 p_0_4 + 120 p_0_6 + 120 p_0_8 + 120 p_0_9 + 100000 z_0_3 + 100000 z_0_4 + 100000 z_0_6 + 100000 z_0_8 + 100000 z_0_9 <= 502159.35010865121
 c2509: 120 p_0_1 + 120 p_0_3 + 120 p_0_4 + 120 p_0_6 + 120 p_0_8 + 120 p_0_9 + 100000 z_0_1 + 100000 z_0_3 + 100000 z_0_4 + 100000 z_0_6 + 100000 z_0_8 + 100000 z_0_9 <= 602159.28272893024
 c2510: 120 p_0_2 + 120 p_0_3 + 120 p_0_4 + 120 p_0_6 + 120 p_0_8 + 120 p_0_9 + 100000 z_0_2 + 100000 z_0_3 + 100000 z_0_4 + 100000 z_0_6 + 100000 z_0_8 + 100000 z_0_9 <= 602157.11698920524
 c2511: 120 p_0_1 + 120 p_0_2 + 120 p_0_3 + 120 p_0_4 + 120 p_0_6 + 120 p_0_8 + 120 p_0_9 + 100000 z_0_1 + 100000 z_0_2 + 100000 z_0_3 + 100000 z_0_4 + 100000 z_0_6 + 100000 z_0_8 + 100000 z_0_9 <= 702157.04960948427
 c2512: 120 p_0_5 + 120 p_0_6 + 120 p_0_8 + 120 p_0_9 + 100000 z_0_5 + 100000 z_0_6 + 100000 z_0_8 + 100000 z_0_9 <= 402601.94688561023
 c2513: 120 p_0_1 + 120 p_0_5 + 120 p_0_6 + 120 p_0_8 + 120 p_0_9 + 100000 z_0_1 + 100000 z_0_5 + 100000 z_0_6 + 100000 z_0_8 + 100000 z_0_9 <= 502234.01667348144
 c2514: 120 p_0_2 + 120 p_0_5 + 120 p_0_6 + 120 p_0_8 + 120 p_0_9 + 100000 z_0_2 + 100000 z_0_5 + 100000 z_0_6 + 100000 z_0_8 + 100000 z_0_9 <= 502599.71376616426
 c2515: 120 p_0_1 + 120 p_0_2 + 120 p_0_5 + 120 p_0_6 + 120 p_0_8 + 120 p_0_9 + 100000 z_0_1 + 100000 z_0_2 + 100000 z_0_5 + 100000 z_0_6 + 100000 z_0_8 + 100000 z_0_9 <= 602219.25301256822
 c2516: 120 p_0_3 + 120 p_0_5 + 120 p_0_6 + 120 p_0_8 + 120 p_0_9 + 100000 z_0_3 + 100000 z_0_5 + 100000 z_0_6 + 100000 z_0_8 + 100000 z_0_9 <= 502544.95121989289
 c2517: 120 p_0_1 + 120 p_0_3 + 120 p_0_5 + 120 p_0_6 + 120 p_0_8 + 120 p_0_9 + 100000 z_0_1 + 100000 z_0_3 + 100000 z_0_5 + 100000 z_0_6 + 100000 z_0_8 + 100000 z_0_9 <= 602177.02100776404
 c2518: 120 p_0_2 + 120 p_0_3 + 120 p_0_5 + 120 p_0_6 + 120 p_0_8 + 120 p_0_9 + 100000 z_0_2 + 100000 z_0_3 + 100000 z_0_5 + 100000 z_0_6 + 100000 z_0_8 + 100000 z_0_9 <= 602542.71810044686
 c2519: 120 p_0_1 + 120 p_0_2 + 120 p_0_3 + 120 p_0_5 + 120 p_0_6 + 120 p_0_8 + 120 p_0_9 + 100000 z_0_1 + 100000 z_0_2 + 100000 z_0_3 + 100000 z_0_5 + 100000 z_0_6 + 100000 z_0_8 + 100000 z_0_9 <= 702162.25734685094
 c2520: 120 p_0_4 + 120 p_0_5 + 120 p_0_6 + 120 p_0_8 + 120 p_0_9 + 100000 z_0_4 + 100000 z_0_5 + 100000 z_0_6 + 100000 z_0_8 + 100000 z_0_9 <= 502212.44416035328
 c2521: 120 p_0_1 + 120 p_0_4 + 120 p_0_5 + 120 p_0_6 + 120 p_0_8 + 120 p_0_9 + 100000 z_0_1 + 100000 z_0_4 + 100000 z_0_5 + 100000 z_0_6 + 100000 z_0_8 + 100000 z_0_9 <= 602212.3767806323
 c2522: 120 p_0_2 + 120 p_0_4 + 120 p_0_5 + 120 p_0_6 + 120 p_0_8 + 120 p_0_9 + 100000 z_0_2 + 100000 z_0_4 + 100000 z_0_5 + 100000 z_0_6 + 100000 z_0_8 + 100000 z_0_9 <= 602197.68049944018
 c2523: 120 p_0_1 + 120 p_0_2 + 120 p_0_4 + 120 p_0_5 + 120 p_0_6 + 120 p_0_8 + 120 p_0_9 + 100000 z_0_1 + 100000 z_0_2 + 100000 z_0_4 + 100000 z_0_5 + 100000 z_0_6 + 100000 z_0_8 + 100000 z_0_9 <= 702197.6131197192
 c2524: 120 p_0_3 + 120 p_0_4 + 120 p_0_5 + 120 p_0_6 + 120 p_0_8 + 120 p_0_9 + 100000 z_0_3 + 100000 z_0_4 + 100000 z_0_5 + 100000 z_0_6 + 100000 z_0_8 + 100000 z_0_9 <= 602155.44849463587
 c2525: 120 p_0_1 + 120 p_0_3 + 120 p_0_4 + 120 p_0_5 + 120 p_0_6 + 120 p_0_8 + 120 p_0_9 + 100000 z_0_1 + 100000 z_0_3 + 100000 z_0_4 + 100000 z_0_5 + 100000 z_0_6 + 100000 z_0_8 + 100000 z_0_9 <= 702155.3811149149
 c2526: 120 p_0_2 + 120 p_0_3 + 120 p_0_4 + 120 p_0_5 + 120 p_0_6 + 120 p_0_8 + 120 p_0_9 + 100000 z_0_2 + 100000 z_0_3 + 100000 z_0_4 + 100000 z_0_5 + 100000 z_0_6 + 100000 z_0_8 + 100000 z_0_9 <= 702140.68483372277
 c2527: 120 p_0_1 + 120 p_0_2 + 120 p_0_3 + 120 p_0_4 + 120 p_0_5 + 120 p_0_6 + 120 p_0_8 + 120 p_0_9 + 100000 z_0_1 + 100000 z_0_2 + 100000 z_0_3 + 100000 z_0_4 + 100000 z_0_5 + 100000 z_0_6 + 100000 z_0_8 + 100000 z_0_9 <= 802140.6174540018
 c2528: 120 p_0_7 + 120 p_0_8 + 120 p_0_9 + 100000 z_0_7 + 100000 z_0_8 + 100000 z_0_9 <= 302130.84520196606
 c2529: 120 p_0_1 + 120 p_0_7 + 120 p_0_8 + 120 p_0_9 + 100000 z_0_1 + 100000 z_0_7 + 100000 z_0_8 + 100000 z_0_9 <= 402129.93549763679
 c2530: 120 p_0_2 + 120 p_0_7 + 120 p_0_8 + 120 p_0_9 + 100000 z_0_2 + 100000 z_0_7 + 100000 z_0_8 + 100000 z_0_9 <= 402128.61208252009
 c2531: 120 p_0_1 + 120 p_0_2 + 120 p_0_7 + 120 p_0_8 + 120 p_0_9 + 100000 z_0_1 + 100000 z_0_2 + 100000 z_0_7 + 100000 z_0_8 + 100000 z_0_9 <= 502127.70237819082
 c2532: 120 p_0_3 + 120 p_0_7 + 120 p_0_8 + 120 p_0_9 + 100000 z_0_3 + 100000 z_0_7 + 100000 z_0_8 + 100000 z_0_9 <= 402023.82699942979
 c2533: 120 p_0_1 + 120 p_0_3 + 120 p_0_7 + 120 p_0_8 + 120 p_0_9 + 100000 z_0_1 + 100000 z_0_3 + 100000 z_0_7 + 100000 z_0_8 + 100000 z_0_9 <= 502022.91729510052
 c2534: 120 p_0_2 + 120 p_0_3 + 120 p_0_7 + 120 p_0_8 + 120 p_0_9 + 100000 z_0_2 + 100000 z_0_3 + 100000 z_0_7 + 100000 z_0_8 + 100000 z_0_9 <= 502021.59387998382
 c2535: 120 p_0_1 + 120 p_0_2 + 120 p_0_3 + 120 p_0_7 + 120 p_0_8 + 120 p_0_9 + 100000 z_0_1 + 100000 z_0_2 + 100000 z_0_3 + 100000 z_0_7 + 100000 z_0_8 + 100000 z_0_9 <= 602020.68417565455
 c2536: 120 p_0_4 + 120 p_0_7 + 120 p_0_8 + 120 p_0_9 + 100000 z_0_4 + 100000 z_0_7 + 100000 z_0_8 + 100000 z_0_9 <= 402129.49842723738
 c2537: 120 p_0_1 + 120 p_0_4 + 120 p_0_7 + 120 p_0_8 + 120 p_0_9 + 100000 z_0_1 + 100000 z_0_4 + 100000 z_0_7 + 100000 z_0_8 + 100000 z_0_9 <= 502129.43104751641
 c2538: 120 p_0_2 + 120 p_0_4 + 120 p_0_7 + 120 p_0_8 + 120 p_0_9 + 100000 z_0_2 + 100000 z_0_4 + 100000 z_0_7 + 100000 z_0_8 + 100000 z_0_9 <= 502127.26530779141
 c2539: 120 p_0_1 + 120 p_0_2 + 120 p_0_4 + 120 p_0_7 + 120 p_0_8 + 120 p_0_9 + 100000 z_0_1 + 100000 z_0_2 + 100000 z_0_4 + 100000 z_0_7 + 100000 z_0_8 + 100000 z_0_9 <= 602127.19792807044
 c2540: 120 p_0_3 + 120 p_0_4 + 120 p_0_7 + 120 p_0_8 + 120 p_0_9 + 100000 z_0_3 + 100000 z_0_4 + 100000 z_0_7 + 100000 z_0_8 + 100000 z_0_9 <= 502022.48022470111
 c2541: 120 p_0_1 + 120 p_0_3 + 120 p_0_4 + 120 p_0_7 + 120 p_0_8 + 120 p_0_9 + 100000 z_0_1 + 100000 z_0_3 + 100000 z_0_4 + 100000 z_0_7 + 100000 z_0_8 + 100000 z_0_9 <= 602022.41284498014
 c2542: 120 p_0_2 + 120 p_0_3 + 120 p_0_4 + 120 p_0_7 + 120 p_0_8 + 120 p_0_9 + 100000 z_0_2 + 100000 z_0_3 + 100000 z_0_4 + 100000 z_0_7 + 100000 z_0_8 + 100000 z_0_9 <= 602020.24710525514
 c2543: 120 p_0_1 + 120 p_0_2 + 120 p_0_3 + 120 p_0_4 + 120 p_0_7 + 120 p_0_8 + 120 p_0_9 + 100000 z_0_1 + 100000 z_0_2 + 100000 z_0_3 + 100000 z_0_4 + 100000 z_0_7 + 100000 z_0_8 + 100000 z_0_9 <= 702020.17972553417
 c2544: 120 p_0_5 + 120 p_0_7 + 120 p_0_8 + 120 p_0_9 + 100000 z_0_5 + 100000 z_0_7 + 100000 z_0_8 + 100000 z_0_9 <= 402126.94358795078
 c2545: 120 p_0_1 + 120 p_0_5 + 120 p_0_7 + 120 p_0_8 + 120 p_0_9 + 100000 z_0_1 + 100000 z_0_5 + 100000 z_0_7 + 100000 z_0_8 + 100000 z_0_9 <= 502126.03388362151
 c2546: 120 p_0_2 + 120 p_0_5 + 120 p_0_7 + 120 p_0_8 + 120 p_0_9 + 100000 z_0_2 + 100000 z_0_5 + 100000 z_0_7 + 100000 z_0_8 + 100000 z_0_9 <= 502112.17992703762
 c2547: 120 p_0_1 + 120 p_0_2 + 120 p_0_5 + 120 p_0_7 + 120 p_0_8 + 120 p_0_9 + 100000 z_0_1 + 100000 z_0_2 + 100000 z_0_5 + 100000 z_0_7 + 100000 z_0_8 + 100000 z_0_9 <= 602111.27022270835
 c2548: 120 p_0_3 + 120 p_0_5 + 120 p_0_7 + 120 p_0_8 + 120 p_0_9 + 100000 z_0_3 + 100000 z_0_5 + 100000 z_0_7 + 100000 z_0_8 + 100000 z_0_9 <= 502019.92538541451
 c2549: 120 p_0_1 + 120 p_0_3 + 120 p_0_5 + 120 p_0_7 + 120 p_0_8 + 120 p_0_9 + 100000 z_0_1 + 100000 z_0_3 + 100000 z_0_5 + 100000 z_0_7 + 100000 z_0_8 + 100000 z_0_9 <= 602019.01568108518
 c2550: 120 p_0_2 + 120 p_0_3 + 120 p_0_5 + 120 p_0_7 + 120 p_0_8 + 120 p_0_9 + 100000 z_0_2 + 100000 z_0_3 + 100000 z_0_5 + 100000 z_0_7 + 100000 z_0_8 + 100000 z_0_9 <= 602005.16172450141
 c2551: 120 p_0_1 + 120 p_0_2 + 120 p_0_3 + 120 p_0_5 + 120 p_0_7 + 120 p_0_8 + 120 p_0_9 + 100000 z_0_1 + 100000 z_0_2 + 100000 z_0_3 + 100000 z_0_5 + 100000 z_0_7 + 100000 z_0_8 + 100000 z_0_9 <= 702004.25202017208
 c2552: 120 p_0_4 + 120 p_0_5 + 120 p_0_7 + 120 p_0_8 + 120 p_0_9 + 100000 z_0_4 + 100000 z_0_5 + 100000 z_0_7 + 100000 z_0_8 + 100000 z_0_9 <= 502125.59681322204
 c2553: 120 p_0_1 + 120 p_0_4 + 120 p_0_5 + 120 p_0_7 + 120 p_0_8 + 120 p_0_9 + 100000 z_0_1 + 100000 z_0_4 + 100000 z_0_5 + 100000 z_0_7 + 100000 z_0_8 + 100000 z_0_9 <= 602125.52943350107
 c2554: 120 p_0_2 + 120 p_0_4 + 120 p_0_5 + 120 p_0_7 + 120 p_0_8 + 120 p_0_9 + 100000 z_0_2 + 100000 z_0_4 + 100000 z_0_5 + 100000 z_0_7 + 100000 z_0_8 + 100000 z_0_9 <= 602110.83315230894
 c2555: 120 p_0_1 + 120 p_0_2 + 120 p_0_4 + 120 p_0_5 + 120 p_0_7 + 120 p_0_8 + 120 p_0_9 + 100000 z_0_1 + 100000 z_0_2 + 100000 z_0_4 + 100000 z_0_5 + 100000 z_0_7 + 100000 z_0_8 + 100000 z_0_9 <= 702110.76577258797
 c2556: 120 p_0_3 + 120 p_0_4 + 120 p_0_5 + 120 p_0_7 + 120 p_0_8 + 120 p_0_9 + 100000 z_0_3 + 100000 z_0_4 + 100000 z_0_5 + 100000 z_0_7 + 100000 z_0_8 + 100000 z_0_9 <= 602018.57861068577
 c2557: 120 p_0_1 + 120 p_0_3 + 120 p_0_4 + 120 p_0_5 + 120 p_0_7 + 120 p_0_8 + 120 p_0_9 + 100000 z_0_1 + 100000 z_0_3 + 100000 z_0_4 + 100000 z_0_5 + 100000 z_0_7 + 100000 z_0_8 + 100000 z_0_9 <= 702018.5112309648
 c2558: 120 p_0_2 + 120 p_0_3 + 120 p_0_4 + 120 p_0_5 + 120 p_0_7 + 120 p_0_8 + 120 p_0_9 + 100000 z_0_2 + 100000 z_0_3 + 100000 z_0_4 + 100000 z_0_5 + 100000 z_0_7 + 100000 z_0_8 + 100000 z_0_9 <= 702003.81494977267
 c2559: 120 p_0_1 + 120 p_0_2 + 120 p_0_3 + 120 p_0_4 + 120 p_0_5 + 120 p_0_7 + 120 p_0_8 + 120 p_0_9 + 100000 z_0_1 + 100000 z_0_2 + 100000 z_0_3 + 100000 z_0_4 + 100000 z_0_5 + 100000 z_0_7 + 100000 z_0_8 + 100000 z_0_9 <= 802003.7475700517
 c2560: 120 p_0_6 + 120 p_0_7 + 120 p_0_8 + 120 p_0_9 + 100000 z_0_6 + 100000 z_0_7 + 100000 z_0_8 + 100000 z_0_9 <= 402076.68557907885
 c2561: 120 p_0_1 + 120 p_0_6 + 120 p_0_7 + 120 p_0_8 + 120 p_0_9 + 100000 z_0_1 + 100000 z_0_6 + 100000 z_0_7 + 100000 z_0_8 + 100000 z_0_9 <= 502075.77587474958
 c2562: 120 p_0_2 + 120 p_0_6 + 120 p_0_7 + 120 p_0_8 + 120 p_0_9 + 100000 z_0_2 + 100000 z_0_6 + 100000 z_0_7 + 100000 z_0_8 + 100000 z_0_9 <= 502074.45245963288
 c2563: 120 p_0_1 + 120 p_0_2 + 120 p_0_6 + 120 p_0_7 + 120 p_0_8 + 120 p_0_9 + 100000 z_0_1 + 100000 z_0_2 + 100000 z_0_6 + 100000 z_0_7 + 100000 z_0_8 + 100000 z_0_9 <= 602073.54275530356
 c2564: 120 p_0_3 + 120 p_0_6 + 120 p_0_7 + 120 p_0_8 + 120 p_0_9 + 100000 z_0_3 + 100000 z_0_6 + 100000 z_0_7 + 100000 z_0_8 + 100000 z_0_9 <= 502019.68991336145
 c2565: 120 p_0_1 + 120 p_0_3 + 120 p_0_6 + 120 p_0_7 + 120 p_0_8 + 120 p_0_9 + 100000 z_0_1 + 100000 z_0_3 + 100000 z_0_6 + 100000 z_0_7 + 100000 z_0_8 + 100000 z_0_9 <= 602018.78020903224
 c2566: 120 p_0_2 + 120 p_0_3 + 120 p_0_6 + 120 p_0_7 + 120 p_0_8 + 120 p_0_9 + 100000 z_0_2 + 100000 z_0_3 + 100000 z_0_6 + 100000 z_0_7 + 100000 z_0_8 + 100000 z_0_9 <= 602017.45679391548
 c2567: 120 p_0_1 + 120 p_0_2 + 120 p_0_3 + 120 p_0_6 + 120 p_0_7 + 120 p_0_8 + 120 p_0_9 + 100000 z_0_1 + 100000 z_0_2 + 100000 z_0_3 + 100000 z_0_6 + 100000 z_0_7 + 100000 z_0_8 + 100000 z_0_9 <= 702016.54708958615
 c2568: 120 p_0_4 + 120 p_0_6 + 120 p_0_7 + 120 p_0_8 + 120 p_0_9 + 100000 z_0_4 + 100000 z_0_6 + 100000 z_0_7 + 100000 z_0_8 + 100000 z_0_9 <= 502075.33880435012
 c2569: 120 p_0_1 + 120 p_0_4 + 120 p_0_6 + 120 p_0_7 + 120 p_0_8 + 120 p_0_9 + 100000 z_0_1 + 100000 z_0_4 + 100000 z_0_6 + 100000 z_0_7 + 100000 z_0_8 + 100000 z_0_9 <= 602075.27142462914
 c2570: 120 p_0_2 + 120 p_0_4 + 120 p_0_6 + 120 p_0_7 + 120 p_0_8 + 120 p_0_9 + 100000 z_0_2 + 100000 z_0_4 + 100000 z_0_6 + 100000 z_0_7 + 100000 z_0_8 + 100000 z_0_9 <= 602073.10568490415
 c2571: 120 p_0_1 + 120 p_0_2 + 120 p_0_4 + 120 p_0_6 + 120 p_0_7 + 120 p_0_8 + 120 p_0_9 + 100000 z_0_1 + 100000 z_0_2 + 100000 z_0_4 + 100000 z_0_6 + 100000 z_0_7 + 100000 z_0_8 + 100000 z_0_9 <= 702073.03830518317
 c2572: 120 p_0_3 + 120 p_0_4 + 120 p_0_6 + 120 p_0_7 + 120 p_0_8 + 120 p_0_9 + 100000 z_0_3 + 100000 z_0_4 + 100000 z_0_6 + 100000 z_0_7 + 100000 z_0_8 + 100000 z_0_9 <= 602018.34313863271
 c2573: 120 p_0_1 + 120 p_0_3 + 120 p_0_4 + 120 p_0_6 + 120 p_0_7 + 120 p_0_8 + 120 p_0_9 + 100000 z_0_1 + 100000 z_0_3 + 100000 z_0_4 + 100000 z_0_6 + 100000 z_0_7 + 100000 z_0_8 + 100000 z_0_9 <= 702018.27575891186
 c2574: 120 p_0_2 + 120 p_0_3 + 120 p_0_4 + 120 p_0_6 + 120 p_0_7 + 120 p_0_8 + 120 p_0_9 + 100000 z_0_2 + 100000 z_0_3 + 100000 z_0_4 + 100000 z_0_6 + 100000 z_0_7 + 100000 z_0_8 + 100000 z_0_9 <= 702016.11001918674
 c2575: 120 p_0_1 + 120 p_0_2 + 120 p_0_3 + 120 p_0_4 + 120 p_0_6 + 120 p_0_7 + 120 p_0_8 + 120 p_0_9 + 100000 z_0_1 + 100000 z_0_2 + 100000 z_0_3 + 100000 z_0_4 + 100000 z_0_6 + 100000 z_0_7 + 100000 z_0_8 + 100000 z_0_9 <= 802016.04263946577
 c2576: 120 p_0_5 + 120 p_0_6 + 120 p_0_7 + 120 p_0_8 + 120 p_0_9 + 100000 z_0_5 + 100000 z_0_6 + 100000 z_0_7 + 100000 z_0_8 + 100000 z_0_9 <= 502072.78396506351
 c2577: 120 p_0_1 + 120 p_0_5 + 120 p_0_6 + 120 p_0_7 + 120 p_0_8 + 120 p_0_9 + 100000 z_0_1 + 100000 z_0_5 + 100000 z_0_6 + 100000 z_0_7 + 100000 z_0_8 + 100000 z_0_9 <= 602071.8742607343
 c2578: 120 p_0_2 + 120 p_0_5 + 120 p_0_6 + 120 p_0_7 + 120 p_0_8 + 120 p_0_9 + 100000 z_0_2 + 100000 z_0_5 + 100000 z_0_6 + 100000 z_0_7 + 100000 z_0_8 + 100000 z_0_9 <= 602058.02030415041
 c2579: 120 p_0_1 + 120 p_0_2 + 120 p_0_5 + 120 p_0_6 + 120 p_0_7 + 120 p_0_8 + 120 p_0_9 + 100000 z_0_1 + 100000 z_0_2 + 100000 z_0_5 + 100000 z_0_6 + 100000 z_0_7 + 100000 z_0_8 + 100000 z_0_9 <= 702057.11059982108
 c2580: 120 p_0_3 + 120 p_0_5 + 120 p_0_6 + 120 p_0_7 + 120 p_0_8 + 120 p_0_9 + 100000 z_0_3 + 100000 z_0_5 + 100000 z_0_6 + 100000 z_0_7 + 100000 z_0_8 + 100000 z_0_9 <= 602015.78829934611
 c2581: 120 p_0_1 + 120 p_0_3 + 120 p_0_5 + 120 p_0_6 + 120 p_0_7 + 120 p_0_8 + 120 p_0_9 + 100000 z_0_1 + 100000 z_0_3 + 100000 z_0_5 + 100000 z_0_6 + 100000 z_0_7 + 100000 z_0_8 + 100000 z_0_9 <= 702014.8785950169
 c2582: 120 p_0_2 + 120 p_0_3 + 120 p_0_5 + 120 p_0_6 + 120 p_0_7 + 120 p_0_8 + 120 p_0_9 + 100000 z_0_2 + 100000 z_0_3 + 100000 z_0_5 + 100000 z_0_6 + 100000 z_0_7 + 100000 z_0_8 + 100000 z_0_9 <= 702001.02463843301
 c2583: 120 p_0_1 + 120 p_0_2 + 120 p_0_3 + 120 p_0_5 + 120 p_0_6 + 120 p_0_7 + 120 p_0_8 + 120 p_0_9 + 100000 z_0_1 + 100000 z_0_2 + 100000 z_0_3 + 100000 z_0_5 + 100000 z_0_6 + 100000 z_0_7 + 100000 z_0_8 + 100000 z_0_9 <= 802000.1149341038
 c2584: 120 p_0_4 + 120 p_0_5 + 120 p_0_6 + 120 p_0_7 + 120 p_0_8 + 120 p_0_9 + 100000 z_0_4 + 100000 z_0_5 + 100000 z_0_6 + 100000 z_0_7 + 100000 z_0_8 + 100000 z_0_9 <= 602071.43719033478
 c2585: 120 p_0_1 + 120 p_0_4 + 120 p_0_5 + 120 p_0_6 + 120 p_0_7 + 120 p_0_8 + 120 p_0_9 + 100000 z_0_1 + 100000 z_0_4 + 100000 z_0_5 + 100000 z_0_6 + 100000 z_0_7 + 100000 z_0_8 + 100000 z_0_9 <= 702071.36981061392
 c2586: 120 p_0_2 + 120 p_0_4 + 120 p_0_5 + 120 p_0_6 + 120 p_0_7 + 120 p_0_8 + 120 p_0_9 + 100000 z_0_2 + 100000 z_0_4 + 100000 z_0_5 + 100000 z_0_6 + 100000 z_0_7 + 100000 z_0_8 + 100000 z_0_9 <= 702056.67352942168
 c2587: 120 p_0_1 + 120 p_0_2 + 120 p_0_4 + 120 p_0_5 + 120 p_0_6 + 120 p_0_7 + 120 p_0_8 + 120 p_0_9 + 100000 z_0_1 + 100000 z_0_2 + 100000 z_0_4 + 100000 z_0_5 + 100000 z_0_6 + 100000 z_0_7 + 100000 z_0_8 + 100000 z_0_9 <= 802056.6061497007
 c2588: 120 p_0_3 + 120 p_0_4 + 120 p_0_5 + 120 p_0_6 + 120 p_0_7 + 120 p_0_8 + 120 p_0_9 + 100000 z_0_3 + 100000 z_0_4 + 100000 z_0_5 + 100000 z_0_6 + 100000 z_0_7 + 100000 z_0_8 + 100000 z_0_9 <= 702014.44152461749
 c2589: 120 p_0_1 + 120 p_0_3 + 120 p_0_4 + 120 p_0_5 + 120 p_0_6 + 120 p_0_7 + 120 p_0_8 + 120 p_0_9 + 100000 z_0_1 + 100000 z_0_3 + 100000 z_0_4 + 100000 z_0_5 + 100000 z_0_6 + 100000 z_0_7 + 100000 z_0_8 + 100000 z_0_9 <= 802014.37414489652
 c2590: 120 p_0_2 + 120 p_0_3 + 120 p_0_4 + 120 p_0_5 + 120 p_0_6 + 120 p_0_7 + 120 p_0_8 + 120 p_0_9 + 100000 z_0_2 + 100000 z_0_3 + 100000 z_0_4 + 100000 z_0_5 + 100000 z_0_6 + 100000 z_0_7 + 100000 z_0_8 + 100000 z_0_9 <= 801999.67786370427
 c2591: 120 p_0_1 + 120 p_0_2 + 120 p_0_3 + 120 p_0_4 + 120 p_0_5 + 120 p_0_6 + 120 p_0_7 + 120 p_0_8 + 120 p_0_9 + 100000 z_0_1 + 100000 z_0_2 + 100000 z_0_3 + 100000 z_0_4 + 100000 z_0_5 + 100000 z_0_6 + 100000 z_0_7 + 100000 z_0_8 + 100000 z_0_9 <= 901999.61048398342
 c2592: 120 p_0_10 + 100000 z_0_10 <= 103013.11101556507
 c2593: 120 p_0_1 + 120 p_0_10 + 100000 z_0_1 + 100000 z_0_10 <= 203010.7657669099
 c2594: 120 p_0_10 + 120 p_0_2 + 100000 z_0_10 + 100000 z_0_2 <= 202643.81166316185
 c2595: 120 p_0_1 + 120 p_0_10 + 120 p_0_2 + 100000 z_0_1 + 100000 z_0_10 + 100000 z_0_2 <= 302643.65898107423
 c2596: 120 p_0_10 + 120 p_0_3 + 100000 z_0_10 + 100000 z_0_3 <= 202533.90404215889
 c2597: 120 p_0_1 + 120 p_0_10 + 120 p_0_3 + 100000 z_0_1 + 100000 z_0_10 + 100000 z_0_3 <= 302531.55879350373
 c2598: 120 p_0_10 + 120 p_0_2 + 120 p_0_3 + 100000 z_0_10 + 100000 z_0_2 + 100000 z_0_3 <= 302233.3676803151
 c2599: 120 p_0_1 + 120 p_0_10 + 120 p_0_2 + 120 p_0_3 + 100000 z_0_1 + 100000 z_0_10 + 100000 z_0_2 + 100000 z_0_3 <= 402231.02243165998
 c2600: 120 p_0_10 + 120 p_0_4 + 100000 z_0_10 + 100000 z_0_4 <= 203010.61210442503
 c2601: 120 p_0_1 + 120 p_0_10 + 120 p_0_4 + 100000 z_0_1 + 100000 z_0_10 + 100000 z_0_4 <= 303010.54472470406
 c2602: 120 p_0_10 + 120 p_0_2 + 120 p_0_4 + 100000 z_0_10 + 100000 z_0_2 + 100000 z_0_4 <= 302643.7873323143
 c2603: 120 p_0_1 + 120 p_0_10 + 120 p_0_2 + 120 p_0_4 + 100000 z_0_1 + 100000 z_0_10 + 100000 z_0_2 + 100000 z_0_4 <= 402643.43793886842
 c2604: 120 p_0_10 + 120 p_0_3 + 120 p_0_4 + 100000 z_0_10 + 100000 z_0_3 + 100000 z_0_4 <= 302531.40513101884
 c2605: 120 p_0_1 + 120 p_0_10 + 120 p_0_3 + 120 p_0_4 + 100000 z_0_1 + 100000 z_0_10 + 100000 z_0_3 + 100000 z_0_4 <= 402531.33775129792
 c2606: 120 p_0_10 + 120 p_0_2 + 120 p_0_3 + 120 p_0_4 + 100000 z_0_10 + 100000 z_0_2 + 100000 z_0_3 + 100000 z_0_4 <= 402230.86876917508
 c2607: 120 p_0_1 + 120 p_0_10 + 120 p_0_2 + 120 p_0_3 + 120 p_0_4 + 100000 z_0_1 + 100000 z_0_10 + 100000 z_0_2 + 100000 z_0_3 + 100000 z_0_4 <= 502230.80138945417
 c2608: 120 p_0_10 + 120 p_0_5 + 100000 z_0_10 + 100000 z_0_5 <= 202673.23694256812
 c2609: 120 p_0_1 + 120 p_0_10 + 120 p_0_5 + 100000 z_0_1 + 100000 z_0_10 + 100000 z_0_5 <= 302671.93647274375
 c2610: 120 p_0_10 + 120 p_0_2 + 120 p_0_5 + 100000 z_0_10 + 100000 z_0_2 + 100000 z_0_5 <= 302614.55134600768
 c2611: 120 p_0_1 + 120 p_0_10 + 120 p_0_2 + 120 p_0_5 + 100000 z_0_1 + 100000 z_0_10 + 100000 z_0_2 + 100000 z_0_5 <= 402613.25087618333
 c2612: 120 p_0_10 + 120 p_0_3 + 120 p_0_5 + 100000 z_0_10 + 100000 z_0_3 + 100000 z_0_5 <= 302196.96506965527
 c2613: 120 p_0_1 + 120 p_0_10 + 120 p_0_3 + 120 p_0_5 + 100000 z_0_1 + 100000 z_0_10 + 100000 z_0_3 + 100000 z_0_5 <= 402194.61982100009
 c2614: 120 p_0_10 + 120 p_0_2 + 120 p_0_3 + 120 p_0_5 + 100000 z_0_10 + 100000 z_0_2 + 100000 z_0_3 + 100000 z_0_5 <= 402175.95291051752
 c2615: 120 p_0_1 + 120 p_0_10 + 120 p_0_2 + 120 p_0_3 + 120 p_0_5 + 100000 z_0_1 + 100000 z_0_10 + 100000 z_0_2 + 100000 z_0_3 + 100000 z_0_5 <= 502173.60766186233
 c2616: 120 p_0_10 + 120 p_0_4 + 120 p_0_5 + 100000 z_0_10 + 100000 z_0_4 + 100000 z_0_5 <= 302672.53969253658
 c2617: 120 p_0_1 + 120 p_0_10 + 120 p_0_4 + 120 p_0_5 + 100000 z_0_1 + 100000 z_0_10 + 100000 z_0_4 + 100000 z_0_5 <= 402671.71543053794
 c2618: 120 p_0_10 + 120 p_0_2 + 120 p_0_4 + 120 p_0_5 + 100000 z_0_10 + 100000 z_0_2 + 100000 z_0_4 + 100000 z_0_5 <= 402613.85409597616
 c2619: 120 p_0_1 + 120 p_0_10 + 120 p_0_2 + 120 p_0_4 + 120 p_0_5 + 100000 z_0_1 + 100000 z_0_10 + 100000 z_0_2 + 100000 z_0_4 + 100000 z_0_5 <= 502613.02983397752
 c2620: 120 p_0_10 + 120 p_0_3 + 120 p_0_4 + 120 p_0_5 + 100000 z_0_10 + 100000 z_0_3 + 100000 z_0_4 + 100000 z_0_5 <= 402194.46615851525
 c2621: 120 p_0_1 + 120 p_0_10 + 120 p_0_3 + 120 p_0_4 + 120 p_0_5 + 100000 z_0_1 + 100000 z_0_10 + 100000 z_0_3 + 100000 z_0_4 + 100000 z_0_5 <= 502194.39877879428
 c2622: 120 p_0_10 + 120 p_0_2 + 120 p_0_3 + 120 p_0_4 + 120 p_0_5 + 100000 z_0_10 + 100000 z_0_2 + 100000 z_0_3 + 100000 z_0_4 + 100000 z_0_5 <= 502173.4539993775
 c2623: 120 p_0_1 + 120 p_0_10 + 120 p_0_2 + 120 p_0_3 + 120 p_0_4 + 120 p_0_5 + 100000 z_0_1 + 100000 z_0_10 + 100000 z_0_2 + 100000 z_0_3 + 100000 z_0_4 + 100000 z_0_5 <= 602173.38661965658
 c2624: 120 p_0_10 + 120 p_0_6 + 100000 z_0_10 + 100000 z_0_6 <= 202579.84619052894
 c2625: 120 p_0_1 + 120 p_0_10 + 120 p_0_6 + 100000 z_0_1 + 100000 z_0_10 + 100000 z_0_6 <= 302577.50094187382
 c2626: 120 p_0_10 + 120 p_0_2 + 120 p_0_6 + 100000 z_0_10 + 100000 z_0_2 + 100000 z_0_6 <= 302283.39853503736
 c2627: 120 p_0_1 + 120 p_0_10 + 120 p_0_2 + 120 p_0_6 + 100000 z_0_1 + 100000 z_0_10 + 100000 z_0_2 + 100000 z_0_6 <= 402281.05328638217
 c2628: 120 p_0_10 + 120 p_0_3 + 120 p_0_6 + 100000 z_0_10 + 100000 z_0_3 + 100000 z_0_6 <= 302529.76695609052
 c2629: 120 p_0_1 + 120 p_0_10 + 120 p_0_3 + 120 p_0_6 + 100000 z_0_1 + 100000 z_0_10 + 100000 z_0_3 + 100000 z_0_6 <= 402527.42170743534
 c2630: 120 p_0_10 + 120 p_0_2 + 120 p_0_3 + 120 p_0_6 + 100000 z_0_10 + 100000 z_0_2 + 100000 z_0_3 + 100000 z_0_6 <= 402233.31930059893
 c2631: 120 p_0_1 + 120 p_0_10 + 120 p_0_2 + 120 p_0_3 + 120 p_0_6 + 100000 z_0_1 + 100000 z_0_10 + 100000 z_0_2 + 100000 z_0_3 + 100000 z_0_6 <= 502230.97405194375
 c2632: 120 p_0_10 + 120 p_0_4 + 120 p_0_6 + 100000 z_0_10 + 100000 z_0_4 + 100000 z_0_6 <= 302577.34727938892
 c2633: 120 p_0_1 + 120 p_0_10 + 120 p_0_4 + 120 p_0_6 + 100000 z_0_1 + 100000 z_0_10 + 100000 z_0_4 + 100000 z_0_6 <= 402577.27989966795
 c2634: 120 p_0_10 + 120 p_0_2 + 120 p_0_4 + 120 p_0_6 + 100000 z_0_10 + 100000 z_0_2 + 100000 z_0_4 + 100000 z_0_6 <= 402280.89962389728
 c2635: 120 p_0_1 + 120 p_0_10 + 120 p_0_2 + 120 p_0_4 + 120 p_0_6 + 100000 z_0_1 + 100000 z_0_10 + 100000 z_0_2 + 100000 z_0_4 + 100000 z_0_6 <= 502280.83224417636
 c2636: 120 p_0_10 + 120 p_0_3 + 120 p_0_4 + 120 p_0_6 + 100000 z_0_10 + 100000 z_0_3 + 100000 z_0_4 + 100000 z_0_6 <= 402527.2680449505
 c2637: 120 p_0_1 + 120 p_0_10 + 120 p_0_3 + 120 p_0_4 + 120 p_0_6 + 100000 z_0_1 + 100000 z_0_10 + 100000 z_0_3 + 100000 z_0_4 + 100000 z_0_6 <= 502527.20066522952
 c2638: 120 p_0_10 + 120 p_0_2 + 120 p_0_3 + 120 p_0_4 + 120 p_0_6 + 100000 z_0_10 + 100000 z_0_2 + 100000 z_0_3 + 100000 z_0_4 + 100000 z_0_6 <= 502230.82038945885
 c2639: 120 p_0_1 + 120 p_0_10 + 120 p_0_2 + 120 p_0_3 + 120 p_0_4 + 120 p_0_6 + 100000 z_0_1 + 100000 z_0_10 + 100000 z_0_2 + 100000 z_0_3 + 100000 z_0_4 + 100000 z_0_6 <= 602230.75300973793
 c2640: 120 p_0_10 + 120 p_0_5 + 120 p_0_6 + 100000 z_0_10 + 100000 z_0_5 + 100000 z_0_6 <= 302246.97889790701
 c2641: 120 p_0_1 + 120 p_0_10 + 120 p_0_5 + 120 p_0_6 + 100000 z_0_1 + 100000 z_0_10 + 100000 z_0_5 + 100000 z_0_6 <= 402244.63364925189
 c2642: 120 p_0_10 + 120 p_0_2 + 120 p_0_5 + 120 p_0_6 + 100000 z_0_10 + 100000 z_0_2 + 100000 z_0_5 + 100000 z_0_6 <= 402225.98376523971
 c2643: 120 p_0_1 + 120 p_0_10 + 120 p_0_2 + 120 p_0_5 + 120 p_0_6 + 100000 z_0_1 + 100000 z_0_10 + 100000 z_0_2 + 100000 z_0_5 + 100000 z_0_6 <= 502223.63851658459
 c2644: 120 p_0_10 + 120 p_0_3 + 120 p_0_5 + 120 p_0_6 + 100000 z_0_10 + 100000 z_0_3 + 100000 z_0_5 + 100000 z_0_6 <= 402196.89966346859
 c2645: 120 p_0_1 + 120 p_0_10 + 120 p_0_3 + 120 p_0_5 + 120 p_0_6 + 100000 z_0_1 + 100000 z_0_10 + 100000 z_0_3 + 100000 z_0_5 + 100000 z_0_6 <= 502194.55441481346
 c2646: 120 p_0_10 + 120 p_0_2 + 120 p_0_3 + 120 p_0_5 + 120 p_0_6 + 100000 z_0_10 + 100000 z_0_2 + 100000 z_0_3 + 100000 z_0_5 + 100000 z_0_6 <= 502175.90453080129
 c2647: 120 p_0_1 + 120 p_0_10 + 120 p_0_2 + 120 p_0_3 + 120 p_0_5 + 120 p_0_6 + 100000 z_0_1 + 100000 z_0_10 + 100000 z_0_2 + 100000 z_0_3 + 100000 z_0_5 + 100000 z_0_6 <= 602173.55928214616
 c2648: 120 p_0_10 + 120 p_0_4 + 120 p_0_5 + 120 p_0_6 + 100000 z_0_10 + 100000 z_0_4 + 100000 z_0_5 + 100000 z_0_6 <= 402244.47998676699
 c2649: 120 p_0_1 + 120 p_0_10 + 120 p_0_4 + 120 p_0_5 + 120 p_0_6 + 100000 z_0_1 + 100000 z_0_10 + 100000 z_0_4 + 100000 z_0_5 + 100000 z_0_6 <= 502244.41260704608
 c2650: 120 p_0_10 + 120 p_0_2 + 120 p_0_4 + 120 p_0_5 + 120 p_0_6 + 100000 z_0_10 + 100000 z_0_2 + 100000 z_0_4 + 100000 z_0_5 + 100000 z_0_6 <= 502223.48485409969
 c2651: 120 p_0_1 + 120 p_0_10 + 120 p_0_2 + 120 p_0_4 + 120 p_0_5 + 120 p_0_6 + 100000 z_0_1 + 100000 z_0_10 + 100000 z_0_2 + 100000 z_0_4 + 100000 z_0_5 + 100000 z_0_6 <= 602223.41747437872
 c2652: 120 p_0_10 + 120 p_0_3 + 120 p_0_4 + 120 p_0_5 + 120 p_0_6 + 100000 z_0_10 + 100000 z_0_3 + 100000 z_0_4 + 100000 z_0_5 + 100000 z_0_6 <= 502194.40075232857
 c2653: 120 p_0_1 + 120 p_0_10 + 120 p_0_3 + 120 p_0_4 + 120 p_0_5 + 120 p_0_6 + 100000 z_0_1 + 100000 z_0_10 + 100000 z_0_3 + 100000 z_0_4 + 100000 z_0_5 + 100000 z_0_6 <= 602194.33337260759
 c2654: 120 p_0_10 + 120 p_0_2 + 120 p_0_3 + 120 p_0_4 + 120 p_0_5 + 120 p_0_6 + 100000 z_0_10 + 100000 z_0_2 + 100000 z_0_3 + 100000 z_0_4 + 100000 z_0_5 + 100000 z_0_6 <= 602173.40561966121
 c2655: 120 p_0_1 + 120 p_0_10 + 120 p_0_2 + 120 p_0_3 + 120 p_0_4 + 120 p_0_5 + 120 p_0_6 + 100000 z_0_1 + 100000 z_0_10 + 100000 z_0_2 + 100000 z_0_3 + 100000 z_0_4 + 100000 z_0_5 + 100000 z_0_6 <= 702173.33823994035
 c2656: 120 p_0_10 + 120 p_0_7 + 100000 z_0_10 + 100000 z_0_7 <= 202951.44977953972
 c2657: 120 p_0_1 + 120 p_0_10 + 120 p_0_7 + 100000 z_0_1 + 100000 z_0_10 + 100000 z_0_7 <= 302950.54007521045
 c2658: 120 p_0_10 + 120 p_0_2 + 120 p_0_7 + 100000 z_0_10 + 100000 z_0_2 + 100000 z_0_7 <= 302593.7301807378
 c2659: 120 p_0_1 + 120 p_0_10 + 120 p_0_2 + 120 p_0_7 + 100000 z_0_1 + 100000 z_0_10 + 100000 z_0_2 + 100000 z_0_7 <= 402591.38493208261
 c2660: 120 p_0_10 + 120 p_0_3 + 120 p_0_7 + 100000 z_0_10 + 100000 z_0_3 + 100000 z_0_7 <= 302472.24280613352
 c2661: 120 p_0_1 + 120 p_0_10 + 120 p_0_3 + 120 p_0_7 + 100000 z_0_1 + 100000 z_0_10 + 100000 z_0_3 + 100000 z_0_7 <= 402471.33310180425
 c2662: 120 p_0_10 + 120 p_0_2 + 120 p_0_3 + 120 p_0_7 + 100000 z_0_10 + 100000 z_0_2 + 100000 z_0_3 + 100000 z_0_7 <= 402171.70644428977
 c2663: 120 p_0_1 + 120 p_0_10 + 120 p_0_2 + 120 p_0_3 + 120 p_0_7 + 100000 z_0_1 + 100000 z_0_10 + 100000 z_0_2 + 100000 z_0_3 + 100000 z_0_7 <= 502170.7967399605
 c2664: 120 p_0_10 + 120 p_0_4 + 120 p_0_7 + 100000 z_0_10 + 100000 z_0_4 + 100000 z_0_7 <= 302950.10300481098
 c2665: 120 p_0_1 + 120 p_0_10 + 120 p_0_4 + 120 p_0_7 + 100000 z_0_1 + 100000 z_0_10 + 100000 z_0_4 + 100000 z_0_7 <= 402950.03562509007
 c2666: 120 p_0_10 + 120 p_0_2 + 120 p_0_4 + 120 p_0_7 + 100000 z_0_10 + 100000 z_0_2 + 100000 z_0_4 + 100000 z_0_7 <= 402591.23126959777
 c2667: 120 p_0_1 + 120 p_0_10 + 120 p_0_2 + 120 p_0_4 + 120 p_0_7 + 100000 z_0_1 + 100000 z_0_10 + 100000 z_0_2 + 100000 z_0_4 + 100000 z_0_7 <= 502591.1638898768
 c2668: 120 p_0_10 + 120 p_0_3 + 120 p_0_4 + 120 p_0_7 + 100000 z_0_10 + 100000 z_0_3 + 100000 z_0_4 + 100000 z_0_7 <= 402470.89603140485
 c2669: 120 p_0_1 + 120 p_0_10 + 120 p_0_3 + 120 p_0_4 + 120 p_0_7 + 100000 z_0_1 + 100000 z_0_10 + 100000 z_0_3 + 100000 z_0_4 + 100000 z_0_7 <= 502470.82865168387
 c2670: 120 p_0_10 + 120 p_0_2 + 120 p_0_3 + 120 p_0_4 + 120 p_0_7 + 100000 z_0_10 + 100000 z_0_2 + 100000 z_0_3 + 100000 z_0_4 + 100000 z_0_7 <= 502170.35966956103
 c2671: 120 p_0_1 + 120 p_0_10 + 120 p_0_2 + 120 p_0_3 + 120 p_0_4 + 120 p_0_7 + 100000 z_0_1 + 100000 z_0_10 + 100000 z_0_2 + 100000 z_0_3 + 100000 z_0_4 + 100000 z_0_7 <= 602170.29228984006
 c2672: 120 p_0_10 + 120 p_0_5 + 120 p_0_7 + 100000 z_0_10 + 100000 z_0_5 + 100000 z_0_7 <= 302627.64339477854
 c2673: 120 p_0_1 + 120 p_0_10 + 120 p_0_5 + 120 p_0_7 + 100000 z_0_1 + 100000 z_0_10 + 100000 z_0_5 + 100000 z_0_7 <= 402625.29814612336
 c2674: 120 p_0_10 + 120 p_0_2 + 120 p_0_5 + 120 p_0_7 + 100000 z_0_10 + 100000 z_0_2 + 100000 z_0_5 + 100000 z_0_7 <= 402568.95779821806
 c2675: 120 p_0_1 + 120 p_0_10 + 120 p_0_2 + 120 p_0_5 + 120 p_0_7 + 100000 z_0_1 + 100000 z_0_10 + 100000 z_0_2 + 100000 z_0_5 + 100000 z_0_7 <= 502566.61254956294
 c2676: 120 p_0_10 + 120 p_0_3 + 120 p_0_5 + 120 p_0_7 + 100000 z_0_10 + 100000 z_0_3 + 100000 z_0_5 + 100000 z_0_7 <= 402148.43642137235
 c2677: 120 p_0_1 + 120 p_0_10 + 120 p_0_3 + 120 p_0_5 + 120 p_0_7 + 100000 z_0_1 + 100000 z_0_10 + 100000 z_0_3 + 100000 z_0_5 + 100000 z_0_7 <= 502134.39412930061
 c2678: 120 p_0_10 + 120 p_0_2 + 120 p_0_3 + 120 p_0_5 + 120 p_0_7 + 100000 z_0_10 + 100000 z_0_2 + 100000 z_0_3 + 100000 z_0_5 + 100000 z_0_7 <= 502114.29167449218
 c2679: 120 p_0_1 + 120 p_0_10 + 120 p_0_2 + 120 p_0_3 + 120 p_0_5 + 120 p_0_7 + 100000 z_0_1 + 100000 z_0_10 + 100000 z_0_2 + 100000 z_0_3 + 100000 z_0_5 + 100000 z_0_7 <= 602113.38197016285
 c2680: 120 p_0_10 + 120 p_0_4 + 120 p_0_5 + 120 p_0_7 + 100000 z_0_10 + 100000 z_0_4 + 100000 z_0_5 + 100000 z_0_7 <= 402625.14448363846
 c2681: 120 p_0_1 + 120 p_0_10 + 120 p_0_4 + 120 p_0_5 + 120 p_0_7 + 100000 z_0_1 + 100000 z_0_10 + 100000 z_0_4 + 100000 z_0_5 + 100000 z_0_7 <= 502625.07710391755
 c2682: 120 p_0_10 + 120 p_0_2 + 120 p_0_4 + 120 p_0_5 + 120 p_0_7 + 100000 z_0_10 + 100000 z_0_2 + 100000 z_0_4 + 100000 z_0_5 + 100000 z_0_7 <= 502566.45888707804
 c2683: 120 p_0_1 + 120 p_0_10 + 120 p_0_2 + 120 p_0_4 + 120 p_0_5 + 120 p_0_7 + 100000 z_0_1 + 100000 z_0_10 + 100000 z_0_2 + 100000 z_0_4 + 100000 z_0_5 + 100000 z_0_7 <= 602566.39150735713
 c2684: 120 p_0_10 + 120 p_0_3 + 120 p_0_4 + 120 p_0_5 + 120 p_0_7 + 100000 z_0_10 + 100000 z_0_3 + 100000 z_0_4 + 100000 z_0_5 + 100000 z_0_7 <= 502133.9570589012
 c2685: 120 p_0_1 + 120 p_0_10 + 120 p_0_3 + 120 p_0_4 + 120 p_0_5 + 120 p_0_7 + 100000 z_0_1 + 100000 z_0_10 + 100000 z_0_3 + 100000 z_0_4 + 100000 z_0_5 + 100000 z_0_7 <= 602133.88967918023
 c2686: 120 p_0_10 + 120 p_0_2 + 120 p_0_3 + 120 p_0_4 + 120 p_0_5 + 120 p_0_7 + 100000 z_0_10 + 100000 z_0_2 + 100000 z_0_3 + 100000 z_0_4 + 100000 z_0_5 + 100000 z_0_7 <= 602112.94489976345
 c2687: 120 p_0_1 + 120 p_0_10 + 120 p_0_2 + 120 p_0_3 + 120 p_0_4 + 120 p_0_5 + 120 p_0_7 + 100000 z_0_1 + 100000 z_0_10 + 100000 z_0_2 + 100000 z_0_3 + 100000 z_0_4 + 100000 z_0_5 + 100000 z_0_7 <= 702112.87752004247
 c2688: 120 p_0_10 + 120 p_0_6 + 120 p_0_7 + 100000 z_0_10 + 100000 z_0_6 + 100000 z_0_7 <= 302518.18495450361
 c2689: 120 p_0_1 + 120 p_0_10 + 120 p_0_6 + 120 p_0_7 + 100000 z_0_1 + 100000 z_0_10 + 100000 z_0_6 + 100000 z_0_7 <= 402517.27525017434
 c2690: 120 p_0_10 + 120 p_0_2 + 120 p_0_6 + 120 p_0_7 + 100000 z_0_10 + 100000 z_0_2 + 100000 z_0_6 + 100000 z_0_7 <= 402221.73729901196
 c2691: 120 p_0_1 + 120 p_0_10 + 120 p_0_2 + 120 p_0_6 + 120 p_0_7 + 100000 z_0_1 + 100000 z_0_10 + 100000 z_0_2 + 100000 z_0_6 + 100000 z_0_7 <= 502220.82759468269
 c2692: 120 p_0_10 + 120 p_0_3 + 120 p_0_6 + 120 p_0_7 + 100000 z_0_10 + 100000 z_0_3 + 100000 z_0_6 + 100000 z_0_7 <= 402468.10572006518
 c2693: 120 p_0_1 + 120 p_0_10 + 120 p_0_3 + 120 p_0_6 + 120 p_0_7 + 100000 z_0_1 + 100000 z_0_10 + 100000 z_0_3 + 100000 z_0_6 + 100000 z_0_7 <= 502467.19601573591
 c2694: 120 p_0_10 + 120 p_0_2 + 120 p_0_3 + 120 p_0_6 + 120 p_0_7 + 100000 z_0_10 + 100000 z_0_2 + 100000 z_0_3 + 100000 z_0_6 + 100000 z_0_7 <= 502171.65806457354
 c2695: 120 p_0_1 + 120 p_0_10 + 120 p_0_2 + 120 p_0_3 + 120 p_0_6 + 120 p_0_7 + 100000 z_0_1 + 100000 z_0_10 + 100000 z_0_2 + 100000 z_0_3 + 100000 z_0_6 + 100000 z_0_7 <= 602170.74836024421
 c2696: 120 p_0_10 + 120 p_0_4 + 120 p_0_6 + 120 p_0_7 + 100000 z_0_10 + 100000 z_0_4 + 100000 z_0_6 + 100000 z_0_7 <= 402516.83817977487
 c2697: 120 p_0_1 + 120 p_0_10 + 120 p_0_4 + 120 p_0_6 + 120 p_0_7 + 100000 z_0_1 + 100000 z_0_10 + 100000 z_0_4 + 100000 z_0_6 + 100000 z_0_7 <= 502516.77080005396
 c2698: 120 p_0_10 + 120 p_0_2 + 120 p_0_4 + 120 p_0_6 + 120 p_0_7 + 100000 z_0_10 + 100000 z_0_2 + 100000 z_0_4 + 100000 z_0_6 + 100000 z_0_7 <= 502220.39052428328
 c2699: 120 p_0_1 + 120 p_0_10 + 120 p_0_2 + 120 p_0_4 + 120 p_0_6 + 120 p_0_7 + 100000 z_0_1 + 100000 z_0_10 + 100000 z_0_2 + 100000 z_0_4 + 100000 z_0_6 + 100000 z_0_7 <= 602220.32314456231
 c2700: 120 p_0_10 + 120 p_0_3 + 120 p_0_4 + 120 p_0_6 + 120 p_0_7 + 100000 z_0_10 + 100000 z_0_3 + 100000 z_0_4 + 100000 z_0_6 + 100000 z_0_7 <= 502466.75894533645
 c2701: 120 p_0_1 + 120 p_0_10 + 120 p_0_3 + 120 p_0_4 + 120 p_0_6 + 120 p_0_7 + 100000 z_0_1 + 100000 z_0_10 + 100000 z_0_3 + 100000 z_0_4 + 100000 z_0_6 + 100000 z_0_7 <= 602466.69156561547
 c2702: 120 p_0_10 + 120 p_0_2 + 120 p_0_3 + 120 p_0_4 + 120 p_0_6 + 120 p_0_7 + 100000 z_0_10 + 100000 z_0_2 + 100000 z_0_3 + 100000 z_0_4 + 100000 z_0_6 + 100000 z_0_7 <= 602170.3112898448
 c2703: 120 p_0_1 + 120 p_0_10 + 120 p_0_2 + 120 p_0_3 + 120 p_0_4 + 120 p_0_6 + 120 p_0_7 + 100000 z_0_1 + 100000 z_0_10 + 100000 z_0_2 + 100000 z_0_3 + 100000 z_0_4 + 100000 z_0_6 + 100000 z_0_7 <= 702170.24391012383
 c2704: 120 p_0_10 + 120 p_0_5 + 120 p_0_6 + 120 p_0_7 + 100000 z_0_10 + 100000 z_0_5 + 100000 z_0_6 + 100000 z_0_7 <= 402194.37856974243
 c2705: 120 p_0_1 + 120 p_0_10 + 120 p_0_5 + 120 p_0_6 + 120 p_0_7 + 100000 z_0_1 + 100000 z_0_10 + 100000 z_0_5 + 100000 z_0_6 + 100000 z_0_7 <= 502184.40795755241
 c2706: 120 p_0_10 + 120 p_0_2 + 120 p_0_5 + 120 p_0_6 + 120 p_0_7 + 100000 z_0_10 + 100000 z_0_2 + 100000 z_0_5 + 100000 z_0_6 + 100000 z_0_7 <= 502164.32252921438
 c2707: 120 p_0_1 + 120 p_0_10 + 120 p_0_2 + 120 p_0_5 + 120 p_0_6 + 120 p_0_7 + 100000 z_0_1 + 100000 z_0_10 + 100000 z_0_2 + 100000 z_0_5 + 100000 z_0_6 + 100000 z_0_7 <= 602163.4128248851
 c2708: 120 p_0_10 + 120 p_0_3 + 120 p_0_5 + 120 p_0_6 + 120 p_0_7 + 100000 z_0_10 + 100000 z_0_3 + 100000 z_0_5 + 100000 z_0_6 + 100000 z_0_7 <= 502144.29933530401
 c2709: 120 p_0_1 + 120 p_0_10 + 120 p_0_3 + 120 p_0_5 + 120 p_0_6 + 120 p_0_7 + 100000 z_0_1 + 100000 z_0_10 + 100000 z_0_3 + 100000 z_0_5 + 100000 z_0_6 + 100000 z_0_7 <= 602134.32872311398
 c2710: 120 p_0_10 + 120 p_0_2 + 120 p_0_3 + 120 p_0_5 + 120 p_0_6 + 120 p_0_7 + 100000 z_0_10 + 100000 z_0_2 + 100000 z_0_3 + 100000 z_0_5 + 100000 z_0_6 + 100000 z_0_7 <= 602114.24329477595
 c2711: 120 p_0_1 + 120 p_0_10 + 120 p_0_2 + 120 p_0_3 + 120 p_0_5 + 120 p_0_6 + 120 p_0_7 + 100000 z_0_1 + 100000 z_0_10 + 100000 z_0_2 + 100000 z_0_3 + 100000 z_0_5 + 100000 z_0_6 + 100000 z_0_7 <= 702113.33359044662
 c2712: 120 p_0_10 + 120 p_0_4 + 120 p_0_5 + 120 p_0_6 + 120 p_0_7 + 100000 z_0_10 + 100000 z_0_4 + 100000 z_0_5 + 100000 z_0_6 + 100000 z_0_7 <= 502183.97088715294
 c2713: 120 p_0_1 + 120 p_0_10 + 120 p_0_4 + 120 p_0_5 + 120 p_0_6 + 120 p_0_7 + 100000 z_0_1 + 100000 z_0_10 + 100000 z_0_4 + 100000 z_0_5 + 100000 z_0_6 + 100000 z_0_7 <= 602183.90350743197
 c2714: 120 p_0_10 + 120 p_0_2 + 120 p_0_4 + 120 p_0_5 + 120 p_0_6 + 120 p_0_7 + 100000 z_0_10 + 100000 z_0_2 + 100000 z_0_4 + 100000 z_0_5 + 100000 z_0_6 + 100000 z_0_7 <= 602162.9757544857
 c2715: 120 p_0_1 + 120 p_0_10 + 120 p_0_2 + 120 p_0_4 + 120 p_0_5 + 120 p_0_6 + 120 p_0_7 + 100000 z_0_1 + 100000 z_0_10 + 100000 z_0_2 + 100000 z_0_4 + 100000 z_0_5 + 100000 z_0_6 + 100000 z_0_7 <= 702162.90837476472
 c2716: 120 p_0_10 + 120 p_0_3 + 120 p_0_4 + 120 p_0_5 + 120 p_0_6 + 120 p_0_7 + 100000 z_0_10 + 100000 z_0_3 + 100000 z_0_4 + 100000 z_0_5 + 100000 z_0_6 + 100000 z_0_7 <= 602133.89165271458
 c2717: 120 p_0_1 + 120 p_0_10 + 120 p_0_3 + 120 p_0_4 + 120 p_0_5 + 120 p_0_6 + 120 p_0_7 + 100000 z_0_1 + 100000 z_0_10 + 100000 z_0_3 + 100000 z_0_4 + 100000 z_0_5 + 100000 z_0_6 + 100000 z_0_7 <= 702133.8242729936
 c2718: 120 p_0_10 + 120 p_0_2 + 120 p_0_3 + 120 p_0_4 + 120 p_0_5 + 120 p_0_6 + 120 p_0_7 + 100000 z_0_10 + 100000 z_0_2 + 100000 z_0_3 + 100000 z_0_4 + 100000 z_0_5 + 100000 z_0_6 + 100000 z_0_7 <= 702112.89652004722
 c2719: 120 p_0_1 + 120 p_0_10 + 120 p_0_2 + 120 p_0_3 + 120 p_0_4 + 120 p_0_5 + 120 p_0_6 + 120 p_0_7 + 100000 z_0_1 + 100000 z_0_10 + 100000 z_0_2 + 100000 z_0_3 + 100000 z_0_4 + 100000 z_0_5 + 100000 z_0_6 + 100000 z_0_7 <= 802112.82914032624
 c2720: 120 p_0_10 + 120 p_0_8 + 100000 z_0_10 + 100000 z_0_8 <= 202577.26894802693
 c2721: 120 p_0_1 + 120 p_0_10 + 120 p_0_8 + 100000 z_0_1 + 100000 z_0_10 + 100000 z_0_8 <= 302574.92369937175
 c2722: 120 p_0_10 + 120 p_0_2 + 120 p_0_8 + 100000 z_0_10 + 100000 z_0_2 + 100000 z_0_8 <= 302531.7380172782
 c2723: 120 p_0_1 + 120 p_0_10 + 120 p_0_2 + 120 p_0_8 + 100000 z_0_1 + 100000 z_0_10 + 100000 z_0_2 + 100000 z_0_8 <= 402529.39276862302
 c2724: 120 p_0_10 + 120 p_0_3 + 120 p_0_8 + 100000 z_0_10 + 100000 z_0_3 + 100000 z_0_8 <= 302098.06197462074
 c2725: 120 p_0_1 + 120 p_0_10 + 120 p_0_3 + 120 p_0_8 + 100000 z_0_1 + 100000 z_0_10 + 100000 z_0_3 + 100000 z_0_8 <= 402094.67850826686
 c2726: 120 p_0_10 + 120 p_0_2 + 120 p_0_3 + 120 p_0_8 + 100000 z_0_10 + 100000 z_0_2 + 100000 z_0_3 + 100000 z_0_8 <= 402072.2412788017
 c2727: 120 p_0_1 + 120 p_0_10 + 120 p_0_2 + 120 p_0_3 + 120 p_0_8 + 100000 z_0_1 + 100000 z_0_10 + 100000 z_0_2 + 100000 z_0_3 + 100000 z_0_8 <= 502069.89603014657
 c2728: 120 p_0_10 + 120 p_0_4 + 120 p_0_8 + 100000 z_0_10 + 100000 z_0_4 + 100000 z_0_8 <= 302575.0950031848
 c2729: 120 p_0_1 + 120 p_0_10 + 120 p_0_4 + 120 p_0_8 + 100000 z_0_1 + 100000 z_0_10 + 100000 z_0_4 + 100000 z_0_8 <= 402574.70265716594
 c2730: 120 p_0_10 + 120 p_0_2 + 120 p_0_4 + 120 p_0_8 + 100000 z_0_10 + 100000 z_0_2 + 100000 z_0_4 + 100000 z_0_8 <= 402529.56407243601
 c2731: 120 p_0_1 + 120 p_0_10 + 120 p_0_2 + 120 p_0_4 + 120 p_0_8 + 100000 z_0_1 + 100000 z_0_10 + 100000 z_0_2 + 100000 z_0_4 + 100000 z_0_8 <= 502529.1717264172
 c2732: 120 p_0_10 + 120 p_0_3 + 120 p_0_4 + 120 p_0_8 + 100000 z_0_10 + 100000 z_0_3 + 100000 z_0_4 + 100000 z_0_8 <= 402095.88802977861
 c2733: 120 p_0_1 + 120 p_0_10 + 120 p_0_3 + 120 p_0_4 + 120 p_0_8 + 100000 z_0_1 + 100000 z_0_10 + 100000 z_0_3 + 100000 z_0_4 + 100000 z_0_8 <= 502094.45746606099
 c2734: 120 p_0_10 + 120 p_0_2 + 120 p_0_3 + 120 p_0_4 + 120 p_0_8 + 100000 z_0_10 + 100000 z_0_2 + 100000 z_0_3 + 100000 z_0_4 + 100000 z_0_8 <= 502069.74236766167
 c2735: 120 p_0_1 + 120 p_0_10 + 120 p_0_2 + 120 p_0_3 + 120 p_0_4 + 120 p_0_8 + 100000 z_0_1 + 100000 z_0_10 + 100000 z_0_2 + 100000 z_0_3 + 100000 z_0_4 + 100000 z_0_8 <= 602069.6749879407
 c2736: 120 p_0_10 + 120 p_0_5 + 120 p_0_8 + 100000 z_0_10 + 100000 z_0_5 + 100000 z_0_8 <= 302573.99145835615
 c2737: 120 p_0_1 + 120 p_0_10 + 120 p_0_5 + 120 p_0_8 + 100000 z_0_1 + 100000 z_0_10 + 100000 z_0_5 + 100000 z_0_8 <= 402571.64620970102
 c2738: 120 p_0_10 + 120 p_0_2 + 120 p_0_5 + 120 p_0_8 + 100000 z_0_10 + 100000 z_0_2 + 100000 z_0_5 + 100000 z_0_8 <= 402515.30586179573
 c2739: 120 p_0_1 + 120 p_0_10 + 120 p_0_2 + 120 p_0_5 + 120 p_0_8 + 100000 z_0_1 + 100000 z_0_10 + 100000 z_0_2 + 100000 z_0_5 + 100000 z_0_8 <= 502512.96061314055
 c2740: 120 p_0_10 + 120 p_0_3 + 120 p_0_5 + 120 p_0_8 + 100000 z_0_10 + 100000 z_0_3 + 100000 z_0_5 + 100000 z_0_8 <= 402094.78448495001
 c2741: 120 p_0_1 + 120 p_0_10 + 120 p_0_3 + 120 p_0_5 + 120 p_0_8 + 100000 z_0_1 + 100000 z_0_10 + 100000 z_0_3 + 100000 z_0_5 + 100000 z_0_8 <= 502091.40101859608
 c2742: 120 p_0_10 + 120 p_0_2 + 120 p_0_3 + 120 p_0_5 + 120 p_0_8 + 100000 z_0_10 + 100000 z_0_2 + 100000 z_0_3 + 100000 z_0_5 + 100000 z_0_8 <= 502068.96378913091
 c2743: 120 p_0_1 + 120 p_0_10 + 120 p_0_2 + 120 p_0_3 + 120 p_0_5 + 120 p_0_8 + 100000 z_0_1 + 100000 z_0_10 + 100000 z_0_2 + 100000 z_0_3 + 100000 z_0_5 + 100000 z_0_8 <= 602066.61854047573
 c2744: 120 p_0_10 + 120 p_0_4 + 120 p_0_5 + 120 p_0_8 + 100000 z_0_10 + 100000 z_0_4 + 100000 z_0_5 + 100000 z_0_8 <= 402571.81751351402
 c2745: 120 p_0_1 + 120 p_0_10 + 120 p_0_4 + 120 p_0_5 + 120 p_0_8 + 100000 z_0_1 + 100000 z_0_10 + 100000 z_0_4 + 100000 z_0_5 + 100000 z_0_8 <= 502571.42516749521
 c2746: 120 p_0_10 + 120 p_0_2 + 120 p_0_4 + 120 p_0_5 + 120 p_0_8 + 100000 z_0_10 + 100000 z_0_2 + 100000 z_0_4 + 100000 z_0_5 + 100000 z_0_8 <= 502513.1319169536
 c2747: 120 p_0_1 + 120 p_0_10 + 120 p_0_2 + 120 p_0_4 + 120 p_0_5 + 120 p_0_8 + 100000 z_0_1 + 100000 z_0_10 + 100000 z_0_2 + 100000 z_0_4 + 100000 z_0_5 + 100000 z_0_8 <= 602512.73957093479
 c2748: 120 p_0_10 + 120 p_0_3 + 120 p_0_4 + 120 p_0_5 + 120 p_0_8 + 100000 z_0_10 + 100000 z_0_3 + 100000 z_0_4 + 100000 z_0_5 + 100000 z_0_8 <= 502092.61054010782
 c2749: 120 p_0_1 + 120 p_0_10 + 120 p_0_3 + 120 p_0_4 + 120 p_0_5 + 120 p_0_8 + 100000 z_0_1 + 100000 z_0_10 + 100000 z_0_3 + 100000 z_0_4 + 100000 z_0_5 + 100000 z_0_8 <= 602091.17997639021
 c2750: 120 p_0_10 + 120 p_0_2 + 120 p_0_3 + 120 p_0_4 + 120 p_0_5 + 120 p_0_8 + 100000 z_0_10 + 100000 z_0_2 + 100000 z_0_3 + 100000 z_0_4 + 100000 z_0_5 + 100000 z_0_8 <= 602066.46487799089
 c2751: 120 p_0_1 + 120 p_0_10 + 120 p_0_2 + 120 p_0_3 + 120 p_0_4 + 120 p_0_5 + 120 p_0_8 + 100000 z_0_1 + 100000 z_0_10 + 100000 z_0_2 + 100000 z_0_3 + 100000 z_0_4 + 100000 z_0_5 + 100000 z_0_8 <= 702066.39749826991
 c2752: 120 p_0_10 + 120 p_0_6 + 120 p_0_8 + 100000 z_0_10 + 100000 z_0_6 + 100000 z_0_8 <= 302144.00412299082
 c2753: 120 p_0_1 + 120 p_0_10 + 120 p_0_6 + 120 p_0_8 + 100000 z_0_1 + 100000 z_0_10 + 100000 z_0_6 + 100000 z_0_8 <= 402140.62065663689
 c2754: 120 p_0_10 + 120 p_0_2 + 120 p_0_6 + 120 p_0_8 + 100000 z_0_10 + 100000 z_0_2 + 100000 z_0_6 + 100000 z_0_8 <= 402122.79870597483
 c2755: 120 p_0_1 + 120 p_0_10 + 120 p_0_2 + 120 p_0_6 + 120 p_0_8 + 100000 z_0_1 + 100000 z_0_10 + 100000 z_0_2 + 100000 z_0_6 + 100000 z_0_8 <= 502120.45345731964
 c2756: 120 p_0_10 + 120 p_0_3 + 120 p_0_6 + 120 p_0_8 + 100000 z_0_10 + 100000 z_0_3 + 100000 z_0_6 + 100000 z_0_8 <= 402093.9248885524
 c2757: 120 p_0_1 + 120 p_0_10 + 120 p_0_3 + 120 p_0_6 + 120 p_0_8 + 100000 z_0_1 + 100000 z_0_10 + 100000 z_0_3 + 100000 z_0_6 + 100000 z_0_8 <= 502090.54142219847
 c2758: 120 p_0_10 + 120 p_0_2 + 120 p_0_3 + 120 p_0_6 + 120 p_0_8 + 100000 z_0_10 + 100000 z_0_2 + 100000 z_0_3 + 100000 z_0_6 + 100000 z_0_8 <= 502072.19289908546
 c2759: 120 p_0_1 + 120 p_0_10 + 120 p_0_2 + 120 p_0_3 + 120 p_0_6 + 120 p_0_8 + 100000 z_0_1 + 100000 z_0_10 + 100000 z_0_2 + 100000 z_0_3 + 100000 z_0_6 + 100000 z_0_8 <= 602069.84765043028
 c2760: 120 p_0_10 + 120 p_0_4 + 120 p_0_6 + 120 p_0_8 + 100000 z_0_10 + 100000 z_0_4 + 100000 z_0_6 + 100000 z_0_8 <= 402141.8301781487
 c2761: 120 p_0_1 + 120 p_0_10 + 120 p_0_4 + 120 p_0_6 + 120 p_0_8 + 100000 z_0_1 + 100000 z_0_10 + 100000 z_0_4 + 100000 z_0_6 + 100000 z_0_8 <= 502140.39961443108
 c2762: 120 p_0_10 + 120 p_0_2 + 120 p_0_4 + 120 p_0_6 + 120 p_0_8 + 100000 z_0_10 + 100000 z_0_2 + 100000 z_0_4 + 100000 z_0_6 + 100000 z_0_8 <= 502120.62476113264
 c2763: 120 p_0_1 + 120 p_0_10 + 120 p_0_2 + 120 p_0_4 + 120 p_0_6 + 120 p_0_8 + 100000 z_0_1 + 100000 z_0_10 + 100000 z_0_2 + 100000 z_0_4 + 100000 z_0_6 + 100000 z_0_8 <= 602120.23241511383
 c2764: 120 p_0_10 + 120 p_0_3 + 120 p_0_4 + 120 p_0_6 + 120 p_0_8 + 100000 z_0_10 + 100000 z_0_3 + 100000 z_0_4 + 100000 z_0_6 + 100000 z_0_8 <= 502091.75094371021
 c2765: 120 p_0_1 + 120 p_0_10 + 120 p_0_3 + 120 p_0_4 + 120 p_0_6 + 120 p_0_8 + 100000 z_0_1 + 100000 z_0_10 + 100000 z_0_3 + 100000 z_0_4 + 100000 z_0_6 + 100000 z_0_8 <= 602090.32037999271
 c2766: 120 p_0_10 + 120 p_0_2 + 120 p_0_3 + 120 p_0_4 + 120 p_0_6 + 120 p_0_8 + 100000 z_0_10 + 100000 z_0_2 + 100000 z_0_3 + 100000 z_0_4 + 100000 z_0_6 + 100000 z_0_8 <= 602069.69398794544
 c2767: 120 p_0_1 + 120 p_0_10 + 120 p_0_2 + 120 p_0_3 + 120 p_0_4 + 120 p_0_6 + 120 p_0_8 + 100000 z_0_1 + 100000 z_0_10 + 100000 z_0_2 + 100000 z_0_3 + 100000 z_0_4 + 100000 z_0_6 + 100000 z_0_8 <= 702069.62660822447
 c2768: 120 p_0_10 + 120 p_0_5 + 120 p_0_6 + 120 p_0_8 + 100000 z_0_10 + 100000 z_0_5 + 100000 z_0_6 + 100000 z_0_8 <= 402140.72663332004
 c2769: 120 p_0_1 + 120 p_0_10 + 120 p_0_5 + 120 p_0_6 + 120 p_0_8 + 100000 z_0_1 + 100000 z_0_10 + 100000 z_0_5 + 100000 z_0_6 + 100000 z_0_8 <= 502137.34316696617
 c2770: 120 p_0_10 + 120 p_0_2 + 120 p_0_5 + 120 p_0_6 + 120 p_0_8 + 100000 z_0_10 + 100000 z_0_2 + 100000 z_0_5 + 100000 z_0_6 + 100000 z_0_8 <= 502118.99464385316
 c2771: 120 p_0_1 + 120 p_0_10 + 120 p_0_2 + 120 p_0_5 + 120 p_0_6 + 120 p_0_8 + 100000 z_0_1 + 100000 z_0_10 + 100000 z_0_2 + 100000 z_0_5 + 100000 z_0_6 + 100000 z_0_8 <= 602116.64939519798
 c2772: 120 p_0_10 + 120 p_0_3 + 120 p_0_5 + 120 p_0_6 + 120 p_0_8 + 100000 z_0_10 + 100000 z_0_3 + 100000 z_0_5 + 100000 z_0_6 + 100000 z_0_8 <= 502090.64739888161
 c2773: 120 p_0_1 + 120 p_0_10 + 120 p_0_3 + 120 p_0_5 + 120 p_0_6 + 120 p_0_8 + 100000 z_0_1 + 100000 z_0_10 + 100000 z_0_3 + 100000 z_0_5 + 100000 z_0_6 + 100000 z_0_8 <= 602087.26393252774
 c2774: 120 p_0_10 + 120 p_0_2 + 120 p_0_3 + 120 p_0_5 + 120 p_0_6 + 120 p_0_8 + 100000 z_0_10 + 100000 z_0_2 + 100000 z_0_3 + 100000 z_0_5 + 100000 z_0_6 + 100000 z_0_8 <= 602068.91540941468
 c2775: 120 p_0_1 + 120 p_0_10 + 120 p_0_2 + 120 p_0_3 + 120 p_0_5 + 120 p_0_6 + 120 p_0_8 + 100000 z_0_1 + 100000 z_0_10 + 100000 z_0_2 + 100000 z_0_3 + 100000 z_0_5 + 100000 z_0_6 + 100000 z_0_8 <= 702066.5701607595
 c2776: 120 p_0_10 + 120 p_0_4 + 120 p_0_5 + 120 p_0_6 + 120 p_0_8 + 100000 z_0_10 + 100000 z_0_4 + 100000 z_0_5 + 100000 z_0_6 + 100000 z_0_8 <= 502138.55268847791
 c2777: 120 p_0_1 + 120 p_0_10 + 120 p_0_4 + 120 p_0_5 + 120 p_0_6 + 120 p_0_8 + 100000 z_0_1 + 100000 z_0_10 + 100000 z_0_4 + 100000 z_0_5 + 100000 z_0_6 + 100000 z_0_8 <= 602137.1221247603
 c2778: 120 p_0_10 + 120 p_0_2 + 120 p_0_4 + 120 p_0_5 + 120 p_0_6 + 120 p_0_8 + 100000 z_0_10 + 100000 z_0_2 + 100000 z_0_4 + 100000 z_0_5 + 100000 z_0_6 + 100000 z_0_8 <= 602116.49573271314
 c2779: 120 p_0_1 + 120 p_0_10 + 120 p_0_2 + 120 p_0_4 + 120 p_0_5 + 120 p_0_6 + 120 p_0_8 + 100000 z_0_1 + 100000 z_0_10 + 100000 z_0_2 + 100000 z_0_4 + 100000 z_0_5 + 100000 z_0_6 + 100000 z_0_8 <= 702116.42835299217
 c2780: 120 p_0_10 + 120 p_0_3 + 120 p_0_4 + 120 p_0_5 + 120 p_0_6 + 120 p_0_8 + 100000 z_0_10 + 100000 z_0_3 + 100000 z_0_4 + 100000 z_0_5 + 100000 z_0_6 + 100000 z_0_8 <= 602088.47345403943
 c2781: 120 p_0_1 + 120 p_0_10 + 120 p_0_3 + 120 p_0_4 + 120 p_0_5 + 120 p_0_6 + 120 p_0_8 + 100000 z_0_1 + 100000 z_0_10 + 100000 z_0_3 + 100000 z_0_4 + 100000 z_0_5 + 100000 z_0_6 + 100000 z_0_8 <= 702087.04289032193
 c2782: 120 p_0_10 + 120 p_0_2 + 120 p_0_3 + 120 p_0_4 + 120 p_0_5 + 120 p_0_6 + 120 p_0_8 + 100000 z_0_10 + 100000 z_0_2 + 100000 z_0_3 + 100000 z_0_4 + 100000 z_0_5 + 100000 z_0_6 + 100000 z_0_8 <= 702066.41649827466
 c2783: 120 p_0_1 + 120 p_0_10 + 120 p_0_2 + 120 p_0_3 + 120 p_0_4 + 120 p_0_5 + 120 p_0_6 + 120 p_0_8 + 100000 z_0_1 + 100000 z_0_10 + 100000 z_0_2 + 100000 z_0_3 + 100000 z_0_4 + 100000 z_0_5 + 100000 z_0_6 + 100000 z_0_8 <= 802066.34911855368
 c2784: 120 p_0_10 + 120 p_0_7 + 120 p_0_8 + 100000 z_0_10 + 100000 z_0_7 + 100000 z_0_8 <= 302536.33675807569
 c2785: 120 p_0_1 + 120 p_0_10 + 120 p_0_7 + 120 p_0_8 + 100000 z_0_1 + 100000 z_0_10 + 100000 z_0_7 + 100000 z_0_8 <= 402533.99150942056
 c2786: 120 p_0_10 + 120 p_0_2 + 120 p_0_7 + 120 p_0_8 + 100000 z_0_10 + 100000 z_0_2 + 100000 z_0_7 + 100000 z_0_8 <= 402490.80582732696
 c2787: 120 p_0_1 + 120 p_0_10 + 120 p_0_2 + 120 p_0_7 + 120 p_0_8 + 100000 z_0_1 + 100000 z_0_10 + 100000 z_0_2 + 100000 z_0_7 + 100000 z_0_8 <= 502488.46057867177
 c2788: 120 p_0_10 + 120 p_0_3 + 120 p_0_7 + 120 p_0_8 + 100000 z_0_10 + 100000 z_0_3 + 100000 z_0_7 + 100000 z_0_8 <= 402057.12978466949
 c2789: 120 p_0_1 + 120 p_0_10 + 120 p_0_3 + 120 p_0_7 + 120 p_0_8 + 100000 z_0_1 + 100000 z_0_10 + 100000 z_0_3 + 100000 z_0_7 + 100000 z_0_8 <= 502034.45281656738
 c2790: 120 p_0_10 + 120 p_0_2 + 120 p_0_3 + 120 p_0_7 + 120 p_0_8 + 100000 z_0_10 + 100000 z_0_2 + 100000 z_0_3 + 100000 z_0_7 + 100000 z_0_8 <= 502018.1092544233
 c2791: 120 p_0_1 + 120 p_0_10 + 120 p_0_2 + 120 p_0_3 + 120 p_0_7 + 120 p_0_8 + 100000 z_0_1 + 100000 z_0_10 + 100000 z_0_2 + 100000 z_0_3 + 100000 z_0_7 + 100000 z_0_8 <= 602015.76400576811
 c2792: 120 p_0_10 + 120 p_0_4 + 120 p_0_7 + 120 p_0_8 + 100000 z_0_10 + 100000 z_0_4 + 100000 z_0_7 + 100000 z_0_8 <= 402533.83784693567
 c2793: 120 p_0_1 + 120 p_0_10 + 120 p_0_4 + 120 p_0_7 + 120 p_0_8 + 100000 z_0_1 + 100000 z_0_10 + 100000 z_0_4 + 100000 z_0_7 + 100000 z_0_8 <= 502533.77046721469
 c2794: 120 p_0_10 + 120 p_0_2 + 120 p_0_4 + 120 p_0_7 + 120 p_0_8 + 100000 z_0_10 + 100000 z_0_2 + 100000 z_0_4 + 100000 z_0_7 + 100000 z_0_8 <= 502488.30691618694
 c2795: 120 p_0_1 + 120 p_0_10 + 120 p_0_2 + 120 p_0_4 + 120 p_0_7 + 120 p_0_8 + 100000 z_0_1 + 100000 z_0_10 + 100000 z_0_2 + 100000 z_0_4 + 100000 z_0_7 + 100000 z_0_8 <= 602488.23953646596
 c2796: 120 p_0_10 + 120 p_0_3 + 120 p_0_4 + 120 p_0_7 + 120 p_0_8 + 100000 z_0_10 + 100000 z_0_3 + 100000 z_0_4 + 100000 z_0_7 + 100000 z_0_8 <= 502035.38427544601
 c2797: 120 p_0_1 + 120 p_0_10 + 120 p_0_3 + 120 p_0_4 + 120 p_0_7 + 120 p_0_8 + 100000 z_0_1 + 100000 z_0_10 + 100000 z_0_3 + 100000 z_0_4 + 100000 z_0_7 + 100000 z_0_8 <= 602033.948366447
 c2798: 120 p_0_10 + 120 p_0_2 + 120 p_0_3 + 120 p_0_4 + 120 p_0_7 + 120 p_0_8 + 100000 z_0_10 + 100000 z_0_2 + 100000 z_0_3 + 100000 z_0_4 + 100000 z_0_7 + 100000 z_0_8 <= 602015.61034328328
 c2799: 120 p_0_1 + 120 p_0_10 + 120 p_0_2 + 120 p_0_3 + 120 p_0_4 + 120 p_0_7 + 120 p_0_8 + 100000 z_0_1 + 100000 z_0_10 + 100000 z_0_2 + 100000 z_0_3 + 100000 z_0_4 + 100000 z_0_7 + 100000 z_0_8 <= 702015.5429635623
 c2800: 120 p_0_10 + 120 p_0_5 + 120 p_0_7 + 120 p_0_8 + 100000 z_0_10 + 100000 z_0_5 + 100000 z_0_7 + 100000 z_0_8 <= 402533.0592684049
 c2801: 120 p_0_1 + 120 p_0_10 + 120 p_0_5 + 120 p_0_7 + 120 p_0_8 + 100000 z_0_1 + 100000 z_0_10 + 100000 z_0_5 + 100000 z_0_7 + 100000 z_0_8 <= 502530.71401974978
 c2802: 120 p_0_10 + 120 p_0_2 + 120 p_0_5 + 120 p_0_7 + 120 p_0_8 + 100000 z_0_10 + 100000 z_0_2 + 100000 z_0_5 + 100000 z_0_7 + 100000 z_0_8 <= 502474.37367184449
 c2803: 120 p_0_1 + 120 p_0_10 + 120 p_0_2 + 120 p_0_5 + 120 p_0_7 + 120 p_0_8 + 100000 z_0_1 + 100000 z_0_10 + 100000 z_0_2 + 100000 z_0_5 + 100000 z_0_7 + 100000 z_0_8 <= 602472.0284231893
 c2804: 120 p_0_10 + 120 p_0_3 + 120 p_0_5 + 120 p_0_7 + 120 p_0_8 + 100000 z_0_10 + 100000 z_0_3 + 100000 z_0_5 + 100000 z_0_7 + 100000 z_0_8 <= 502053.85229499877
 c2805: 120 p_0_1 + 120 p_0_10 + 120 p_0_3 + 120 p_0_5 + 120 p_0_7 + 120 p_0_8 + 100000 z_0_1 + 100000 z_0_10 + 100000 z_0_3 + 100000 z_0_5 + 100000 z_0_7 + 100000 z_0_8 <= 602031.1753268966
 c2806: 120 p_0_10 + 120 p_0_2 + 120 p_0_3 + 120 p_0_5 + 120 p_0_7 + 120 p_0_8 + 100000 z_0_10 + 100000 z_0_2 + 100000 z_0_3 + 100000 z_0_5 + 100000 z_0_7 + 100000 z_0_8 <= 602007.30255310552
 c2807: 120 p_0_1 + 120 p_0_10 + 120 p_0_2 + 120 p_0_3 + 120 p_0_5 + 120 p_0_7 + 120 p_0_8 + 100000 z_0_1 + 100000 z_0_10 + 100000 z_0_2 + 100000 z_0_3 + 100000 z_0_5 + 100000 z_0_7 + 100000 z_0_8 <= 702006.3928487763
 c2808: 120 p_0_10 + 120 p_0_4 + 120 p_0_5 + 120 p_0_7 + 120 p_0_8 + 100000 z_0_10 + 100000 z_0_4 + 100000 z_0_5 + 100000 z_0_7 + 100000 z_0_8 <= 502530.56035726488
 c2809: 120 p_0_1 + 120 p_0_10 + 120 p_0_4 + 120 p_0_5 + 120 p_0_7 + 120 p_0_8 + 100000 z_0_1 + 100000 z_0_10 + 100000 z_0_4 + 100000 z_0_5 + 100000 z_0_7 + 100000 z_0_8 <= 602530.49297754397
 c2810: 120 p_0_10 + 120 p_0_2 + 120 p_0_4 + 120 p_0_5 + 120 p_0_7 + 120 p_0_8 + 100000 z_0_10 + 100000 z_0_2 + 100000 z_0_4 + 100000 z_0_5 + 100000 z_0_7 + 100000 z_0_8 <= 602471.87476070446
 c2811: 120 p_0_1 + 120 p_0_10 + 120 p_0_2 + 120 p_0_4 + 120 p_0_5 + 120 p_0_7 + 120 p_0_8 + 100000 z_0_1 + 100000 z_0_10 + 100000 z_0_2 + 100000 z_0_4 + 100000 z_0_5 + 100000 z_0_7 + 100000 z_0_8 <= 702471.80738098349
 c2812: 120 p_0_10 + 120 p_0_3 + 120 p_0_4 + 120 p_0_5 + 120 p_0_7 + 120 p_0_8 + 100000 z_0_10 + 100000 z_0_3 + 100000 z_0_4 + 100000 z_0_5 + 100000 z_0_7 + 100000 z_0_8 <= 602032.10678577528
 c2813: 120 p_0_1 + 120 p_0_10 + 120 p_0_3 + 120 p_0_4 + 120 p_0_5 + 120 p_0_7 + 120 p_0_8 + 100000 z_0_1 + 100000 z_0_10 + 100000 z_0_3 + 100000 z_0_4 + 100000 z_0_5 + 100000 z_0_7 + 100000 z_0_8 <= 702030.67087677622
 c2814: 120 p_0_10 + 120 p_0_2 + 120 p_0_3 + 120 p_0_4 + 120 p_0_5 + 120 p_0_7 + 120 p_0_8 + 100000 z_0_10 + 100000 z_0_2 + 100000 z_0_3 + 100000 z_0_4 + 100000 z_0_5 + 100000 z_0_7 + 100000 z_0_8 <= 702005.9557783769
 c2815: 120 p_0_1 + 120 p_0_10 + 120 p_0_2 + 120 p_0_3 + 120 p_0_4 + 120 p_0_5 + 120 p_0_7 + 120 p_0_8 + 100000 z_0_1 + 100000 z_0_10 + 100000 z_0_2 + 100000 z_0_3 + 100000 z_0_4 + 100000 z_0_5 + 100000 z_0_7 + 100000 z_0_8 <= 802005.88839865592
 c2816: 120 p_0_10 + 120 p_0_6 + 120 p_0_7 + 120 p_0_8 + 100000 z_0_10 + 100000 z_0_6 + 100000 z_0_7 + 100000 z_0_8 <= 402103.07193303958
 c2817: 120 p_0_1 + 120 p_0_10 + 120 p_0_6 + 120 p_0_7 + 120 p_0_8 + 100000 z_0_1 + 100000 z_0_10 + 100000 z_0_6 + 100000 z_0_7 + 100000 z_0_8 <= 502085.62562339357
 c2818: 120 p_0_10 + 120 p_0_2 + 120 p_0_6 + 120 p_0_7 + 120 p_0_8 + 100000 z_0_10 + 100000 z_0_2 + 100000 z_0_6 + 100000 z_0_7 + 100000 z_0_8 <= 502081.86651602358
 c2819: 120 p_0_1 + 120 p_0_10 + 120 p_0_2 + 120 p_0_6 + 120 p_0_7 + 120 p_0_8 + 100000 z_0_1 + 100000 z_0_10 + 100000 z_0_2 + 100000 z_0_6 + 100000 z_0_7 + 100000 z_0_8 <= 602079.52126736846
 c2820: 120 p_0_10 + 120 p_0_3 + 120 p_0_6 + 120 p_0_7 + 120 p_0_8 + 100000 z_0_10 + 100000 z_0_3 + 100000 z_0_6 + 100000 z_0_7 + 100000 z_0_8 <= 502052.99269860116
 c2821: 120 p_0_1 + 120 p_0_10 + 120 p_0_3 + 120 p_0_6 + 120 p_0_7 + 120 p_0_8 + 100000 z_0_1 + 100000 z_0_10 + 100000 z_0_3 + 100000 z_0_6 + 100000 z_0_7 + 100000 z_0_8 <= 602030.31573049899
 c2822: 120 p_0_10 + 120 p_0_2 + 120 p_0_3 + 120 p_0_6 + 120 p_0_7 + 120 p_0_8 + 100000 z_0_10 + 100000 z_0_2 + 100000 z_0_3 + 100000 z_0_6 + 100000 z_0_7 + 100000 z_0_8 <= 602018.06087470707
 c2823: 120 p_0_1 + 120 p_0_10 + 120 p_0_2 + 120 p_0_3 + 120 p_0_6 + 120 p_0_7 + 120 p_0_8 + 100000 z_0_1 + 100000 z_0_10 + 100000 z_0_2 + 100000 z_0_3 + 100000 z_0_6 + 100000 z_0_7 + 100000 z_0_8 <= 702015.71562605188
 c2824: 120 p_0_10 + 120 p_0_4 + 120 p_0_6 + 120 p_0_7 + 120 p_0_8 + 100000 z_0_10 + 100000 z_0_4 + 100000 z_0_6 + 100000 z_0_7 + 100000 z_0_8 <= 502085.47196090868
 c2825: 120 p_0_1 + 120 p_0_10 + 120 p_0_4 + 120 p_0_6 + 120 p_0_7 + 120 p_0_8 + 100000 z_0_1 + 100000 z_0_10 + 100000 z_0_4 + 100000 z_0_6 + 100000 z_0_7 + 100000 z_0_8 <= 602085.40458118776
 c2826: 120 p_0_10 + 120 p_0_2 + 120 p_0_4 + 120 p_0_6 + 120 p_0_7 + 120 p_0_8 + 100000 z_0_10 + 100000 z_0_2 + 100000 z_0_4 + 100000 z_0_6 + 100000 z_0_7 + 100000 z_0_8 <= 602079.3676048835
 c2827: 120 p_0_1 + 120 p_0_10 + 120 p_0_2 + 120 p_0_4 + 120 p_0_6 + 120 p_0_7 + 120 p_0_8 + 100000 z_0_1 + 100000 z_0_10 + 100000 z_0_2 + 100000 z_0_4 + 100000 z_0_6 + 100000 z_0_7 + 100000 z_0_8 <= 702079.30022516253
 c2828: 120 p_0_10 + 120 p_0_3 + 120 p_0_4 + 120 p_0_6 + 120 p_0_7 + 120 p_0_8 + 100000 z_0_10 + 100000 z_0_3 + 100000 z_0_4 + 100000 z_0_6 + 100000 z_0_7 + 100000 z_0_8 <= 602031.24718937767
 c2829: 120 p_0_1 + 120 p_0_10 + 120 p_0_3 + 120 p_0_4 + 120 p_0_6 + 120 p_0_7 + 120 p_0_8 + 100000 z_0_1 + 100000 z_0_10 + 100000 z_0_3 + 100000 z_0_4 + 100000 z_0_6 + 100000 z_0_7 + 100000 z_0_8 <= 702029.81128037861
 c2830: 120 p_0_10 + 120 p_0_2 + 120 p_0_3 + 120 p_0_4 + 120 p_0_6 + 120 p_0_7 + 120 p_0_8 + 100000 z_0_10 + 100000 z_0_2 + 100000 z_0_3 + 100000 z_0_4 + 100000 z_0_6 + 100000 z_0_7 + 100000 z_0_8 <= 702015.56196356704
 c2831: 120 p_0_1 + 120 p_0_10 + 120 p_0_2 + 120 p_0_3 + 120 p_0_4 + 120 p_0_6 + 120 p_0_7 + 120 p_0_8 + 100000 z_0_1 + 100000 z_0_10 + 100000 z_0_2 + 100000 z_0_3 + 100000 z_0_4 + 100000 z_0_6 + 100000 z_0_7 + 100000 z_0_8 <= 802015.49458384607
 c2832: 120 p_0_10 + 120 p_0_5 + 120 p_0_6 + 120 p_0_7 + 120 p_0_8 + 100000 z_0_10 + 100000 z_0_5 + 100000 z_0_6 + 100000 z_0_7 + 100000 z_0_8 <= 502099.7944433688
 c2833: 120 p_0_1 + 120 p_0_10 + 120 p_0_5 + 120 p_0_6 + 120 p_0_7 + 120 p_0_8 + 100000 z_0_1 + 100000 z_0_10 + 100000 z_0_5 + 100000 z_0_6 + 100000 z_0_7 + 100000 z_0_8 <= 602084.08424455323
 c2834: 120 p_0_10 + 120 p_0_2 + 120 p_0_5 + 120 p_0_6 + 120 p_0_7 + 120 p_0_8 + 100000 z_0_10 + 100000 z_0_2 + 100000 z_0_5 + 100000 z_0_6 + 100000 z_0_7 + 100000 z_0_8 <= 602065.43436054117
 c2835: 120 p_0_1 + 120 p_0_10 + 120 p_0_2 + 120 p_0_5 + 120 p_0_6 + 120 p_0_7 + 120 p_0_8 + 100000 z_0_1 + 100000 z_0_10 + 100000 z_0_2 + 100000 z_0_5 + 100000 z_0_6 + 100000 z_0_7 + 100000 z_0_8 <= 702063.08911188599
 c2836: 120 p_0_10 + 120 p_0_3 + 120 p_0_5 + 120 p_0_6 + 120 p_0_7 + 120 p_0_8 + 100000 z_0_10 + 100000 z_0_3 + 100000 z_0_5 + 100000 z_0_6 + 100000 z_0_7 + 100000 z_0_8 <= 602049.71520893043
 c2837: 120 p_0_1 + 120 p_0_10 + 120 p_0_3 + 120 p_0_5 + 120 p_0_6 + 120 p_0_7 + 120 p_0_8 + 100000 z_0_1 + 100000 z_0_10 + 100000 z_0_3 + 100000 z_0_5 + 100000 z_0_6 + 100000 z_0_7 + 100000 z_0_8 <= 702027.0382408282
 c2838: 120 p_0_10 + 120 p_0_2 + 120 p_0_3 + 120 p_0_5 + 120 p_0_6 + 120 p_0_7 + 120 p_0_8 + 100000 z_0_10 + 100000 z_0_2 + 100000 z_0_3 + 100000 z_0_5 + 100000 z_0_6 + 100000 z_0_7 + 100000 z_0_8 <= 702007.2541733894
 c2839: 120 p_0_1 + 120 p_0_10 + 120 p_0_2 + 120 p_0_3 + 120 p_0_5 + 120 p_0_6 + 120 p_0_7 + 120 p_0_8 + 100000 z_0_1 + 100000 z_0_10 + 100000 z_0_2 + 100000 z_0_3 + 100000 z_0_5 + 100000 z_0_6 + 100000 z_0_7 + 100000 z_0_8 <= 802006.34446906007
 c2840: 120 p_0_10 + 120 p_0_4 + 120 p_0_5 + 120 p_0_6 + 120 p_0_7 + 120 p_0_8 + 100000 z_0_10 + 100000 z_0_4 + 100000 z_0_5 + 100000 z_0_6 + 100000 z_0_7 + 100000 z_0_8 <= 602083.93058206839
 c2841: 120 p_0_1 + 120 p_0_10 + 120 p_0_4 + 120 p_0_5 + 120 p_0_6 + 120 p_0_7 + 120 p_0_8 + 100000 z_0_1 + 100000 z_0_10 + 100000 z_0_4 + 100000 z_0_5 + 100000 z_0_6 + 100000 z_0_7 + 100000 z_0_8 <= 702083.86320234742
 c2842: 120 p_0_10 + 120 p_0_2 + 120 p_0_4 + 120 p_0_5 + 120 p_0_6 + 120 p_0_7 + 120 p_0_8 + 100000 z_0_10 + 100000 z_0_2 + 100000 z_0_4 + 100000 z_0_5 + 100000 z_0_6 + 100000 z_0_7 + 100000 z_0_8 <= 702062.93544940103
 c2843: 120 p_0_1 + 120 p_0_10 + 120 p_0_2 + 120 p_0_4 + 120 p_0_5 + 120 p_0_6 + 120 p_0_7 + 120 p_0_8 + 100000 z_0_1 + 100000 z_0_10 + 100000 z_0_2 + 100000 z_0_4 + 100000 z_0_5 + 100000 z_0_6 + 100000 z_0_7 + 100000 z_0_8 <= 802062.86806968017
 c2844: 120 p_0_10 + 120 p_0_3 + 120 p_0_4 + 120 p_0_5 + 120 p_0_6 + 120 p_0_7 + 120 p_0_8 + 100000 z_0_10 + 100000 z_0_3 + 100000 z_0_4 + 100000 z_0_5 + 100000 z_0_6 + 100000 z_0_7 + 100000 z_0_8 <= 702027.96969970688
 c2845: 120 p_0_1 + 120 p_0_10 + 120 p_0_3 + 120 p_0_4 + 120 p_0_5 + 120 p_0_6 + 120 p_0_7 + 120 p_0_8 + 100000 z_0_1 + 100000 z_0_10 + 100000 z_0_3 + 100000 z_0_4 + 100000 z_0_5 + 100000 z_0_6 + 100000 z_0_7 + 100000 z_0_8 <= 802026.53379070782
 c2846: 120 p_0_10 + 120 p_0_2 + 120 p_0_3 + 120 p_0_4 + 120 p_0_5 + 120 p_0_6 + 120 p_0_7 + 120 p_0_8 + 100000 z_0_10 + 100000 z_0_2 + 100000 z_0_3 + 100000 z_0_4 + 100000 z_0_5 + 100000 z_0_6 + 100000 z_0_7 + 100000 z_0_8 <= 802005.90739866067
 c2847: 120 p_0_1 + 120 p_0_10 + 120 p_0_2 + 120 p_0_3 + 120 p_0_4 + 120 p_0_5 + 120 p_0_6 + 120 p_0_7 + 120 p_0_8 + 100000 z_0_1 + 100000 z_0_10 + 100000 z_0_2 + 100000 z_0_3 + 100000 z_0_4 + 100000 z_0_5 + 100000 z_0_6 + 100000 z_0_7 + 100000 z_0_8 <= 902005.84001893969
 c2848: 120 p_0_10 + 120 p_0_9 + 100000 z_0_10 + 100000 z_0_9 <= 202540.08493958542
 c2849: 120 p_0_1 + 120 p_0_10 + 120 p_0_9 + 100000 z_0_1 + 100000 z_0_10 + 100000 z_0_9 <= 302537.73969093023
 c2850: 120 p_0_10 + 120 p_0_2 + 120 p_0_9 + 100000 z_0_10 + 100000 z_0_2 + 100000 z_0_9 <= 302279.63707014662
 c2851: 120 p_0_1 + 120 p_0_10 + 120 p_0_2 + 120 p_0_9 + 100000 z_0_1 + 100000 z_0_10 + 100000 z_0_2 + 100000 z_0_9 <= 402277.29182149144
 c2852: 120 p_0_10 + 120 p_0_3 + 120 p_0_9 + 100000 z_0_10 + 100000 z_0_3 + 100000 z_0_9 <= 302475.30070826417
 c2853: 120 p_0_1 + 120 p_0_10 + 120 p_0_3 + 120 p_0_9 + 100000 z_0_1 + 100000 z_0_10 + 100000 z_0_3 + 100000 z_0_9 <= 402472.95545960899
 c2854: 120 p_0_10 + 120 p_0_2 + 120 p_0_3 + 120 p_0_9 + 100000 z_0_10 + 100000 z_0_2 + 100000 z_0_3 + 100000 z_0_9 <= 402214.85283882538
 c2855: 120 p_0_1 + 120 p_0_10 + 120 p_0_2 + 120 p_0_3 + 120 p_0_9 + 100000 z_0_1 + 100000 z_0_10 + 100000 z_0_2 + 100000 z_0_3 + 100000 z_0_9 <= 502212.50759017025
 c2856: 120 p_0_10 + 120 p_0_4 + 120 p_0_9 + 100000 z_0_10 + 100000 z_0_4 + 100000 z_0_9 <= 302537.5860284454
 c2857: 120 p_0_1 + 120 p_0_10 + 120 p_0_4 + 120 p_0_9 + 100000 z_0_1 + 100000 z_0_10 + 100000 z_0_4 + 100000 z_0_9 <= 402537.51864872442
 c2858: 120 p_0_10 + 120 p_0_2 + 120 p_0_4 + 120 p_0_9 + 100000 z_0_10 + 100000 z_0_2 + 100000 z_0_4 + 100000 z_0_9 <= 402277.1381590066
 c2859: 120 p_0_1 + 120 p_0_10 + 120 p_0_2 + 120 p_0_4 + 120 p_0_9 + 100000 z_0_1 + 100000 z_0_10 + 100000 z_0_2 + 100000 z_0_4 + 100000 z_0_9 <= 502277.07077928563
 c2860: 120 p_0_10 + 120 p_0_3 + 120 p_0_4 + 120 p_0_9 + 100000 z_0_10 + 100000 z_0_3 + 100000 z_0_4 + 100000 z_0_9 <= 402472.80179712415
 c2861: 120 p_0_1 + 120 p_0_10 + 120 p_0_3 + 120 p_0_4 + 120 p_0_9 + 100000 z_0_1 + 100000 z_0_10 + 100000 z_0_3 + 100000 z_0_4 + 100000 z_0_9 <= 502472.73441740318
 c2862: 120 p_0_10 + 120 p_0_2 + 120 p_0_3 + 120 p_0_4 + 120 p_0_9 + 100000 z_0_10 + 100000 z_0_2 + 100000 z_0_3 + 100000 z_0_4 + 100000 z_0_9 <= 502212.35392768536
 c2863: 120 p_0_1 + 120 p_0_10 + 120 p_0_2 + 120 p_0_3 + 120 p_0_4 + 120 p_0_9 + 100000 z_0_1 + 100000 z_0_10 + 100000 z_0_2 + 100000 z_0_3 + 100000 z_0_4 + 100000 z_0_9 <= 602212.28654796444
 c2864: 120 p_0_10 + 120 p_0_5 + 120 p_0_9 + 100000 z_0_10 + 100000 z_0_5 + 100000 z_0_9 <= 302245.12179506372
 c2865: 120 p_0_1 + 120 p_0_10 + 120 p_0_5 + 120 p_0_9 + 100000 z_0_1 + 100000 z_0_10 + 100000 z_0_5 + 100000 z_0_9 <= 402243.82132523932
 c2866: 120 p_0_10 + 120 p_0_2 + 120 p_0_5 + 120 p_0_9 + 100000 z_0_10 + 100000 z_0_2 + 100000 z_0_5 + 100000 z_0_9 <= 402230.35813415056
 c2867: 120 p_0_1 + 120 p_0_10 + 120 p_0_2 + 120 p_0_5 + 120 p_0_9 + 100000 z_0_1 + 100000 z_0_10 + 100000 z_0_2 + 100000 z_0_5 + 100000 z_0_9 <= 502229.05766432622
 c2868: 120 p_0_10 + 120 p_0_3 + 120 p_0_5 + 120 p_0_9 + 100000 z_0_10 + 100000 z_0_3 + 100000 z_0_5 + 100000 z_0_9 <= 402172.20172994095
 c2869: 120 p_0_1 + 120 p_0_10 + 120 p_0_3 + 120 p_0_5 + 120 p_0_9 + 100000 z_0_1 + 100000 z_0_10 + 100000 z_0_3 + 100000 z_0_5 + 100000 z_0_9 <= 502169.85648128577
 c2870: 120 p_0_10 + 120 p_0_2 + 120 p_0_3 + 120 p_0_5 + 120 p_0_9 + 100000 z_0_10 + 100000 z_0_2 + 100000 z_0_3 + 100000 z_0_5 + 100000 z_0_9 <= 502157.43806902779
 c2871: 120 p_0_1 + 120 p_0_10 + 120 p_0_2 + 120 p_0_3 + 120 p_0_5 + 120 p_0_9 + 100000 z_0_1 + 100000 z_0_10 + 100000 z_0_2 + 100000 z_0_3 + 100000 z_0_5 + 100000 z_0_9 <= 602155.09282037267
 c2872: 120 p_0_10 + 120 p_0_4 + 120 p_0_5 + 120 p_0_9 + 100000 z_0_10 + 100000 z_0_4 + 100000 z_0_5 + 100000 z_0_9 <= 402244.42454503215
 c2873: 120 p_0_1 + 120 p_0_10 + 120 p_0_4 + 120 p_0_5 + 120 p_0_9 + 100000 z_0_1 + 100000 z_0_10 + 100000 z_0_4 + 100000 z_0_5 + 100000 z_0_9 <= 502243.60028303351
 c2874: 120 p_0_10 + 120 p_0_2 + 120 p_0_4 + 120 p_0_5 + 120 p_0_9 + 100000 z_0_10 + 100000 z_0_2 + 100000 z_0_4 + 100000 z_0_5 + 100000 z_0_9 <= 502229.66088411905
 c2875: 120 p_0_1 + 120 p_0_10 + 120 p_0_2 + 120 p_0_4 + 120 p_0_5 + 120 p_0_9 + 100000 z_0_1 + 100000 z_0_10 + 100000 z_0_2 + 100000 z_0_4 + 100000 z_0_5 + 100000 z_0_9 <= 602228.83662212035
 c2876: 120 p_0_10 + 120 p_0_3 + 120 p_0_4 + 120 p_0_5 + 120 p_0_9 + 100000 z_0_10 + 100000 z_0_3 + 100000 z_0_4 + 100000 z_0_5 + 100000 z_0_9 <= 502169.70281880087
 c2877: 120 p_0_1 + 120 p_0_10 + 120 p_0_3 + 120 p_0_4 + 120 p_0_5 + 120 p_0_9 + 100000 z_0_1 + 100000 z_0_10 + 100000 z_0_3 + 100000 z_0_4 + 100000 z_0_5 + 100000 z_0_9 <= 602169.63543907995
 c2878: 120 p_0_10 + 120 p_0_2 + 120 p_0_3 + 120 p_0_4 + 120 p_0_5 + 120 p_0_9 + 100000 z_0_10 + 100000 z_0_2 + 100000 z_0_3 + 100000 z_0_4 + 100000 z_0_5 + 100000 z_0_9 <= 602154.93915788771
 c2879: 120 p_0_1 + 120 p_0_10 + 120 p_0_2 + 120 p_0_3 + 120 p_0_4 + 120 p_0_5 + 120 p_0_9 + 100000 z_0_1 + 100000 z_0_10 + 100000 z_0_2 + 100000 z_0_3 + 100000 z_0_4 + 100000 z_0_5 + 100000 z_0_9 <= 702154.87177816685
 c2880: 120 p_0_10 + 120 p_0_6 + 120 p_0_9 + 100000 z_0_10 + 100000 z_0_6 + 100000 z_0_9 <= 302514.43288103514
 c2881: 120 p_0_1 + 120 p_0_10 + 120 p_0_6 + 120 p_0_9 + 100000 z_0_1 + 100000 z_0_10 + 100000 z_0_6 + 100000 z_0_9 <= 402512.08763237996
 c2882: 120 p_0_10 + 120 p_0_2 + 120 p_0_6 + 120 p_0_9 + 100000 z_0_10 + 100000 z_0_2 + 100000 z_0_6 + 100000 z_0_9 <= 402253.98501159635
 c2883: 120 p_0_1 + 120 p_0_10 + 120 p_0_2 + 120 p_0_6 + 120 p_0_9 + 100000 z_0_1 + 100000 z_0_10 + 100000 z_0_2 + 100000 z_0_6 + 100000 z_0_9 <= 502251.63976294117
 c2884: 120 p_0_10 + 120 p_0_3 + 120 p_0_6 + 120 p_0_9 + 100000 z_0_10 + 100000 z_0_3 + 100000 z_0_6 + 100000 z_0_9 <= 402464.35364659672
 c2885: 120 p_0_1 + 120 p_0_10 + 120 p_0_3 + 120 p_0_6 + 120 p_0_9 + 100000 z_0_1 + 100000 z_0_10 + 100000 z_0_3 + 100000 z_0_6 + 100000 z_0_9 <= 502462.00839794154
 c2886: 120 p_0_10 + 120 p_0_2 + 120 p_0_3 + 120 p_0_6 + 120 p_0_9 + 100000 z_0_10 + 100000 z_0_2 + 100000 z_0_3 + 100000 z_0_6 + 100000 z_0_9 <= 502203.90577715792
 c2887: 120 p_0_1 + 120 p_0_10 + 120 p_0_2 + 120 p_0_3 + 120 p_0_6 + 120 p_0_9 + 100000 z_0_1 + 100000 z_0_10 + 100000 z_0_2 + 100000 z_0_3 + 100000 z_0_6 + 100000 z_0_9 <= 602201.5605285028
 c2888: 120 p_0_10 + 120 p_0_4 + 120 p_0_6 + 120 p_0_9 + 100000 z_0_10 + 100000 z_0_4 + 100000 z_0_6 + 100000 z_0_9 <= 402511.93396989512
 c2889: 120 p_0_1 + 120 p_0_10 + 120 p_0_4 + 120 p_0_6 + 120 p_0_9 + 100000 z_0_1 + 100000 z_0_10 + 100000 z_0_4 + 100000 z_0_6 + 100000 z_0_9 <= 502511.86659017415
 c2890: 120 p_0_10 + 120 p_0_2 + 120 p_0_4 + 120 p_0_6 + 120 p_0_9 + 100000 z_0_10 + 100000 z_0_2 + 100000 z_0_4 + 100000 z_0_6 + 100000 z_0_9 <= 502251.48610045633
 c2891: 120 p_0_1 + 120 p_0_10 + 120 p_0_2 + 120 p_0_4 + 120 p_0_6 + 120 p_0_9 + 100000 z_0_1 + 100000 z_0_10 + 100000 z_0_2 + 100000 z_0_4 + 100000 z_0_6 + 100000 z_0_9 <= 602251.41872073535
 c2892: 120 p_0_10 + 120 p_0_3 + 120 p_0_4 + 120 p_0_6 + 120 p_0_9 + 100000 z_0_10 + 100000 z_0_3 + 100000 z_0_4 + 100000 z_0_6 + 100000 z_0_9 <= 502461.85473545664
 c2893: 120 p_0_1 + 120 p_0_10 + 120 p_0_3 + 120 p_0_4 + 120 p_0_6 + 120 p_0_9 + 100000 z_0_1 + 100000 z_0_10 + 100000 z_0_3 + 100000 z_0_4 + 100000 z_0_6 + 100000 z_0_9 <= 602461.78735573567
 c2894: 120 p_0_10 + 120 p_0_2 + 120 p_0_3 + 120 p_0_4 + 120 p_0_6 + 120 p_0_9 + 100000 z_0_10 + 100000 z_0_2 + 100000 z_0_3 + 100000 z_0_4 + 100000 z_0_6 + 100000 z_0_9 <= 602201.40686601785
 c2895: 120 p_0_1 + 120 p_0_10 + 120 p_0_2 + 120 p_0_3 + 120 p_0_4 + 120 p_0_6 + 120 p_0_9 + 100000 z_0_1 + 100000 z_0_10 + 100000 z_0_2 + 100000 z_0_3 + 100000 z_0_4 + 100000 z_0_6 + 100000 z_0_9 <= 702201.33948629699
 c2896: 120 p_0_10 + 120 p_0_5 + 120 p_0_6 + 120 p_0_9 + 100000 z_0_10 + 100000 z_0_5 + 100000 z_0_6 + 100000 z_0_9 <= 402211.33390271186
 c2897: 120 p_0_1 + 120 p_0_10 + 120 p_0_5 + 120 p_0_6 + 120 p_0_9 + 100000 z_0_1 + 100000 z_0_10 + 100000 z_0_5 + 100000 z_0_6 + 100000 z_0_9 <= 502208.98865405674
 c2898: 120 p_0_10 + 120 p_0_2 + 120 p_0_5 + 120 p_0_6 + 120 p_0_9 + 100000 z_0_10 + 100000 z_0_2 + 100000 z_0_5 + 100000 z_0_6 + 100000 z_0_9 <= 502196.57024179876
 c2899: 120 p_0_1 + 120 p_0_10 + 120 p_0_2 + 120 p_0_5 + 120 p_0_6 + 120 p_0_9 + 100000 z_0_1 + 100000 z_0_10 + 100000 z_0_2 + 100000 z_0_5 + 100000 z_0_6 + 100000 z_0_9 <= 602194.22499314358
 c2900: 120 p_0_10 + 120 p_0_3 + 120 p_0_5 + 120 p_0_6 + 120 p_0_9 + 100000 z_0_10 + 100000 z_0_3 + 100000 z_0_5 + 100000 z_0_6 + 100000 z_0_9 <= 502161.25466827344
 c2901: 120 p_0_1 + 120 p_0_10 + 120 p_0_3 + 120 p_0_5 + 120 p_0_6 + 120 p_0_9 + 100000 z_0_1 + 100000 z_0_10 + 100000 z_0_3 + 100000 z_0_5 + 100000 z_0_6 + 100000 z_0_9 <= 602158.90941961831
 c2902: 120 p_0_10 + 120 p_0_2 + 120 p_0_3 + 120 p_0_5 + 120 p_0_6 + 120 p_0_9 + 100000 z_0_10 + 100000 z_0_2 + 100000 z_0_3 + 100000 z_0_5 + 100000 z_0_6 + 100000 z_0_9 <= 602146.49100736028
 c2903: 120 p_0_1 + 120 p_0_10 + 120 p_0_2 + 120 p_0_3 + 120 p_0_5 + 120 p_0_6 + 120 p_0_9 + 100000 z_0_1 + 100000 z_0_10 + 100000 z_0_2 + 100000 z_0_3 + 100000 z_0_5 + 100000 z_0_6 + 100000 z_0_9 <= 702144.1457587051
 c2904: 120 p_0_10 + 120 p_0_4 + 120 p_0_5 + 120 p_0_6 + 120 p_0_9 + 100000 z_0_10 + 100000 z_0_4 + 100000 z_0_5 + 100000 z_0_6 + 100000 z_0_9 <= 502208.83499157184
 c2905: 120 p_0_1 + 120 p_0_10 + 120 p_0_4 + 120 p_0_5 + 120 p_0_6 + 120 p_0_9 + 100000 z_0_1 + 100000 z_0_10 + 100000 z_0_4 + 100000 z_0_5 + 100000 z_0_6 + 100000 z_0_9 <= 602208.76761185087
 c2906: 120 p_0_10 + 120 p_0_2 + 120 p_0_4 + 120 p_0_5 + 120 p_0_6 + 120 p_0_9 + 100000 z_0_10 + 100000 z_0_2 + 100000 z_0_4 + 100000 z_0_5 + 100000 z_0_6 + 100000 z_0_9 <= 602194.07133065874
 c2907: 120 p_0_1 + 120 p_0_10 + 120 p_0_2 + 120 p_0_4 + 120 p_0_5 + 120 p_0_6 + 120 p_0_9 + 100000 z_0_1 + 100000 z_0_10 + 100000 z_0_2 + 100000 z_0_4 + 100000 z_0_5 + 100000 z_0_6 + 100000 z_0_9 <= 702194.00395093777
 c2908: 120 p_0_10 + 120 p_0_3 + 120 p_0_4 + 120 p_0_5 + 120 p_0_6 + 120 p_0_9 + 100000 z_0_10 + 100000 z_0_3 + 100000 z_0_4 + 100000 z_0_5 + 100000 z_0_6 + 100000 z_0_9 <= 602158.75575713336
 c2909: 120 p_0_1 + 120 p_0_10 + 120 p_0_3 + 120 p_0_4 + 120 p_0_5 + 120 p_0_6 + 120 p_0_9 + 100000 z_0_1 + 100000 z_0_10 + 100000 z_0_3 + 100000 z_0_4 + 100000 z_0_5 + 100000 z_0_6 + 100000 z_0_9 <= 702158.6883774125
 c2910: 120 p_0_10 + 120 p_0_2 + 120 p_0_3 + 120 p_0_4 + 120 p_0_5 + 120 p_0_6 + 120 p_0_9 + 100000 z_0_10 + 100000 z_0_2 + 100000 z_0_3 + 100000 z_0_4 + 100000 z_0_5 + 100000 z_0_6 + 100000 z_0_9 <= 702143.99209622026
 c2911: 120 p_0_1 + 120 p_0_10 + 120 p_0_2 + 120 p_0_3 + 120 p_0_4 + 120 p_0_5 + 120 p_0_6 + 120 p_0_9 + 100000 z_0_1 + 100000 z_0_10 + 100000 z_0_2 + 100000 z_0_3 + 100000 z_0_4 + 100000 z_0_5 + 100000 z_0_6 + 100000 z_0_9 <= 802143.92471649928
 c2912: 120 p_0_10 + 120 p_0_7 + 120 p_0_9 + 100000 z_0_10 + 100000 z_0_7 + 100000 z_0_9 <= 302478.42370356002
 c2913: 120 p_0_1 + 120 p_0_10 + 120 p_0_7 + 120 p_0_9 + 100000 z_0_1 + 100000 z_0_10 + 100000 z_0_7 + 100000 z_0_9 <= 402477.51399923075
 c2914: 120 p_0_10 + 120 p_0_2 + 120 p_0_7 + 120 p_0_9 + 100000 z_0_10 + 100000 z_0_2 + 100000 z_0_7 + 100000 z_0_9 <= 402217.97583412123
 c2915: 120 p_0_1 + 120 p_0_10 + 120 p_0_2 + 120 p_0_7 + 120 p_0_9 + 100000 z_0_1 + 100000 z_0_10 + 100000 z_0_2 + 100000 z_0_7 + 100000 z_0_9 <= 502217.06612979196
 c2916: 120 p_0_10 + 120 p_0_3 + 120 p_0_7 + 120 p_0_9 + 100000 z_0_10 + 100000 z_0_3 + 100000 z_0_7 + 100000 z_0_9 <= 402413.63947223884
 c2917: 120 p_0_1 + 120 p_0_10 + 120 p_0_3 + 120 p_0_7 + 120 p_0_9 + 100000 z_0_1 + 100000 z_0_10 + 100000 z_0_3 + 100000 z_0_7 + 100000 z_0_9 <= 502412.72976790956
 c2918: 120 p_0_10 + 120 p_0_2 + 120 p_0_3 + 120 p_0_7 + 120 p_0_9 + 100000 z_0_10 + 100000 z_0_2 + 100000 z_0_3 + 100000 z_0_7 + 100000 z_0_9 <= 502153.19160280004
 c2919: 120 p_0_1 + 120 p_0_10 + 120 p_0_2 + 120 p_0_3 + 120 p_0_7 + 120 p_0_9 + 100000 z_0_1 + 100000 z_0_10 + 100000 z_0_2 + 100000 z_0_3 + 100000 z_0_7 + 100000 z_0_9 <= 602152.28189847071
 c2920: 120 p_0_10 + 120 p_0_4 + 120 p_0_7 + 120 p_0_9 + 100000 z_0_10 + 100000 z_0_4 + 100000 z_0_7 + 100000 z_0_9 <= 402477.07692883135
 c2921: 120 p_0_1 + 120 p_0_10 + 120 p_0_4 + 120 p_0_7 + 120 p_0_9 + 100000 z_0_1 + 100000 z_0_10 + 100000 z_0_4 + 100000 z_0_7 + 100000 z_0_9 <= 502477.00954911037
 c2922: 120 p_0_10 + 120 p_0_2 + 120 p_0_4 + 120 p_0_7 + 120 p_0_9 + 100000 z_0_10 + 100000 z_0_2 + 100000 z_0_4 + 100000 z_0_7 + 100000 z_0_9 <= 502216.62905939255
 c2923: 120 p_0_1 + 120 p_0_10 + 120 p_0_2 + 120 p_0_4 + 120 p_0_7 + 120 p_0_9 + 100000 z_0_1 + 100000 z_0_10 + 100000 z_0_2 + 100000 z_0_4 + 100000 z_0_7 + 100000 z_0_9 <= 602216.56167967163
 c2924: 120 p_0_10 + 120 p_0_3 + 120 p_0_4 + 120 p_0_7 + 120 p_0_9 + 100000 z_0_10 + 100000 z_0_3 + 100000 z_0_4 + 100000 z_0_7 + 100000 z_0_9 <= 502412.2926975101
 c2925: 120 p_0_1 + 120 p_0_10 + 120 p_0_3 + 120 p_0_4 + 120 p_0_7 + 120 p_0_9 + 100000 z_0_1 + 100000 z_0_10 + 100000 z_0_3 + 100000 z_0_4 + 100000 z_0_7 + 100000 z_0_9 <= 602412.22531778913
 c2926: 120 p_0_10 + 120 p_0_2 + 120 p_0_3 + 120 p_0_4 + 120 p_0_7 + 120 p_0_9 + 100000 z_0_10 + 100000 z_0_2 + 100000 z_0_3 + 100000 z_0_4 + 100000 z_0_7 + 100000 z_0_9 <= 602151.84482807131
 c2927: 120 p_0_1 + 120 p_0_10 + 120 p_0_2 + 120 p_0_3 + 120 p_0_4 + 120 p_0_7 + 120 p_0_9 + 100000 z_0_1 + 100000 z_0_10 + 100000 z_0_2 + 100000 z_0_3 + 100000 z_0_4 + 100000 z_0_7 + 100000 z_0_9 <= 702151.77744835033
 c2928: 120 p_0_10 + 120 p_0_5 + 120 p_0_7 + 120 p_0_9 + 100000 z_0_10 + 100000 z_0_5 + 100000 z_0_7 + 100000 z_0_9 <= 402199.52824727411
 c2929: 120 p_0_1 + 120 p_0_10 + 120 p_0_5 + 120 p_0_7 + 120 p_0_9 + 100000 z_0_1 + 100000 z_0_10 + 100000 z_0_5 + 100000 z_0_7 + 100000 z_0_9 <= 502197.18299861893
 c2930: 120 p_0_10 + 120 p_0_2 + 120 p_0_5 + 120 p_0_7 + 120 p_0_9 + 100000 z_0_10 + 100000 z_0_2 + 100000 z_0_5 + 100000 z_0_7 + 100000 z_0_9 <= 502184.76458636095
 c2931: 120 p_0_1 + 120 p_0_10 + 120 p_0_2 + 120 p_0_5 + 120 p_0_7 + 120 p_0_9 + 100000 z_0_1 + 100000 z_0_10 + 100000 z_0_2 + 100000 z_0_5 + 100000 z_0_7 + 100000 z_0_9 <= 602182.41933770583
 c2932: 120 p_0_10 + 120 p_0_3 + 120 p_0_5 + 120 p_0_7 + 120 p_0_9 + 100000 z_0_10 + 100000 z_0_3 + 100000 z_0_5 + 100000 z_0_7 + 100000 z_0_9 <= 502110.54049391556
 c2933: 120 p_0_1 + 120 p_0_10 + 120 p_0_3 + 120 p_0_5 + 120 p_0_7 + 120 p_0_9 + 100000 z_0_1 + 100000 z_0_10 + 100000 z_0_3 + 100000 z_0_5 + 100000 z_0_7 + 100000 z_0_9 <= 602109.63078958634
 c2934: 120 p_0_10 + 120 p_0_2 + 120 p_0_3 + 120 p_0_5 + 120 p_0_7 + 120 p_0_9 + 100000 z_0_10 + 100000 z_0_2 + 100000 z_0_3 + 100000 z_0_5 + 100000 z_0_7 + 100000 z_0_9 <= 602095.77683300246
 c2935: 120 p_0_1 + 120 p_0_10 + 120 p_0_2 + 120 p_0_3 + 120 p_0_5 + 120 p_0_7 + 120 p_0_9 + 100000 z_0_1 + 100000 z_0_10 + 100000 z_0_2 + 100000 z_0_3 + 100000 z_0_5 + 100000 z_0_7 + 100000 z_0_9 <= 702094.86712867313
 c2936: 120 p_0_10 + 120 p_0_4 + 120 p_0_5 + 120 p_0_7 + 120 p_0_9 + 100000 z_0_10 + 100000 z_0_4 + 100000 z_0_5 + 100000 z_0_7 + 100000 z_0_9 <= 502197.02933613409
 c2937: 120 p_0_1 + 120 p_0_10 + 120 p_0_4 + 120 p_0_5 + 120 p_0_7 + 120 p_0_9 + 100000 z_0_1 + 100000 z_0_10 + 100000 z_0_4 + 100000 z_0_5 + 100000 z_0_7 + 100000 z_0_9 <= 602196.96195641311
 c2938: 120 p_0_10 + 120 p_0_2 + 120 p_0_4 + 120 p_0_5 + 120 p_0_7 + 120 p_0_9 + 100000 z_0_10 + 100000 z_0_2 + 100000 z_0_4 + 100000 z_0_5 + 100000 z_0_7 + 100000 z_0_9 <= 602182.26567522087
 c2939: 120 p_0_1 + 120 p_0_10 + 120 p_0_2 + 120 p_0_4 + 120 p_0_5 + 120 p_0_7 + 120 p_0_9 + 100000 z_0_1 + 100000 z_0_10 + 100000 z_0_2 + 100000 z_0_4 + 100000 z_0_5 + 100000 z_0_7 + 100000 z_0_9 <= 702182.19829550001
 c2940: 120 p_0_10 + 120 p_0_3 + 120 p_0_4 + 120 p_0_5 + 120 p_0_7 + 120 p_0_9 + 100000 z_0_10 + 100000 z_0_3 + 100000 z_0_4 + 100000 z_0_5 + 100000 z_0_7 + 100000 z_0_9 <= 602109.19371918682
 c2941: 120 p_0_1 + 120 p_0_10 + 120 p_0_3 + 120 p_0_4 + 120 p_0_5 + 120 p_0_7 + 120 p_0_9 + 100000 z_0_1 + 100000 z_0_10 + 100000 z_0_3 + 100000 z_0_4 + 100000 z_0_5 + 100000 z_0_7 + 100000 z_0_9 <= 702109.12633946596
 c2942: 120 p_0_10 + 120 p_0_2 + 120 p_0_3 + 120 p_0_4 + 120 p_0_5 + 120 p_0_7 + 120 p_0_9 + 100000 z_0_10 + 100000 z_0_2 + 100000 z_0_3 + 100000 z_0_4 + 100000 z_0_5 + 100000 z_0_7 + 100000 z_0_9 <= 702094.43005827372
 c2943: 120 p_0_1 + 120 p_0_10 + 120 p_0_2 + 120 p_0_3 + 120 p_0_4 + 120 p_0_5 + 120 p_0_7 + 120 p_0_9 + 100000 z_0_1 + 100000 z_0_10 + 100000 z_0_2 + 100000 z_0_3 + 100000 z_0_4 + 100000 z_0_5 + 100000 z_0_7 + 100000 z_0_9 <= 802094.36267855274
 c2944: 120 p_0_10 + 120 p_0_6 + 120 p_0_7 + 120 p_0_9 + 100000 z_0_10 + 100000 z_0_6 + 100000 z_0_7 + 100000 z_0_9 <= 402452.77164500975
 c2945: 120 p_0_1 + 120 p_0_10 + 120 p_0_6 + 120 p_0_7 + 120 p_0_9 + 100000 z_0_1 + 100000 z_0_10 + 100000 z_0_6 + 100000 z_0_7 + 100000 z_0_9 <= 502451.86194068048
 c2946: 120 p_0_10 + 120 p_0_2 + 120 p_0_6 + 120 p_0_7 + 120 p_0_9 + 100000 z_0_10 + 100000 z_0_2 + 100000 z_0_6 + 100000 z_0_7 + 100000 z_0_9 <= 502192.32377557096
 c2947: 120 p_0_1 + 120 p_0_10 + 120 p_0_2 + 120 p_0_6 + 120 p_0_7 + 120 p_0_9 + 100000 z_0_1 + 100000 z_0_10 + 100000 z_0_2 + 100000 z_0_6 + 100000 z_0_7 + 100000 z_0_9 <= 602191.41407124174
 c2948: 120 p_0_10 + 120 p_0_3 + 120 p_0_6 + 120 p_0_7 + 120 p_0_9 + 100000 z_0_10 + 100000 z_0_3 + 100000 z_0_6 + 100000 z_0_7 + 100000 z_0_9 <= 502402.69241057133
 c2949: 120 p_0_1 + 120 p_0_10 + 120 p_0_3 + 120 p_0_6 + 120 p_0_7 + 120 p_0_9 + 100000 z_0_1 + 100000 z_0_10 + 100000 z_0_3 + 100000 z_0_6 + 100000 z_0_7 + 100000 z_0_9 <= 602401.78270624205
 c2950: 120 p_0_10 + 120 p_0_2 + 120 p_0_3 + 120 p_0_6 + 120 p_0_7 + 120 p_0_9 + 100000 z_0_10 + 100000 z_0_2 + 100000 z_0_3 + 100000 z_0_6 + 100000 z_0_7 + 100000 z_0_9 <= 602142.24454113259
 c2951: 120 p_0_1 + 120 p_0_10 + 120 p_0_2 + 120 p_0_3 + 120 p_0_6 + 120 p_0_7 + 120 p_0_9 + 100000 z_0_1 + 100000 z_0_10 + 100000 z_0_2 + 100000 z_0_3 + 100000 z_0_6 + 100000 z_0_7 + 100000 z_0_9 <= 702141.33483680326
 c2952: 120 p_0_10 + 120 p_0_4 + 120 p_0_6 + 120 p_0_7 + 120 p_0_9 + 100000 z_0_10 + 100000 z_0_4 + 100000 z_0_6 + 100000 z_0_7 + 100000 z_0_9 <= 502451.42487028107
 c2953: 120 p_0_1 + 120 p_0_10 + 120 p_0_4 + 120 p_0_6 + 120 p_0_7 + 120 p_0_9 + 100000 z_0_1 + 100000 z_0_10 + 100000 z_0_4 + 100000 z_0_6 + 100000 z_0_7 + 100000 z_0_9 <= 602451.35749056016
 c2954: 120 p_0_10 + 120 p_0_2 + 120 p_0_4 + 120 p_0_6 + 120 p_0_7 + 120 p_0_9 + 100000 z_0_10 + 100000 z_0_2 + 100000 z_0_4 + 100000 z_0_6 + 100000 z_0_7 + 100000 z_0_9 <= 602190.97700084234
 c2955: 120 p_0_1 + 120 p_0_10 + 120 p_0_2 + 120 p_0_4 + 120 p_0_6 + 120 p_0_7 + 120 p_0_9 + 100000 z_0_1 + 100000 z_0_10 + 100000 z_0_2 + 100000 z_0_4 + 100000 z_0_6 + 100000 z_0_7 + 100000 z_0_9 <= 702190.90962112136
 c2956: 120 p_0_10 + 120 p_0_3 + 120 p_0_4 + 120 p_0_6 + 120 p_0_7 + 120 p_0_9 + 100000 z_0_10 + 100000 z_0_3 + 100000 z_0_4 + 100000 z_0_6 + 100000 z_0_7 + 100000 z_0_9 <= 602401.34563584265
 c2957: 120 p_0_1 + 120 p_0_10 + 120 p_0_3 + 120 p_0_4 + 120 p_0_6 + 120 p_0_7 + 120 p_0_9 + 100000 z_0_1 + 100000 z_0_10 + 100000 z_0_3 + 100000 z_0_4 + 100000 z_0_6 + 100000 z_0_7 + 100000 z_0_9 <= 702401.27825612167
 c2958: 120 p_0_10 + 120 p_0_2 + 120 p_0_3 + 120 p_0_4 + 120 p_0_6 + 120 p_0_7 + 120 p_0_9 + 100000 z_0_10 + 100000 z_0_2 + 100000 z_0_3 + 100000 z_0_4 + 100000 z_0_6 + 100000 z_0_7 + 100000 z_0_9 <= 702140.89776640385
 c2959: 120 p_0_1 + 120 p_0_10 + 120 p_0_2 + 120 p_0_3 + 120 p_0_4 + 120 p_0_6 + 120 p_0_7 + 120 p_0_9 + 100000 z_0_1 + 100000 z_0_10 + 100000 z_0_2 + 100000 z_0_3 + 100000 z_0_4 + 100000 z_0_6 + 100000 z_0_7 + 100000 z_0_9 <= 802140.83038668288
 c2960: 120 p_0_10 + 120 p_0_5 + 120 p_0_6 + 120 p_0_7 + 120 p_0_9 + 100000 z_0_10 + 100000 z_0_5 + 100000 z_0_6 + 100000 z_0_7 + 100000 z_0_9 <= 502149.67266668653
 c2961: 120 p_0_1 + 120 p_0_10 + 120 p_0_5 + 120 p_0_6 + 120 p_0_7 + 120 p_0_9 + 100000 z_0_1 + 100000 z_0_10 + 100000 z_0_5 + 100000 z_0_6 + 100000 z_0_7 + 100000 z_0_9 <= 602148.76296235726
 c2962: 120 p_0_10 + 120 p_0_2 + 120 p_0_5 + 120 p_0_6 + 120 p_0_7 + 120 p_0_9 + 100000 z_0_10 + 100000 z_0_2 + 100000 z_0_5 + 100000 z_0_6 + 100000 z_0_7 + 100000 z_0_9 <= 602134.90900577337
 c2963: 120 p_0_1 + 120 p_0_10 + 120 p_0_2 + 120 p_0_5 + 120 p_0_6 + 120 p_0_7 + 120 p_0_9 + 100000 z_0_1 + 100000 z_0_10 + 100000 z_0_2 + 100000 z_0_5 + 100000 z_0_6 + 100000 z_0_7 + 100000 z_0_9 <= 702133.99930144416
 c2964: 120 p_0_10 + 120 p_0_3 + 120 p_0_5 + 120 p_0_6 + 120 p_0_7 + 120 p_0_9 + 100000 z_0_10 + 100000 z_0_3 + 100000 z_0_5 + 100000 z_0_6 + 100000 z_0_7 + 100000 z_0_9 <= 602099.5934322481
 c2965: 120 p_0_1 + 120 p_0_10 + 120 p_0_3 + 120 p_0_5 + 120 p_0_6 + 120 p_0_7 + 120 p_0_9 + 100000 z_0_1 + 100000 z_0_10 + 100000 z_0_3 + 100000 z_0_5 + 100000 z_0_6 + 100000 z_0_7 + 100000 z_0_9 <= 702098.68372791877
 c2966: 120 p_0_10 + 120 p_0_2 + 120 p_0_3 + 120 p_0_5 + 120 p_0_6 + 120 p_0_7 + 120 p_0_9 + 100000 z_0_10 + 100000 z_0_2 + 100000 z_0_3 + 100000 z_0_5 + 100000 z_0_6 + 100000 z_0_7 + 100000 z_0_9 <= 702084.829771335
 c2967: 120 p_0_1 + 120 p_0_10 + 120 p_0_2 + 120 p_0_3 + 120 p_0_5 + 120 p_0_6 + 120 p_0_7 + 120 p_0_9 + 100000 z_0_1 + 100000 z_0_10 + 100000 z_0_2 + 100000 z_0_3 + 100000 z_0_5 + 100000 z_0_6 + 100000 z_0_7 + 100000 z_0_9 <= 802083.92006700567
 c2968: 120 p_0_10 + 120 p_0_4 + 120 p_0_5 + 120 p_0_6 + 120 p_0_7 + 120 p_0_9 + 100000 z_0_10 + 100000 z_0_4 + 100000 z_0_5 + 100000 z_0_6 + 100000 z_0_7 + 100000 z_0_9 <= 602148.32589195785
 c2969: 120 p_0_1 + 120 p_0_10 + 120 p_0_4 + 120 p_0_5 + 120 p_0_6 + 120 p_0_7 + 120 p_0_9 + 100000 z_0_1 + 100000 z_0_10 + 100000 z_0_4 + 100000 z_0_5 + 100000 z_0_6 + 100000 z_0_7 + 100000 z_0_9 <= 702148.25851223688
 c2970: 120 p_0_10 + 120 p_0_2 + 120 p_0_4 + 120 p_0_5 + 120 p_0_6 + 120 p_0_7 + 120 p_0_9 + 100000 z_0_10 + 100000 z_0_2 + 100000 z_0_4 + 100000 z_0_5 + 100000 z_0_6 + 100000 z_0_7 + 100000 z_0_9 <= 702133.56223104463
 c2971: 120 p_0_1 + 120 p_0_10 + 120 p_0_2 + 120 p_0_4 + 120 p_0_5 + 120 p_0_6 + 120 p_0_7 + 120 p_0_9 + 100000 z_0_1 + 100000 z_0_10 + 100000 z_0_2 + 100000 z_0_4 + 100000 z_0_5 + 100000 z_0_6 + 100000 z_0_7 + 100000 z_0_9 <= 802133.49485132378
 c2972: 120 p_0_10 + 120 p_0_3 + 120 p_0_4 + 120 p_0_5 + 120 p_0_6 + 120 p_0_7 + 120 p_0_9 + 100000 z_0_10 + 100000 z_0_3 + 100000 z_0_4 + 100000 z_0_5 + 100000 z_0_6 + 100000 z_0_7 + 100000 z_0_9 <= 702098.24665751937
 c2973: 120 p_0_1 + 120 p_0_10 + 120 p_0_3 + 120 p_0_4 + 120 p_0_5 + 120 p_0_6 + 120 p_0_7 + 120 p_0_9 + 100000 z_0_1 + 100000 z_0_10 + 100000 z_0_3 + 100000 z_0_4 + 100000 z_0_5 + 100000 z_0_6 + 100000 z_0_7 + 100000 z_0_9 <= 802098.17927779839
 c2974: 120 p_0_10 + 120 p_0_2 + 120 p_0_3 + 120 p_0_4 + 120 p_0_5 + 120 p_0_6 + 120 p_0_7 + 120 p_0_9 + 100000 z_0_10 + 100000 z_0_2 + 100000 z_0_3 + 100000 z_0_4 + 100000 z_0_5 + 100000 z_0_6 + 100000 z_0_7 + 100000 z_0_9 <= 802083.48299660627
 c2975: 120 p_0_1 + 120 p_0_10 + 120 p_0_2 + 120 p_0_3 + 120 p_0_4 + 120 p_0_5 + 120 p_0_6 + 120 p_0_7 + 120 p_0_9 + 100000 z_0_1 + 100000 z_0_10 + 100000 z_0_2 + 100000 z_0_3 + 100000 z_0_4 + 100000 z_0_5 + 100000 z_0_6 + 100000 z_0_7 + 100000 z_0_9 <= 902083.41561688529
 c2976: 120 p_0_10 + 120 p_0_8 + 120 p_0_9 + 100000 z_0_10 + 100000 z_0_8 + 100000 z_0_9 <= 302149.77792486706
 c2977: 120 p_0_1 + 120 p_0_10 + 120 p_0_8 + 120 p_0_9 + 100000 z_0_1 + 100000 z_0_10 + 100000 z_0_8 + 100000 z_0_9 <= 402147.43267621187
 c2978: 120 p_0_10 + 120 p_0_2 + 120 p_0_8 + 120 p_0_9 + 100000 z_0_10 + 100000 z_0_2 + 100000 z_0_8 + 100000 z_0_9 <= 402147.54480542109
 c2979: 120 p_0_1 + 120 p_0_10 + 120 p_0_2 + 120 p_0_8 + 120 p_0_9 + 100000 z_0_1 + 100000 z_0_10 + 100000 z_0_2 + 100000 z_0_8 + 100000 z_0_9 <= 502145.1995567659
 c2980: 120 p_0_10 + 120 p_0_3 + 120 p_0_8 + 120 p_0_9 + 100000 z_0_10 + 100000 z_0_3 + 100000 z_0_8 + 100000 z_0_9 <= 402055.95955675794
 c2981: 120 p_0_1 + 120 p_0_10 + 120 p_0_3 + 120 p_0_8 + 120 p_0_9 + 100000 z_0_1 + 100000 z_0_10 + 100000 z_0_3 + 100000 z_0_8 + 100000 z_0_9 <= 502053.61430810281
 c2982: 120 p_0_10 + 120 p_0_2 + 120 p_0_3 + 120 p_0_8 + 120 p_0_9 + 100000 z_0_10 + 100000 z_0_2 + 100000 z_0_3 + 100000 z_0_8 + 100000 z_0_9 <= 502053.72643731197
 c2983: 120 p_0_1 + 120 p_0_10 + 120 p_0_2 + 120 p_0_3 + 120 p_0_8 + 120 p_0_9 + 100000 z_0_1 + 100000 z_0_10 + 100000 z_0_2 + 100000 z_0_3 + 100000 z_0_8 + 100000 z_0_9 <= 602051.38118865679
 c2984: 120 p_0_10 + 120 p_0_4 + 120 p_0_8 + 120 p_0_9 + 100000 z_0_10 + 100000 z_0_4 + 100000 z_0_8 + 100000 z_0_9 <= 402147.60398002487
 c2985: 120 p_0_1 + 120 p_0_10 + 120 p_0_4 + 120 p_0_8 + 120 p_0_9 + 100000 z_0_1 + 100000 z_0_10 + 100000 z_0_4 + 100000 z_0_8 + 100000 z_0_9 <= 502147.21163400606
 c2986: 120 p_0_10 + 120 p_0_2 + 120 p_0_4 + 120 p_0_8 + 120 p_0_9 + 100000 z_0_10 + 100000 z_0_2 + 100000 z_0_4 + 100000 z_0_8 + 100000 z_0_9 <= 502145.3708605789
 c2987: 120 p_0_1 + 120 p_0_10 + 120 p_0_2 + 120 p_0_4 + 120 p_0_8 + 120 p_0_9 + 100000 z_0_1 + 100000 z_0_10 + 100000 z_0_2 + 100000 z_0_4 + 100000 z_0_8 + 100000 z_0_9 <= 602144.97851456003
 c2988: 120 p_0_10 + 120 p_0_3 + 120 p_0_4 + 120 p_0_8 + 120 p_0_9 + 100000 z_0_10 + 100000 z_0_3 + 100000 z_0_4 + 100000 z_0_8 + 100000 z_0_9 <= 502053.46064561792
 c2989: 120 p_0_1 + 120 p_0_10 + 120 p_0_3 + 120 p_0_4 + 120 p_0_8 + 120 p_0_9 + 100000 z_0_1 + 100000 z_0_10 + 100000 z_0_3 + 100000 z_0_4 + 100000 z_0_8 + 100000 z_0_9 <= 602053.39326589694
 c2990: 120 p_0_10 + 120 p_0_2 + 120 p_0_3 + 120 p_0_4 + 120 p_0_8 + 120 p_0_9 + 100000 z_0_10 + 100000 z_0_2 + 100000 z_0_3 + 100000 z_0_4 + 100000 z_0_8 + 100000 z_0_9 <= 602051.22752617195
 c2991: 120 p_0_1 + 120 p_0_10 + 120 p_0_2 + 120 p_0_3 + 120 p_0_4 + 120 p_0_8 + 120 p_0_9 + 100000 z_0_1 + 100000 z_0_10 + 100000 z_0_2 + 100000 z_0_3 + 100000 z_0_4 + 100000 z_0_8 + 100000 z_0_9 <= 702051.16014645097
 c2992: 120 p_0_10 + 120 p_0_5 + 120 p_0_8 + 120 p_0_9 + 100000 z_0_10 + 100000 z_0_5 + 100000 z_0_8 + 100000 z_0_9 <= 402145.87631085177
 c2993: 120 p_0_1 + 120 p_0_10 + 120 p_0_5 + 120 p_0_8 + 120 p_0_9 + 100000 z_0_1 + 100000 z_0_10 + 100000 z_0_5 + 100000 z_0_8 + 100000 z_0_9 <= 502143.53106219659
 c2994: 120 p_0_10 + 120 p_0_2 + 120 p_0_5 + 120 p_0_8 + 120 p_0_9 + 100000 z_0_10 + 100000 z_0_2 + 100000 z_0_5 + 100000 z_0_8 + 100000 z_0_9 <= 502131.11264993862
 c2995: 120 p_0_1 + 120 p_0_10 + 120 p_0_2 + 120 p_0_5 + 120 p_0_8 + 120 p_0_9 + 100000 z_0_1 + 100000 z_0_10 + 100000 z_0_2 + 100000 z_0_5 + 100000 z_0_8 + 100000 z_0_9 <= 602128.76740128349
 c2996: 120 p_0_10 + 120 p_0_3 + 120 p_0_5 + 120 p_0_8 + 120 p_0_9 + 100000 z_0_10 + 100000 z_0_3 + 100000 z_0_5 + 100000 z_0_8 + 100000 z_0_9 <= 502052.68206708721
 c2997: 120 p_0_1 + 120 p_0_10 + 120 p_0_3 + 120 p_0_5 + 120 p_0_8 + 120 p_0_9 + 100000 z_0_1 + 100000 z_0_10 + 100000 z_0_3 + 100000 z_0_5 + 100000 z_0_8 + 100000 z_0_9 <= 602050.33681843209
 c2998: 120 p_0_10 + 120 p_0_2 + 120 p_0_3 + 120 p_0_5 + 120 p_0_8 + 120 p_0_9 + 100000 z_0_10 + 100000 z_0_2 + 100000 z_0_3 + 100000 z_0_5 + 100000 z_0_8 + 100000 z_0_9 <= 602050.44894764118
 c2999: 120 p_0_1 + 120 p_0_10 + 120 p_0_2 + 120 p_0_3 + 120 p_0_5 + 120 p_0_8 + 120 p_0_9 + 100000 z_0_1 + 100000 z_0_10 + 100000 z_0_2 + 100000 z_0_3 + 100000 z_0_5 + 100000 z_0_8 + 100000 z_0_9 <= 702048.103698986
 c3000: 120 p_0_10 + 120 p_0_4 + 120 p_0_5 + 120 p_0_8 + 120 p_0_9 + 100000 z_0_10 + 100000 z_0_4 + 100000 z_0_5 + 100000 z_0_8 + 100000 z_0_9 <= 502143.70236600959
 c3001: 120 p_0_1 + 120 p_0_10 + 120 p_0_4 + 120 p_0_5 + 120 p_0_8 + 120 p_0_9 + 100000 z_0_1 + 100000 z_0_10 + 100000 z_0_4 + 100000 z_0_5 + 100000 z_0_8 + 100000 z_0_9 <= 602143.31001999078
 c3002: 120 p_0_10 + 120 p_0_2 + 120 p_0_4 + 120 p_0_5 + 120 p_0_8 + 120 p_0_9 + 100000 z_0_10 + 100000 z_0_2 + 100000 z_0_4 + 100000 z_0_5 + 100000 z_0_8 + 100000 z_0_9 <= 602128.93870509649
 c3003: 120 p_0_1 + 120 p_0_10 + 120 p_0_2 + 120 p_0_4 + 120 p_0_5 + 120 p_0_8 + 120 p_0_9 + 100000 z_0_1 + 100000 z_0_10 + 100000 z_0_2 + 100000 z_0_4 + 100000 z_0_5 + 100000 z_0_8 + 100000 z_0_9 <= 702128.54635907768
 c3004: 120 p_0_10 + 120 p_0_3 + 120 p_0_4 + 120 p_0_5 + 120 p_0_8 + 120 p_0_9 + 100000 z_0_10 + 100000 z_0_3 + 100000 z_0_4 + 100000 z_0_5 + 100000 z_0_8 + 100000 z_0_9 <= 602050.18315594713
 c3005: 120 p_0_1 + 120 p_0_10 + 120 p_0_3 + 120 p_0_4 + 120 p_0_5 + 120 p_0_8 + 120 p_0_9 + 100000 z_0_1 + 100000 z_0_10 + 100000 z_0_3 + 100000 z_0_4 + 100000 z_0_5 + 100000 z_0_8 + 100000 z_0_9 <= 702050.11577622616
 c3006: 120 p_0_10 + 120 p_0_2 + 120 p_0_3 + 120 p_0_4 + 120 p_0_5 + 120 p_0_8 + 120 p_0_9 + 100000 z_0_10 + 100000 z_0_2 + 100000 z_0_3 + 100000 z_0_4 + 100000 z_0_5 + 100000 z_0_8 + 100000 z_0_9 <= 702047.95003650116
 c3007: 120 p_0_1 + 120 p_0_10 + 120 p_0_2 + 120 p_0_3 + 120 p_0_4 + 120 p_0_5 + 120 p_0_8 + 120 p_0_9 + 100000 z_0_1 + 100000 z_0_10 + 100000 z_0_2 + 100000 z_0_3 + 100000 z_0_4 + 100000 z_0_5 + 100000 z_0_8 + 100000 z_0_9 <= 802047.88265678019
 c3008: 120 p_0_10 + 120 p_0_6 + 120 p_0_8 + 120 p_0_9 + 100000 z_0_10 + 100000 z_0_6 + 100000 z_0_8 + 100000 z_0_9 <= 402095.61830197985
 c3009: 120 p_0_1 + 120 p_0_10 + 120 p_0_6 + 120 p_0_8 + 120 p_0_9 + 100000 z_0_1 + 100000 z_0_10 + 100000 z_0_6 + 100000 z_0_8 + 100000 z_0_9 <= 502093.27305332466
 c3010: 120 p_0_10 + 120 p_0_2 + 120 p_0_6 + 120 p_0_8 + 120 p_0_9 + 100000 z_0_10 + 100000 z_0_2 + 100000 z_0_6 + 100000 z_0_8 + 100000 z_0_9 <= 502093.38518253382
 c3011: 120 p_0_1 + 120 p_0_10 + 120 p_0_2 + 120 p_0_6 + 120 p_0_8 + 120 p_0_9 + 100000 z_0_1 + 100000 z_0_10 + 100000 z_0_2 + 100000 z_0_6 + 100000 z_0_8 + 100000 z_0_9 <= 602091.0399338787
 c3012: 120 p_0_10 + 120 p_0_3 + 120 p_0_6 + 120 p_0_8 + 120 p_0_9 + 100000 z_0_10 + 100000 z_0_3 + 100000 z_0_6 + 100000 z_0_8 + 100000 z_0_9 <= 502045.01249509049
 c3013: 120 p_0_1 + 120 p_0_10 + 120 p_0_3 + 120 p_0_6 + 120 p_0_8 + 120 p_0_9 + 100000 z_0_1 + 100000 z_0_10 + 100000 z_0_3 + 100000 z_0_6 + 100000 z_0_8 + 100000 z_0_9 <= 602042.6672464353
 c3014: 120 p_0_10 + 120 p_0_2 + 120 p_0_3 + 120 p_0_6 + 120 p_0_8 + 120 p_0_9 + 100000 z_0_10 + 100000 z_0_2 + 100000 z_0_3 + 100000 z_0_6 + 100000 z_0_8 + 100000 z_0_9 <= 602042.77937564452
 c3015: 120 p_0_1 + 120 p_0_10 + 120 p_0_2 + 120 p_0_3 + 120 p_0_6 + 120 p_0_8 + 120 p_0_9 + 100000 z_0_1 + 100000 z_0_10 + 100000 z_0_2 + 100000 z_0_3 + 100000 z_0_6 + 100000 z_0_8 + 100000 z_0_9 <= 702040.43412698933
 c3016: 120 p_0_10 + 120 p_0_4 + 120 p_0_6 + 120 p_0_8 + 120 p_0_9 + 100000 z_0_10 + 100000 z_0_4 + 100000 z_0_6 + 100000 z_0_8 + 100000 z_0_9 <= 502093.44435713766
 c3017: 120 p_0_1 + 120 p_0_10 + 120 p_0_4 + 120 p_0_6 + 120 p_0_8 + 120 p_0_9 + 100000 z_0_1 + 100000 z_0_10 + 100000 z_0_4 + 100000 z_0_6 + 100000 z_0_8 + 100000 z_0_9 <= 602093.05201111885
 c3018: 120 p_0_10 + 120 p_0_2 + 120 p_0_4 + 120 p_0_6 + 120 p_0_8 + 120 p_0_9 + 100000 z_0_10 + 100000 z_0_2 + 100000 z_0_4 + 100000 z_0_6 + 100000 z_0_8 + 100000 z_0_9 <= 602091.21123769169
 c3019: 120 p_0_1 + 120 p_0_10 + 120 p_0_2 + 120 p_0_4 + 120 p_0_6 + 120 p_0_8 + 120 p_0_9 + 100000 z_0_1 + 100000 z_0_10 + 100000 z_0_2 + 100000 z_0_4 + 100000 z_0_6 + 100000 z_0_8 + 100000 z_0_9 <= 702090.81889167288
 c3020: 120 p_0_10 + 120 p_0_3 + 120 p_0_4 + 120 p_0_6 + 120 p_0_8 + 120 p_0_9 + 100000 z_0_10 + 100000 z_0_3 + 100000 z_0_4 + 100000 z_0_6 + 100000 z_0_8 + 100000 z_0_9 <= 602042.51358395047
 c3021: 120 p_0_1 + 120 p_0_10 + 120 p_0_3 + 120 p_0_4 + 120 p_0_6 + 120 p_0_8 + 120 p_0_9 + 100000 z_0_1 + 100000 z_0_10 + 100000 z_0_3 + 100000 z_0_4 + 100000 z_0_6 + 100000 z_0_8 + 100000 z_0_9 <= 702042.44620422949
 c3022: 120 p_0_10 + 120 p_0_2 + 120 p_0_3 + 120 p_0_4 + 120 p_0_6 + 120 p_0_8 + 120 p_0_9 + 100000 z_0_10 + 100000 z_0_2 + 100000 z_0_3 + 100000 z_0_4 + 100000 z_0_6 + 100000 z_0_8 + 100000 z_0_9 <= 702040.2804645045
 c3023: 120 p_0_1 + 120 p_0_10 + 120 p_0_2 + 120 p_0_3 + 120 p_0_4 + 120 p_0_6 + 120 p_0_8 + 120 p_0_9 + 100000 z_0_1 + 100000 z_0_10 + 100000 z_0_2 + 100000 z_0_3 + 100000 z_0_4 + 100000 z_0_6 + 100000 z_0_8 + 100000 z_0_9 <= 802040.21308478352
 c3024: 120 p_0_10 + 120 p_0_5 + 120 p_0_6 + 120 p_0_8 + 120 p_0_9 + 100000 z_0_10 + 100000 z_0_5 + 100000 z_0_6 + 100000 z_0_8 + 100000 z_0_9 <= 502091.81423985813
 c3025: 120 p_0_1 + 120 p_0_10 + 120 p_0_5 + 120 p_0_6 + 120 p_0_8 + 120 p_0_9 + 100000 z_0_1 + 100000 z_0_10 + 100000 z_0_5 + 100000 z_0_6 + 100000 z_0_8 + 100000 z_0_9 <= 602089.468991203
 c3026: 120 p_0_10 + 120 p_0_2 + 120 p_0_5 + 120 p_0_6 + 120 p_0_8 + 120 p_0_9 + 100000 z_0_10 + 100000 z_0_2 + 100000 z_0_5 + 100000 z_0_6 + 100000 z_0_8 + 100000 z_0_9 <= 602089.58112041221
 c3027: 120 p_0_1 + 120 p_0_10 + 120 p_0_2 + 120 p_0_5 + 120 p_0_6 + 120 p_0_8 + 120 p_0_9 + 100000 z_0_1 + 100000 z_0_10 + 100000 z_0_2 + 100000 z_0_5 + 100000 z_0_6 + 100000 z_0_8 + 100000 z_0_9 <= 702087.23587175703
 c3028: 120 p_0_10 + 120 p_0_3 + 120 p_0_5 + 120 p_0_6 + 120 p_0_8 + 120 p_0_9 + 100000 z_0_10 + 100000 z_0_3 + 100000 z_0_5 + 100000 z_0_6 + 100000 z_0_8 + 100000 z_0_9 <= 602041.7350054197
 c3029: 120 p_0_1 + 120 p_0_10 + 120 p_0_3 + 120 p_0_5 + 120 p_0_6 + 120 p_0_8 + 120 p_0_9 + 100000 z_0_1 + 100000 z_0_10 + 100000 z_0_3 + 100000 z_0_5 + 100000 z_0_6 + 100000 z_0_8 + 100000 z_0_9 <= 702039.38975676452
 c3030: 120 p_0_10 + 120 p_0_2 + 120 p_0_3 + 120 p_0_5 + 120 p_0_6 + 120 p_0_8 + 120 p_0_9 + 100000 z_0_10 + 100000 z_0_2 + 100000 z_0_3 + 100000 z_0_5 + 100000 z_0_6 + 100000 z_0_8 + 100000 z_0_9 <= 702039.50188597373
 c3031: 120 p_0_1 + 120 p_0_10 + 120 p_0_2 + 120 p_0_3 + 120 p_0_5 + 120 p_0_6 + 120 p_0_8 + 120 p_0_9 + 100000 z_0_1 + 100000 z_0_10 + 100000 z_0_2 + 100000 z_0_3 + 100000 z_0_5 + 100000 z_0_6 + 100000 z_0_8 + 100000 z_0_9 <= 802037.15663731855
 c3032: 120 p_0_10 + 120 p_0_4 + 120 p_0_5 + 120 p_0_6 + 120 p_0_8 + 120 p_0_9 + 100000 z_0_10 + 100000 z_0_4 + 100000 z_0_5 + 100000 z_0_6 + 100000 z_0_8 + 100000 z_0_9 <= 602089.54274312232
 c3033: 120 p_0_1 + 120 p_0_10 + 120 p_0_4 + 120 p_0_5 + 120 p_0_6 + 120 p_0_8 + 120 p_0_9 + 100000 z_0_1 + 100000 z_0_10 + 100000 z_0_4 + 100000 z_0_5 + 100000 z_0_6 + 100000 z_0_8 + 100000 z_0_9 <= 702089.24794899719
 c3034: 120 p_0_10 + 120 p_0_2 + 120 p_0_4 + 120 p_0_5 + 120 p_0_6 + 120 p_0_8 + 120 p_0_9 + 100000 z_0_10 + 100000 z_0_2 + 100000 z_0_4 + 100000 z_0_5 + 100000 z_0_6 + 100000 z_0_8 + 100000 z_0_9 <= 702087.08220927208
 c3035: 120 p_0_1 + 120 p_0_10 + 120 p_0_2 + 120 p_0_4 + 120 p_0_5 + 120 p_0_6 + 120 p_0_8 + 120 p_0_9 + 100000 z_0_1 + 100000 z_0_10 + 100000 z_0_2 + 100000 z_0_4 + 100000 z_0_5 + 100000 z_0_6 + 100000 z_0_8 + 100000 z_0_9 <= 802087.01482955122
 c3036: 120 p_0_10 + 120 p_0_3 + 120 p_0_4 + 120 p_0_5 + 120 p_0_6 + 120 p_0_8 + 120 p_0_9 + 100000 z_0_10 + 100000 z_0_3 + 100000 z_0_4 + 100000 z_0_5 + 100000 z_0_6 + 100000 z_0_8 + 100000 z_0_9 <= 702039.23609427968
 c3037: 120 p_0_1 + 120 p_0_10 + 120 p_0_3 + 120 p_0_4 + 120 p_0_5 + 120 p_0_6 + 120 p_0_8 + 120 p_0_9 + 100000 z_0_1 + 100000 z_0_10 + 100000 z_0_3 + 100000 z_0_4 + 100000 z_0_5 + 100000 z_0_6 + 100000 z_0_8 + 100000 z_0_9 <= 802039.16871455871
 c3038: 120 p_0_10 + 120 p_0_2 + 120 p_0_3 + 120 p_0_4 + 120 p_0_5 + 120 p_0_6 + 120 p_0_8 + 120 p_0_9 + 100000 z_0_10 + 100000 z_0_2 + 100000 z_0_3 + 100000 z_0_4 + 100000 z_0_5 + 100000 z_0_6 + 100000 z_0_8 + 100000 z_0_9 <= 802037.00297483371
 c3039: 120 p_0_1 + 120 p_0_10 + 120 p_0_2 + 120 p_0_3 + 120 p_0_4 + 120 p_0_5 + 120 p_0_6 + 120 p_0_8 + 120 p_0_9 + 100000 z_0_1 + 100000 z_0_10 + 100000 z_0_2 + 100000 z_0_3 + 100000 z_0_4 + 100000 z_0_5 + 100000 z_0_6 + 100000 z_0_8 + 100000 z_0_9 <= 902036.93559511274
 c3040: 120 p_0_10 + 120 p_0_7 + 120 p_0_8 + 120 p_0_9 + 100000 z_0_10 + 100000 z_0_7 + 100000 z_0_8 + 100000 z_0_9 <= 402108.84573491581
 c3041: 120 p_0_1 + 120 p_0_10 + 120 p_0_7 + 120 p_0_8 + 120 p_0_9 + 100000 z_0_1 + 100000 z_0_10 + 100000 z_0_7 + 100000 z_0_8 + 100000 z_0_9 <= 502106.50048626063
 c3042: 120 p_0_10 + 120 p_0_2 + 120 p_0_7 + 120 p_0_8 + 120 p_0_9 + 100000 z_0_10 + 100000 z_0_2 + 100000 z_0_7 + 100000 z_0_8 + 100000 z_0_9 <= 502106.61261546984
 c3043: 120 p_0_1 + 120 p_0_10 + 120 p_0_2 + 120 p_0_7 + 120 p_0_8 + 120 p_0_9 + 100000 z_0_1 + 100000 z_0_10 + 100000 z_0_2 + 100000 z_0_7 + 100000 z_0_8 + 100000 z_0_9 <= 602104.26736681466
 c3044: 120 p_0_10 + 120 p_0_3 + 120 p_0_7 + 120 p_0_8 + 120 p_0_9 + 100000 z_0_10 + 100000 z_0_3 + 100000 z_0_7 + 100000 z_0_8 + 100000 z_0_9 <= 502001.82753237954
 c3045: 120 p_0_1 + 120 p_0_10 + 120 p_0_3 + 120 p_0_7 + 120 p_0_8 + 120 p_0_9 + 100000 z_0_1 + 100000 z_0_10 + 100000 z_0_3 + 100000 z_0_7 + 100000 z_0_8 + 100000 z_0_9 <= 601999.48228372436
 c3046: 120 p_0_10 + 120 p_0_2 + 120 p_0_3 + 120 p_0_7 + 120 p_0_8 + 120 p_0_9 + 100000 z_0_10 + 100000 z_0_2 + 100000 z_0_3 + 100000 z_0_7 + 100000 z_0_8 + 100000 z_0_9 <= 601999.59441293357
 c3047: 120 p_0_1 + 120 p_0_10 + 120 p_0_2 + 120 p_0_3 + 120 p_0_7 + 120 p_0_8 + 120 p_0_9 + 100000 z_0_1 + 100000 z_0_10 + 100000 z_0_2 + 100000 z_0_3 + 100000 z_0_7 + 100000 z_0_8 + 100000 z_0_9 <= 701997.24916427839
 c3048: 120 p_0_10 + 120 p_0_4 + 120 p_0_7 + 120 p_0_8 + 120 p_0_9 + 100000 z_0_10 + 100000 z_0_4 + 100000 z_0_7 + 100000 z_0_8 + 100000 z_0_9 <= 502106.34682377579
 c3049: 120 p_0_1 + 120 p_0_10 + 120 p_0_4 + 120 p_0_7 + 120 p_0_8 + 120 p_0_9 + 100000 z_0_1 + 100000 z_0_10 + 100000 z_0_4 + 100000 z_0_7 + 100000 z_0_8 + 100000 z_0_9 <= 602106.27944405482
 c3050: 120 p_0_10 + 120 p_0_2 + 120 p_0_4 + 120 p_0_7 + 120 p_0_8 + 120 p_0_9 + 100000 z_0_10 + 100000 z_0_2 + 100000 z_0_4 + 100000 z_0_7 + 100000 z_0_8 + 100000 z_0_9 <= 602104.11370432982
 c3051: 120 p_0_1 + 120 p_0_10 + 120 p_0_2 + 120 p_0_4 + 120 p_0_7 + 120 p_0_8 + 120 p_0_9 + 100000 z_0_1 + 100000 z_0_10 + 100000 z_0_2 + 100000 z_0_4 + 100000 z_0_7 + 100000 z_0_8 + 100000 z_0_9 <= 702104.04632460885
 c3052: 120 p_0_10 + 120 p_0_3 + 120 p_0_4 + 120 p_0_7 + 120 p_0_8 + 120 p_0_9 + 100000 z_0_10 + 100000 z_0_3 + 100000 z_0_4 + 100000 z_0_7 + 100000 z_0_8 + 100000 z_0_9 <= 601999.32862123952
 c3053: 120 p_0_1 + 120 p_0_10 + 120 p_0_3 + 120 p_0_4 + 120 p_0_7 + 120 p_0_8 + 120 p_0_9 + 100000 z_0_1 + 100000 z_0_10 + 100000 z_0_3 + 100000 z_0_4 + 100000 z_0_7 + 100000 z_0_8 + 100000 z_0_9 <= 701999.26124151854
 c3054: 120 p_0_10 + 120 p_0_2 + 120 p_0_3 + 120 p_0_4 + 120 p_0_7 + 120 p_0_8 + 120 p_0_9 + 100000 z_0_10 + 100000 z_0_2 + 100000 z_0_3 + 100000 z_0_4 + 100000 z_0_7 + 100000 z_0_8 + 100000 z_0_9 <= 701997.09550179355
 c3055: 120 p_0_1 + 120 p_0_10 + 120 p_0_2 + 120 p_0_3 + 120 p_0_4 + 120 p_0_7 + 120 p_0_8 + 120 p_0_9 + 100000 z_0_1 + 100000 z_0_10 + 100000 z_0_2 + 100000 z_0_3 + 100000 z_0_4 + 100000 z_0_7 + 100000 z_0_8 + 100000 z_0_9 <= 801997.02812207257
 c3056: 120 p_0_10 + 120 p_0_5 + 120 p_0_7 + 120 p_0_8 + 120 p_0_9 + 100000 z_0_10 + 100000 z_0_5 + 100000 z_0_7 + 100000 z_0_8 + 100000 z_0_9 <= 502104.94412090053
 c3057: 120 p_0_1 + 120 p_0_10 + 120 p_0_5 + 120 p_0_7 + 120 p_0_8 + 120 p_0_9 + 100000 z_0_1 + 100000 z_0_10 + 100000 z_0_5 + 100000 z_0_7 + 100000 z_0_8 + 100000 z_0_9 <= 602102.59887224529
 c3058: 120 p_0_10 + 120 p_0_2 + 120 p_0_5 + 120 p_0_7 + 120 p_0_8 + 120 p_0_9 + 100000 z_0_10 + 100000 z_0_2 + 100000 z_0_5 + 100000 z_0_7 + 100000 z_0_8 + 100000 z_0_9 <= 602090.18045998737
 c3059: 120 p_0_1 + 120 p_0_10 + 120 p_0_2 + 120 p_0_5 + 120 p_0_7 + 120 p_0_8 + 120 p_0_9 + 100000 z_0_1 + 100000 z_0_10 + 100000 z_0_2 + 100000 z_0_5 + 100000 z_0_7 + 100000 z_0_8 + 100000 z_0_9 <= 702087.83521133219
 c3060: 120 p_0_10 + 120 p_0_3 + 120 p_0_5 + 120 p_0_7 + 120 p_0_8 + 120 p_0_9 + 100000 z_0_10 + 100000 z_0_3 + 100000 z_0_5 + 100000 z_0_7 + 100000 z_0_8 + 100000 z_0_9 <= 601997.9259183642
 c3061: 120 p_0_1 + 120 p_0_10 + 120 p_0_3 + 120 p_0_5 + 120 p_0_7 + 120 p_0_8 + 120 p_0_9 + 100000 z_0_1 + 100000 z_0_10 + 100000 z_0_3 + 100000 z_0_5 + 100000 z_0_7 + 100000 z_0_8 + 100000 z_0_9 <= 701995.58066970902
 c3062: 120 p_0_10 + 120 p_0_2 + 120 p_0_3 + 120 p_0_5 + 120 p_0_7 + 120 p_0_8 + 120 p_0_9 + 100000 z_0_10 + 100000 z_0_2 + 100000 z_0_3 + 100000 z_0_5 + 100000 z_0_7 + 100000 z_0_8 + 100000 z_0_9 <= 701988.78771161579
 c3063: 120 p_0_1 + 120 p_0_10 + 120 p_0_2 + 120 p_0_3 + 120 p_0_5 + 120 p_0_7 + 120 p_0_8 + 120 p_0_9 + 100000 z_0_1 + 100000 z_0_10 + 100000 z_0_2 + 100000 z_0_3 + 100000 z_0_5 + 100000 z_0_7 + 100000 z_0_8 + 100000 z_0_9 <= 801987.87800728658
 c3064: 120 p_0_10 + 120 p_0_4 + 120 p_0_5 + 120 p_0_7 + 120 p_0_8 + 120 p_0_9 + 100000 z_0_10 + 100000 z_0_4 + 100000 z_0_5 + 100000 z_0_7 + 100000 z_0_8 + 100000 z_0_9 <= 602102.44520976045
 c3065: 120 p_0_1 + 120 p_0_10 + 120 p_0_4 + 120 p_0_5 + 120 p_0_7 + 120 p_0_8 + 120 p_0_9 + 100000 z_0_1 + 100000 z_0_10 + 100000 z_0_4 + 100000 z_0_5 + 100000 z_0_7 + 100000 z_0_8 + 100000 z_0_9 <= 702102.37783003948
 c3066: 120 p_0_10 + 120 p_0_2 + 120 p_0_4 + 120 p_0_5 + 120 p_0_7 + 120 p_0_8 + 120 p_0_9 + 100000 z_0_10 + 100000 z_0_2 + 100000 z_0_4 + 100000 z_0_5 + 100000 z_0_7 + 100000 z_0_8 + 100000 z_0_9 <= 702087.68154884735
 c3067: 120 p_0_1 + 120 p_0_10 + 120 p_0_2 + 120 p_0_4 + 120 p_0_5 + 120 p_0_7 + 120 p_0_8 + 120 p_0_9 + 100000 z_0_1 + 100000 z_0_10 + 100000 z_0_2 + 100000 z_0_4 + 100000 z_0_5 + 100000 z_0_7 + 100000 z_0_8 + 100000 z_0_9 <= 802087.61416912638
 c3068: 120 p_0_10 + 120 p_0_3 + 120 p_0_4 + 120 p_0_5 + 120 p_0_7 + 120 p_0_8 + 120 p_0_9 + 100000 z_0_10 + 100000 z_0_3 + 100000 z_0_4 + 100000 z_0_5 + 100000 z_0_7 + 100000 z_0_8 + 100000 z_0_9 <= 701995.42700722418
 c3069: 120 p_0_1 + 120 p_0_10 + 120 p_0_3 + 120 p_0_4 + 120 p_0_5 + 120 p_0_7 + 120 p_0_8 + 120 p_0_9 + 100000 z_0_1 + 100000 z_0_10 + 100000 z_0_3 + 100000 z_0_4 + 100000 z_0_5 + 100000 z_0_7 + 100000 z_0_8 + 100000 z_0_9 <= 801995.3596275032
 c3070: 120 p_0_10 + 120 p_0_2 + 120 p_0_3 + 120 p_0_4 + 120 p_0_5 + 120 p_0_7 + 120 p_0_8 + 120 p_0_9 + 100000 z_0_10 + 100000 z_0_2 + 100000 z_0_3 + 100000 z_0_4 + 100000 z_0_5 + 100000 z_0_7 + 100000 z_0_8 + 100000 z_0_9 <= 801987.44093688717
 c3071: 120 p_0_1 + 120 p_0_10 + 120 p_0_2 + 120 p_0_3 + 120 p_0_4 + 120 p_0_5 + 120 p_0_7 + 120 p_0_8 + 120 p_0_9 + 100000 z_0_1 + 100000 z_0_10 + 100000 z_0_2 + 100000 z_0_3 + 100000 z_0_4 + 100000 z_0_5 + 100000 z_0_7 + 100000 z_0_8 + 100000 z_0_9 <= 901987.3735571662
 c3072: 120 p_0_10 + 120 p_0_6 + 120 p_0_7 + 120 p_0_8 + 120 p_0_9 + 100000 z_0_10 + 100000 z_0_6 + 100000 z_0_7 + 100000 z_0_8 + 100000 z_0_9 <= 502054.6861120286
 c3073: 120 p_0_1 + 120 p_0_10 + 120 p_0_6 + 120 p_0_7 + 120 p_0_8 + 120 p_0_9 + 100000 z_0_1 + 100000 z_0_10 + 100000 z_0_6 + 100000 z_0_7 + 100000 z_0_8 + 100000 z_0_9 <= 602052.34086337336
 c3074: 120 p_0_10 + 120 p_0_2 + 120 p_0_6 + 120 p_0_7 + 120 p_0_8 + 120 p_0_9 + 100000 z_0_10 + 100000 z_0_2 + 100000 z_0_6 + 100000 z_0_7 + 100000 z_0_8 + 100000 z_0_9 <= 602052.45299258258
 c3075: 120 p_0_1 + 120 p_0_10 + 120 p_0_2 + 120 p_0_6 + 120 p_0_7 + 120 p_0_8 + 120 p_0_9 + 100000 z_0_1 + 100000 z_0_10 + 100000 z_0_2 + 100000 z_0_6 + 100000 z_0_7 + 100000 z_0_8 + 100000 z_0_9 <= 702050.10774392739
 c3076: 120 p_0_10 + 120 p_0_3 + 120 p_0_6 + 120 p_0_7 + 120 p_0_8 + 120 p_0_9 + 100000 z_0_10 + 100000 z_0_3 + 100000 z_0_6 + 100000 z_0_7 + 100000 z_0_8 + 100000 z_0_9 <= 601997.69044631114
 c3077: 120 p_0_1 + 120 p_0_10 + 120 p_0_3 + 120 p_0_6 + 120 p_0_7 + 120 p_0_8 + 120 p_0_9 + 100000 z_0_1 + 100000 z_0_10 + 100000 z_0_3 + 100000 z_0_6 + 100000 z_0_7 + 100000 z_0_8 + 100000 z_0_9 <= 701995.34519765608
 c3078: 120 p_0_10 + 120 p_0_2 + 120 p_0_3 + 120 p_0_6 + 120 p_0_7 + 120 p_0_8 + 120 p_0_9 + 100000 z_0_10 + 100000 z_0_2 + 100000 z_0_3 + 100000 z_0_6 + 100000 z_0_7 + 100000 z_0_8 + 100000 z_0_9 <= 701995.45732686517
 c3079: 120 p_0_1 + 120 p_0_10 + 120 p_0_2 + 120 p_0_3 + 120 p_0_6 + 120 p_0_7 + 120 p_0_8 + 120 p_0_9 + 100000 z_0_1 + 100000 z_0_10 + 100000 z_0_2 + 100000 z_0_3 + 100000 z_0_6 + 100000 z_0_7 + 100000 z_0_8 + 100000 z_0_9 <= 801993.11207820999
 c3080: 120 p_0_10 + 120 p_0_4 + 120 p_0_6 + 120 p_0_7 + 120 p_0_8 + 120 p_0_9 + 100000 z_0_10 + 100000 z_0_4 + 100000 z_0_6 + 100000 z_0_7 + 100000 z_0_8 + 100000 z_0_9 <= 602052.18720088853
 c3081: 120 p_0_1 + 120 p_0_10 + 120 p_0_4 + 120 p_0_6 + 120 p_0_7 + 120 p_0_8 + 120 p_0_9 + 100000 z_0_1 + 100000 z_0_10 + 100000 z_0_4 + 100000 z_0_6 + 100000 z_0_7 + 100000 z_0_8 + 100000 z_0_9 <= 702052.11982116755
 c3082: 120 p_0_10 + 120 p_0_2 + 120 p_0_4 + 120 p_0_6 + 120 p_0_7 + 120 p_0_8 + 120 p_0_9 + 100000 z_0_10 + 100000 z_0_2 + 100000 z_0_4 + 100000 z_0_6 + 100000 z_0_7 + 100000 z_0_8 + 100000 z_0_9 <= 702049.95408144256
 c3083: 120 p_0_1 + 120 p_0_10 + 120 p_0_2 + 120 p_0_4 + 120 p_0_6 + 120 p_0_7 + 120 p_0_8 + 120 p_0_9 + 100000 z_0_1 + 100000 z_0_10 + 100000 z_0_2 + 100000 z_0_4 + 100000 z_0_6 + 100000 z_0_7 + 100000 z_0_8 + 100000 z_0_9 <= 802049.88670172158
 c3084: 120 p_0_10 + 120 p_0_3 + 120 p_0_4 + 120 p_0_6 + 120 p_0_7 + 120 p_0_8 + 120 p_0_9 + 100000 z_0_10 + 100000 z_0_3 + 100000 z_0_4 + 100000 z_0_6 + 100000 z_0_7 + 100000 z_0_8 + 100000 z_0_9 <= 701995.19153517112
 c3085: 120 p_0_1 + 120 p_0_10 + 120 p_0_3 + 120 p_0_4 + 120 p_0_6 + 120 p_0_7 + 120 p_0_8 + 120 p_0_9 + 100000 z_0_1 + 100000 z_0_10 + 100000 z_0_3 + 100000 z_0_4 + 100000 z_0_6 + 100000 z_0_7 + 100000 z_0_8 + 100000 z_0_9 <= 801995.12415545015
 c3086: 120 p_0_10 + 120 p_0_2 + 120 p_0_3 + 120 p_0_4 + 120 p_0_6 + 120 p_0_7 + 120 p_0_8 + 120 p_0_9 + 100000 z_0_10 + 100000 z_0_2 + 100000 z_0_3 + 100000 z_0_4 + 100000 z_0_6 + 100000 z_0_7 + 100000 z_0_8 + 100000 z_0_9 <= 801992.95841572515
 c3087: 120 p_0_1 + 120 p_0_10 + 120 p_0_2 + 120 p_0_3 + 120 p_0_4 + 120 p_0_6 + 120 p_0_7 + 120 p_0_8 + 120 p_0_9 + 100000 z_0_1 + 100000 z_0_10 + 100000 z_0_2 + 100000 z_0_3 + 100000 z_0_4 + 100000 z_0_6 + 100000 z_0_7 + 100000 z_0_8 + 100000 z_0_9 <= 901992.89103600418
 c3088: 120 p_0_10 + 120 p_0_5 + 120 p_0_6 + 120 p_0_7 + 120 p_0_8 + 120 p_0_9 + 100000 z_0_10 + 100000 z_0_5 + 100000 z_0_6 + 100000 z_0_7 + 100000 z_0_8 + 100000 z_0_9 <= 602050.78449801332
 c3089: 120 p_0_1 + 120 p_0_10 + 120 p_0_5 + 120 p_0_6 + 120 p_0_7 + 120 p_0_8 + 120 p_0_9 + 100000 z_0_1 + 100000 z_0_10 + 100000 z_0_5 + 100000 z_0_6 + 100000 z_0_7 + 100000 z_0_8 + 100000 z_0_9 <= 702048.43924935814
 c3090: 120 p_0_10 + 120 p_0_2 + 120 p_0_5 + 120 p_0_6 + 120 p_0_7 + 120 p_0_8 + 120 p_0_9 + 100000 z_0_10 + 100000 z_0_2 + 100000 z_0_5 + 100000 z_0_6 + 100000 z_0_7 + 100000 z_0_8 + 100000 z_0_9 <= 702036.02083710011
 c3091: 120 p_0_1 + 120 p_0_10 + 120 p_0_2 + 120 p_0_5 + 120 p_0_6 + 120 p_0_7 + 120 p_0_8 + 120 p_0_9 + 100000 z_0_1 + 100000 z_0_10 + 100000 z_0_2 + 100000 z_0_5 + 100000 z_0_6 + 100000 z_0_7 + 100000 z_0_8 + 100000 z_0_9 <= 802033.67558844492
 c3092: 120 p_0_10 + 120 p_0_3 + 120 p_0_5 + 120 p_0_6 + 120 p_0_7 + 120 p_0_8 + 120 p_0_9 + 100000 z_0_10 + 100000 z_0_3 + 100000 z_0_5 + 100000 z_0_6 + 100000 z_0_7 + 100000 z_0_8 + 100000 z_0_9 <= 701993.78883229592
 c3093: 120 p_0_1 + 120 p_0_10 + 120 p_0_3 + 120 p_0_5 + 120 p_0_6 + 120 p_0_7 + 120 p_0_8 + 120 p_0_9 + 100000 z_0_1 + 100000 z_0_10 + 100000 z_0_3 + 100000 z_0_5 + 100000 z_0_6 + 100000 z_0_7 + 100000 z_0_8 + 100000 z_0_9 <= 801991.44358364074
 c3094: 120 p_0_10 + 120 p_0_2 + 120 p_0_3 + 120 p_0_5 + 120 p_0_6 + 120 p_0_7 + 120 p_0_8 + 120 p_0_9 + 100000 z_0_10 + 100000 z_0_2 + 100000 z_0_3 + 100000 z_0_5 + 100000 z_0_6 + 100000 z_0_7 + 100000 z_0_8 + 100000 z_0_9 <= 801979.0251713827
 c3095: 120 p_0_1 + 120 p_0_10 + 120 p_0_2 + 120 p_0_3 + 120 p_0_5 + 120 p_0_6 + 120 p_0_7 + 120 p_0_8 + 120 p_0_9 + 100000 z_0_1 + 100000 z_0_10 + 100000 z_0_2 + 100000 z_0_3 + 100000 z_0_5 + 100000 z_0_6 + 100000 z_0_7 + 100000 z_0_8 + 100000 z_0_9 <= 901976.93094561913
 c3096: 120 p_0_10 + 120 p_0_4 + 120 p_0_5 + 120 p_0_6 + 120 p_0_7 + 120 p_0_8 + 120 p_0_9 + 100000 z_0_10 + 100000 z_0_4 + 100000 z_0_5 + 100000 z_0_6 + 100000 z_0_7 + 100000 z_0_8 + 100000 z_0_9 <= 702048.28558687319
 c3097: 120 p_0_1 + 120 p_0_10 + 120 p_0_4 + 120 p_0_5 + 120 p_0_6 + 120 p_0_7 + 120 p_0_8 + 120 p_0_9 + 100000 z_0_1 + 100000 z_0_10 + 100000 z_0_4 + 100000 z_0_5 + 100000 z_0_6 + 100000 z_0_7 + 100000 z_0_8 + 100000 z_0_9 <= 802048.21820715233
 c3098: 120 p_0_10 + 120 p_0_2 + 120 p_0_4 + 120 p_0_5 + 120 p_0_6 + 120 p_0_7 + 120 p_0_8 + 120 p_0_9 + 100000 z_0_10 + 100000 z_0_2 + 100000 z_0_4 + 100000 z_0_5 + 100000 z_0_6 + 100000 z_0_7 + 100000 z_0_8 + 100000 z_0_9 <= 802033.52192596009
 c3099: 120 p_0_1 + 120 p_0_10 + 120 p_0_2 + 120 p_0_4 + 120 p_0_5 + 120 p_0_6 + 120 p_0_7 + 120 p_0_8 + 120 p_0_9 + 100000 z_0_1 + 100000 z_0_10 + 100000 z_0_2 + 100000 z_0_4 + 100000 z_0_5 + 100000 z_0_6 + 100000 z_0_7 + 100000 z_0_8 + 100000 z_0_9 <= 902033.45454623911
 c3100: 120 p_0_10 + 120 p_0_3 + 120 p_0_4 + 120 p_0_5 + 120 p_0_6 + 120 p_0_7 + 120 p_0_8 + 120 p_0_9 + 100000 z_0_10 + 100000 z_0_3 + 100000 z_0_4 + 100000 z_0_5 + 100000 z_0_6 + 100000 z_0_7 + 100000 z_0_8 + 100000 z_0_9 <= 801991.2899211559
 c3101: 120 p_0_1 + 120 p_0_10 + 120 p_0_3 + 120 p_0_4 + 120 p_0_5 + 120 p_0_6 + 120 p_0_7 + 120 p_0_8 + 120 p_0_9 + 100000 z_0_1 + 100000 z_0_10 + 100000 z_0_3 + 100000 z_0_4 + 100000 z_0_5 + 100000 z_0_6 + 100000 z_0_7 + 100000 z_0_8 + 100000 z_0_9 <= 901991.22254143492
 c3102: 120 p_0_10 + 120 p_0_2 + 120 p_0_3 + 120 p_0_4 + 120 p_0_5 + 120 p_0_6 + 120 p_0_7 + 120 p_0_8 + 120 p_0_9 + 100000 z_0_10 + 100000 z_0_2 + 100000 z_0_3 + 100000 z_0_4 + 100000 z_0_5 + 100000 z_0_6 + 100000 z_0_7 + 100000 z_0_8 + 100000 z_0_9 <= 901976.52626024268
 c3103: 120 p_0_1 + 120 p_0_10 + 120 p_0_2 + 120 p_0_3 + 120 p_0_4 + 120 p_0_5 + 120 p_0_6 + 120 p_0_7 + 120 p_0_8 + 120 p_0_9 + 100000 z_0_1 + 100000 z_0_10 + 100000 z_0_2 + 100000 z_0_3 + 100000 z_0_4 + 100000 z_0_5 + 100000 z_0_6 + 100000 z_0_7 + 100000 z_0_8 + 100000 z_0_9 <= 1001976.4588805217
 c3104: 120 p_1_1 + 100000 z_1_1 <= 103156.44921878072
 c3105: 120 p_1_2 + 100000 z_1_2 <= 103202.47049209281
 c3106: 120 p_1_1 + 120 p_1_2 + 100000 z_1_1 + 100000 z_1_2 <= 202789.34243294504
 c3107: 120 p_1_3 + 100000 z_1_3 <= 103030.3102810329
 c3108: 120 p_1_1 + 120 p_1_3 + 100000 z_1_1 + 100000 z_1_3 <= 202655.30452367463
 c3109: 120 p_1_2 + 120 p_1_3 + 100000 z_1_2 + 100000 z_1_3 <= 202729.77391918915
 c3110: 120 p_1_1 + 120 p_1_2 + 120 p_1_3 + 100000 z_1_1 + 100000 z_1_2 + 100000 z_1_3 <= 302354.7681618309
 c3111: 120 p_1_4 + 100000 z_1_4 <= 103133.51352165597
 c3112: 120 p_1_1 + 120 p_1_4 + 100000 z_1_1 + 100000 z_1_4 <= 203133.44614193501
 c3113: 120 p_1_2 + 120 p_1_4 + 100000 z_1_2 + 100000 z_1_4 <= 202766.68874954525
 c3114: 120 p_1_1 + 120 p_1_2 + 120 p_1_4 + 100000 z_1_1 + 100000 z_1_2 + 100000 z_1_4 <= 302766.62136982434
 c3115: 120 p_1_3 + 120 p_1_4 + 100000 z_1_3 + 100000 z_1_4 <= 202635.05995016629
 c3116: 120 p_1_1 + 120 p_1_3 + 120 p_1_4 + 100000 z_1_1 + 100000 z_1_3 + 100000 z_1_4 <= 302634.99257044535
 c3117: 120 p_1_2 + 120 p_1_3 + 120 p_1_4 + 100000 z_1_2 + 100000 z_1_3 + 100000 z_1_4 <= 302334.52358832257
 c3118: 120 p_1_1 + 120 p_1_2 + 120 p_1_3 + 120 p_1_4 + 100000 z_1_1 + 100000 z_1_2 + 100000 z_1_3 + 100000 z_1_4 <= 402334.45620860159
 c3119: 120 p_1_5 + 100000 z_1_5 <= 103203.74131885564
 c3120: 120 p_1_1 + 120 p_1_5 + 100000 z_1_1 + 100000 z_1_5 <= 202817.61992461458
 c3121: 120 p_1_2 + 120 p_1_5 + 100000 z_1_2 + 100000 z_1_5 <= 203145.05572229522
 c3122: 120 p_1_1 + 120 p_1_2 + 120 p_1_5 + 100000 z_1_1 + 100000 z_1_2 + 100000 z_1_5 <= 302758.93432805414
 c3123: 120 p_1_3 + 120 p_1_5 + 100000 z_1_3 + 100000 z_1_5 <= 202693.37130852928
 c3124: 120 p_1_1 + 120 p_1_3 + 120 p_1_5 + 100000 z_1_1 + 100000 z_1_3 + 100000 z_1_5 <= 302318.36555117101
 c3125: 120 p_1_2 + 120 p_1_3 + 120 p_1_5 + 100000 z_1_2 + 100000 z_1_3 + 100000 z_1_5 <= 302672.35914939153
 c3126: 120 p_1_1 + 120 p_1_2 + 120 p_1_3 + 120 p_1_5 + 100000 z_1_1 + 100000 z_1_2 + 100000 z_1_3 + 100000 z_1_5 <= 402297.35339203326
 c3127: 120 p_1_4 + 120 p_1_5 + 100000 z_1_4 + 100000 z_1_5 <= 202795.44110976753
 c3128: 120 p_1_1 + 120 p_1_4 + 120 p_1_5 + 100000 z_1_1 + 100000 z_1_4 + 100000 z_1_5 <= 302795.37373004656
 c3129: 120 p_1_2 + 120 p_1_4 + 120 p_1_5 + 100000 z_1_2 + 100000 z_1_4 + 100000 z_1_5 <= 302736.75551320711
 c3130: 120 p_1_1 + 120 p_1_2 + 120 p_1_4 + 120 p_1_5 + 100000 z_1_1 + 100000 z_1_2 + 100000 z_1_4 + 100000 z_1_5 <= 402736.68813348614
 c3131: 120 p_1_3 + 120 p_1_4 + 120 p_1_5 + 100000 z_1_3 + 100000 z_1_4 + 100000 z_1_5 <= 302298.12097766268
 c3132: 120 p_1_1 + 120 p_1_3 + 120 p_1_4 + 120 p_1_5 + 100000 z_1_1 + 100000 z_1_3 + 100000 z_1_4 + 100000 z_1_5 <= 402298.05359794176
 c3133: 120 p_1_2 + 120 p_1_3 + 120 p_1_4 + 120 p_1_5 + 100000 z_1_2 + 100000 z_1_3 + 100000 z_1_4 + 100000 z_1_5 <= 402277.10881852492
 c3134: 120 p_1_1 + 120 p_1_2 + 120 p_1_3 + 120 p_1_4 + 120 p_1_5 + 100000 z_1_1 + 100000 z_1_2 + 100000 z_1_3 + 100000 z_1_4 + 100000 z_1_5 <= 502277.04143880401
 c3135: 120 p_1_6 + 100000 z_1_6 <= 103089.97883628107
 c3136: 120 p_1_1 + 120 p_1_6 + 100000 z_1_1 + 100000 z_1_6 <= 202704.64068949912
 c3137: 120 p_1_2 + 120 p_1_6 + 100000 z_1_2 + 100000 z_1_6 <= 202793.53118078943
 c3138: 120 p_1_1 + 120 p_1_2 + 120 p_1_6 + 100000 z_1_1 + 100000 z_1_2 + 100000 z_1_6 <= 302408.19303400751
 c3139: 120 p_1_3 + 120 p_1_6 + 100000 z_1_3 + 100000 z_1_6 <= 203026.17319496456
 c3140: 120 p_1_1 + 120 p_1_3 + 120 p_1_6 + 100000 z_1_1 + 100000 z_1_3 + 100000 z_1_6 <= 302651.16743760626
 c3141: 120 p_1_2 + 120 p_1_3 + 120 p_1_6 + 100000 z_1_2 + 100000 z_1_3 + 100000 z_1_6 <= 302729.72553947294
 c3142: 120 p_1_1 + 120 p_1_2 + 120 p_1_3 + 120 p_1_6 + 100000 z_1_1 + 100000 z_1_2 + 100000 z_1_3 + 100000 z_1_6 <= 402354.71978211467
 c3143: 120 p_1_4 + 120 p_1_6 + 100000 z_1_4 + 100000 z_1_6 <= 202683.93072951867
 c3144: 120 p_1_1 + 120 p_1_4 + 120 p_1_6 + 100000 z_1_1 + 100000 z_1_4 + 100000 z_1_6 <= 302683.86334979773
 c3145: 120 p_1_2 + 120 p_1_4 + 120 p_1_6 + 100000 z_1_2 + 100000 z_1_4 + 100000 z_1_6 <= 302387.48307402706
 c3146: 120 p_1_1 + 120 p_1_2 + 120 p_1_4 + 120 p_1_6 + 100000 z_1_1 + 100000 z_1_2 + 100000 z_1_4 + 100000 z_1_6 <= 402387.41569430608
 c3147: 120 p_1_3 + 120 p_1_4 + 120 p_1_6 + 100000 z_1_3 + 100000 z_1_4 + 100000 z_1_6 <= 302630.92286409793
 c3148: 120 p_1_1 + 120 p_1_3 + 120 p_1_4 + 120 p_1_6 + 100000 z_1_1 + 100000 z_1_3 + 100000 z_1_4 + 100000 z_1_6 <= 402630.85548437701
 c3149: 120 p_1_2 + 120 p_1_3 + 120 p_1_4 + 120 p_1_6 + 100000 z_1_2 + 100000 z_1_3 + 100000 z_1_4 + 100000 z_1_6 <= 402334.47520860634
 c3150: 120 p_1_1 + 120 p_1_2 + 120 p_1_3 + 120 p_1_4 + 120 p_1_6 + 100000 z_1_1 + 100000 z_1_2 + 100000 z_1_3 + 100000 z_1_4 + 100000 z_1_6 <= 502334.40782888536
 c3151: 120 p_1_5 + 120 p_1_6 + 100000 z_1_5 + 100000 z_1_6 <= 202757.11154365915
 c3152: 120 p_1_1 + 120 p_1_5 + 120 p_1_6 + 100000 z_1_1 + 100000 z_1_5 + 100000 z_1_6 <= 302371.77339687722
 c3153: 120 p_1_2 + 120 p_1_5 + 120 p_1_6 + 100000 z_1_2 + 100000 z_1_5 + 100000 z_1_6 <= 302736.11641099182
 c3154: 120 p_1_1 + 120 p_1_2 + 120 p_1_5 + 120 p_1_6 + 100000 z_1_1 + 100000 z_1_2 + 100000 z_1_5 + 100000 z_1_6 <= 402350.77826420992
 c3155: 120 p_1_3 + 120 p_1_5 + 120 p_1_6 + 100000 z_1_3 + 100000 z_1_5 + 100000 z_1_6 <= 302693.3059023426
 c3156: 120 p_1_1 + 120 p_1_3 + 120 p_1_5 + 120 p_1_6 + 100000 z_1_1 + 100000 z_1_3 + 100000 z_1_5 + 100000 z_1_6 <= 402318.30014498439
 c3157: 120 p_1_2 + 120 p_1_3 + 120 p_1_5 + 120 p_1_6 + 100000 z_1_2 + 100000 z_1_3 + 100000 z_1_5 + 100000 z_1_6 <= 402672.3107696753
 c3158: 120 p_1_1 + 120 p_1_2 + 120 p_1_3 + 120 p_1_5 + 120 p_1_6 + 100000 z_1_1 + 100000 z_1_2 + 100000 z_1_3 + 100000 z_1_5 + 100000 z_1_6 <= 502297.30501231708
 c3159: 120 p_1_4 + 120 p_1_5 + 120 p_1_6 + 100000 z_1_4 + 100000 z_1_5 + 100000 z_1_6 <= 302351.06343689677
 c3160: 120 p_1_1 + 120 p_1_4 + 120 p_1_5 + 120 p_1_6 + 100000 z_1_1 + 100000 z_1_4 + 100000 z_1_5 + 100000 z_1_6 <= 402350.9960571758
 c3161: 120 p_1_2 + 120 p_1_4 + 120 p_1_5 + 120 p_1_6 + 100000 z_1_2 + 100000 z_1_4 + 100000 z_1_5 + 100000 z_1_6 <= 402330.06830422947
 c3162: 120 p_1_1 + 120 p_1_2 + 120 p_1_4 + 120 p_1_5 + 120 p_1_6 + 100000 z_1_1 + 100000 z_1_2 + 100000 z_1_4 + 100000 z_1_5 + 100000 z_1_6 <= 502330.00092450849
 c3163: 120 p_1_3 + 120 p_1_4 + 120 p_1_5 + 120 p_1_6 + 100000 z_1_3 + 100000 z_1_4 + 100000 z_1_5 + 100000 z_1_6 <= 402298.05557147606
 c3164: 120 p_1_1 + 120 p_1_3 + 120 p_1_4 + 120 p_1_5 + 120 p_1_6 + 100000 z_1_1 + 100000 z_1_3 + 100000 z_1_4 + 100000 z_1_5 + 100000 z_1_6 <= 502297.98819175508
 c3165: 120 p_1_2 + 120 p_1_3 + 120 p_1_4 + 120 p_1_5 + 120 p_1_6 + 100000 z_1_2 + 100000 z_1_3 + 100000 z_1_4 + 100000 z_1_5 + 100000 z_1_6 <= 502277.06043880875
 c3166: 120 p_1_1 + 120 p_1_2 + 120 p_1_3 + 120 p_1_4 + 120 p_1_5 + 120 p_1_6 + 100000 z_1_1 + 100000 z_1_2 + 100000 z_1_3 + 100000 z_1_4 + 100000 z_1_5 + 100000 z_1_6 <= 602276.99305908778
 c3167: 120 p_1_7 + 100000 z_1_7 <= 102973.44924658997
 c3168: 120 p_1_1 + 120 p_1_7 + 100000 z_1_1 + 100000 z_1_7 <= 202972.5395422607
 c3169: 120 p_1_2 + 120 p_1_7 + 100000 z_1_2 + 100000 z_1_7 <= 202615.72964778807
 c3170: 120 p_1_1 + 120 p_1_2 + 120 p_1_7 + 100000 z_1_1 + 100000 z_1_2 + 100000 z_1_7 <= 302614.81994345877
 c3171: 120 p_1_3 + 120 p_1_7 + 100000 z_1_3 + 100000 z_1_7 <= 202478.60435952997
 c3172: 120 p_1_1 + 120 p_1_3 + 120 p_1_7 + 100000 z_1_1 + 100000 z_1_3 + 100000 z_1_7 <= 302477.6946552007
 c3173: 120 p_1_2 + 120 p_1_3 + 120 p_1_7 + 100000 z_1_2 + 100000 z_1_3 + 100000 z_1_7 <= 302178.06799768622
 c3174: 120 p_1_1 + 120 p_1_2 + 120 p_1_3 + 120 p_1_7 + 100000 z_1_1 + 100000 z_1_2 + 100000 z_1_3 + 100000 z_1_7 <= 402177.15829335694
 c3175: 120 p_1_4 + 120 p_1_7 + 100000 z_1_4 + 100000 z_1_7 <= 202972.10247186126
 c3176: 120 p_1_1 + 120 p_1_4 + 120 p_1_7 + 100000 z_1_1 + 100000 z_1_4 + 100000 z_1_7 <= 302972.03509214032
 c3177: 120 p_1_2 + 120 p_1_4 + 120 p_1_7 + 100000 z_1_2 + 100000 z_1_4 + 100000 z_1_7 <= 302614.38287305937
 c3178: 120 p_1_1 + 120 p_1_2 + 120 p_1_4 + 120 p_1_7 + 100000 z_1_1 + 100000 z_1_2 + 100000 z_1_4 + 100000 z_1_7 <= 402614.31549333839
 c3179: 120 p_1_3 + 120 p_1_4 + 120 p_1_7 + 100000 z_1_3 + 100000 z_1_4 + 100000 z_1_7 <= 302477.25758480129
 c3180: 120 p_1_1 + 120 p_1_3 + 120 p_1_4 + 120 p_1_7 + 100000 z_1_1 + 100000 z_1_3 + 100000 z_1_4 + 100000 z_1_7 <= 402477.19020508032
 c3181: 120 p_1_2 + 120 p_1_3 + 120 p_1_4 + 120 p_1_7 + 100000 z_1_2 + 100000 z_1_3 + 100000 z_1_4 + 100000 z_1_7 <= 402176.72122295754
 c3182: 120 p_1_1 + 120 p_1_2 + 120 p_1_3 + 120 p_1_4 + 120 p_1_7 + 100000 z_1_1 + 100000 z_1_2 + 100000 z_1_3 + 100000 z_1_4 + 100000 z_1_7 <= 502176.65384323656
 c3183: 120 p_1_5 + 120 p_1_7 + 100000 z_1_5 + 100000 z_1_7 <= 202649.64286182879
 c3184: 120 p_1_1 + 120 p_1_5 + 120 p_1_7 + 100000 z_1_1 + 100000 z_1_5 + 100000 z_1_7 <= 302648.73315749952
 c3185: 120 p_1_2 + 120 p_1_5 + 120 p_1_7 + 100000 z_1_2 + 100000 z_1_5 + 100000 z_1_7 <= 302590.95726526837
 c3186: 120 p_1_1 + 120 p_1_2 + 120 p_1_5 + 120 p_1_7 + 100000 z_1_1 + 100000 z_1_2 + 100000 z_1_5 + 100000 z_1_7 <= 402590.0475609391
 c3187: 120 p_1_3 + 120 p_1_5 + 120 p_1_7 + 100000 z_1_3 + 100000 z_1_5 + 100000 z_1_7 <= 302154.79797476879
 c3188: 120 p_1_1 + 120 p_1_3 + 120 p_1_5 + 120 p_1_7 + 100000 z_1_1 + 100000 z_1_3 + 100000 z_1_5 + 100000 z_1_7 <= 402147.58846239344
 c3189: 120 p_1_2 + 120 p_1_3 + 120 p_1_5 + 120 p_1_7 + 100000 z_1_2 + 100000 z_1_3 + 100000 z_1_5 + 100000 z_1_7 <= 402120.65322788863
 c3190: 120 p_1_1 + 120 p_1_2 + 120 p_1_3 + 120 p_1_5 + 120 p_1_7 + 100000 z_1_1 + 100000 z_1_2 + 100000 z_1_3 + 100000 z_1_5 + 100000 z_1_7 <= 502119.74352355936
 c3191: 120 p_1_4 + 120 p_1_5 + 120 p_1_7 + 100000 z_1_4 + 100000 z_1_5 + 100000 z_1_7 <= 302648.29608710011
 c3192: 120 p_1_1 + 120 p_1_4 + 120 p_1_5 + 120 p_1_7 + 100000 z_1_1 + 100000 z_1_4 + 100000 z_1_5 + 100000 z_1_7 <= 402648.22870737914
 c3193: 120 p_1_2 + 120 p_1_4 + 120 p_1_5 + 120 p_1_7 + 100000 z_1_2 + 100000 z_1_4 + 100000 z_1_5 + 100000 z_1_7 <= 402589.61049053964
 c3194: 120 p_1_1 + 120 p_1_2 + 120 p_1_4 + 120 p_1_5 + 120 p_1_7 + 100000 z_1_1 + 100000 z_1_2 + 100000 z_1_4 + 100000 z_1_5 + 100000 z_1_7 <= 502589.54311081872
 c3195: 120 p_1_3 + 120 p_1_4 + 120 p_1_5 + 120 p_1_7 + 100000 z_1_3 + 100000 z_1_4 + 100000 z_1_5 + 100000 z_1_7 <= 402149.84251561039
 c3196: 120 p_1_1 + 120 p_1_3 + 120 p_1_4 + 120 p_1_5 + 120 p_1_7 + 100000 z_1_1 + 100000 z_1_3 + 100000 z_1_4 + 100000 z_1_5 + 100000 z_1_7 <= 502147.08401227306
 c3197: 120 p_1_2 + 120 p_1_3 + 120 p_1_4 + 120 p_1_5 + 120 p_1_7 + 100000 z_1_2 + 100000 z_1_3 + 100000 z_1_4 + 100000 z_1_5 + 100000 z_1_7 <= 502119.30645315989
 c3198: 120 p_1_1 + 120 p_1_2 + 120 p_1_3 + 120 p_1_4 + 120 p_1_5 + 120 p_1_7 + 100000 z_1_1 + 100000 z_1_2 + 100000 z_1_3 + 100000 z_1_4 + 100000 z_1_5 + 100000 z_1_7 <= 602119.23907343892
 c3199: 120 p_1_6 + 120 p_1_7 + 100000 z_1_6 + 100000 z_1_7 <= 202525.9265486334
 c3200: 120 p_1_1 + 120 p_1_6 + 120 p_1_7 + 100000 z_1_1 + 100000 z_1_6 + 100000 z_1_7 <= 302525.0168443041
 c3201: 120 p_1_2 + 120 p_1_6 + 120 p_1_7 + 100000 z_1_2 + 100000 z_1_6 + 100000 z_1_7 <= 302229.47889314179
 c3202: 120 p_1_1 + 120 p_1_2 + 120 p_1_6 + 120 p_1_7 + 100000 z_1_1 + 100000 z_1_2 + 100000 z_1_6 + 100000 z_1_7 <= 402228.56918881251
 c3203: 120 p_1_3 + 120 p_1_6 + 120 p_1_7 + 100000 z_1_3 + 100000 z_1_6 + 100000 z_1_7 <= 302474.46727346163
 c3204: 120 p_1_1 + 120 p_1_3 + 120 p_1_6 + 120 p_1_7 + 100000 z_1_1 + 100000 z_1_3 + 100000 z_1_6 + 100000 z_1_7 <= 402473.55756913236
 c3205: 120 p_1_2 + 120 p_1_3 + 120 p_1_6 + 120 p_1_7 + 100000 z_1_2 + 100000 z_1_3 + 100000 z_1_6 + 100000 z_1_7 <= 402178.01961796999
 c3206: 120 p_1_1 + 120 p_1_2 + 120 p_1_3 + 120 p_1_6 + 120 p_1_7 + 100000 z_1_1 + 100000 z_1_2 + 100000 z_1_3 + 100000 z_1_6 + 100000 z_1_7 <= 502177.10991364071
 c3207: 120 p_1_4 + 120 p_1_6 + 120 p_1_7 + 100000 z_1_4 + 100000 z_1_6 + 100000 z_1_7 <= 302524.5797739047
 c3208: 120 p_1_1 + 120 p_1_4 + 120 p_1_6 + 120 p_1_7 + 100000 z_1_1 + 100000 z_1_4 + 100000 z_1_6 + 100000 z_1_7 <= 402524.51239418372
 c3209: 120 p_1_2 + 120 p_1_4 + 120 p_1_6 + 120 p_1_7 + 100000 z_1_2 + 100000 z_1_4 + 100000 z_1_6 + 100000 z_1_7 <= 402228.13211841305
 c3210: 120 p_1_1 + 120 p_1_2 + 120 p_1_4 + 120 p_1_6 + 120 p_1_7 + 100000 z_1_1 + 100000 z_1_2 + 100000 z_1_4 + 100000 z_1_6 + 100000 z_1_7 <= 502228.06473869213
 c3211: 120 p_1_3 + 120 p_1_4 + 120 p_1_6 + 120 p_1_7 + 100000 z_1_3 + 100000 z_1_4 + 100000 z_1_6 + 100000 z_1_7 <= 402473.1204987329
 c3212: 120 p_1_1 + 120 p_1_3 + 120 p_1_4 + 120 p_1_6 + 120 p_1_7 + 100000 z_1_1 + 100000 z_1_3 + 100000 z_1_4 + 100000 z_1_6 + 100000 z_1_7 <= 502473.05311901198
 c3213: 120 p_1_2 + 120 p_1_3 + 120 p_1_4 + 120 p_1_6 + 120 p_1_7 + 100000 z_1_2 + 100000 z_1_3 + 100000 z_1_4 + 100000 z_1_6 + 100000 z_1_7 <= 502176.67284324131
 c3214: 120 p_1_1 + 120 p_1_2 + 120 p_1_3 + 120 p_1_4 + 120 p_1_6 + 120 p_1_7 + 100000 z_1_1 + 100000 z_1_2 + 100000 z_1_3 + 100000 z_1_4 + 100000 z_1_6 + 100000 z_1_7 <= 602176.60546352039
 c3215: 120 p_1_5 + 120 p_1_6 + 120 p_1_7 + 100000 z_1_5 + 100000 z_1_6 + 100000 z_1_7 <= 302203.0130866323
 c3216: 120 p_1_1 + 120 p_1_5 + 120 p_1_6 + 120 p_1_7 + 100000 z_1_1 + 100000 z_1_5 + 100000 z_1_6 + 100000 z_1_7 <= 402202.10338230303
 c3217: 120 p_1_2 + 120 p_1_5 + 120 p_1_6 + 120 p_1_7 + 100000 z_1_2 + 100000 z_1_5 + 100000 z_1_6 + 100000 z_1_7 <= 402182.017953965
 c3218: 120 p_1_1 + 120 p_1_2 + 120 p_1_5 + 120 p_1_6 + 120 p_1_7 + 100000 z_1_1 + 100000 z_1_2 + 100000 z_1_5 + 100000 z_1_6 + 100000 z_1_7 <= 502181.10824963573
 c3219: 120 p_1_3 + 120 p_1_5 + 120 p_1_6 + 120 p_1_7 + 100000 z_1_3 + 100000 z_1_5 + 100000 z_1_6 + 100000 z_1_7 <= 402150.66088870045
 c3220: 120 p_1_1 + 120 p_1_3 + 120 p_1_5 + 120 p_1_6 + 120 p_1_7 + 100000 z_1_1 + 100000 z_1_3 + 100000 z_1_5 + 100000 z_1_6 + 100000 z_1_7 <= 502143.4513763251
 c3221: 120 p_1_2 + 120 p_1_3 + 120 p_1_5 + 120 p_1_6 + 120 p_1_7 + 100000 z_1_2 + 100000 z_1_3 + 100000 z_1_5 + 100000 z_1_6 + 100000 z_1_7 <= 502120.6048481724
 c3222: 120 p_1_1 + 120 p_1_2 + 120 p_1_3 + 120 p_1_5 + 120 p_1_6 + 120 p_1_7 + 100000 z_1_1 + 100000 z_1_2 + 100000 z_1_3 + 100000 z_1_5 + 100000 z_1_6 + 100000 z_1_7 <= 602119.69514384307
 c3223: 120 p_1_4 + 120 p_1_5 + 120 p_1_6 + 120 p_1_7 + 100000 z_1_4 + 100000 z_1_5 + 100000 z_1_6 + 100000 z_1_7 <= 402201.66631190357
 c3224: 120 p_1_1 + 120 p_1_4 + 120 p_1_5 + 120 p_1_6 + 120 p_1_7 + 100000 z_1_1 + 100000 z_1_4 + 100000 z_1_5 + 100000 z_1_6 + 100000 z_1_7 <= 502201.59893218265
 c3225: 120 p_1_2 + 120 p_1_4 + 120 p_1_5 + 120 p_1_6 + 120 p_1_7 + 100000 z_1_2 + 100000 z_1_4 + 100000 z_1_5 + 100000 z_1_6 + 100000 z_1_7 <= 502180.67117923626
 c3226: 120 p_1_1 + 120 p_1_2 + 120 p_1_4 + 120 p_1_5 + 120 p_1_6 + 120 p_1_7 + 100000 z_1_1 + 100000 z_1_2 + 100000 z_1_4 + 100000 z_1_5 + 100000 z_1_6 + 100000 z_1_7 <= 602180.60379951529
 c3227: 120 p_1_3 + 120 p_1_4 + 120 p_1_5 + 120 p_1_6 + 120 p_1_7 + 100000 z_1_3 + 100000 z_1_4 + 100000 z_1_5 + 100000 z_1_6 + 100000 z_1_7 <= 502145.70542954205
 c3228: 120 p_1_1 + 120 p_1_3 + 120 p_1_4 + 120 p_1_5 + 120 p_1_6 + 120 p_1_7 + 100000 z_1_1 + 100000 z_1_3 + 100000 z_1_4 + 100000 z_1_5 + 100000 z_1_6 + 100000 z_1_7 <= 602142.94692620472
 c3229: 120 p_1_2 + 120 p_1_3 + 120 p_1_4 + 120 p_1_5 + 120 p_1_6 + 120 p_1_7 + 100000 z_1_2 + 100000 z_1_3 + 100000 z_1_4 + 100000 z_1_5 + 100000 z_1_6 + 100000 z_1_7 <= 602119.25807344366
 c3230: 120 p_1_1 + 120 p_1_2 + 120 p_1_3 + 120 p_1_4 + 120 p_1_5 + 120 p_1_6 + 120 p_1_7 + 100000 z_1_1 + 100000 z_1_2 + 100000 z_1_3 + 100000 z_1_4 + 100000 z_1_5 + 100000 z_1_6 + 100000 z_1_7 <= 702119.19069372269
 c3231: 120 p_1_8 + 100000 z_1_8 <= 103086.87502132815
 c3232: 120 p_1_1 + 120 p_1_8 + 100000 z_1_1 + 100000 z_1_8 <= 202719.56893354384
 c3233: 120 p_1_2 + 120 p_1_8 + 100000 z_1_2 + 100000 z_1_8 <= 203041.3440905794
 c3234: 120 p_1_1 + 120 p_1_2 + 120 p_1_8 + 100000 z_1_1 + 100000 z_1_2 + 100000 z_1_8 <= 302674.03800279507
 c3235: 120 p_1_3 + 120 p_1_8 + 100000 z_1_3 + 100000 z_1_8 <= 202574.71964263381
 c3236: 120 p_1_1 + 120 p_1_3 + 120 p_1_8 + 100000 z_1_1 + 100000 z_1_3 + 100000 z_1_8 <= 302218.42423843779
 c3237: 120 p_1_2 + 120 p_1_3 + 120 p_1_8 + 100000 z_1_2 + 100000 z_1_3 + 100000 z_1_8 <= 302568.64751767571
 c3238: 120 p_1_1 + 120 p_1_2 + 120 p_1_3 + 120 p_1_8 + 100000 z_1_1 + 100000 z_1_2 + 100000 z_1_3 + 100000 z_1_8 <= 402201.34142989141
 c3239: 120 p_1_4 + 120 p_1_8 + 100000 z_1_4 + 100000 z_1_8 <= 202697.99642041573
 c3240: 120 p_1_1 + 120 p_1_4 + 120 p_1_8 + 100000 z_1_1 + 100000 z_1_4 + 100000 z_1_8 <= 302697.92904069478
 c3241: 120 p_1_2 + 120 p_1_4 + 120 p_1_8 + 100000 z_1_2 + 100000 z_1_4 + 100000 z_1_8 <= 302652.46548966697
 c3242: 120 p_1_1 + 120 p_1_2 + 120 p_1_4 + 120 p_1_8 + 100000 z_1_1 + 100000 z_1_2 + 100000 z_1_4 + 100000 z_1_8 <= 402652.39810994599
 c3243: 120 p_1_3 + 120 p_1_4 + 120 p_1_8 + 100000 z_1_3 + 100000 z_1_4 + 100000 z_1_8 <= 302199.54284892604
 c3244: 120 p_1_1 + 120 p_1_3 + 120 p_1_4 + 120 p_1_8 + 100000 z_1_1 + 100000 z_1_3 + 100000 z_1_4 + 100000 z_1_8 <= 402198.11228520848
 c3245: 120 p_1_2 + 120 p_1_3 + 120 p_1_4 + 120 p_1_8 + 100000 z_1_2 + 100000 z_1_3 + 100000 z_1_4 + 100000 z_1_8 <= 402179.76891676331
 c3246: 120 p_1_1 + 120 p_1_2 + 120 p_1_3 + 120 p_1_4 + 120 p_1_8 + 100000 z_1_1 + 100000 z_1_2 + 100000 z_1_3 + 100000 z_1_4 + 100000 z_1_8 <= 502179.70153704239
 c3247: 120 p_1_5 + 120 p_1_8 + 100000 z_1_5 + 100000 z_1_8 <= 203083.59753165737
 c3248: 120 p_1_1 + 120 p_1_5 + 120 p_1_8 + 100000 z_1_1 + 100000 z_1_5 + 100000 z_1_8 <= 302716.29144387308
 c3249: 120 p_1_2 + 120 p_1_5 + 120 p_1_8 + 100000 z_1_2 + 100000 z_1_5 + 100000 z_1_8 <= 303038.06660090864
 c3250: 120 p_1_1 + 120 p_1_2 + 120 p_1_5 + 120 p_1_8 + 100000 z_1_1 + 100000 z_1_2 + 100000 z_1_5 + 100000 z_1_8 <= 402657.60584731266
 c3251: 120 p_1_3 + 120 p_1_5 + 120 p_1_8 + 100000 z_1_3 + 100000 z_1_5 + 100000 z_1_8 <= 302573.22752133099
 c3252: 120 p_1_1 + 120 p_1_3 + 120 p_1_5 + 120 p_1_8 + 100000 z_1_1 + 100000 z_1_3 + 100000 z_1_5 + 100000 z_1_8 <= 402215.146748767
 c3253: 120 p_1_2 + 120 p_1_3 + 120 p_1_5 + 120 p_1_8 + 100000 z_1_2 + 100000 z_1_3 + 100000 z_1_5 + 100000 z_1_8 <= 402565.37002800498
 c3254: 120 p_1_1 + 120 p_1_2 + 120 p_1_3 + 120 p_1_5 + 120 p_1_8 + 100000 z_1_1 + 100000 z_1_2 + 100000 z_1_3 + 100000 z_1_5 + 100000 z_1_8 <= 502190.36427064671
 c3255: 120 p_1_4 + 120 p_1_5 + 120 p_1_8 + 100000 z_1_4 + 100000 z_1_5 + 100000 z_1_8 <= 302694.71893074497
 c3256: 120 p_1_1 + 120 p_1_4 + 120 p_1_5 + 120 p_1_8 + 100000 z_1_1 + 100000 z_1_4 + 100000 z_1_5 + 100000 z_1_8 <= 402694.651551024
 c3257: 120 p_1_2 + 120 p_1_4 + 120 p_1_5 + 120 p_1_8 + 100000 z_1_2 + 100000 z_1_4 + 100000 z_1_5 + 100000 z_1_8 <= 402636.0333341845
 c3258: 120 p_1_1 + 120 p_1_2 + 120 p_1_4 + 120 p_1_5 + 120 p_1_8 + 100000 z_1_1 + 100000 z_1_2 + 100000 z_1_4 + 100000 z_1_5 + 100000 z_1_8 <= 502635.96595446358
 c3259: 120 p_1_3 + 120 p_1_4 + 120 p_1_5 + 120 p_1_8 + 100000 z_1_3 + 100000 z_1_4 + 100000 z_1_5 + 100000 z_1_8 <= 402196.26535925531
 c3260: 120 p_1_1 + 120 p_1_3 + 120 p_1_4 + 120 p_1_5 + 120 p_1_8 + 100000 z_1_1 + 100000 z_1_3 + 100000 z_1_4 + 100000 z_1_5 + 100000 z_1_8 <= 502194.8347955377
 c3261: 120 p_1_2 + 120 p_1_3 + 120 p_1_4 + 120 p_1_5 + 120 p_1_8 + 100000 z_1_2 + 100000 z_1_3 + 100000 z_1_4 + 100000 z_1_5 + 100000 z_1_8 <= 502170.11969713838
 c3262: 120 p_1_1 + 120 p_1_2 + 120 p_1_3 + 120 p_1_4 + 120 p_1_5 + 120 p_1_8 + 100000 z_1_1 + 100000 z_1_2 + 100000 z_1_3 + 100000 z_1_4 + 100000 z_1_5 + 100000 z_1_8 <= 602170.05231741746
 c3263: 120 p_1_6 + 120 p_1_8 + 100000 z_1_6 + 100000 z_1_8 <= 202638.50913530117
 c3264: 120 p_1_1 + 120 p_1_6 + 120 p_1_8 + 100000 z_1_1 + 100000 z_1_6 + 100000 z_1_8 <= 302271.20304751687
 c3265: 120 p_1_2 + 120 p_1_6 + 120 p_1_8 + 100000 z_1_2 + 100000 z_1_6 + 100000 z_1_8 <= 302632.404779276
 c3266: 120 p_1_1 + 120 p_1_2 + 120 p_1_6 + 120 p_1_8 + 100000 z_1_1 + 100000 z_1_2 + 100000 z_1_6 + 100000 z_1_8 <= 402265.0986914917
 c3267: 120 p_1_3 + 120 p_1_6 + 120 p_1_8 + 100000 z_1_3 + 100000 z_1_6 + 100000 z_1_8 <= 302574.70349398465
 c3268: 120 p_1_1 + 120 p_1_3 + 120 p_1_6 + 120 p_1_8 + 100000 z_1_1 + 100000 z_1_3 + 100000 z_1_6 + 100000 z_1_8 <= 402214.28715236939
 c3269: 120 p_1_2 + 120 p_1_3 + 120 p_1_6 + 120 p_1_8 + 100000 z_1_2 + 100000 z_1_3 + 100000 z_1_6 + 100000 z_1_8 <= 402568.59913795948
 c3270: 120 p_1_1 + 120 p_1_2 + 120 p_1_3 + 120 p_1_6 + 120 p_1_8 + 100000 z_1_1 + 100000 z_1_2 + 100000 z_1_3 + 100000 z_1_6 + 100000 z_1_8 <= 502201.29305017518
 c3271: 120 p_1_4 + 120 p_1_6 + 120 p_1_8 + 100000 z_1_4 + 100000 z_1_6 + 100000 z_1_8 <= 302249.63053438877
 c3272: 120 p_1_1 + 120 p_1_4 + 120 p_1_6 + 120 p_1_8 + 100000 z_1_1 + 100000 z_1_4 + 100000 z_1_6 + 100000 z_1_8 <= 402249.56315466779
 c3273: 120 p_1_2 + 120 p_1_4 + 120 p_1_6 + 120 p_1_8 + 100000 z_1_2 + 100000 z_1_4 + 100000 z_1_6 + 100000 z_1_8 <= 402243.52617836359
 c3274: 120 p_1_1 + 120 p_1_2 + 120 p_1_4 + 120 p_1_6 + 120 p_1_8 + 100000 z_1_1 + 100000 z_1_2 + 100000 z_1_4 + 100000 z_1_6 + 100000 z_1_8 <= 502243.45879864262
 c3275: 120 p_1_3 + 120 p_1_4 + 120 p_1_6 + 120 p_1_8 + 100000 z_1_3 + 100000 z_1_4 + 100000 z_1_6 + 100000 z_1_8 <= 402195.4057628577
 c3276: 120 p_1_1 + 120 p_1_3 + 120 p_1_4 + 120 p_1_6 + 120 p_1_8 + 100000 z_1_1 + 100000 z_1_3 + 100000 z_1_4 + 100000 z_1_6 + 100000 z_1_8 <= 502193.97519914014
 c3277: 120 p_1_2 + 120 p_1_3 + 120 p_1_4 + 120 p_1_6 + 120 p_1_8 + 100000 z_1_2 + 100000 z_1_3 + 100000 z_1_4 + 100000 z_1_6 + 100000 z_1_8 <= 502179.72053704708
 c3278: 120 p_1_1 + 120 p_1_2 + 120 p_1_3 + 120 p_1_4 + 120 p_1_6 + 120 p_1_8 + 100000 z_1_1 + 100000 z_1_2 + 100000 z_1_3 + 100000 z_1_4 + 100000 z_1_6 + 100000 z_1_8 <= 602179.65315732616
 c3279: 120 p_1_5 + 120 p_1_6 + 120 p_1_8 + 100000 z_1_5 + 100000 z_1_6 + 100000 z_1_8 <= 302636.96775646089
 c3280: 120 p_1_1 + 120 p_1_5 + 120 p_1_6 + 120 p_1_8 + 100000 z_1_1 + 100000 z_1_5 + 100000 z_1_6 + 100000 z_1_8 <= 402269.66166867659
 c3281: 120 p_1_2 + 120 p_1_5 + 120 p_1_6 + 120 p_1_8 + 100000 z_1_2 + 100000 z_1_5 + 100000 z_1_6 + 100000 z_1_8 <= 402629.12728960527
 c3282: 120 p_1_1 + 120 p_1_2 + 120 p_1_5 + 120 p_1_6 + 120 p_1_8 + 100000 z_1_1 + 100000 z_1_2 + 100000 z_1_5 + 100000 z_1_6 + 100000 z_1_8 <= 502248.66653600929
 c3283: 120 p_1_3 + 120 p_1_5 + 120 p_1_6 + 120 p_1_8 + 100000 z_1_3 + 100000 z_1_5 + 100000 z_1_6 + 100000 z_1_8 <= 402573.16211514437
 c3284: 120 p_1_1 + 120 p_1_3 + 120 p_1_5 + 120 p_1_6 + 120 p_1_8 + 100000 z_1_1 + 100000 z_1_3 + 100000 z_1_5 + 100000 z_1_6 + 100000 z_1_8 <= 502211.00966269866
 c3285: 120 p_1_2 + 120 p_1_3 + 120 p_1_5 + 120 p_1_6 + 120 p_1_8 + 100000 z_1_2 + 100000 z_1_3 + 100000 z_1_5 + 100000 z_1_6 + 100000 z_1_8 <= 502565.32164828875
 c3286: 120 p_1_1 + 120 p_1_2 + 120 p_1_3 + 120 p_1_5 + 120 p_1_6 + 120 p_1_8 + 100000 z_1_1 + 100000 z_1_2 + 100000 z_1_3 + 100000 z_1_5 + 100000 z_1_6 + 100000 z_1_8 <= 602190.31589093048
 c3287: 120 p_1_4 + 120 p_1_5 + 120 p_1_6 + 120 p_1_8 + 100000 z_1_4 + 100000 z_1_5 + 100000 z_1_6 + 100000 z_1_8 <= 402248.08915554843
 c3288: 120 p_1_1 + 120 p_1_4 + 120 p_1_5 + 120 p_1_6 + 120 p_1_8 + 100000 z_1_1 + 100000 z_1_4 + 100000 z_1_5 + 100000 z_1_6 + 100000 z_1_8 <= 502248.02177582751
 c3289: 120 p_1_2 + 120 p_1_4 + 120 p_1_5 + 120 p_1_6 + 120 p_1_8 + 100000 z_1_2 + 100000 z_1_4 + 100000 z_1_5 + 100000 z_1_6 + 100000 z_1_8 <= 502227.09402288112
 c3290: 120 p_1_1 + 120 p_1_2 + 120 p_1_4 + 120 p_1_5 + 120 p_1_6 + 120 p_1_8 + 100000 z_1_1 + 100000 z_1_2 + 100000 z_1_4 + 100000 z_1_5 + 100000 z_1_6 + 100000 z_1_8 <= 602227.02664316015
 c3291: 120 p_1_3 + 120 p_1_4 + 120 p_1_5 + 120 p_1_6 + 120 p_1_8 + 100000 z_1_3 + 100000 z_1_4 + 100000 z_1_5 + 100000 z_1_6 + 100000 z_1_8 <= 502192.12827318691
 c3292: 120 p_1_1 + 120 p_1_3 + 120 p_1_4 + 120 p_1_5 + 120 p_1_6 + 120 p_1_8 + 100000 z_1_1 + 100000 z_1_3 + 100000 z_1_4 + 100000 z_1_5 + 100000 z_1_6 + 100000 z_1_8 <= 602190.69770946936
 c3293: 120 p_1_2 + 120 p_1_3 + 120 p_1_4 + 120 p_1_5 + 120 p_1_6 + 120 p_1_8 + 100000 z_1_2 + 100000 z_1_3 + 100000 z_1_4 + 100000 z_1_5 + 100000 z_1_6 + 100000 z_1_8 <= 602170.07131742209
 c3294: 120 p_1_1 + 120 p_1_2 + 120 p_1_3 + 120 p_1_4 + 120 p_1_5 + 120 p_1_6 + 120 p_1_8 + 100000 z_1_1 + 100000 z_1_2 + 100000 z_1_3 + 100000 z_1_4 + 100000 z_1_5 + 100000 z_1_6 + 100000 z_1_8 <= 702170.00393770123
 c3295: 120 p_1_7 + 120 p_1_8 + 100000 z_1_7 + 100000 z_1_8 <= 202558.33622512597
 c3296: 120 p_1_1 + 120 p_1_7 + 120 p_1_8 + 100000 z_1_1 + 100000 z_1_7 + 100000 z_1_8 <= 302557.42652079667
 c3297: 120 p_1_2 + 120 p_1_7 + 120 p_1_8 + 100000 z_1_2 + 100000 z_1_7 + 100000 z_1_8 <= 302512.80529437721
 c3298: 120 p_1_1 + 120 p_1_2 + 120 p_1_7 + 120 p_1_8 + 100000 z_1_1 + 100000 z_1_2 + 100000 z_1_7 + 100000 z_1_8 <= 402511.89559004793
 c3299: 120 p_1_3 + 120 p_1_7 + 120 p_1_8 + 100000 z_1_3 + 100000 z_1_7 + 100000 z_1_8 <= 302063.49133806594
 c3300: 120 p_1_1 + 120 p_1_3 + 120 p_1_7 + 120 p_1_8 + 100000 z_1_1 + 100000 z_1_3 + 100000 z_1_7 + 100000 z_1_8 <= 402056.28182569059
 c3301: 120 p_1_2 + 120 p_1_3 + 120 p_1_7 + 120 p_1_8 + 100000 z_1_2 + 100000 z_1_3 + 100000 z_1_7 + 100000 z_1_8 <= 402040.10872147355
 c3302: 120 p_1_1 + 120 p_1_2 + 120 p_1_3 + 120 p_1_7 + 120 p_1_8 + 100000 z_1_1 + 100000 z_1_2 + 100000 z_1_3 + 100000 z_1_7 + 100000 z_1_8 <= 502039.19901714427
 c3303: 120 p_1_4 + 120 p_1_7 + 120 p_1_8 + 100000 z_1_4 + 100000 z_1_7 + 100000 z_1_8 <= 302556.98945039726
 c3304: 120 p_1_1 + 120 p_1_4 + 120 p_1_7 + 120 p_1_8 + 100000 z_1_1 + 100000 z_1_4 + 100000 z_1_7 + 100000 z_1_8 <= 402556.92207067629
 c3305: 120 p_1_2 + 120 p_1_4 + 120 p_1_7 + 120 p_1_8 + 100000 z_1_2 + 100000 z_1_4 + 100000 z_1_7 + 100000 z_1_8 <= 402511.45851964853
 c3306: 120 p_1_1 + 120 p_1_2 + 120 p_1_4 + 120 p_1_7 + 120 p_1_8 + 100000 z_1_1 + 100000 z_1_2 + 100000 z_1_4 + 100000 z_1_7 + 100000 z_1_8 <= 502511.39113992755
 c3307: 120 p_1_3 + 120 p_1_4 + 120 p_1_7 + 120 p_1_8 + 100000 z_1_3 + 100000 z_1_4 + 100000 z_1_7 + 100000 z_1_8 <= 402058.5358789076
 c3308: 120 p_1_1 + 120 p_1_3 + 120 p_1_4 + 120 p_1_7 + 120 p_1_8 + 100000 z_1_1 + 100000 z_1_3 + 100000 z_1_4 + 100000 z_1_7 + 100000 z_1_8 <= 502055.77737557021
 c3309: 120 p_1_2 + 120 p_1_3 + 120 p_1_4 + 120 p_1_7 + 120 p_1_8 + 100000 z_1_2 + 100000 z_1_3 + 100000 z_1_4 + 100000 z_1_7 + 100000 z_1_8 <= 502038.76194674487
 c3310: 120 p_1_1 + 120 p_1_2 + 120 p_1_3 + 120 p_1_4 + 120 p_1_7 + 120 p_1_8 + 100000 z_1_1 + 100000 z_1_2 + 100000 z_1_3 + 100000 z_1_4 + 100000 z_1_7 + 100000 z_1_8 <= 602038.69456702389
 c3311: 120 p_1_5 + 120 p_1_7 + 120 p_1_8 + 100000 z_1_5 + 100000 z_1_7 + 100000 z_1_8 <= 302555.05873545521
 c3312: 120 p_1_1 + 120 p_1_5 + 120 p_1_7 + 120 p_1_8 + 100000 z_1_1 + 100000 z_1_5 + 100000 z_1_7 + 100000 z_1_8 <= 402554.14903112594
 c3313: 120 p_1_2 + 120 p_1_5 + 120 p_1_7 + 120 p_1_8 + 100000 z_1_2 + 100000 z_1_5 + 100000 z_1_7 + 100000 z_1_8 <= 402496.37313889473
 c3314: 120 p_1_1 + 120 p_1_2 + 120 p_1_5 + 120 p_1_7 + 120 p_1_8 + 100000 z_1_1 + 100000 z_1_2 + 100000 z_1_5 + 100000 z_1_7 + 100000 z_1_8 <= 502495.46343456546
 c3315: 120 p_1_3 + 120 p_1_5 + 120 p_1_7 + 120 p_1_8 + 100000 z_1_3 + 100000 z_1_5 + 100000 z_1_7 + 100000 z_1_8 <= 402060.21384839521
 c3316: 120 p_1_1 + 120 p_1_3 + 120 p_1_5 + 120 p_1_7 + 120 p_1_8 + 100000 z_1_1 + 100000 z_1_3 + 100000 z_1_5 + 100000 z_1_7 + 100000 z_1_8 <= 502053.00433601986
 c3317: 120 p_1_2 + 120 p_1_3 + 120 p_1_5 + 120 p_1_7 + 120 p_1_8 + 100000 z_1_2 + 100000 z_1_3 + 100000 z_1_5 + 100000 z_1_7 + 100000 z_1_8 <= 502023.67656599107
 c3318: 120 p_1_1 + 120 p_1_2 + 120 p_1_3 + 120 p_1_5 + 120 p_1_7 + 120 p_1_8 + 100000 z_1_1 + 100000 z_1_2 + 100000 z_1_3 + 100000 z_1_5 + 100000 z_1_7 + 100000 z_1_8 <= 602022.7668616618
 c3319: 120 p_1_4 + 120 p_1_5 + 120 p_1_7 + 120 p_1_8 + 100000 z_1_4 + 100000 z_1_5 + 100000 z_1_7 + 100000 z_1_8 <= 402553.71196072648
 c3320: 120 p_1_1 + 120 p_1_4 + 120 p_1_5 + 120 p_1_7 + 120 p_1_8 + 100000 z_1_1 + 100000 z_1_4 + 100000 z_1_5 + 100000 z_1_7 + 100000 z_1_8 <= 502553.64458100556
 c3321: 120 p_1_2 + 120 p_1_4 + 120 p_1_5 + 120 p_1_7 + 120 p_1_8 + 100000 z_1_2 + 100000 z_1_4 + 100000 z_1_5 + 100000 z_1_7 + 100000 z_1_8 <= 502495.02636416606
 c3322: 120 p_1_1 + 120 p_1_2 + 120 p_1_4 + 120 p_1_5 + 120 p_1_7 + 120 p_1_8 + 100000 z_1_1 + 100000 z_1_2 + 100000 z_1_4 + 100000 z_1_5 + 100000 z_1_7 + 100000 z_1_8 <= 602494.95898444508
 c3323: 120 p_1_3 + 120 p_1_4 + 120 p_1_5 + 120 p_1_7 + 120 p_1_8 + 100000 z_1_3 + 100000 z_1_4 + 100000 z_1_5 + 100000 z_1_7 + 100000 z_1_8 <= 502055.25838923681
 c3324: 120 p_1_1 + 120 p_1_3 + 120 p_1_4 + 120 p_1_5 + 120 p_1_7 + 120 p_1_8 + 100000 z_1_1 + 100000 z_1_3 + 100000 z_1_4 + 100000 z_1_5 + 100000 z_1_7 + 100000 z_1_8 <= 602052.49988589948
 c3325: 120 p_1_2 + 120 p_1_3 + 120 p_1_4 + 120 p_1_5 + 120 p_1_7 + 120 p_1_8 + 100000 z_1_2 + 100000 z_1_3 + 100000 z_1_4 + 100000 z_1_5 + 100000 z_1_7 + 100000 z_1_8 <= 602022.3297912624
 c3326: 120 p_1_1 + 120 p_1_2 + 120 p_1_3 + 120 p_1_4 + 120 p_1_5 + 120 p_1_7 + 120 p_1_8 + 100000 z_1_1 + 100000 z_1_2 + 100000 z_1_3 + 100000 z_1_4 + 100000 z_1_5 + 100000 z_1_7 + 100000 z_1_8 <= 702022.26241154142
 c3327: 120 p_1_6 + 120 p_1_7 + 120 p_1_8 + 100000 z_1_6 + 100000 z_1_7 + 100000 z_1_8 <= 302110.8135271694
 c3328: 120 p_1_1 + 120 p_1_6 + 120 p_1_7 + 120 p_1_8 + 100000 z_1_1 + 100000 z_1_6 + 100000 z_1_7 + 100000 z_1_8 <= 402109.06063476973
 c3329: 120 p_1_2 + 120 p_1_6 + 120 p_1_7 + 120 p_1_8 + 100000 z_1_2 + 100000 z_1_6 + 100000 z_1_7 + 100000 z_1_8 <= 402103.86598307383
 c3330: 120 p_1_1 + 120 p_1_2 + 120 p_1_6 + 120 p_1_7 + 120 p_1_8 + 100000 z_1_1 + 100000 z_1_2 + 100000 z_1_6 + 100000 z_1_7 + 100000 z_1_8 <= 502102.95627874456
 c3331: 120 p_1_3 + 120 p_1_6 + 120 p_1_7 + 120 p_1_8 + 100000 z_1_3 + 100000 z_1_6 + 100000 z_1_7 + 100000 z_1_8 <= 402059.3542519976
 c3332: 120 p_1_1 + 120 p_1_3 + 120 p_1_6 + 120 p_1_7 + 120 p_1_8 + 100000 z_1_1 + 100000 z_1_3 + 100000 z_1_6 + 100000 z_1_7 + 100000 z_1_8 <= 502052.14473962225
 c3333: 120 p_1_2 + 120 p_1_3 + 120 p_1_6 + 120 p_1_7 + 120 p_1_8 + 100000 z_1_2 + 100000 z_1_3 + 100000 z_1_6 + 100000 z_1_7 + 100000 z_1_8 <= 502040.06034175731
 c3334: 120 p_1_1 + 120 p_1_2 + 120 p_1_3 + 120 p_1_6 + 120 p_1_7 + 120 p_1_8 + 100000 z_1_1 + 100000 z_1_2 + 100000 z_1_3 + 100000 z_1_6 + 100000 z_1_7 + 100000 z_1_8 <= 602039.15063742804
 c3335: 120 p_1_4 + 120 p_1_6 + 120 p_1_7 + 120 p_1_8 + 100000 z_1_4 + 100000 z_1_6 + 100000 z_1_7 + 100000 z_1_8 <= 402108.62356437033
 c3336: 120 p_1_1 + 120 p_1_4 + 120 p_1_6 + 120 p_1_7 + 120 p_1_8 + 100000 z_1_1 + 100000 z_1_4 + 100000 z_1_6 + 100000 z_1_7 + 100000 z_1_8 <= 502108.55618464935
 c3337: 120 p_1_2 + 120 p_1_4 + 120 p_1_6 + 120 p_1_7 + 120 p_1_8 + 100000 z_1_2 + 100000 z_1_4 + 100000 z_1_6 + 100000 z_1_7 + 100000 z_1_8 <= 502102.51920834515
 c3338: 120 p_1_1 + 120 p_1_2 + 120 p_1_4 + 120 p_1_6 + 120 p_1_7 + 120 p_1_8 + 100000 z_1_1 + 100000 z_1_2 + 100000 z_1_4 + 100000 z_1_6 + 100000 z_1_7 + 100000 z_1_8 <= 602102.45182862424
 c3339: 120 p_1_3 + 120 p_1_4 + 120 p_1_6 + 120 p_1_7 + 120 p_1_8 + 100000 z_1_3 + 100000 z_1_4 + 100000 z_1_6 + 100000 z_1_7 + 100000 z_1_8 <= 502054.39879283926
 c3340: 120 p_1_1 + 120 p_1_3 + 120 p_1_4 + 120 p_1_6 + 120 p_1_7 + 120 p_1_8 + 100000 z_1_1 + 100000 z_1_3 + 100000 z_1_4 + 100000 z_1_6 + 100000 z_1_7 + 100000 z_1_8 <= 602051.64028950187
 c3341: 120 p_1_2 + 120 p_1_3 + 120 p_1_4 + 120 p_1_6 + 120 p_1_7 + 120 p_1_8 + 100000 z_1_2 + 100000 z_1_3 + 100000 z_1_4 + 100000 z_1_6 + 100000 z_1_7 + 100000 z_1_8 <= 602038.71356702864
 c3342: 120 p_1_1 + 120 p_1_2 + 120 p_1_3 + 120 p_1_4 + 120 p_1_6 + 120 p_1_7 + 120 p_1_8 + 100000 z_1_1 + 100000 z_1_2 + 100000 z_1_3 + 100000 z_1_4 + 100000 z_1_6 + 100000 z_1_7 + 100000 z_1_8 <= 702038.64618730766
 c3343: 120 p_1_5 + 120 p_1_6 + 120 p_1_7 + 120 p_1_8 + 100000 z_1_5 + 100000 z_1_6 + 100000 z_1_7 + 100000 z_1_8 <= 402108.42896025867
 c3344: 120 p_1_1 + 120 p_1_5 + 120 p_1_6 + 120 p_1_7 + 120 p_1_8 + 100000 z_1_1 + 100000 z_1_5 + 100000 z_1_6 + 100000 z_1_7 + 100000 z_1_8 <= 502107.51925592939
 c3345: 120 p_1_2 + 120 p_1_5 + 120 p_1_6 + 120 p_1_7 + 120 p_1_8 + 100000 z_1_2 + 100000 z_1_5 + 100000 z_1_6 + 100000 z_1_7 + 100000 z_1_8 <= 502087.43382759136
 c3346: 120 p_1_1 + 120 p_1_2 + 120 p_1_5 + 120 p_1_6 + 120 p_1_7 + 120 p_1_8 + 100000 z_1_1 + 100000 z_1_2 + 100000 z_1_5 + 100000 z_1_6 + 100000 z_1_7 + 100000 z_1_8 <= 602086.52412326215
 c3347: 120 p_1_3 + 120 p_1_5 + 120 p_1_6 + 120 p_1_7 + 120 p_1_8 + 100000 z_1_3 + 100000 z_1_5 + 100000 z_1_6 + 100000 z_1_7 + 100000 z_1_8 <= 502056.07676232682
 c3348: 120 p_1_1 + 120 p_1_3 + 120 p_1_5 + 120 p_1_6 + 120 p_1_7 + 120 p_1_8 + 100000 z_1_1 + 100000 z_1_3 + 100000 z_1_5 + 100000 z_1_6 + 100000 z_1_7 + 100000 z_1_8 <= 602048.86724995147
 c3349: 120 p_1_2 + 120 p_1_3 + 120 p_1_5 + 120 p_1_6 + 120 p_1_7 + 120 p_1_8 + 100000 z_1_2 + 100000 z_1_3 + 100000 z_1_5 + 100000 z_1_6 + 100000 z_1_7 + 100000 z_1_8 <= 602023.6281862749
 c3350: 120 p_1_1 + 120 p_1_2 + 120 p_1_3 + 120 p_1_5 + 120 p_1_6 + 120 p_1_7 + 120 p_1_8 + 100000 z_1_1 + 100000 z_1_2 + 100000 z_1_3 + 100000 z_1_5 + 100000 z_1_6 + 100000 z_1_7 + 100000 z_1_8 <= 702022.71848194557
 c3351: 120 p_1_4 + 120 p_1_5 + 120 p_1_6 + 120 p_1_7 + 120 p_1_8 + 100000 z_1_4 + 100000 z_1_5 + 100000 z_1_6 + 100000 z_1_7 + 100000 z_1_8 <= 502107.08218552999
 c3352: 120 p_1_1 + 120 p_1_4 + 120 p_1_5 + 120 p_1_6 + 120 p_1_7 + 120 p_1_8 + 100000 z_1_1 + 100000 z_1_4 + 100000 z_1_5 + 100000 z_1_6 + 100000 z_1_7 + 100000 z_1_8 <= 602107.01480580901
 c3353: 120 p_1_2 + 120 p_1_4 + 120 p_1_5 + 120 p_1_6 + 120 p_1_7 + 120 p_1_8 + 100000 z_1_2 + 100000 z_1_4 + 100000 z_1_5 + 100000 z_1_6 + 100000 z_1_7 + 100000 z_1_8 <= 602086.08705286274
 c3354: 120 p_1_1 + 120 p_1_2 + 120 p_1_4 + 120 p_1_5 + 120 p_1_6 + 120 p_1_7 + 120 p_1_8 + 100000 z_1_1 + 100000 z_1_2 + 100000 z_1_4 + 100000 z_1_5 + 100000 z_1_6 + 100000 z_1_7 + 100000 z_1_8 <= 702086.01967314177
 c3355: 120 p_1_3 + 120 p_1_4 + 120 p_1_5 + 120 p_1_6 + 120 p_1_7 + 120 p_1_8 + 100000 z_1_3 + 100000 z_1_4 + 100000 z_1_5 + 100000 z_1_6 + 100000 z_1_7 + 100000 z_1_8 <= 602051.12130316847
 c3356: 120 p_1_1 + 120 p_1_3 + 120 p_1_4 + 120 p_1_5 + 120 p_1_6 + 120 p_1_7 + 120 p_1_8 + 100000 z_1_1 + 100000 z_1_3 + 100000 z_1_4 + 100000 z_1_5 + 100000 z_1_6 + 100000 z_1_7 + 100000 z_1_8 <= 702048.36279983108
 c3357: 120 p_1_2 + 120 p_1_3 + 120 p_1_4 + 120 p_1_5 + 120 p_1_6 + 120 p_1_7 + 120 p_1_8 + 100000 z_1_2 + 100000 z_1_3 + 100000 z_1_4 + 100000 z_1_5 + 100000 z_1_6 + 100000 z_1_7 + 100000 z_1_8 <= 702022.28141154617
 c3358: 120 p_1_1 + 120 p_1_2 + 120 p_1_3 + 120 p_1_4 + 120 p_1_5 + 120 p_1_6 + 120 p_1_7 + 120 p_1_8 + 100000 z_1_1 + 100000 z_1_2 + 100000 z_1_3 + 100000 z_1_4 + 100000 z_1_5 + 100000 z_1_6 + 100000 z_1_7 + 100000 z_1_8 <= 802022.21403182519
 c3359: 120 p_1_9 + 100000 z_1_9 <= 103078.72514967447
 c3360: 120 p_1_1 + 120 p_1_9 + 100000 z_1_1 + 100000 z_1_9 <= 202670.24249923599
 c3361: 120 p_1_2 + 120 p_1_9 + 100000 z_1_2 + 100000 z_1_9 <= 202818.27728023569
 c3362: 120 p_1_1 + 120 p_1_2 + 120 p_1_9 + 100000 z_1_1 + 100000 z_1_2 + 100000 z_1_9 <= 302409.79462979722
 c3363: 120 p_1_3 + 120 p_1_9 + 100000 z_1_3 + 100000 z_1_9 <= 202971.70694713818
 c3364: 120 p_1_1 + 120 p_1_3 + 120 p_1_9 + 100000 z_1_1 + 100000 z_1_3 + 100000 z_1_9 <= 302596.70118977991
 c3365: 120 p_1_2 + 120 p_1_3 + 120 p_1_9 + 100000 z_1_2 + 100000 z_1_3 + 100000 z_1_9 <= 302711.25907769939
 c3366: 120 p_1_1 + 120 p_1_2 + 120 p_1_3 + 120 p_1_9 + 100000 z_1_1 + 100000 z_1_2 + 100000 z_1_3 + 100000 z_1_9 <= 402336.25332034117
 c3367: 120 p_1_4 + 120 p_1_9 + 100000 z_1_4 + 100000 z_1_9 <= 202648.77624050356
 c3368: 120 p_1_1 + 120 p_1_4 + 120 p_1_9 + 100000 z_1_1 + 100000 z_1_4 + 100000 z_1_9 <= 302648.70886078262
 c3369: 120 p_1_2 + 120 p_1_4 + 120 p_1_9 + 100000 z_1_2 + 100000 z_1_4 + 100000 z_1_9 <= 302388.3283710648
 c3370: 120 p_1_1 + 120 p_1_2 + 120 p_1_4 + 120 p_1_9 + 100000 z_1_1 + 100000 z_1_2 + 100000 z_1_4 + 100000 z_1_9 <= 402388.26099134382
 c3371: 120 p_1_3 + 120 p_1_4 + 120 p_1_9 + 100000 z_1_3 + 100000 z_1_4 + 100000 z_1_9 <= 302576.45661627158
 c3372: 120 p_1_1 + 120 p_1_3 + 120 p_1_4 + 120 p_1_9 + 100000 z_1_1 + 100000 z_1_3 + 100000 z_1_4 + 100000 z_1_9 <= 402576.38923655066
 c3373: 120 p_1_2 + 120 p_1_3 + 120 p_1_4 + 120 p_1_9 + 100000 z_1_2 + 100000 z_1_3 + 100000 z_1_4 + 100000 z_1_9 <= 402316.00874683284
 c3374: 120 p_1_1 + 120 p_1_2 + 120 p_1_3 + 120 p_1_4 + 120 p_1_9 + 100000 z_1_1 + 100000 z_1_2 + 100000 z_1_3 + 100000 z_1_4 + 100000 z_1_9 <= 502315.94136711187
 c3375: 120 p_1_5 + 120 p_1_9 + 100000 z_1_5 + 100000 z_1_9 <= 202775.62617135121
 c3376: 120 p_1_1 + 120 p_1_5 + 120 p_1_9 + 100000 z_1_1 + 100000 z_1_5 + 100000 z_1_9 <= 302389.50477711018
 c3377: 120 p_1_2 + 120 p_1_5 + 120 p_1_9 + 100000 z_1_2 + 100000 z_1_5 + 100000 z_1_9 <= 302760.86251043808
 c3378: 120 p_1_1 + 120 p_1_2 + 120 p_1_5 + 120 p_1_9 + 100000 z_1_1 + 100000 z_1_2 + 100000 z_1_5 + 100000 z_1_9 <= 402374.74111619702
 c3379: 120 p_1_3 + 120 p_1_5 + 120 p_1_9 + 100000 z_1_3 + 100000 z_1_5 + 100000 z_1_9 <= 302668.60796881496
 c3380: 120 p_1_1 + 120 p_1_3 + 120 p_1_5 + 120 p_1_9 + 100000 z_1_1 + 100000 z_1_3 + 100000 z_1_5 + 100000 z_1_9 <= 402293.60221145669
 c3381: 120 p_1_2 + 120 p_1_3 + 120 p_1_5 + 120 p_1_9 + 100000 z_1_2 + 100000 z_1_3 + 100000 z_1_5 + 100000 z_1_9 <= 402653.8443079018
 c3382: 120 p_1_1 + 120 p_1_2 + 120 p_1_3 + 120 p_1_5 + 120 p_1_9 + 100000 z_1_1 + 100000 z_1_2 + 100000 z_1_3 + 100000 z_1_5 + 100000 z_1_9 <= 502278.83855054353
 c3383: 120 p_1_4 + 120 p_1_5 + 120 p_1_9 + 100000 z_1_4 + 100000 z_1_5 + 100000 z_1_9 <= 302367.3259622631
 c3384: 120 p_1_1 + 120 p_1_4 + 120 p_1_5 + 120 p_1_9 + 100000 z_1_1 + 100000 z_1_4 + 100000 z_1_5 + 100000 z_1_9 <= 402367.25858254218
 c3385: 120 p_1_2 + 120 p_1_4 + 120 p_1_5 + 120 p_1_9 + 100000 z_1_2 + 100000 z_1_4 + 100000 z_1_5 + 100000 z_1_9 <= 402352.56230135
 c3386: 120 p_1_1 + 120 p_1_2 + 120 p_1_4 + 120 p_1_5 + 120 p_1_9 + 100000 z_1_1 + 100000 z_1_2 + 100000 z_1_4 + 100000 z_1_5 + 100000 z_1_9 <= 502352.49492162903
 c3387: 120 p_1_3 + 120 p_1_4 + 120 p_1_5 + 120 p_1_9 + 100000 z_1_3 + 100000 z_1_4 + 100000 z_1_5 + 100000 z_1_9 <= 402273.35763794836
 c3388: 120 p_1_1 + 120 p_1_3 + 120 p_1_4 + 120 p_1_5 + 120 p_1_9 + 100000 z_1_1 + 100000 z_1_3 + 100000 z_1_4 + 100000 z_1_5 + 100000 z_1_9 <= 502273.29025822738
 c3389: 120 p_1_2 + 120 p_1_3 + 120 p_1_4 + 120 p_1_5 + 120 p_1_9 + 100000 z_1_2 + 100000 z_1_3 + 100000 z_1_4 + 100000 z_1_5 + 100000 z_1_9 <= 502258.5939770352
 c3390: 120 p_1_1 + 120 p_1_2 + 120 p_1_3 + 120 p_1_4 + 120 p_1_5 + 120 p_1_9 + 100000 z_1_1 + 100000 z_1_2 + 100000 z_1_3 + 100000 z_1_4 + 100000 z_1_5 + 100000 z_1_9 <= 602258.52659731428
 c3391: 120 p_1_6 + 120 p_1_9 + 100000 z_1_6 + 100000 z_1_9 <= 203024.56552678722
 c3392: 120 p_1_1 + 120 p_1_6 + 120 p_1_9 + 100000 z_1_1 + 100000 z_1_6 + 100000 z_1_9 <= 302639.22738000529
 c3393: 120 p_1_2 + 120 p_1_6 + 120 p_1_9 + 100000 z_1_2 + 100000 z_1_6 + 100000 z_1_9 <= 302764.11765734846
 c3394: 120 p_1_1 + 120 p_1_2 + 120 p_1_6 + 120 p_1_9 + 100000 z_1_1 + 100000 z_1_2 + 100000 z_1_6 + 100000 z_1_9 <= 402378.7795105665
 c3395: 120 p_1_3 + 120 p_1_6 + 120 p_1_9 + 100000 z_1_3 + 100000 z_1_6 + 100000 z_1_9 <= 302967.56986106985
 c3396: 120 p_1_1 + 120 p_1_3 + 120 p_1_6 + 120 p_1_9 + 100000 z_1_1 + 100000 z_1_3 + 100000 z_1_6 + 100000 z_1_9 <= 402585.75412811246
 c3397: 120 p_1_2 + 120 p_1_3 + 120 p_1_6 + 120 p_1_9 + 100000 z_1_2 + 100000 z_1_3 + 100000 z_1_6 + 100000 z_1_9 <= 402707.12199163105
 c3398: 120 p_1_1 + 120 p_1_2 + 120 p_1_3 + 120 p_1_6 + 120 p_1_9 + 100000 z_1_1 + 100000 z_1_2 + 100000 z_1_3 + 100000 z_1_6 + 100000 z_1_9 <= 502325.30625867366
 c3399: 120 p_1_4 + 120 p_1_6 + 120 p_1_9 + 100000 z_1_4 + 100000 z_1_6 + 100000 z_1_9 <= 302618.51742002484
 c3400: 120 p_1_1 + 120 p_1_4 + 120 p_1_6 + 120 p_1_9 + 100000 z_1_1 + 100000 z_1_4 + 100000 z_1_6 + 100000 z_1_9 <= 402618.45004030387
 c3401: 120 p_1_2 + 120 p_1_4 + 120 p_1_6 + 120 p_1_9 + 100000 z_1_2 + 100000 z_1_4 + 100000 z_1_6 + 100000 z_1_9 <= 402358.06955058605
 c3402: 120 p_1_1 + 120 p_1_2 + 120 p_1_4 + 120 p_1_6 + 120 p_1_9 + 100000 z_1_1 + 100000 z_1_2 + 100000 z_1_4 + 100000 z_1_6 + 100000 z_1_9 <= 502358.00217086513
 c3403: 120 p_1_3 + 120 p_1_4 + 120 p_1_6 + 120 p_1_9 + 100000 z_1_3 + 100000 z_1_4 + 100000 z_1_6 + 100000 z_1_9 <= 402565.50955460413
 c3404: 120 p_1_1 + 120 p_1_3 + 120 p_1_4 + 120 p_1_6 + 120 p_1_9 + 100000 z_1_1 + 100000 z_1_3 + 100000 z_1_4 + 100000 z_1_6 + 100000 z_1_9 <= 502565.44217488315
 c3405: 120 p_1_2 + 120 p_1_3 + 120 p_1_4 + 120 p_1_6 + 120 p_1_9 + 100000 z_1_2 + 100000 z_1_3 + 100000 z_1_4 + 100000 z_1_6 + 100000 z_1_9 <= 502305.06168516533
 c3406: 120 p_1_1 + 120 p_1_2 + 120 p_1_3 + 120 p_1_4 + 120 p_1_6 + 120 p_1_9 + 100000 z_1_1 + 100000 z_1_2 + 100000 z_1_3 + 100000 z_1_4 + 100000 z_1_6 + 100000 z_1_9 <= 602304.99430544442
 c3407: 120 p_1_5 + 120 p_1_6 + 120 p_1_9 + 100000 z_1_5 + 100000 z_1_6 + 100000 z_1_9 <= 302721.46654846397
 c3408: 120 p_1_1 + 120 p_1_5 + 120 p_1_6 + 120 p_1_9 + 100000 z_1_1 + 100000 z_1_5 + 100000 z_1_6 + 100000 z_1_9 <= 402336.12840168207
 c3409: 120 p_1_2 + 120 p_1_5 + 120 p_1_6 + 120 p_1_9 + 100000 z_1_2 + 100000 z_1_5 + 100000 z_1_6 + 100000 z_1_9 <= 402706.70288755087
 c3410: 120 p_1_1 + 120 p_1_2 + 120 p_1_5 + 120 p_1_6 + 120 p_1_9 + 100000 z_1_1 + 100000 z_1_2 + 100000 z_1_5 + 100000 z_1_6 + 100000 z_1_9 <= 502321.36474076891
 c3411: 120 p_1_3 + 120 p_1_5 + 120 p_1_6 + 120 p_1_9 + 100000 z_1_3 + 100000 z_1_5 + 100000 z_1_6 + 100000 z_1_9 <= 402664.47088274657
 c3412: 120 p_1_1 + 120 p_1_3 + 120 p_1_5 + 120 p_1_6 + 120 p_1_9 + 100000 z_1_1 + 100000 z_1_3 + 100000 z_1_5 + 100000 z_1_6 + 100000 z_1_9 <= 502282.65514978918
 c3413: 120 p_1_2 + 120 p_1_3 + 120 p_1_5 + 120 p_1_6 + 120 p_1_9 + 100000 z_1_2 + 100000 z_1_3 + 100000 z_1_5 + 100000 z_1_6 + 100000 z_1_9 <= 502649.70722183347
 c3414: 120 p_1_1 + 120 p_1_2 + 120 p_1_3 + 120 p_1_5 + 120 p_1_6 + 120 p_1_9 + 100000 z_1_1 + 100000 z_1_2 + 100000 z_1_3 + 100000 z_1_5 + 100000 z_1_6 + 100000 z_1_9 <= 602267.89148887608
 c3415: 120 p_1_4 + 120 p_1_5 + 120 p_1_6 + 120 p_1_9 + 100000 z_1_4 + 100000 z_1_5 + 100000 z_1_6 + 100000 z_1_9 <= 402315.41844170162
 c3416: 120 p_1_1 + 120 p_1_4 + 120 p_1_5 + 120 p_1_6 + 120 p_1_9 + 100000 z_1_1 + 100000 z_1_4 + 100000 z_1_5 + 100000 z_1_6 + 100000 z_1_9 <= 502315.35106198065
 c3417: 120 p_1_2 + 120 p_1_4 + 120 p_1_5 + 120 p_1_6 + 120 p_1_9 + 100000 z_1_2 + 100000 z_1_4 + 100000 z_1_5 + 100000 z_1_6 + 100000 z_1_9 <= 502300.65478078846
 c3418: 120 p_1_1 + 120 p_1_2 + 120 p_1_4 + 120 p_1_5 + 120 p_1_6 + 120 p_1_9 + 100000 z_1_1 + 100000 z_1_2 + 100000 z_1_4 + 100000 z_1_5 + 100000 z_1_6 + 100000 z_1_9 <= 602300.58740106749
 c3419: 120 p_1_3 + 120 p_1_4 + 120 p_1_5 + 120 p_1_6 + 120 p_1_9 + 100000 z_1_3 + 100000 z_1_4 + 100000 z_1_5 + 100000 z_1_6 + 100000 z_1_9 <= 502262.41057628085
 c3420: 120 p_1_1 + 120 p_1_3 + 120 p_1_4 + 120 p_1_5 + 120 p_1_6 + 120 p_1_9 + 100000 z_1_1 + 100000 z_1_3 + 100000 z_1_4 + 100000 z_1_5 + 100000 z_1_6 + 100000 z_1_9 <= 602262.34319655993
 c3421: 120 p_1_2 + 120 p_1_3 + 120 p_1_4 + 120 p_1_5 + 120 p_1_6 + 120 p_1_9 + 100000 z_1_2 + 100000 z_1_3 + 100000 z_1_4 + 100000 z_1_5 + 100000 z_1_6 + 100000 z_1_9 <= 602247.64691536769
 c3422: 120 p_1_1 + 120 p_1_2 + 120 p_1_3 + 120 p_1_4 + 120 p_1_5 + 120 p_1_6 + 120 p_1_9 + 100000 z_1_1 + 100000 z_1_2 + 100000 z_1_3 + 100000 z_1_4 + 100000 z_1_5 + 100000 z_1_6 + 100000 z_1_9 <= 702247.57953564683
 c3423: 120 p_1_7 + 120 p_1_9 + 100000 z_1_7 + 100000 z_1_9 <= 202488.72868289141
 c3424: 120 p_1_1 + 120 p_1_7 + 120 p_1_9 + 100000 z_1_1 + 100000 z_1_7 + 100000 z_1_9 <= 302487.81897856214
 c3425: 120 p_1_2 + 120 p_1_7 + 120 p_1_9 + 100000 z_1_2 + 100000 z_1_7 + 100000 z_1_9 <= 302231.53643593093
 c3426: 120 p_1_1 + 120 p_1_2 + 120 p_1_7 + 120 p_1_9 + 100000 z_1_1 + 100000 z_1_2 + 100000 z_1_7 + 100000 z_1_9 <= 402230.62673160166
 c3427: 120 p_1_3 + 120 p_1_7 + 120 p_1_9 + 100000 z_1_3 + 100000 z_1_7 + 100000 z_1_9 <= 302420.00102563528
 c3428: 120 p_1_1 + 120 p_1_3 + 120 p_1_7 + 120 p_1_9 + 100000 z_1_1 + 100000 z_1_3 + 100000 z_1_7 + 100000 z_1_9 <= 402419.09132130601
 c3429: 120 p_1_2 + 120 p_1_3 + 120 p_1_7 + 120 p_1_9 + 100000 z_1_2 + 100000 z_1_3 + 100000 z_1_7 + 100000 z_1_9 <= 402159.55315619649
 c3430: 120 p_1_1 + 120 p_1_2 + 120 p_1_3 + 120 p_1_7 + 120 p_1_9 + 100000 z_1_1 + 100000 z_1_2 + 100000 z_1_3 + 100000 z_1_7 + 100000 z_1_9 <= 502158.64345186722
 c3431: 120 p_1_4 + 120 p_1_7 + 120 p_1_9 + 100000 z_1_4 + 100000 z_1_7 + 100000 z_1_9 <= 302487.38190816273
 c3432: 120 p_1_1 + 120 p_1_4 + 120 p_1_7 + 120 p_1_9 + 100000 z_1_1 + 100000 z_1_4 + 100000 z_1_7 + 100000 z_1_9 <= 402487.31452844176
 c3433: 120 p_1_2 + 120 p_1_4 + 120 p_1_7 + 120 p_1_9 + 100000 z_1_2 + 100000 z_1_4 + 100000 z_1_7 + 100000 z_1_9 <= 402230.18966120225
 c3434: 120 p_1_1 + 120 p_1_2 + 120 p_1_4 + 120 p_1_7 + 120 p_1_9 + 100000 z_1_1 + 100000 z_1_2 + 100000 z_1_4 + 100000 z_1_7 + 100000 z_1_9 <= 502230.12228148128
 c3435: 120 p_1_3 + 120 p_1_4 + 120 p_1_7 + 120 p_1_9 + 100000 z_1_3 + 100000 z_1_4 + 100000 z_1_7 + 100000 z_1_9 <= 402418.65425090655
 c3436: 120 p_1_1 + 120 p_1_3 + 120 p_1_4 + 120 p_1_7 + 120 p_1_9 + 100000 z_1_1 + 100000 z_1_3 + 100000 z_1_4 + 100000 z_1_7 + 100000 z_1_9 <= 502418.58687118563
 c3437: 120 p_1_2 + 120 p_1_3 + 120 p_1_4 + 120 p_1_7 + 120 p_1_9 + 100000 z_1_2 + 100000 z_1_3 + 100000 z_1_4 + 100000 z_1_7 + 100000 z_1_9 <= 502158.20638146775
 c3438: 120 p_1_1 + 120 p_1_2 + 120 p_1_3 + 120 p_1_4 + 120 p_1_7 + 120 p_1_9 + 100000 z_1_1 + 100000 z_1_2 + 100000 z_1_3 + 100000 z_1_4 + 100000 z_1_7 + 100000 z_1_9 <= 602158.13900174678
 c3439: 120 p_1_5 + 120 p_1_7 + 120 p_1_9 + 100000 z_1_5 + 100000 z_1_7 + 100000 z_1_9 <= 302221.52771432436
 c3440: 120 p_1_1 + 120 p_1_5 + 120 p_1_7 + 120 p_1_9 + 100000 z_1_1 + 100000 z_1_5 + 100000 z_1_7 + 100000 z_1_9 <= 402220.61800999509
 c3441: 120 p_1_2 + 120 p_1_5 + 120 p_1_7 + 120 p_1_9 + 100000 z_1_2 + 100000 z_1_5 + 100000 z_1_7 + 100000 z_1_9 <= 402206.76405341126
 c3442: 120 p_1_1 + 120 p_1_2 + 120 p_1_5 + 120 p_1_7 + 120 p_1_9 + 100000 z_1_1 + 100000 z_1_2 + 100000 z_1_5 + 100000 z_1_7 + 100000 z_1_9 <= 502205.85434908199
 c3443: 120 p_1_3 + 120 p_1_5 + 120 p_1_7 + 120 p_1_9 + 100000 z_1_3 + 100000 z_1_5 + 100000 z_1_7 + 100000 z_1_9 <= 402116.902047312
 c3444: 120 p_1_1 + 120 p_1_3 + 120 p_1_5 + 120 p_1_7 + 120 p_1_9 + 100000 z_1_1 + 100000 z_1_3 + 100000 z_1_5 + 100000 z_1_7 + 100000 z_1_9 <= 502115.99234298273
 c3445: 120 p_1_2 + 120 p_1_3 + 120 p_1_5 + 120 p_1_7 + 120 p_1_9 + 100000 z_1_2 + 100000 z_1_3 + 100000 z_1_5 + 100000 z_1_7 + 100000 z_1_9 <= 502102.1383863989
 c3446: 120 p_1_1 + 120 p_1_2 + 120 p_1_3 + 120 p_1_5 + 120 p_1_7 + 120 p_1_9 + 100000 z_1_1 + 100000 z_1_2 + 100000 z_1_3 + 100000 z_1_5 + 100000 z_1_7 + 100000 z_1_9 <= 602101.22868206957
 c3447: 120 p_1_4 + 120 p_1_5 + 120 p_1_7 + 120 p_1_9 + 100000 z_1_4 + 100000 z_1_5 + 100000 z_1_7 + 100000 z_1_9 <= 402220.18093959568
 c3448: 120 p_1_1 + 120 p_1_4 + 120 p_1_5 + 120 p_1_7 + 120 p_1_9 + 100000 z_1_1 + 100000 z_1_4 + 100000 z_1_5 + 100000 z_1_7 + 100000 z_1_9 <= 502220.11355987471
 c3449: 120 p_1_2 + 120 p_1_4 + 120 p_1_5 + 120 p_1_7 + 120 p_1_9 + 100000 z_1_2 + 100000 z_1_4 + 100000 z_1_5 + 100000 z_1_7 + 100000 z_1_9 <= 502205.41727868252
 c3450: 120 p_1_1 + 120 p_1_2 + 120 p_1_4 + 120 p_1_5 + 120 p_1_7 + 120 p_1_9 + 100000 z_1_1 + 100000 z_1_2 + 100000 z_1_4 + 100000 z_1_5 + 100000 z_1_7 + 100000 z_1_9 <= 602205.34989896161
 c3451: 120 p_1_3 + 120 p_1_4 + 120 p_1_5 + 120 p_1_7 + 120 p_1_9 + 100000 z_1_3 + 100000 z_1_4 + 100000 z_1_5 + 100000 z_1_7 + 100000 z_1_9 <= 502115.55527258333
 c3452: 120 p_1_1 + 120 p_1_3 + 120 p_1_4 + 120 p_1_5 + 120 p_1_7 + 120 p_1_9 + 100000 z_1_1 + 100000 z_1_3 + 100000 z_1_4 + 100000 z_1_5 + 100000 z_1_7 + 100000 z_1_9 <= 602115.48789286241
 c3453: 120 p_1_2 + 120 p_1_3 + 120 p_1_4 + 120 p_1_5 + 120 p_1_7 + 120 p_1_9 + 100000 z_1_2 + 100000 z_1_3 + 100000 z_1_4 + 100000 z_1_5 + 100000 z_1_7 + 100000 z_1_9 <= 602100.79161167017
 c3454: 120 p_1_1 + 120 p_1_2 + 120 p_1_3 + 120 p_1_4 + 120 p_1_5 + 120 p_1_7 + 120 p_1_9 + 100000 z_1_1 + 100000 z_1_2 + 100000 z_1_3 + 100000 z_1_4 + 100000 z_1_5 + 100000 z_1_7 + 100000 z_1_9 <= 702100.72423194919
 c3455: 120 p_1_6 + 120 p_1_7 + 120 p_1_9 + 100000 z_1_6 + 100000 z_1_7 + 100000 z_1_9 <= 302460.51323913957
 c3456: 120 p_1_1 + 120 p_1_6 + 120 p_1_7 + 120 p_1_9 + 100000 z_1_1 + 100000 z_1_6 + 100000 z_1_7 + 100000 z_1_9 <= 402459.6035348103
 c3457: 120 p_1_2 + 120 p_1_6 + 120 p_1_7 + 120 p_1_9 + 100000 z_1_2 + 100000 z_1_6 + 100000 z_1_7 + 100000 z_1_9 <= 402200.06536970078
 c3458: 120 p_1_1 + 120 p_1_2 + 120 p_1_6 + 120 p_1_7 + 120 p_1_9 + 100000 z_1_1 + 100000 z_1_2 + 100000 z_1_6 + 100000 z_1_7 + 100000 z_1_9 <= 502199.15566537151
 c3459: 120 p_1_3 + 120 p_1_6 + 120 p_1_7 + 120 p_1_9 + 100000 z_1_3 + 100000 z_1_6 + 100000 z_1_7 + 100000 z_1_9 <= 402409.05396396777
 c3460: 120 p_1_1 + 120 p_1_3 + 120 p_1_6 + 120 p_1_7 + 120 p_1_9 + 100000 z_1_1 + 100000 z_1_3 + 100000 z_1_6 + 100000 z_1_7 + 100000 z_1_9 <= 502408.1442596385
 c3461: 120 p_1_2 + 120 p_1_3 + 120 p_1_6 + 120 p_1_7 + 120 p_1_9 + 100000 z_1_2 + 100000 z_1_3 + 100000 z_1_6 + 100000 z_1_7 + 100000 z_1_9 <= 502148.60609452898
 c3462: 120 p_1_1 + 120 p_1_2 + 120 p_1_3 + 120 p_1_6 + 120 p_1_7 + 120 p_1_9 + 100000 z_1_1 + 100000 z_1_2 + 100000 z_1_3 + 100000 z_1_6 + 100000 z_1_7 + 100000 z_1_9 <= 602147.69639019971
 c3463: 120 p_1_4 + 120 p_1_6 + 120 p_1_7 + 120 p_1_9 + 100000 z_1_4 + 100000 z_1_6 + 100000 z_1_7 + 100000 z_1_9 <= 402459.16646441084
 c3464: 120 p_1_1 + 120 p_1_4 + 120 p_1_6 + 120 p_1_7 + 120 p_1_9 + 100000 z_1_1 + 100000 z_1_4 + 100000 z_1_6 + 100000 z_1_7 + 100000 z_1_9 <= 502459.09908468992
 c3465: 120 p_1_2 + 120 p_1_4 + 120 p_1_6 + 120 p_1_7 + 120 p_1_9 + 100000 z_1_2 + 100000 z_1_4 + 100000 z_1_6 + 100000 z_1_7 + 100000 z_1_9 <= 502198.7185949721
 c3466: 120 p_1_1 + 120 p_1_2 + 120 p_1_4 + 120 p_1_6 + 120 p_1_7 + 120 p_1_9 + 100000 z_1_1 + 100000 z_1_2 + 100000 z_1_4 + 100000 z_1_6 + 100000 z_1_7 + 100000 z_1_9 <= 602198.65121525119
 c3467: 120 p_1_3 + 120 p_1_4 + 120 p_1_6 + 120 p_1_7 + 120 p_1_9 + 100000 z_1_3 + 100000 z_1_4 + 100000 z_1_6 + 100000 z_1_7 + 100000 z_1_9 <= 502407.7071892391
 c3468: 120 p_1_1 + 120 p_1_3 + 120 p_1_4 + 120 p_1_6 + 120 p_1_7 + 120 p_1_9 + 100000 z_1_1 + 100000 z_1_3 + 100000 z_1_4 + 100000 z_1_6 + 100000 z_1_7 + 100000 z_1_9 <= 602407.63980951812
 c3469: 120 p_1_2 + 120 p_1_3 + 120 p_1_4 + 120 p_1_6 + 120 p_1_7 + 120 p_1_9 + 100000 z_1_2 + 100000 z_1_3 + 100000 z_1_4 + 100000 z_1_6 + 100000 z_1_7 + 100000 z_1_9 <= 602147.2593198003
 c3470: 120 p_1_1 + 120 p_1_2 + 120 p_1_3 + 120 p_1_4 + 120 p_1_6 + 120 p_1_7 + 120 p_1_9 + 100000 z_1_1 + 100000 z_1_2 + 100000 z_1_3 + 100000 z_1_4 + 100000 z_1_6 + 100000 z_1_7 + 100000 z_1_9 <= 702147.19194007933
 c3471: 120 p_1_5 + 120 p_1_6 + 120 p_1_7 + 120 p_1_9 + 100000 z_1_5 + 100000 z_1_6 + 100000 z_1_7 + 100000 z_1_9 <= 402167.36809143715
 c3472: 120 p_1_1 + 120 p_1_5 + 120 p_1_6 + 120 p_1_7 + 120 p_1_9 + 100000 z_1_1 + 100000 z_1_5 + 100000 z_1_6 + 100000 z_1_7 + 100000 z_1_9 <= 502166.45838710788
 c3473: 120 p_1_2 + 120 p_1_5 + 120 p_1_6 + 120 p_1_7 + 120 p_1_9 + 100000 z_1_2 + 100000 z_1_5 + 100000 z_1_6 + 100000 z_1_7 + 100000 z_1_9 <= 502152.60443052399
 c3474: 120 p_1_1 + 120 p_1_2 + 120 p_1_5 + 120 p_1_6 + 120 p_1_7 + 120 p_1_9 + 100000 z_1_1 + 100000 z_1_2 + 100000 z_1_5 + 100000 z_1_6 + 100000 z_1_7 + 100000 z_1_9 <= 602151.69472619472
 c3475: 120 p_1_3 + 120 p_1_5 + 120 p_1_6 + 120 p_1_7 + 120 p_1_9 + 100000 z_1_3 + 100000 z_1_5 + 100000 z_1_6 + 100000 z_1_7 + 100000 z_1_9 <= 502110.37242571975
 c3476: 120 p_1_1 + 120 p_1_3 + 120 p_1_5 + 120 p_1_6 + 120 p_1_7 + 120 p_1_9 + 100000 z_1_1 + 100000 z_1_3 + 100000 z_1_5 + 100000 z_1_6 + 100000 z_1_7 + 100000 z_1_9 <= 602109.46272139042
 c3477: 120 p_1_2 + 120 p_1_3 + 120 p_1_5 + 120 p_1_6 + 120 p_1_7 + 120 p_1_9 + 100000 z_1_2 + 100000 z_1_3 + 100000 z_1_5 + 100000 z_1_6 + 100000 z_1_7 + 100000 z_1_9 <= 602095.60876480665
 c3478: 120 p_1_1 + 120 p_1_2 + 120 p_1_3 + 120 p_1_5 + 120 p_1_6 + 120 p_1_7 + 120 p_1_9 + 100000 z_1_1 + 100000 z_1_2 + 100000 z_1_3 + 100000 z_1_5 + 100000 z_1_6 + 100000 z_1_7 + 100000 z_1_9 <= 702094.69906047732
 c3479: 120 p_1_4 + 120 p_1_5 + 120 p_1_6 + 120 p_1_7 + 120 p_1_9 + 100000 z_1_4 + 100000 z_1_5 + 100000 z_1_6 + 100000 z_1_7 + 100000 z_1_9 <= 502166.02131670841
 c3480: 120 p_1_1 + 120 p_1_4 + 120 p_1_5 + 120 p_1_6 + 120 p_1_7 + 120 p_1_9 + 100000 z_1_1 + 100000 z_1_4 + 100000 z_1_5 + 100000 z_1_6 + 100000 z_1_7 + 100000 z_1_9 <= 602165.95393698744
 c3481: 120 p_1_2 + 120 p_1_4 + 120 p_1_5 + 120 p_1_6 + 120 p_1_7 + 120 p_1_9 + 100000 z_1_2 + 100000 z_1_4 + 100000 z_1_5 + 100000 z_1_6 + 100000 z_1_7 + 100000 z_1_9 <= 602151.25765579531
 c3482: 120 p_1_1 + 120 p_1_2 + 120 p_1_4 + 120 p_1_5 + 120 p_1_6 + 120 p_1_7 + 120 p_1_9 + 100000 z_1_1 + 100000 z_1_2 + 100000 z_1_4 + 100000 z_1_5 + 100000 z_1_6 + 100000 z_1_7 + 100000 z_1_9 <= 702151.19027607434
 c3483: 120 p_1_3 + 120 p_1_4 + 120 p_1_5 + 120 p_1_6 + 120 p_1_7 + 120 p_1_9 + 100000 z_1_3 + 100000 z_1_4 + 100000 z_1_5 + 100000 z_1_6 + 100000 z_1_7 + 100000 z_1_9 <= 602109.02565099101
 c3484: 120 p_1_1 + 120 p_1_3 + 120 p_1_4 + 120 p_1_5 + 120 p_1_6 + 120 p_1_7 + 120 p_1_9 + 100000 z_1_1 + 100000 z_1_3 + 100000 z_1_4 + 100000 z_1_5 + 100000 z_1_6 + 100000 z_1_7 + 100000 z_1_9 <= 702108.95827127004
 c3485: 120 p_1_2 + 120 p_1_3 + 120 p_1_4 + 120 p_1_5 + 120 p_1_6 + 120 p_1_7 + 120 p_1_9 + 100000 z_1_2 + 100000 z_1_3 + 100000 z_1_4 + 100000 z_1_5 + 100000 z_1_6 + 100000 z_1_7 + 100000 z_1_9 <= 702094.26199007791
 c3486: 120 p_1_1 + 120 p_1_2 + 120 p_1_3 + 120 p_1_4 + 120 p_1_5 + 120 p_1_6 + 120 p_1_7 + 120 p_1_9 + 100000 z_1_1 + 100000 z_1_2 + 100000 z_1_3 + 100000 z_1_4 + 100000 z_1_5 + 100000 z_1_6 + 100000 z_1_7 + 100000 z_1_9 <= 802094.19461035694
 c3487: 120 p_1_8 + 120 p_1_9 + 100000 z_1_8 + 100000 z_1_9 <= 202659.38399816825
 c3488: 120 p_1_1 + 120 p_1_8 + 120 p_1_9 + 100000 z_1_1 + 100000 z_1_8 + 100000 z_1_9 <= 302292.07791038399
 c3489: 120 p_1_2 + 120 p_1_8 + 120 p_1_9 + 100000 z_1_2 + 100000 z_1_8 + 100000 z_1_9 <= 302657.15087872226
 c3490: 120 p_1_1 + 120 p_1_2 + 120 p_1_8 + 120 p_1_9 + 100000 z_1_1 + 100000 z_1_2 + 100000 z_1_8 + 100000 z_1_9 <= 402289.84479093796
 c3491: 120 p_1_3 + 120 p_1_8 + 120 p_1_9 + 100000 z_1_3 + 100000 z_1_8 + 100000 z_1_9 <= 302552.36579563201
 c3492: 120 p_1_1 + 120 p_1_3 + 120 p_1_8 + 120 p_1_9 + 100000 z_1_1 + 100000 z_1_3 + 100000 z_1_8 + 100000 z_1_9 <= 402185.05970784771
 c3493: 120 p_1_2 + 120 p_1_3 + 120 p_1_8 + 120 p_1_9 + 100000 z_1_2 + 100000 z_1_3 + 100000 z_1_8 + 100000 z_1_9 <= 402550.13267618598
 c3494: 120 p_1_1 + 120 p_1_2 + 120 p_1_3 + 120 p_1_8 + 120 p_1_9 + 100000 z_1_1 + 100000 z_1_2 + 100000 z_1_3 + 100000 z_1_8 + 100000 z_1_9 <= 502182.82658840169
 c3495: 120 p_1_4 + 120 p_1_8 + 120 p_1_9 + 100000 z_1_4 + 100000 z_1_8 + 100000 z_1_9 <= 302270.50539725582
 c3496: 120 p_1_1 + 120 p_1_4 + 120 p_1_8 + 120 p_1_9 + 100000 z_1_1 + 100000 z_1_4 + 100000 z_1_8 + 100000 z_1_9 <= 402270.43801753491
 c3497: 120 p_1_2 + 120 p_1_4 + 120 p_1_8 + 120 p_1_9 + 100000 z_1_2 + 100000 z_1_4 + 100000 z_1_8 + 100000 z_1_9 <= 402268.27227780985
 c3498: 120 p_1_1 + 120 p_1_2 + 120 p_1_4 + 120 p_1_8 + 120 p_1_9 + 100000 z_1_1 + 100000 z_1_2 + 100000 z_1_4 + 100000 z_1_8 + 100000 z_1_9 <= 502268.20489808888
 c3499: 120 p_1_3 + 120 p_1_4 + 120 p_1_8 + 120 p_1_9 + 100000 z_1_3 + 100000 z_1_4 + 100000 z_1_8 + 100000 z_1_9 <= 402163.48719471955
 c3500: 120 p_1_1 + 120 p_1_3 + 120 p_1_4 + 120 p_1_8 + 120 p_1_9 + 100000 z_1_1 + 100000 z_1_3 + 100000 z_1_4 + 100000 z_1_8 + 100000 z_1_9 <= 502163.41981499863
 c3501: 120 p_1_2 + 120 p_1_3 + 120 p_1_4 + 120 p_1_8 + 120 p_1_9 + 100000 z_1_2 + 100000 z_1_3 + 100000 z_1_4 + 100000 z_1_8 + 100000 z_1_9 <= 502161.25407527358
 c3502: 120 p_1_1 + 120 p_1_2 + 120 p_1_3 + 120 p_1_4 + 120 p_1_8 + 120 p_1_9 + 100000 z_1_1 + 100000 z_1_2 + 100000 z_1_3 + 100000 z_1_4 + 100000 z_1_8 + 100000 z_1_9 <= 602161.18669555266
 c3503: 120 p_1_5 + 120 p_1_8 + 120 p_1_9 + 100000 z_1_5 + 100000 z_1_8 + 100000 z_1_9 <= 302656.1065084975
 c3504: 120 p_1_1 + 120 p_1_5 + 120 p_1_8 + 120 p_1_9 + 100000 z_1_1 + 100000 z_1_5 + 100000 z_1_8 + 100000 z_1_9 <= 402288.17629636865
 c3505: 120 p_1_2 + 120 p_1_5 + 120 p_1_8 + 120 p_1_9 + 100000 z_1_2 + 100000 z_1_5 + 100000 z_1_8 + 100000 z_1_9 <= 402653.87338905153
 c3506: 120 p_1_1 + 120 p_1_2 + 120 p_1_5 + 120 p_1_8 + 120 p_1_9 + 100000 z_1_1 + 100000 z_1_2 + 100000 z_1_5 + 100000 z_1_8 + 100000 z_1_9 <= 502273.41263545549
 c3507: 120 p_1_3 + 120 p_1_5 + 120 p_1_8 + 120 p_1_9 + 100000 z_1_3 + 100000 z_1_5 + 100000 z_1_8 + 100000 z_1_9 <= 402549.08830596122
 c3508: 120 p_1_1 + 120 p_1_3 + 120 p_1_5 + 120 p_1_8 + 120 p_1_9 + 100000 z_1_1 + 100000 z_1_3 + 100000 z_1_5 + 100000 z_1_8 + 100000 z_1_9 <= 502181.15809383238
 c3509: 120 p_1_2 + 120 p_1_3 + 120 p_1_5 + 120 p_1_8 + 120 p_1_9 + 100000 z_1_2 + 100000 z_1_3 + 100000 z_1_5 + 100000 z_1_8 + 100000 z_1_9 <= 502546.85518651525
 c3510: 120 p_1_1 + 120 p_1_2 + 120 p_1_3 + 120 p_1_5 + 120 p_1_8 + 120 p_1_9 + 100000 z_1_1 + 100000 z_1_2 + 100000 z_1_3 + 100000 z_1_5 + 100000 z_1_8 + 100000 z_1_9 <= 602171.84942915698
 c3511: 120 p_1_4 + 120 p_1_5 + 120 p_1_8 + 120 p_1_9 + 100000 z_1_4 + 100000 z_1_5 + 100000 z_1_8 + 100000 z_1_9 <= 402266.60378324054
 c3512: 120 p_1_1 + 120 p_1_4 + 120 p_1_5 + 120 p_1_8 + 120 p_1_9 + 100000 z_1_1 + 100000 z_1_4 + 100000 z_1_5 + 100000 z_1_8 + 100000 z_1_9 <= 502266.53640351957
 c3513: 120 p_1_2 + 120 p_1_4 + 120 p_1_5 + 120 p_1_8 + 120 p_1_9 + 100000 z_1_2 + 100000 z_1_4 + 100000 z_1_5 + 100000 z_1_8 + 100000 z_1_9 <= 502251.84012232738
 c3514: 120 p_1_1 + 120 p_1_2 + 120 p_1_4 + 120 p_1_5 + 120 p_1_8 + 120 p_1_9 + 100000 z_1_1 + 100000 z_1_2 + 100000 z_1_4 + 100000 z_1_5 + 100000 z_1_8 + 100000 z_1_9 <= 602251.77274260647
 c3515: 120 p_1_3 + 120 p_1_4 + 120 p_1_5 + 120 p_1_8 + 120 p_1_9 + 100000 z_1_3 + 100000 z_1_4 + 100000 z_1_5 + 100000 z_1_8 + 100000 z_1_9 <= 502159.58558070427
 c3516: 120 p_1_1 + 120 p_1_3 + 120 p_1_4 + 120 p_1_5 + 120 p_1_8 + 120 p_1_9 + 100000 z_1_1 + 100000 z_1_3 + 100000 z_1_4 + 100000 z_1_5 + 100000 z_1_8 + 100000 z_1_9 <= 602159.51820098329
 c3517: 120 p_1_2 + 120 p_1_3 + 120 p_1_4 + 120 p_1_5 + 120 p_1_8 + 120 p_1_9 + 100000 z_1_2 + 100000 z_1_3 + 100000 z_1_4 + 100000 z_1_5 + 100000 z_1_8 + 100000 z_1_9 <= 602151.60485564859
 c3518: 120 p_1_1 + 120 p_1_2 + 120 p_1_3 + 120 p_1_4 + 120 p_1_5 + 120 p_1_8 + 120 p_1_9 + 100000 z_1_1 + 100000 z_1_2 + 100000 z_1_3 + 100000 z_1_4 + 100000 z_1_5 + 100000 z_1_8 + 100000 z_1_9 <= 702151.53747592773
 c3519: 120 p_1_6 + 120 p_1_8 + 120 p_1_9 + 100000 z_1_6 + 100000 z_1_8 + 100000 z_1_9 <= 302605.22437528102
 c3520: 120 p_1_1 + 120 p_1_6 + 120 p_1_8 + 120 p_1_9 + 100000 z_1_1 + 100000 z_1_6 + 100000 z_1_8 + 100000 z_1_9 <= 402237.91828749672
 c3521: 120 p_1_2 + 120 p_1_6 + 120 p_1_8 + 120 p_1_9 + 100000 z_1_2 + 100000 z_1_6 + 100000 z_1_8 + 100000 z_1_9 <= 402602.99125583505
 c3522: 120 p_1_1 + 120 p_1_2 + 120 p_1_6 + 120 p_1_8 + 120 p_1_9 + 100000 z_1_1 + 100000 z_1_2 + 100000 z_1_6 + 100000 z_1_8 + 100000 z_1_9 <= 502235.68516805075
 c3523: 120 p_1_3 + 120 p_1_6 + 120 p_1_8 + 120 p_1_9 + 100000 z_1_3 + 100000 z_1_6 + 100000 z_1_8 + 100000 z_1_9 <= 402548.22870956361
 c3524: 120 p_1_1 + 120 p_1_3 + 120 p_1_6 + 120 p_1_8 + 120 p_1_9 + 100000 z_1_1 + 100000 z_1_3 + 100000 z_1_6 + 100000 z_1_8 + 100000 z_1_9 <= 502180.92262177932
 c3525: 120 p_1_2 + 120 p_1_3 + 120 p_1_6 + 120 p_1_8 + 120 p_1_9 + 100000 z_1_2 + 100000 z_1_3 + 100000 z_1_6 + 100000 z_1_8 + 100000 z_1_9 <= 502545.99559011764
 c3526: 120 p_1_1 + 120 p_1_2 + 120 p_1_3 + 120 p_1_6 + 120 p_1_8 + 120 p_1_9 + 100000 z_1_1 + 100000 z_1_2 + 100000 z_1_3 + 100000 z_1_6 + 100000 z_1_8 + 100000 z_1_9 <= 602178.68950233329
 c3527: 120 p_1_4 + 120 p_1_6 + 120 p_1_8 + 120 p_1_9 + 100000 z_1_4 + 100000 z_1_6 + 100000 z_1_8 + 100000 z_1_9 <= 402216.34577436862
 c3528: 120 p_1_1 + 120 p_1_4 + 120 p_1_6 + 120 p_1_8 + 120 p_1_9 + 100000 z_1_1 + 100000 z_1_4 + 100000 z_1_6 + 100000 z_1_8 + 100000 z_1_9 <= 502216.27839464764
 c3529: 120 p_1_2 + 120 p_1_4 + 120 p_1_6 + 120 p_1_8 + 120 p_1_9 + 100000 z_1_2 + 100000 z_1_4 + 100000 z_1_6 + 100000 z_1_8 + 100000 z_1_9 <= 502214.11265492259
 c3530: 120 p_1_1 + 120 p_1_2 + 120 p_1_4 + 120 p_1_6 + 120 p_1_8 + 120 p_1_9 + 100000 z_1_1 + 100000 z_1_2 + 100000 z_1_4 + 100000 z_1_6 + 100000 z_1_8 + 100000 z_1_9 <= 602214.04527520167
 c3531: 120 p_1_3 + 120 p_1_4 + 120 p_1_6 + 120 p_1_8 + 120 p_1_9 + 100000 z_1_3 + 100000 z_1_4 + 100000 z_1_6 + 100000 z_1_8 + 100000 z_1_9 <= 502159.35010865121
 c3532: 120 p_1_1 + 120 p_1_3 + 120 p_1_4 + 120 p_1_6 + 120 p_1_8 + 120 p_1_9 + 100000 z_1_1 + 100000 z_1_3 + 100000 z_1_4 + 100000 z_1_6 + 100000 z_1_8 + 100000 z_1_9 <= 602159.28272893024
 c3533: 120 p_1_2 + 120 p_1_3 + 120 p_1_4 + 120 p_1_6 + 120 p_1_8 + 120 p_1_9 + 100000 z_1_2 + 100000 z_1_3 + 100000 z_1_4 + 100000 z_1_6 + 100000 z_1_8 + 100000 z_1_9 <= 602157.11698920524
 c3534: 120 p_1_1 + 120 p_1_2 + 120 p_1_3 + 120 p_1_4 + 120 p_1_6 + 120 p_1_8 + 120 p_1_9 + 100000 z_1_1 + 100000 z_1_2 + 100000 z_1_3 + 100000 z_1_4 + 100000 z_1_6 + 100000 z_1_8 + 100000 z_1_9 <= 702157.04960948427
 c3535: 120 p_1_5 + 120 p_1_6 + 120 p_1_8 + 120 p_1_9 + 100000 z_1_5 + 100000 z_1_6 + 100000 z_1_8 + 100000 z_1_9 <= 402601.94688561023
 c3536: 120 p_1_1 + 120 p_1_5 + 120 p_1_6 + 120 p_1_8 + 120 p_1_9 + 100000 z_1_1 + 100000 z_1_5 + 100000 z_1_6 + 100000 z_1_8 + 100000 z_1_9 <= 502234.01667348144
 c3537: 120 p_1_2 + 120 p_1_5 + 120 p_1_6 + 120 p_1_8 + 120 p_1_9 + 100000 z_1_2 + 100000 z_1_5 + 100000 z_1_6 + 100000 z_1_8 + 100000 z_1_9 <= 502599.71376616426
 c3538: 120 p_1_1 + 120 p_1_2 + 120 p_1_5 + 120 p_1_6 + 120 p_1_8 + 120 p_1_9 + 100000 z_1_1 + 100000 z_1_2 + 100000 z_1_5 + 100000 z_1_6 + 100000 z_1_8 + 100000 z_1_9 <= 602219.25301256822
 c3539: 120 p_1_3 + 120 p_1_5 + 120 p_1_6 + 120 p_1_8 + 120 p_1_9 + 100000 z_1_3 + 100000 z_1_5 + 100000 z_1_6 + 100000 z_1_8 + 100000 z_1_9 <= 502544.95121989289
 c3540: 120 p_1_1 + 120 p_1_3 + 120 p_1_5 + 120 p_1_6 + 120 p_1_8 + 120 p_1_9 + 100000 z_1_1 + 100000 z_1_3 + 100000 z_1_5 + 100000 z_1_6 + 100000 z_1_8 + 100000 z_1_9 <= 602177.02100776404
 c3541: 120 p_1_2 + 120 p_1_3 + 120 p_1_5 + 120 p_1_6 + 120 p_1_8 + 120 p_1_9 + 100000 z_1_2 + 100000 z_1_3 + 100000 z_1_5 + 100000 z_1_6 + 100000 z_1_8 + 100000 z_1_9 <= 602542.71810044686
 c3542: 120 p_1_1 + 120 p_1_2 + 120 p_1_3 + 120 p_1_5 + 120 p_1_6 + 120 p_1_8 + 120 p_1_9 + 100000 z_1_1 + 100000 z_1_2 + 100000 z_1_3 + 100000 z_1_5 + 100000 z_1_6 + 100000 z_1_8 + 100000 z_1_9 <= 702162.25734685094
 c3543: 120 p_1_4 + 120 p_1_5 + 120 p_1_6 + 120 p_1_8 + 120 p_1_9 + 100000 z_1_4 + 100000 z_1_5 + 100000 z_1_6 + 100000 z_1_8 + 100000 z_1_9 <= 502212.44416035328
 c3544: 120 p_1_1 + 120 p_1_4 + 120 p_1_5 + 120 p_1_6 + 120 p_1_8 + 120 p_1_9 + 100000 z_1_1 + 100000 z_1_4 + 100000 z_1_5 + 100000 z_1_6 + 100000 z_1_8 + 100000 z_1_9 <= 602212.3767806323
 c3545: 120 p_1_2 + 120 p_1_4 + 120 p_1_5 + 120 p_1_6 + 120 p_1_8 + 120 p_1_9 + 100000 z_1_2 + 100000 z_1_4 + 100000 z_1_5 + 100000 z_1_6 + 100000 z_1_8 + 100000 z_1_9 <= 602197.68049944018
 c3546: 120 p_1_1 + 120 p_1_2 + 120 p_1_4 + 120 p_1_5 + 120 p_1_6 + 120 p_1_8 + 120 p_1_9 + 100000 z_1_1 + 100000 z_1_2 + 100000 z_1_4 + 100000 z_1_5 + 100000 z_1_6 + 100000 z_1_8 + 100000 z_1_9 <= 702197.6131197192
 c3547: 120 p_1_3 + 120 p_1_4 + 120 p_1_5 + 120 p_1_6 + 120 p_1_8 + 120 p_1_9 + 100000 z_1_3 + 100000 z_1_4 + 100000 z_1_5 + 100000 z_1_6 + 100000 z_1_8 + 100000 z_1_9 <= 602155.44849463587
 c3548: 120 p_1_1 + 120 p_1_3 + 120 p_1_4 + 120 p_1_5 + 120 p_1_6 + 120 p_1_8 + 120 p_1_9 + 100000 z_1_1 + 100000 z_1_3 + 100000 z_1_4 + 100000 z_1_5 + 100000 z_1_6 + 100000 z_1_8 + 100000 z_1_9 <= 702155.3811149149
 c3549: 120 p_1_2 + 120 p_1_3 + 120 p_1_4 + 120 p_1_5 + 120 p_1_6 + 120 p_1_8 + 120 p_1_9 + 100000 z_1_2 + 100000 z_1_3 + 100000 z_1_4 + 100000 z_1_5 + 100000 z_1_6 + 100000 z_1_8 + 100000 z_1_9 <= 702140.68483372277
 c3550: 120 p_1_1 + 120 p_1_2 + 120 p_1_3 + 120 p_1_4 + 120 p_1_5 + 120 p_1_6 + 120 p_1_8 + 120 p_1_9 + 100000 z_1_1 + 100000 z_1_2 + 100000 z_1_3 + 100000 z_1_4 + 100000 z_1_5 + 100000 z_1_6 + 100000 z_1_8 + 100000 z_1_9 <= 802140.6174540018
 c3551: 120 p_1_7 + 120 p_1_8 + 120 p_1_9 + 100000 z_1_7 + 100000 z_1_8 + 100000 z_1_9 <= 302130.84520196606
 c3552: 120 p_1_1 + 120 p_1_7 + 120 p_1_8 + 120 p_1_9 + 100000 z_1_1 + 100000 z_1_7 + 100000 z_1_8 + 100000 z_1_9 <= 402129.93549763679
 c3553: 120 p_1_2 + 120 p_1_7 + 120 p_1_8 + 120 p_1_9 + 100000 z_1_2 + 100000 z_1_7 + 100000 z_1_8 + 100000 z_1_9 <= 402128.61208252009
 c3554: 120 p_1_1 + 120 p_1_2 + 120 p_1_7 + 120 p_1_8 + 120 p_1_9 + 100000 z_1_1 + 100000 z_1_2 + 100000 z_1_7 + 100000 z_1_8 + 100000 z_1_9 <= 502127.70237819082
 c3555: 120 p_1_3 + 120 p_1_7 + 120 p_1_8 + 120 p_1_9 + 100000 z_1_3 + 100000 z_1_7 + 100000 z_1_8 + 100000 z_1_9 <= 402023.82699942979
 c3556: 120 p_1_1 + 120 p_1_3 + 120 p_1_7 + 120 p_1_8 + 120 p_1_9 + 100000 z_1_1 + 100000 z_1_3 + 100000 z_1_7 + 100000 z_1_8 + 100000 z_1_9 <= 502022.91729510052
 c3557: 120 p_1_2 + 120 p_1_3 + 120 p_1_7 + 120 p_1_8 + 120 p_1_9 + 100000 z_1_2 + 100000 z_1_3 + 100000 z_1_7 + 100000 z_1_8 + 100000 z_1_9 <= 502021.59387998382
 c3558: 120 p_1_1 + 120 p_1_2 + 120 p_1_3 + 120 p_1_7 + 120 p_1_8 + 120 p_1_9 + 100000 z_1_1 + 100000 z_1_2 + 100000 z_1_3 + 100000 z_1_7 + 100000 z_1_8 + 100000 z_1_9 <= 602020.68417565455
 c3559: 120 p_1_4 + 120 p_1_7 + 120 p_1_8 + 120 p_1_9 + 100000 z_1_4 + 100000 z_1_7 + 100000 z_1_8 + 100000 z_1_9 <= 402129.49842723738
 c3560: 120 p_1_1 + 120 p_1_4 + 120 p_1_7 + 120 p_1_8 + 120 p_1_9 + 100000 z_1_1 + 100000 z_1_4 + 100000 z_1_7 + 100000 z_1_8 + 100000 z_1_9 <= 502129.43104751641
 c3561: 120 p_1_2 + 120 p_1_4 + 120 p_1_7 + 120 p_1_8 + 120 p_1_9 + 100000 z_1_2 + 100000 z_1_4 + 100000 z_1_7 + 100000 z_1_8 + 100000 z_1_9 <= 502127.26530779141
 c3562: 120 p_1_1 + 120 p_1_2 + 120 p_1_4 + 120 p_1_7 + 120 p_1_8 + 120 p_1_9 + 100000 z_1_1 + 100000 z_1_2 + 100000 z_1_4 + 100000 z_1_7 + 100000 z_1_8 + 100000 z_1_9 <= 602127.19792807044
 c3563: 120 p_1_3 + 120 p_1_4 + 120 p_1_7 + 120 p_1_8 + 120 p_1_9 + 100000 z_1_3 + 100000 z_1_4 + 100000 z_1_7 + 100000 z_1_8 + 100000 z_1_9 <= 502022.48022470111
 c3564: 120 p_1_1 + 120 p_1_3 + 120 p_1_4 + 120 p_1_7 + 120 p_1_8 + 120 p_1_9 + 100000 z_1_1 + 100000 z_1_3 + 100000 z_1_4 + 100000 z_1_7 + 100000 z_1_8 + 100000 z_1_9 <= 602022.41284498014
 c3565: 120 p_1_2 + 120 p_1_3 + 120 p_1_4 + 120 p_1_7 + 120 p_1_8 + 120 p_1_9 + 100000 z_1_2 + 100000 z_1_3 + 100000 z_1_4 + 100000 z_1_7 + 100000 z_1_8 + 100000 z_1_9 <= 602020.24710525514
 c3566: 120 p_1_1 + 120 p_1_2 + 120 p_1_3 + 120 p_1_4 + 120 p_1_7 + 120 p_1_8 + 120 p_1_9 + 100000 z_1_1 + 100000 z_1_2 + 100000 z_1_3 + 100000 z_1_4 + 100000 z_1_7 + 100000 z_1_8 + 100000 z_1_9 <= 702020.17972553417
 c3567: 120 p_1_5 + 120 p_1_7 + 120 p_1_8 + 120 p_1_9 + 100000 z_1_5 + 100000 z_1_7 + 100000 z_1_8 + 100000 z_1_9 <= 402126.94358795078
 c3568: 120 p_1_1 + 120 p_1_5 + 120 p_1_7 + 120 p_1_8 + 120 p_1_9 + 100000 z_1_1 + 100000 z_1_5 + 100000 z_1_7 + 100000 z_1_8 + 100000 z_1_9 <= 502126.03388362151
 c3569: 120 p_1_2 + 120 p_1_5 + 120 p_1_7 + 120 p_1_8 + 120 p_1_9 + 100000 z_1_2 + 100000 z_1_5 + 100000 z_1_7 + 100000 z_1_8 + 100000 z_1_9 <= 502112.17992703762
 c3570: 120 p_1_1 + 120 p_1_2 + 120 p_1_5 + 120 p_1_7 + 120 p_1_8 + 120 p_1_9 + 100000 z_1_1 + 100000 z_1_2 + 100000 z_1_5 + 100000 z_1_7 + 100000 z_1_8 + 100000 z_1_9 <= 602111.27022270835
 c3571: 120 p_1_3 + 120 p_1_5 + 120 p_1_7 + 120 p_1_8 + 120 p_1_9 + 100000 z_1_3 + 100000 z_1_5 + 100000 z_1_7 + 100000 z_1_8 + 100000 z_1_9 <= 502019.92538541451
 c3572: 120 p_1_1 + 120 p_1_3 + 120 p_1_5 + 120 p_1_7 + 120 p_1_8 + 120 p_1_9 + 100000 z_1_1 + 100000 z_1_3 + 100000 z_1_5 + 100000 z_1_7 + 100000 z_1_8 + 100000 z_1_9 <= 602019.01568108518
 c3573: 120 p_1_2 + 120 p_1_3 + 120 p_1_5 + 120 p_1_7 + 120 p_1_8 + 120 p_1_9 + 100000 z_1_2 + 100000 z_1_3 + 100000 z_1_5 + 100000 z_1_7 + 100000 z_1_8 + 100000 z_1_9 <= 602005.16172450141
 c3574: 120 p_1_1 + 120 p_1_2 + 120 p_1_3 + 120 p_1_5 + 120 p_1_7 + 120 p_1_8 + 120 p_1_9 + 100000 z_1_1 + 100000 z_1_2 + 100000 z_1_3 + 100000 z_1_5 + 100000 z_1_7 + 100000 z_1_8 + 100000 z_1_9 <= 702004.25202017208
 c3575: 120 p_1_4 + 120 p_1_5 + 120 p_1_7 + 120 p_1_8 + 120 p_1_9 + 100000 z_1_4 + 100000 z_1_5 + 100000 z_1_7 + 100000 z_1_8 + 100000 z_1_9 <= 502125.59681322204
 c3576: 120 p_1_1 + 120 p_1_4 + 120 p_1_5 + 120 p_1_7 + 120 p_1_8 + 120 p_1_9 + 100000 z_1_1 + 100000 z_1_4 + 100000 z_1_5 + 100000 z_1_7 + 100000 z_1_8 + 100000 z_1_9 <= 602125.52943350107
 c3577: 120 p_1_2 + 120 p_1_4 + 120 p_1_5 + 120 p_1_7 + 120 p_1_8 + 120 p_1_9 + 100000 z_1_2 + 100000 z_1_4 + 100000 z_1_5 + 100000 z_1_7 + 100000 z_1_8 + 100000 z_1_9 <= 602110.83315230894
 c3578: 120 p_1_1 + 120 p_1_2 + 120 p_1_4 + 120 p_1_5 + 120 p_1_7 + 120 p_1_8 + 120 p_1_9 + 100000 z_1_1 + 100000 z_1_2 + 100000 z_1_4 + 100000 z_1_5 + 100000 z_1_7 + 100000 z_1_8 + 100000 z_1_9 <= 702110.76577258797
 c3579: 120 p_1_3 + 120 p_1_4 + 120 p_1_5 + 120 p_1_7 + 120 p_1_8 + 120 p_1_9 + 100000 z_1_3 + 100000 z_1_4 + 100000 z_1_5 + 100000 z_1_7 + 100000 z_1_8 + 100000 z_1_9 <= 602018.57861068577
 c3580: 120 p_1_1 + 120 p_1_3 + 120 p_1_4 + 120 p_1_5 + 120 p_1_7 + 120 p_1_8 + 120 p_1_9 + 100000 z_1_1 + 100000 z_1_3 + 100000 z_1_4 + 100000 z_1_5 + 100000 z_1_7 + 100000 z_1_8 + 100000 z_1_9 <= 702018.5112309648
 c3581: 120 p_1_2 + 120 p_1_3 + 120 p_1_4 + 120 p_1_5 + 120 p_1_7 + 120 p_1_8 + 120 p_1_9 + 100000 z_1_2 + 100000 z_1_3 + 100000 z_1_4 + 100000 z_1_5 + 100000 z_1_7 + 100000 z_1_8 + 100000 z_1_9 <= 702003.81494977267
 c3582: 120 p_1_1 + 120 p_1_2 + 120 p_1_3 + 120 p_1_4 + 120 p_1_5 + 120 p_1_7 + 120 p_1_8 + 120 p_1_9 + 100000 z_1_1 + 100000 z_1_2 + 100000 z_1_3 + 100000 z_1_4 + 100000 z_1_5 + 100000 z_1_7 + 100000 z_1_8 + 100000 z_1_9 <= 802003.7475700517
 c3583: 120 p_1_6 + 120 p_1_7 + 120 p_1_8 + 120 p_1_9 + 100000 z_1_6 + 100000 z_1_7 + 100000 z_1_8 + 100000 z_1_9 <= 402076.68557907885
 c3584: 120 p_1_1 + 120 p_1_6 + 120 p_1_7 + 120 p_1_8 + 120 p_1_9 + 100000 z_1_1 + 100000 z_1_6 + 100000 z_1_7 + 100000 z_1_8 + 100000 z_1_9 <= 502075.77587474958
 c3585: 120 p_1_2 + 120 p_1_6 + 120 p_1_7 + 120 p_1_8 + 120 p_1_9 + 100000 z_1_2 + 100000 z_1_6 + 100000 z_1_7 + 100000 z_1_8 + 100000 z_1_9 <= 502074.45245963288
 c3586: 120 p_1_1 + 120 p_1_2 + 120 p_1_6 + 120 p_1_7 + 120 p_1_8 + 120 p_1_9 + 100000 z_1_1 + 100000 z_1_2 + 100000 z_1_6 + 100000 z_1_7 + 100000 z_1_8 + 100000 z_1_9 <= 602073.54275530356
 c3587: 120 p_1_3 + 120 p_1_6 + 120 p_1_7 + 120 p_1_8 + 120 p_1_9 + 100000 z_1_3 + 100000 z_1_6 + 100000 z_1_7 + 100000 z_1_8 + 100000 z_1_9 <= 502019.68991336145
 c3588: 120 p_1_1 + 120 p_1_3 + 120 p_1_6 + 120 p_1_7 + 120 p_1_8 + 120 p_1_9 + 100000 z_1_1 + 100000 z_1_3 + 100000 z_1_6 + 100000 z_1_7 + 100000 z_1_8 + 100000 z_1_9 <= 602018.78020903224
 c3589: 120 p_1_2 + 120 p_1_3 + 120 p_1_6 + 120 p_1_7 + 120 p_1_8 + 120 p_1_9 + 100000 z_1_2 + 100000 z_1_3 + 100000 z_1_6 + 100000 z_1_7 + 100000 z_1_8 + 100000 z_1_9 <= 602017.45679391548
 c3590: 120 p_1_1 + 120 p_1_2 + 120 p_1_3 + 120 p_1_6 + 120 p_1_7 + 120 p_1_8 + 120 p_1_9 + 100000 z_1_1 + 100000 z_1_2 + 100000 z_1_3 + 100000 z_1_6 + 100000 z_1_7 + 100000 z_1_8 + 100000 z_1_9 <= 702016.54708958615
 c3591: 120 p_1_4 + 120 p_1_6 + 120 p_1_7 + 120 p_1_8 + 120 p_1_9 + 100000 z_1_4 + 100000 z_1_6 + 100000 z_1_7 + 100000 z_1_8 + 100000 z_1_9 <= 502075.33880435012
 c3592: 120 p_1_1 + 120 p_1_4 + 120 p_1_6 + 120 p_1_7 + 120 p_1_8 + 120 p_1_9 + 100000 z_1_1 + 100000 z_1_4 + 100000 z_1_6 + 100000 z_1_7 + 100000 z_1_8 + 100000 z_1_9 <= 602075.27142462914
 c3593: 120 p_1_2 + 120 p_1_4 + 120 p_1_6 + 120 p_1_7 + 120 p_1_8 + 120 p_1_9 + 100000 z_1_2 + 100000 z_1_4 + 100000 z_1_6 + 100000 z_1_7 + 100000 z_1_8 + 100000 z_1_9 <= 602073.10568490415
 c3594: 120 p_1_1 + 120 p_1_2 + 120 p_1_4 + 120 p_1_6 + 120 p_1_7 + 120 p_1_8 + 120 p_1_9 + 100000 z_1_1 + 100000 z_1_2 + 100000 z_1_4 + 100000 z_1_6 + 100000 z_1_7 + 100000 z_1_8 + 100000 z_1_9 <= 702073.03830518317
 c3595: 120 p_1_3 + 120 p_1_4 + 120 p_1_6 + 120 p_1_7 + 120 p_1_8 + 120 p_1_9 + 100000 z_1_3 + 100000 z_1_4 + 100000 z_1_6 + 100000 z_1_7 + 100000 z_1_8 + 100000 z_1_9 <= 602018.34313863271
 c3596: 120 p_1_1 + 120 p_1_3 + 120 p_1_4 + 120 p_1_6 + 120 p_1_7 + 120 p_1_8 + 120 p_1_9 + 100000 z_1_1 + 100000 z_1_3 + 100000 z_1_4 + 100000 z_1_6 + 100000 z_1_7 + 100000 z_1_8 + 100000 z_1_9 <= 702018.27575891186
 c3597: 120 p_1_2 + 120 p_1_3 + 120 p_1_4 + 120 p_1_6 + 120 p_1_7 + 120 p_1_8 + 120 p_1_9 + 100000 z_1_2 + 100000 z_1_3 + 100000 z_1_4 + 100000 z_1_6 + 100000 z_1_7 + 100000 z_1_8 + 100000 z_1_9 <= 702016.11001918674
 c3598: 120 p_1_1 + 120 p_1_2 + 120 p_1_3 + 120 p_1_4 + 120 p_1_6 + 120 p_1_7 + 120 p_1_8 + 120 p_1_9 + 100000 z_1_1 + 100000 z_1_2 + 100000 z_1_3 + 100000 z_1_4 + 100000 z_1_6 + 100000 z_1_7 + 100000 z_1_8 + 100000 z_1_9 <= 802016.04263946577
 c3599: 120 p_1_5 + 120 p_1_6 + 120 p_1_7 + 120 p_1_8 + 120 p_1_9 + 100000 z_1_5 + 100000 z_1_6 + 100000 z_1_7 + 100000 z_1_8 + 100000 z_1_9 <= 502072.78396506351
 c3600: 120 p_1_1 + 120 p_1_5 + 120 p_1_6 + 120 p_1_7 + 120 p_1_8 + 120 p_1_9 + 100000 z_1_1 + 100000 z_1_5 + 100000 z_1_6 + 100000 z_1_7 + 100000 z_1_8 + 100000 z_1_9 <= 602071.8742607343
 c3601: 120 p_1_2 + 120 p_1_5 + 120 p_1_6 + 120 p_1_7 + 120 p_1_8 + 120 p_1_9 + 100000 z_1_2 + 100000 z_1_5 + 100000 z_1_6 + 100000 z_1_7 + 100000 z_1_8 + 100000 z_1_9 <= 602058.02030415041
 c3602: 120 p_1_1 + 120 p_1_2 + 120 p_1_5 + 120 p_1_6 + 120 p_1_7 + 120 p_1_8 + 120 p_1_9 + 100000 z_1_1 + 100000 z_1_2 + 100000 z_1_5 + 100000 z_1_6 + 100000 z_1_7 + 100000 z_1_8 + 100000 z_1_9 <= 702057.11059982108
 c3603: 120 p_1_3 + 120 p_1_5 + 120 p_1_6 + 120 p_1_7 + 120 p_1_8 + 120 p_1_9 + 100000 z_1_3 + 100000 z_1_5 + 100000 z_1_6 + 100000 z_1_7 + 100000 z_1_8 + 100000 z_1_9 <= 602015.78829934611
 c3604: 120 p_1_1 + 120 p_1_3 + 120 p_1_5 + 120 p_1_6 + 120 p_1_7 + 120 p_1_8 + 120 p_1_9 + 100000 z_1_1 + 100000 z_1_3 + 100000 z_1_5 + 100000 z_1_6 + 100000 z_1_7 + 100000 z_1_8 + 100000 z_1_9 <= 702014.8785950169
 c3605: 120 p_1_2 + 120 p_1_3 + 120 p_1_5 + 120 p_1_6 + 120 p_1_7 + 120 p_1_8 + 120 p_1_9 + 100000 z_1_2 + 100000 z_1_3 + 100000 z_1_5 + 100000 z_1_6 + 100000 z_1_7 + 100000 z_1_8 + 100000 z_1_9 <= 702001.02463843301
 c3606: 120 p_1_1 + 120 p_1_2 + 120 p_1_3 + 120 p_1_5 + 120 p_1_6 + 120 p_1_7 + 120 p_1_8 + 120 p_1_9 + 100000 z_1_1 + 100000 z_1_2 + 100000 z_1_3 + 100000 z_1_5 + 100000 z_1_6 + 100000 z_1_7 + 100000 z_1_8 + 100000 z_1_9 <= 802000.1149341038
 c3607: 120 p_1_4 + 120 p_1_5 + 120 p_1_6 + 120 p_1_7 + 120 p_1_8 + 120 p_1_9 + 100000 z_1_4 + 100000 z_1_5 + 100000 z_1_6 + 100000 z_1_7 + 100000 z_1_8 + 100000 z_1_9 <= 602071.43719033478
 c3608: 120 p_1_1 + 120 p_1_4 + 120 p_1_5 + 120 p_1_6 + 120 p_1_7 + 120 p_1_8 + 120 p_1_9 + 100000 z_1_1 + 100000 z_1_4 + 100000 z_1_5 + 100000 z_1_6 + 100000 z_1_7 + 100000 z_1_8 + 100000 z_1_9 <= 702071.36981061392
 c3609: 120 p_1_2 + 120 p_1_4 + 120 p_1_5 + 120 p_1_6 + 120 p_1_7 + 120 p_1_8 + 120 p_1_9 + 100000 z_1_2 + 100000 z_1_4 + 100000 z_1_5 + 100000 z_1_6 + 100000 z_1_7 + 100000 z_1_8 + 100000 z_1_9 <= 702056.67352942168
 c3610: 120 p_1_1 + 120 p_1_2 + 120 p_1_4 + 120 p_1_5 + 120 p_1_6 + 120 p_1_7 + 120 p_1_8 + 120 p_1_9 + 100000 z_1_1 + 100000 z_1_2 + 100000 z_1_4 + 100000 z_1_5 + 100000 z_1_6 + 100000 z_1_7 + 100000 z_1_8 + 100000 z_1_9 <= 802056.6061497007
 c3611: 120 p_1_3 + 120 p_1_4 + 120 p_1_5 + 120 p_1_6 + 120 p_1_7 + 120 p_1_8 + 120 p_1_9 + 100000 z_1_3 + 100000 z_1_4 + 100000 z_1_5 + 100000 z_1_6 + 100000 z_1_7 + 100000 z_1_8 + 100000 z_1_9 <= 702014.44152461749
 c3612: 120 p_1_1 + 120 p_1_3 + 120 p_1_4 + 120 p_1_5 + 120 p_1_6 + 120 p_1_7 + 120 p_1_8 + 120 p_1_9 + 100000 z_1_1 + 100000 z_1_3 + 100000 z_1_4 + 100000 z_1_5 + 100000 z_1_6 + 100000 z_1_7 + 100000 z_1_8 + 100000 z_1_9 <= 802014.37414489652
 c3613: 120 p_1_2 + 120 p_1_3 + 120 p_1_4 + 120 p_1_5 + 120 p_1_6 + 120 p_1_7 + 120 p_1_8 + 120 p_1_9 + 100000 z_1_2 + 100000 z_1_3 + 100000 z_1_4 + 100000 z_1_5 + 100000 z_1_6 + 100000 z_1_7 + 100000 z_1_8 + 100000 z_1_9 <= 801999.67786370427
 c3614: 120 p_1_1 + 120 p_1_2 + 120 p_1_3 + 120 p_1_4 + 120 p_1_5 + 120 p_1_6 + 120 p_1_7 + 120 p_1_8 + 120 p_1_9 + 100000 z_1_1 + 100000 z_1_2 + 100000 z_1_3 + 100000 z_1_4 + 100000 z_1_5 + 100000 z_1_6 + 100000 z_1_7 + 100000 z_1_8 + 100000 z_1_9 <= 901999.61048398342
 c3615: 120 p_1_10 + 100000 z_1_10 <= 103013.11101556507
 c3616: 120 p_1_1 + 120 p_1_10 + 100000 z_1_1 + 100000 z_1_10 <= 203010.7657669099
 c3617: 120 p_1_10 + 120 p_1_2 + 100000 z_1_10 + 100000 z_1_2 <= 202643.81166316185
 c3618: 120 p_1_1 + 120 p_1_10 + 120 p_1_2 + 100000 z_1_1 + 100000 z_1_10 + 100000 z_1_2 <= 302643.65898107423
 c3619: 120 p_1_10 + 120 p_1_3 + 100000 z_1_10 + 100000 z_1_3 <= 202533.90404215889
 c3620: 120 p_1_1 + 120 p_1_10 + 120 p_1_3 + 100000 z_1_1 + 100000 z_1_10 + 100000 z_1_3 <= 302531.55879350373
 c3621: 120 p_1_10 + 120 p_1_2 + 120 p_1_3 + 100000 z_1_10 + 100000 z_1_2 + 100000 z_1_3 <= 302233.3676803151
 c3622: 120 p_1_1 + 120 p_1_10 + 120 p_1_2 + 120 p_1_3 + 100000 z_1_1 + 100000 z_1_10 + 100000 z_1_2 + 100000 z_1_3 <= 402231.02243165998
 c3623: 120 p_1_10 + 120 p_1_4 + 100000 z_1_10 + 100000 z_1_4 <= 203010.61210442503
 c3624: 120 p_1_1 + 120 p_1_10 + 120 p_1_4 + 100000 z_1_1 + 100000 z_1_10 + 100000 z_1_4 <= 303010.54472470406
 c3625: 120 p_1_10 + 120 p_1_2 + 120 p_1_4 + 100000 z_1_10 + 100000 z_1_2 + 100000 z_1_4 <= 302643.7873323143
 c3626: 120 p_1_1 + 120 p_1_10 + 120 p_1_2 + 120 p_1_4 + 100000 z_1_1 + 100000 z_1_10 + 100000 z_1_2 + 100000 z_1_4 <= 402643.43793886842
 c3627: 120 p_1_10 + 120 p_1_3 + 120 p_1_4 + 100000 z_1_10 + 100000 z_1_3 + 100000 z_1_4 <= 302531.40513101884
 c3628: 120 p_1_1 + 120 p_1_10 + 120 p_1_3 + 120 p_1_4 + 100000 z_1_1 + 100000 z_1_10 + 100000 z_1_3 + 100000 z_1_4 <= 402531.33775129792
 c3629: 120 p_1_10 + 120 p_1_2 + 120 p_1_3 + 120 p_1_4 + 100000 z_1_10 + 100000 z_1_2 + 100000 z_1_3 + 100000 z_1_4 <= 402230.86876917508
 c3630: 120 p_1_1 + 120 p_1_10 + 120 p_1_2 + 120 p_1_3 + 120 p_1_4 + 100000 z_1_1 + 100000 z_1_10 + 100000 z_1_2 + 100000 z_1_3 + 100000 z_1_4 <= 502230.80138945417
 c3631: 120 p_1_10 + 120 p_1_5 + 100000 z_1_10 + 100000 z_1_5 <= 202673.23694256812
 c3632: 120 p_1_1 + 120 p_1_10 + 120 p_1_5 + 100000 z_1_1 + 100000 z_1_10 + 100000 z_1_5 <= 302671.93647274375
 c3633: 120 p_1_10 + 120 p_1_2 + 120 p_1_5 + 100000 z_1_10 + 100000 z_1_2 + 100000 z_1_5 <= 302614.55134600768
 c3634: 120 p_1_1 + 120 p_1_10 + 120 p_1_2 + 120 p_1_5 + 100000 z_1_1 + 100000 z_1_10 + 100000 z_1_2 + 100000 z_1_5 <= 402613.25087618333
 c3635: 120 p_1_10 + 120 p_1_3 + 120 p_1_5 + 100000 z_1_10 + 100000 z_1_3 + 100000 z_1_5 <= 302196.96506965527
 c3636: 120 p_1_1 + 120 p_1_10 + 120 p_1_3 + 120 p_1_5 + 100000 z_1_1 + 100000 z_1_10 + 100000 z_1_3 + 100000 z_1_5 <= 402194.61982100009
 c3637: 120 p_1_10 + 120 p_1_2 + 120 p_1_3 + 120 p_1_5 + 100000 z_1_10 + 100000 z_1_2 + 100000 z_1_3 + 100000 z_1_5 <= 402175.95291051752
 c3638: 120 p_1_1 + 120 p_1_10 + 120 p_1_2 + 120 p_1_3 + 120 p_1_5 + 100000 z_1_1 + 100000 z_1_10 + 100000 z_1_2 + 100000 z_1_3 + 100000 z_1_5 <= 502173.60766186233
 c3639: 120 p_1_10 + 120 p_1_4 + 120 p_1_5 + 100000 z_1_10 + 100000 z_1_4 + 100000 z_1_5 <= 302672.53969253658
 c3640: 120 p_1_1 + 120 p_1_10 + 120 p_1_4 + 120 p_1_5 + 100000 z_1_1 + 100000 z_1_10 + 100000 z_1_4 + 100000 z_1_5 <= 402671.71543053794
 c3641: 120 p_1_10 + 120 p_1_2 + 120 p_1_4 + 120 p_1_5 + 100000 z_1_10 + 100000 z_1_2 + 100000 z_1_4 + 100000 z_1_5 <= 402613.85409597616
 c3642: 120 p_1_1 + 120 p_1_10 + 120 p_1_2 + 120 p_1_4 + 120 p_1_5 + 100000 z_1_1 + 100000 z_1_10 + 100000 z_1_2 + 100000 z_1_4 + 100000 z_1_5 <= 502613.02983397752
 c3643: 120 p_1_10 + 120 p_1_3 + 120 p_1_4 + 120 p_1_5 + 100000 z_1_10 + 100000 z_1_3 + 100000 z_1_4 + 100000 z_1_5 <= 402194.46615851525
 c3644: 120 p_1_1 + 120 p_1_10 + 120 p_1_3 + 120 p_1_4 + 120 p_1_5 + 100000 z_1_1 + 100000 z_1_10 + 100000 z_1_3 + 100000 z_1_4 + 100000 z_1_5 <= 502194.39877879428
 c3645: 120 p_1_10 + 120 p_1_2 + 120 p_1_3 + 120 p_1_4 + 120 p_1_5 + 100000 z_1_10 + 100000 z_1_2 + 100000 z_1_3 + 100000 z_1_4 + 100000 z_1_5 <= 502173.4539993775
 c3646: 120 p_1_1 + 120 p_1_10 + 120 p_1_2 + 120 p_1_3 + 120 p_1_4 + 120 p_1_5 + 100000 z_1_1 + 100000 z_1_10 + 100000 z_1_2 + 100000 z_1_3 + 100000 z_1_4 + 100000 z_1_5 <= 602173.38661965658
 c3647: 120 p_1_10 + 120 p_1_6 + 100000 z_1_10 + 100000 z_1_6 <= 202579.84619052894
 c3648: 120 p_1_1 + 120 p_1_10 + 120 p_1_6 + 100000 z_1_1 + 100000 z_1_10 + 100000 z_1_6 <= 302577.50094187382
 c3649: 120 p_1_10 + 120 p_1_2 + 120 p_1_6 + 100000 z_1_10 + 100000 z_1_2 + 100000 z_1_6 <= 302283.39853503736
 c3650: 120 p_1_1 + 120 p_1_10 + 120 p_1_2 + 120 p_1_6 + 100000 z_1_1 + 100000 z_1_10 + 100000 z_1_2 + 100000 z_1_6 <= 402281.05328638217
 c3651: 120 p_1_10 + 120 p_1_3 + 120 p_1_6 + 100000 z_1_10 + 100000 z_1_3 + 100000 z_1_6 <= 302529.76695609052
 c3652: 120 p_1_1 + 120 p_1_10 + 120 p_1_3 + 120 p_1_6 + 100000 z_1_1 + 100000 z_1_10 + 100000 z_1_3 + 100000 z_1_6 <= 402527.42170743534
 c3653: 120 p_1_10 + 120 p_1_2 + 120 p_1_3 + 120 p_1_6 + 100000 z_1_10 + 100000 z_1_2 + 100000 z_1_3 + 100000 z_1_6 <= 402233.31930059893
 c3654: 120 p_1_1 + 120 p_1_10 + 120 p_1_2 + 120 p_1_3 + 120 p_1_6 + 100000 z_1_1 + 100000 z_1_10 + 100000 z_1_2 + 100000 z_1_3 + 100000 z_1_6 <= 502230.97405194375
 c3655: 120 p_1_10 + 120 p_1_4 + 120 p_1_6 + 100000 z_1_10 + 100000 z_1_4 + 100000 z_1_6 <= 302577.34727938892
 c3656: 120 p_1_1 + 120 p_1_10 + 120 p_1_4 + 120 p_1_6 + 100000 z_1_1 + 100000 z_1_10 + 100000 z_1_4 + 100000 z_1_6 <= 402577.27989966795
 c3657: 120 p_1_10 + 120 p_1_2 + 120 p_1_4 + 120 p_1_6 + 100000 z_1_10 + 100000 z_1_2 + 100000 z_1_4 + 100000 z_1_6 <= 402280.89962389728
 c3658: 120 p_1_1 + 120 p_1_10 + 120 p_1_2 + 120 p_1_4 + 120 p_1_6 + 100000 z_1_1 + 100000 z_1_10 + 100000 z_1_2 + 100000 z_1_4 + 100000 z_1_6 <= 502280.83224417636
 c3659: 120 p_1_10 + 120 p_1_3 + 120 p_1_4 + 120 p_1_6 + 100000 z_1_10 + 100000 z_1_3 + 100000 z_1_4 + 100000 z_1_6 <= 402527.2680449505
 c3660: 120 p_1_1 + 120 p_1_10 + 120 p_1_3 + 120 p_1_4 + 120 p_1_6 + 100000 z_1_1 + 100000 z_1_10 + 100000 z_1_3 + 100000 z_1_4 + 100000 z_1_6 <= 502527.20066522952
 c3661: 120 p_1_10 + 120 p_1_2 + 120 p_1_3 + 120 p_1_4 + 120 p_1_6 + 100000 z_1_10 + 100000 z_1_2 + 100000 z_1_3 + 100000 z_1_4 + 100000 z_1_6 <= 502230.82038945885
 c3662: 120 p_1_1 + 120 p_1_10 + 120 p_1_2 + 120 p_1_3 + 120 p_1_4 + 120 p_1_6 + 100000 z_1_1 + 100000 z_1_10 + 100000 z_1_2 + 100000 z_1_3 + 100000 z_1_4 + 100000 z_1_6 <= 602230.75300973793
 c3663: 120 p_1_10 + 120 p_1_5 + 120 p_1_6 + 100000 z_1_10 + 100000 z_1_5 + 100000 z_1_6 <= 302246.97889790701
 c3664: 120 p_1_1 + 120 p_1_10 + 120 p_1_5 + 120 p_1_6 + 100000 z_1_1 + 100000 z_1_10 + 100000 z_1_5 + 100000 z_1_6 <= 402244.63364925189
 c3665: 120 p_1_10 + 120 p_1_2 + 120 p_1_5 + 120 p_1_6 + 100000 z_1_10 + 100000 z_1_2 + 100000 z_1_5 + 100000 z_1_6 <= 402225.98376523971
 c3666: 120 p_1_1 + 120 p_1_10 + 120 p_1_2 + 120 p_1_5 + 120 p_1_6 + 100000 z_1_1 + 100000 z_1_10 + 100000 z_1_2 + 100000 z_1_5 + 100000 z_1_6 <= 502223.63851658459
 c3667: 120 p_1_10 + 120 p_1_3 + 120 p_1_5 + 120 p_1_6 + 100000 z_1_10 + 100000 z_1_3 + 100000 z_1_5 + 100000 z_1_6 <= 402196.89966346859
 c3668: 120 p_1_1 + 120 p_1_10 + 120 p_1_3 + 120 p_1_5 + 120 p_1_6 + 100000 z_1_1 + 100000 z_1_10 + 100000 z_1_3 + 100000 z_1_5 + 100000 z_1_6 <= 502194.55441481346
 c3669: 120 p_1_10 + 120 p_1_2 + 120 p_1_3 + 120 p_1_5 + 120 p_1_6 + 100000 z_1_10 + 100000 z_1_2 + 100000 z_1_3 + 100000 z_1_5 + 100000 z_1_6 <= 502175.90453080129
 c3670: 120 p_1_1 + 120 p_1_10 + 120 p_1_2 + 120 p_1_3 + 120 p_1_5 + 120 p_1_6 + 100000 z_1_1 + 100000 z_1_10 + 100000 z_1_2 + 100000 z_1_3 + 100000 z_1_5 + 100000 z_1_6 <= 602173.55928214616
 c3671: 120 p_1_10 + 120 p_1_4 + 120 p_1_5 + 120 p_1_6 + 100000 z_1_10 + 100000 z_1_4 + 100000 z_1_5 + 100000 z_1_6 <= 402244.47998676699
 c3672: 120 p_1_1 + 120 p_1_10 + 120 p_1_4 + 120 p_1_5 + 120 p_1_6 + 100000 z_1_1 + 100000 z_1_10 + 100000 z_1_4 + 100000 z_1_5 + 100000 z_1_6 <= 502244.41260704608
 c3673: 120 p_1_10 + 120 p_1_2 + 120 p_1_4 + 120 p_1_5 + 120 p_1_6 + 100000 z_1_10 + 100000 z_1_2 + 100000 z_1_4 + 100000 z_1_5 + 100000 z_1_6 <= 502223.48485409969
 c3674: 120 p_1_1 + 120 p_1_10 + 120 p_1_2 + 120 p_1_4 + 120 p_1_5 + 120 p_1_6 + 100000 z_1_1 + 100000 z_1_10 + 100000 z_1_2 + 100000 z_1_4 + 100000 z_1_5 + 100000 z_1_6 <= 602223.41747437872
 c3675: 120 p_1_10 + 120 p_1_3 + 120 p_1_4 + 120 p_1_5 + 120 p_1_6 + 100000 z_1_10 + 100000 z_1_3 + 100000 z_1_4 + 100000 z_1_5 + 100000 z_1_6 <= 502194.40075232857
 c3676: 120 p_1_1 + 120 p_1_10 + 120 p_1_3 + 120 p_1_4 + 120 p_1_5 + 120 p_1_6 + 100000 z_1_1 + 100000 z_1_10 + 100000 z_1_3 + 100000 z_1_4 + 100000 z_1_5 + 100000 z_1_6 <= 602194.33337260759
 c3677: 120 p_1_10 + 120 p_1_2 + 120 p_1_3 + 120 p_1_4 + 120 p_1_5 + 120 p_1_6 + 100000 z_1_10 + 100000 z_1_2 + 100000 z_1_3 + 100000 z_1_4 + 100000 z_1_5 + 100000 z_1_6 <= 602173.40561966121
 c3678: 120 p_1_1 + 120 p_1_10 + 120 p_1_2 + 120 p_1_3 + 120 p_1_4 + 120 p_1_5 + 120 p_1_6 + 100000 z_1_1 + 100000 z_1_10 + 100000 z_1_2 + 100000 z_1_3 + 100000 z_1_4 + 100000 z_1_5 + 100000 z_1_6 <= 702173.33823994035
 c3679: 120 p_1_10 + 120 p_1_7 + 100000 z_1_10 + 100000 z_1_7 <= 202951.44977953972
 c3680: 120 p_1_1 + 120 p_1_10 + 120 p_1_7 + 100000 z_1_1 + 100000 z_1_10 + 100000 z_1_7 <= 302950.54007521045
 c3681: 120 p_1_10 + 120 p_1_2 + 120 p_1_7 + 100000 z_1_10 + 100000 z_1_2 + 100000 z_1_7 <= 302593.7301807378
 c3682: 120 p_1_1 + 120 p_1_10 + 120 p_1_2 + 120 p_1_7 + 100000 z_1_1 + 100000 z_1_10 + 100000 z_1_2 + 100000 z_1_7 <= 402591.38493208261
 c3683: 120 p_1_10 + 120 p_1_3 + 120 p_1_7 + 100000 z_1_10 + 100000 z_1_3 + 100000 z_1_7 <= 302472.24280613352
 c3684: 120 p_1_1 + 120 p_1_10 + 120 p_1_3 + 120 p_1_7 + 100000 z_1_1 + 100000 z_1_10 + 100000 z_1_3 + 100000 z_1_7 <= 402471.33310180425
 c3685: 120 p_1_10 + 120 p_1_2 + 120 p_1_3 + 120 p_1_7 + 100000 z_1_10 + 100000 z_1_2 + 100000 z_1_3 + 100000 z_1_7 <= 402171.70644428977
 c3686: 120 p_1_1 + 120 p_1_10 + 120 p_1_2 + 120 p_1_3 + 120 p_1_7 + 100000 z_1_1 + 100000 z_1_10 + 100000 z_1_2 + 100000 z_1_3 + 100000 z_1_7 <= 502170.7967399605
 c3687: 120 p_1_10 + 120 p_1_4 + 120 p_1_7 + 100000 z_1_10 + 100000 z_1_4 + 100000 z_1_7 <= 302950.10300481098
 c3688: 120 p_1_1 + 120 p_1_10 + 120 p_1_4 + 120 p_1_7 + 100000 z_1_1 + 100000 z_1_10 + 100000 z_1_4 + 100000 z_1_7 <= 402950.03562509007
 c3689: 120 p_1_10 + 120 p_1_2 + 120 p_1_4 + 120 p_1_7 + 100000 z_1_10 + 100000 z_1_2 + 100000 z_1_4 + 100000 z_1_7 <= 402591.23126959777
 c3690: 120 p_1_1 + 120 p_1_10 + 120 p_1_2 + 120 p_1_4 + 120 p_1_7 + 100000 z_1_1 + 100000 z_1_10 + 100000 z_1_2 + 100000 z_1_4 + 100000 z_1_7 <= 502591.1638898768
 c3691: 120 p_1_10 + 120 p_1_3 + 120 p_1_4 + 120 p_1_7 + 100000 z_1_10 + 100000 z_1_3 + 100000 z_1_4 + 100000 z_1_7 <= 402470.89603140485
 c3692: 120 p_1_1 + 120 p_1_10 + 120 p_1_3 + 120 p_1_4 + 120 p_1_7 + 100000 z_1_1 + 100000 z_1_10 + 100000 z_1_3 + 100000 z_1_4 + 100000 z_1_7 <= 502470.82865168387
 c3693: 120 p_1_10 + 120 p_1_2 + 120 p_1_3 + 120 p_1_4 + 120 p_1_7 + 100000 z_1_10 + 100000 z_1_2 + 100000 z_1_3 + 100000 z_1_4 + 100000 z_1_7 <= 502170.35966956103
 c3694: 120 p_1_1 + 120 p_1_10 + 120 p_1_2 + 120 p_1_3 + 120 p_1_4 + 120 p_1_7 + 100000 z_1_1 + 100000 z_1_10 + 100000 z_1_2 + 100000 z_1_3 + 100000 z_1_4 + 100000 z_1_7 <= 602170.29228984006
 c3695: 120 p_1_10 + 120 p_1_5 + 120 p_1_7 + 100000 z_1_10 + 100000 z_1_5 + 100000 z_1_7 <= 302627.64339477854
 c3696: 120 p_1_1 + 120 p_1_10 + 120 p_1_5 + 120 p_1_7 + 100000 z_1_1 + 100000 z_1_10 + 100000 z_1_5 + 100000 z_1_7 <= 402625.29814612336
 c3697: 120 p_1_10 + 120 p_1_2 + 120 p_1_5 + 120 p_1_7 + 100000 z_1_10 + 100000 z_1_2 + 100000 z_1_5 + 100000 z_1_7 <= 402568.95779821806
 c3698: 120 p_1_1 + 120 p_1_10 + 120 p_1_2 + 120 p_1_5 + 120 p_1_7 + 100000 z_1_1 + 100000 z_1_10 + 100000 z_1_2 + 100000 z_1_5 + 100000 z_1_7 <= 502566.61254956294
 c3699: 120 p_1_10 + 120 p_1_3 + 120 p_1_5 + 120 p_1_7 + 100000 z_1_10 + 100000 z_1_3 + 100000 z_1_5 + 100000 z_1_7 <= 402148.43642137235
 c3700: 120 p_1_1 + 120 p_1_10 + 120 p_1_3 + 120 p_1_5 + 120 p_1_7 + 100000 z_1_1 + 100000 z_1_10 + 100000 z_1_3 + 100000 z_1_5 + 100000 z_1_7 <= 502134.39412930061
 c3701: 120 p_1_10 + 120 p_1_2 + 120 p_1_3 + 120 p_1_5 + 120 p_1_7 + 100000 z_1_10 + 100000 z_1_2 + 100000 z_1_3 + 100000 z_1_5 + 100000 z_1_7 <= 502114.29167449218
 c3702: 120 p_1_1 + 120 p_1_10 + 120 p_1_2 + 120 p_1_3 + 120 p_1_5 + 120 p_1_7 + 100000 z_1_1 + 100000 z_1_10 + 100000 z_1_2 + 100000 z_1_3 + 100000 z_1_5 + 100000 z_1_7 <= 602113.38197016285
 c3703: 120 p_1_10 + 120 p_1_4 + 120 p_1_5 + 120 p_1_7 + 100000 z_1_10 + 100000 z_1_4 + 100000 z_1_5 + 100000 z_1_7 <= 402625.14448363846
 c3704: 120 p_1_1 + 120 p_1_10 + 120 p_1_4 + 120 p_1_5 + 120 p_1_7 + 100000 z_1_1 + 100000 z_1_10 + 100000 z_1_4 + 100000 z_1_5 + 100000 z_1_7 <= 502625.07710391755
 c3705: 120 p_1_10 + 120 p_1_2 + 120 p_1_4 + 120 p_1_5 + 120 p_1_7 + 100000 z_1_10 + 100000 z_1_2 + 100000 z_1_4 + 100000 z_1_5 + 100000 z_1_7 <= 502566.45888707804
 c3706: 120 p_1_1 + 120 p_1_10 + 120 p_1_2 + 120 p_1_4 + 120 p_1_5 + 120 p_1_7 + 100000 z_1_1 + 100000 z_1_10 + 100000 z_1_2 + 100000 z_1_4 + 100000 z_1_5 + 100000 z_1_7 <= 602566.39150735713
 c3707: 120 p_1_10 + 120 p_1_3 + 120 p_1_4 + 120 p_1_5 + 120 p_1_7 + 100000 z_1_10 + 100000 z_1_3 + 100000 z_1_4 + 100000 z_1_5 + 100000 z_1_7 <= 502133.9570589012
 c3708: 120 p_1_1 + 120 p_1_10 + 120 p_1_3 + 120 p_1_4 + 120 p_1_5 + 120 p_1_7 + 100000 z_1_1 + 100000 z_1_10 + 100000 z_1_3 + 100000 z_1_4 + 100000 z_1_5 + 100000 z_1_7 <= 602133.88967918023
 c3709: 120 p_1_10 + 120 p_1_2 + 120 p_1_3 + 120 p_1_4 + 120 p_1_5 + 120 p_1_7 + 100000 z_1_10 + 100000 z_1_2 + 100000 z_1_3 + 100000 z_1_4 + 100000 z_1_5 + 100000 z_1_7 <= 602112.94489976345
 c3710: 120 p_1_1 + 120 p_1_10 + 120 p_1_2 + 120 p_1_3 + 120 p_1_4 + 120 p_1_5 + 120 p_1_7 + 100000 z_1_1 + 100000 z_1_10 + 100000 z_1_2 + 100000 z_1_3 + 100000 z_1_4 + 100000 z_1_5 + 100000 z_1_7 <= 702112.87752004247
 c3711: 120 p_1_10 + 120 p_1_6 + 120 p_1_7 + 100000 z_1_10 + 100000 z_1_6 + 100000 z_1_7 <= 302518.18495450361
 c3712: 120 p_1_1 + 120 p_1_10 + 120 p_1_6 + 120 p_1_7 + 100000 z_1_1 + 100000 z_1_10 + 100000 z_1_6 + 100000 z_1_7 <= 402517.27525017434
 c3713: 120 p_1_10 + 120 p_1_2 + 120 p_1_6 + 120 p_1_7 + 100000 z_1_10 + 100000 z_1_2 + 100000 z_1_6 + 100000 z_1_7 <= 402221.73729901196
 c3714: 120 p_1_1 + 120 p_1_10 + 120 p_1_2 + 120 p_1_6 + 120 p_1_7 + 100000 z_1_1 + 100000 z_1_10 + 100000 z_1_2 + 100000 z_1_6 + 100000 z_1_7 <= 502220.82759468269
 c3715: 120 p_1_10 + 120 p_1_3 + 120 p_1_6 + 120 p_1_7 + 100000 z_1_10 + 100000 z_1_3 + 100000 z_1_6 + 100000 z_1_7 <= 402468.10572006518
 c3716: 120 p_1_1 + 120 p_1_10 + 120 p_1_3 + 120 p_1_6 + 120 p_1_7 + 100000 z_1_1 + 100000 z_1_10 + 100000 z_1_3 + 100000 z_1_6 + 100000 z_1_7 <= 502467.19601573591
 c3717: 120 p_1_10 + 120 p_1_2 + 120 p_1_3 + 120 p_1_6 + 120 p_1_7 + 100000 z_1_10 + 100000 z_1_2 + 100000 z_1_3 + 100000 z_1_6 + 100000 z_1_7 <= 502171.65806457354
 c3718: 120 p_1_1 + 120 p_1_10 + 120 p_1_2 + 120 p_1_3 + 120 p_1_6 + 120 p_1_7 + 100000 z_1_1 + 100000 z_1_10 + 100000 z_1_2 + 100000 z_1_3 + 100000 z_1_6 + 100000 z_1_7 <= 602170.74836024421
 c3719: 120 p_1_10 + 120 p_1_4 + 120 p_1_6 + 120 p_1_7 + 100000 z_1_10 + 100000 z_1_4 + 100000 z_1_6 + 100000 z_1_7 <= 402516.83817977487
 c3720: 120 p_1_1 + 120 p_1_10 + 120 p_1_4 + 120 p_1_6 + 120 p_1_7 + 100000 z_1_1 + 100000 z_1_10 + 100000 z_1_4 + 100000 z_1_6 + 100000 z_1_7 <= 502516.77080005396
 c3721: 120 p_1_10 + 120 p_1_2 + 120 p_1_4 + 120 p_1_6 + 120 p_1_7 + 100000 z_1_10 + 100000 z_1_2 + 100000 z_1_4 + 100000 z_1_6 + 100000 z_1_7 <= 502220.39052428328
 c3722: 120 p_1_1 + 120 p_1_10 + 120 p_1_2 + 120 p_1_4 + 120 p_1_6 + 120 p_1_7 + 100000 z_1_1 + 100000 z_1_10 + 100000 z_1_2 + 100000 z_1_4 + 100000 z_1_6 + 100000 z_1_7 <= 602220.32314456231
 c3723: 120 p_1_10 + 120 p_1_3 + 120 p_1_4 + 120 p_1_6 + 120 p_1_7 + 100000 z_1_10 + 100000 z_1_3 + 100000 z_1_4 + 100000 z_1_6 + 100000 z_1_7 <= 502466.75894533645
 c3724: 120 p_1_1 + 120 p_1_10 + 120 p_1_3 + 120 p_1_4 + 120 p_1_6 + 120 p_1_7 + 100000 z_1_1 + 100000 z_1_10 + 100000 z_1_3 + 100000 z_1_4 + 100000 z_1_6 + 100000 z_1_7 <= 602466.69156561547
 c3725: 120 p_1_10 + 120 p_1_2 + 120 p_1_3 + 120 p_1_4 + 120 p_1_6 + 120 p_1_7 + 100000 z_1_10 + 100000 z_1_2 + 100000 z_1_3 + 100000 z_1_4 + 100000 z_1_6 + 100000 z_1_7 <= 602170.3112898448
 c3726: 120 p_1_1 + 120 p_1_10 + 120 p_1_2 + 120 p_1_3 + 120 p_1_4 + 120 p_1_6 + 120 p_1_7 + 100000 z_1_1 + 100000 z_1_10 + 100000 z_1_2 + 100000 z_1_3 + 100000 z_1_4 + 100000 z_1_6 + 100000 z_1_7 <= 702170.24391012383
 c3727: 120 p_1_10 + 120 p_1_5 + 120 p_1_6 + 120 p_1_7 + 100000 z_1_10 + 100000 z_1_5 + 100000 z_1_6 + 100000 z_1_7 <= 402194.37856974243
 c3728: 120 p_1_1 + 120 p_1_10 + 120 p_1_5 + 120 p_1_6 + 120 p_1_7 + 100000 z_1_1 + 100000 z_1_10 + 100000 z_1_5 + 100000 z_1_6 + 100000 z_1_7 <= 502184.40795755241
 c3729: 120 p_1_10 + 120 p_1_2 + 120 p_1_5 + 120 p_1_6 + 120 p_1_7 + 100000 z_1_10 + 100000 z_1_2 + 100000 z_1_5 + 100000 z_1_6 + 100000 z_1_7 <= 502164.32252921438
 c3730: 120 p_1_1 + 120 p_1_10 + 120 p_1_2 + 120 p_1_5 + 120 p_1_6 + 120 p_1_7 + 100000 z_1_1 + 100000 z_1_10 + 100000 z_1_2 + 100000 z_1_5 + 100000 z_1_6 + 100000 z_1_7 <= 602163.4128248851
 c3731: 120 p_1_10 + 120 p_1_3 + 120 p_1_5 + 120 p_1_6 + 120 p_1_7 + 100000 z_1_10 + 100000 z_1_3 + 100000 z_1_5 + 100000 z_1_6 + 100000 z_1_7 <= 502144.29933530401
 c3732: 120 p_1_1 + 120 p_1_10 + 120 p_1_3 + 120 p_1_5 + 120 p_1_6 + 120 p_1_7 + 100000 z_1_1 + 100000 z_1_10 + 100000 z_1_3 + 100000 z_1_5 + 100000 z_1_6 + 100000 z_1_7 <= 602134.32872311398
 c3733: 120 p_1_10 + 120 p_1_2 + 120 p_1_3 + 120 p_1_5 + 120 p_1_6 + 120 p_1_7 + 100000 z_1_10 + 100000 z_1_2 + 100000 z_1_3 + 100000 z_1_5 + 100000 z_1_6 + 100000 z_1_7 <= 602114.24329477595
 c3734: 120 p_1_1 + 120 p_1_10 + 120 p_1_2 + 120 p_1_3 + 120 p_1_5 + 120 p_1_6 + 120 p_1_7 + 100000 z_1_1 + 100000 z_1_10 + 100000 z_1_2 + 100000 z_1_3 + 100000 z_1_5 + 100000 z_1_6 + 100000 z_1_7 <= 702113.33359044662
 c3735: 120 p_1_10 + 120 p_1_4 + 120 p_1_5 + 120 p_1_6 + 120 p_1_7 + 100000 z_1_10 + 100000 z_1_4 + 100000 z_1_5 + 100000 z_1_6 + 100000 z_1_7 <= 502183.97088715294
 c3736: 120 p_1_1 + 120 p_1_10 + 120 p_1_4 + 120 p_1_5 + 120 p_1_6 + 120 p_1_7 + 100000 z_1_1 + 100000 z_1_10 + 100000 z_1_4 + 100000 z_1_5 + 100000 z_1_6 + 100000 z_1_7 <= 602183.90350743197
 c3737: 120 p_1_10 + 120 p_1_2 + 120 p_1_4 + 120 p_1_5 + 120 p_1_6 + 120 p_1_7 + 100000 z_1_10 + 100000 z_1_2 + 100000 z_1_4 + 100000 z_1_5 + 100000 z_1_6 + 100000 z_1_7 <= 602162.9757544857
 c3738: 120 p_1_1 + 120 p_1_10 + 120 p_1_2 + 120 p_1_4 + 120 p_1_5 + 120 p_1_6 + 120 p_1_7 + 100000 z_1_1 + 100000 z_1_10 + 100000 z_1_2 + 100000 z_1_4 + 100000 z_1_5 + 100000 z_1_6 + 100000 z_1_7 <= 702162.90837476472
 c3739: 120 p_1_10 + 120 p_1_3 + 120 p_1_4 + 120 p_1_5 + 120 p_1_6 + 120 p_1_7 + 100000 z_1_10 + 100000 z_1_3 + 100000 z_1_4 + 100000 z_1_5 + 100000 z_1_6 + 100000 z_1_7 <= 602133.89165271458
 c3740: 120 p_1_1 + 120 p_1_10 + 120 p_1_3 + 120 p_1_4 + 120 p_1_5 + 120 p_1_6 + 120 p_1_7 + 100000 z_1_1 + 100000 z_1_10 + 100000 z_1_3 + 100000 z_1_4 + 100000 z_1_5 + 100000 z_1_6 + 100000 z_1_7 <= 702133.8242729936
 c3741: 120 p_1_10 + 120 p_1_2 + 120 p_1_3 + 120 p_1_4 + 120 p_1_5 + 120 p_1_6 + 120 p_1_7 + 100000 z_1_10 + 100000 z_1_2 + 100000 z_1_3 + 100000 z_1_4 + 100000 z_1_5 + 100000 z_1_6 + 100000 z_1_7 <= 702112.89652004722
 c3742: 120 p_1_1 + 120 p_1_10 + 120 p_1_2 + 120 p_1_3 + 120 p_1_4 + 120 p_1_5 + 120 p_1_6 + 120 p_1_7 + 100000 z_1_1 + 100000 z_1_10 + 100000 z_1_2 + 100000 z_1_3 + 100000 z_1_4 + 100000 z_1_5 + 100000 z_1_6 + 100000 z_1_7 <= 802112.82914032624
 c3743: 120 p_1_10 + 120 p_1_8 + 100000 z_1_10 + 100000 z_1_8 <= 202577.26894802693
 c3744: 120 p_1_1 + 120 p_1_10 + 120 p_1_8 + 100000 z_1_1 + 100000 z_1_10 + 100000 z_1_8 <= 302574.92369937175
 c3745: 120 p_1_10 + 120 p_1_2 + 120 p_1_8 + 100000 z_1_10 + 100000 z_1_2 + 100000 z_1_8 <= 302531.7380172782
 c3746: 120 p_1_1 + 120 p_1_10 + 120 p_1_2 + 120 p_1_8 + 100000 z_1_1 + 100000 z_1_10 + 100000 z_1_2 + 100000 z_1_8 <= 402529.39276862302
 c3747: 120 p_1_10 + 120 p_1_3 + 120 p_1_8 + 100000 z_1_10 + 100000 z_1_3 + 100000 z_1_8 <= 302098.06197462074
 c3748: 120 p_1_1 + 120 p_1_10 + 120 p_1_3 + 120 p_1_8 + 100000 z_1_1 + 100000 z_1_10 + 100000 z_1_3 + 100000 z_1_8 <= 402094.67850826686
 c3749: 120 p_1_10 + 120 p_1_2 + 120 p_1_3 + 120 p_1_8 + 100000 z_1_10 + 100000 z_1_2 + 100000 z_1_3 + 100000 z_1_8 <= 402072.2412788017
 c3750: 120 p_1_1 + 120 p_1_10 + 120 p_1_2 + 120 p_1_3 + 120 p_1_8 + 100000 z_1_1 + 100000 z_1_10 + 100000 z_1_2 + 100000 z_1_3 + 100000 z_1_8 <= 502069.89603014657
 c3751: 120 p_1_10 + 120 p_1_4 + 120 p_1_8 + 100000 z_1_10 + 100000 z_1_4 + 100000 z_1_8 <= 302575.0950031848
 c3752: 120 p_1_1 + 120 p_1_10 + 120 p_1_4 + 120 p_1_8 + 100000 z_1_1 + 100000 z_1_10 + 100000 z_1_4 + 100000 z_1_8 <= 402574.70265716594
 c3753: 120 p_1_10 + 120 p_1_2 + 120 p_1_4 + 120 p_1_8 + 100000 z_1_10 + 100000 z_1_2 + 100000 z_1_4 + 100000 z_1_8 <= 402529.56407243601
 c3754: 120 p_1_1 + 120 p_1_10 + 120 p_1_2 + 120 p_1_4 + 120 p_1_8 + 100000 z_1_1 + 100000 z_1_10 + 100000 z_1_2 + 100000 z_1_4 + 100000 z_1_8 <= 502529.1717264172
 c3755: 120 p_1_10 + 120 p_1_3 + 120 p_1_4 + 120 p_1_8 + 100000 z_1_10 + 100000 z_1_3 + 100000 z_1_4 + 100000 z_1_8 <= 402095.88802977861
 c3756: 120 p_1_1 + 120 p_1_10 + 120 p_1_3 + 120 p_1_4 + 120 p_1_8 + 100000 z_1_1 + 100000 z_1_10 + 100000 z_1_3 + 100000 z_1_4 + 100000 z_1_8 <= 502094.45746606099
 c3757: 120 p_1_10 + 120 p_1_2 + 120 p_1_3 + 120 p_1_4 + 120 p_1_8 + 100000 z_1_10 + 100000 z_1_2 + 100000 z_1_3 + 100000 z_1_4 + 100000 z_1_8 <= 502069.74236766167
 c3758: 120 p_1_1 + 120 p_1_10 + 120 p_1_2 + 120 p_1_3 + 120 p_1_4 + 120 p_1_8 + 100000 z_1_1 + 100000 z_1_10 + 100000 z_1_2 + 100000 z_1_3 + 100000 z_1_4 + 100000 z_1_8 <= 602069.6749879407
 c3759: 120 p_1_10 + 120 p_1_5 + 120 p_1_8 + 100000 z_1_10 + 100000 z_1_5 + 100000 z_1_8 <= 302573.99145835615
 c3760: 120 p_1_1 + 120 p_1_10 + 120 p_1_5 + 120 p_1_8 + 100000 z_1_1 + 100000 z_1_10 + 100000 z_1_5 + 100000 z_1_8 <= 402571.64620970102
 c3761: 120 p_1_10 + 120 p_1_2 + 120 p_1_5 + 120 p_1_8 + 100000 z_1_10 + 100000 z_1_2 + 100000 z_1_5 + 100000 z_1_8 <= 402515.30586179573
 c3762: 120 p_1_1 + 120 p_1_10 + 120 p_1_2 + 120 p_1_5 + 120 p_1_8 + 100000 z_1_1 + 100000 z_1_10 + 100000 z_1_2 + 100000 z_1_5 + 100000 z_1_8 <= 502512.96061314055
 c3763: 120 p_1_10 + 120 p_1_3 + 120 p_1_5 + 120 p_1_8 + 100000 z_1_10 + 100000 z_1_3 + 100000 z_1_5 + 100000 z_1_8 <= 402094.78448495001
 c3764: 120 p_1_1 + 120 p_1_10 + 120 p_1_3 + 120 p_1_5 + 120 p_1_8 + 100000 z_1_1 + 100000 z_1_10 + 100000 z_1_3 + 100000 z_1_5 + 100000 z_1_8 <= 502091.40101859608
 c3765: 120 p_1_10 + 120 p_1_2 + 120 p_1_3 + 120 p_1_5 + 120 p_1_8 + 100000 z_1_10 + 100000 z_1_2 + 100000 z_1_3 + 100000 z_1_5 + 100000 z_1_8 <= 502068.96378913091
 c3766: 120 p_1_1 + 120 p_1_10 + 120 p_1_2 + 120 p_1_3 + 120 p_1_5 + 120 p_1_8 + 100000 z_1_1 + 100000 z_1_10 + 100000 z_1_2 + 100000 z_1_3 + 100000 z_1_5 + 100000 z_1_8 <= 602066.61854047573
 c3767: 120 p_1_10 + 120 p_1_4 + 120 p_1_5 + 120 p_1_8 + 100000 z_1_10 + 100000 z_1_4 + 100000 z_1_5 + 100000 z_1_8 <= 402571.81751351402
 c3768: 120 p_1_1 + 120 p_1_10 + 120 p_1_4 + 120 p_1_5 + 120 p_1_8 + 100000 z_1_1 + 100000 z_1_10 + 100000 z_1_4 + 100000 z_1_5 + 100000 z_1_8 <= 502571.42516749521
 c3769: 120 p_1_10 + 120 p_1_2 + 120 p_1_4 + 120 p_1_5 + 120 p_1_8 + 100000 z_1_10 + 100000 z_1_2 + 100000 z_1_4 + 100000 z_1_5 + 100000 z_1_8 <= 502513.1319169536
 c3770: 120 p_1_1 + 120 p_1_10 + 120 p_1_2 + 120 p_1_4 + 120 p_1_5 + 120 p_1_8 + 100000 z_1_1 + 100000 z_1_10 + 100000 z_1_2 + 100000 z_1_4 + 100000 z_1_5 + 100000 z_1_8 <= 602512.73957093479
 c3771: 120 p_1_10 + 120 p_1_3 + 120 p_1_4 + 120 p_1_5 + 120 p_1_8 + 100000 z_1_10 + 100000 z_1_3 + 100000 z_1_4 + 100000 z_1_5 + 100000 z_1_8 <= 502092.61054010782
 c3772: 120 p_1_1 + 120 p_1_10 + 120 p_1_3 + 120 p_1_4 + 120 p_1_5 + 120 p_1_8 + 100000 z_1_1 + 100000 z_1_10 + 100000 z_1_3 + 100000 z_1_4 + 100000 z_1_5 + 100000 z_1_8 <= 602091.17997639021
 c3773: 120 p_1_10 + 120 p_1_2 + 120 p_1_3 + 120 p_1_4 + 120 p_1_5 + 120 p_1_8 + 100000 z_1_10 + 100000 z_1_2 + 100000 z_1_3 + 100000 z_1_4 + 100000 z_1_5 + 100000 z_1_8 <= 602066.46487799089
 c3774: 120 p_1_1 + 120 p_1_10 + 120 p_1_2 + 120 p_1_3 + 120 p_1_4 + 120 p_1_5 + 120 p_1_8 + 100000 z_1_1 + 100000 z_1_10 + 100000 z_1_2 + 100000 z_1_3 + 100000 z_1_4 + 100000 z_1_5 + 100000 z_1_8 <= 702066.39749826991
 c3775: 120 p_1_10 + 120 p_1_6 + 120 p_1_8 + 100000 z_1_10 + 100000 z_1_6 + 100000 z_1_8 <= 302144.00412299082
 c3776: 120 p_1_1 + 120 p_1_10 + 120 p_1_6 + 120 p_1_8 + 100000 z_1_1 + 100000 z_1_10 + 100000 z_1_6 + 100000 z_1_8 <= 402140.62065663689
 c3777: 120 p_1_10 + 120 p_1_2 + 120 p_1_6 + 120 p_1_8 + 100000 z_1_10 + 100000 z_1_2 + 100000 z_1_6 + 100000 z_1_8 <= 402122.79870597483
 c3778: 120 p_1_1 + 120 p_1_10 + 120 p_1_2 + 120 p_1_6 + 120 p_1_8 + 100000 z_1_1 + 100000 z_1_10 + 100000 z_1_2 + 100000 z_1_6 + 100000 z_1_8 <= 502120.45345731964
 c3779: 120 p_1_10 + 120 p_1_3 + 120 p_1_6 + 120 p_1_8 + 100000 z_1_10 + 100000 z_1_3 + 100000 z_1_6 + 100000 z_1_8 <= 402093.9248885524
 c3780: 120 p_1_1 + 120 p_1_10 + 120 p_1_3 + 120 p_1_6 + 120 p_1_8 + 100000 z_1_1 + 100000 z_1_10 + 100000 z_1_3 + 100000 z_1_6 + 100000 z_1_8 <= 502090.54142219847
 c3781: 120 p_1_10 + 120 p_1_2 + 120 p_1_3 + 120 p_1_6 + 120 p_1_8 + 100000 z_1_10 + 100000 z_1_2 + 100000 z_1_3 + 100000 z_1_6 + 100000 z_1_8 <= 502072.19289908546
 c3782: 120 p_1_1 + 120 p_1_10 + 120 p_1_2 + 120 p_1_3 + 120 p_1_6 + 120 p_1_8 + 100000 z_1_1 + 100000 z_1_10 + 100000 z_1_2 + 100000 z_1_3 + 100000 z_1_6 + 100000 z_1_8 <= 602069.84765043028
 c3783: 120 p_1_10 + 120 p_1_4 + 120 p_1_6 + 120 p_1_8 + 100000 z_1_10 + 100000 z_1_4 + 100000 z_1_6 + 100000 z_1_8 <= 402141.8301781487
 c3784: 120 p_1_1 + 120 p_1_10 + 120 p_1_4 + 120 p_1_6 + 120 p_1_8 + 100000 z_1_1 + 100000 z_1_10 + 100000 z_1_4 + 100000 z_1_6 + 100000 z_1_8 <= 502140.39961443108
 c3785: 120 p_1_10 + 120 p_1_2 + 120 p_1_4 + 120 p_1_6 + 120 p_1_8 + 100000 z_1_10 + 100000 z_1_2 + 100000 z_1_4 + 100000 z_1_6 + 100000 z_1_8 <= 502120.62476113264
 c3786: 120 p_1_1 + 120 p_1_10 + 120 p_1_2 + 120 p_1_4 + 120 p_1_6 + 120 p_1_8 + 100000 z_1_1 + 100000 z_1_10 + 100000 z_1_2 + 100000 z_1_4 + 100000 z_1_6 + 100000 z_1_8 <= 602120.23241511383
 c3787: 120 p_1_10 + 120 p_1_3 + 120 p_1_4 + 120 p_1_6 + 120 p_1_8 + 100000 z_1_10 + 100000 z_1_3 + 100000 z_1_4 + 100000 z_1_6 + 100000 z_1_8 <= 502091.75094371021
 c3788: 120 p_1_1 + 120 p_1_10 + 120 p_1_3 + 120 p_1_4 + 120 p_1_6 + 120 p_1_8 + 100000 z_1_1 + 100000 z_1_10 + 100000 z_1_3 + 100000 z_1_4 + 100000 z_1_6 + 100000 z_1_8 <= 602090.32037999271
 c3789: 120 p_1_10 + 120 p_1_2 + 120 p_1_3 + 120 p_1_4 + 120 p_1_6 + 120 p_1_8 + 100000 z_1_10 + 100000 z_1_2 + 100000 z_1_3 + 100000 z_1_4 + 100000 z_1_6 + 100000 z_1_8 <= 602069.69398794544
 c3790: 120 p_1_1 + 120 p_1_10 + 120 p_1_2 + 120 p_1_3 + 120 p_1_4 + 120 p_1_6 + 120 p_1_8 + 100000 z_1_1 + 100000 z_1_10 + 100000 z_1_2 + 100000 z_1_3 + 100000 z_1_4 + 100000 z_1_6 + 100000 z_1_8 <= 702069.62660822447
 c3791: 120 p_1_10 + 120 p_1_5 + 120 p_1_6 + 120 p_1_8 + 100000 z_1_10 + 100000 z_1_5 + 100000 z_1_6 + 100000 z_1_8 <= 402140.72663332004
 c3792: 120 p_1_1 + 120 p_1_10 + 120 p_1_5 + 120 p_1_6 + 120 p_1_8 + 100000 z_1_1 + 100000 z_1_10 + 100000 z_1_5 + 100000 z_1_6 + 100000 z_1_8 <= 502137.34316696617
 c3793: 120 p_1_10 + 120 p_1_2 + 120 p_1_5 + 120 p_1_6 + 120 p_1_8 + 100000 z_1_10 + 100000 z_1_2 + 100000 z_1_5 + 100000 z_1_6 + 100000 z_1_8 <= 502118.99464385316
 c3794: 120 p_1_1 + 120 p_1_10 + 120 p_1_2 + 120 p_1_5 + 120 p_1_6 + 120 p_1_8 + 100000 z_1_1 + 100000 z_1_10 + 100000 z_1_2 + 100000 z_1_5 + 100000 z_1_6 + 100000 z_1_8 <= 602116.64939519798
 c3795: 120 p_1_10 + 120 p_1_3 + 120 p_1_5 + 120 p_1_6 + 120 p_1_8 + 100000 z_1_10 + 100000 z_1_3 + 100000 z_1_5 + 100000 z_1_6 + 100000 z_1_8 <= 502090.64739888161
 c3796: 120 p_1_1 + 120 p_1_10 + 120 p_1_3 + 120 p_1_5 + 120 p_1_6 + 120 p_1_8 + 100000 z_1_1 + 100000 z_1_10 + 100000 z_1_3 + 100000 z_1_5 + 100000 z_1_6 + 100000 z_1_8 <= 602087.26393252774
 c3797: 120 p_1_10 + 120 p_1_2 + 120 p_1_3 + 120 p_1_5 + 120 p_1_6 + 120 p_1_8 + 100000 z_1_10 + 100000 z_1_2 + 100000 z_1_3 + 100000 z_1_5 + 100000 z_1_6 + 100000 z_1_8 <= 602068.91540941468
 c3798: 120 p_1_1 + 120 p_1_10 + 120 p_1_2 + 120 p_1_3 + 120 p_1_5 + 120 p_1_6 + 120 p_1_8 + 100000 z_1_1 + 100000 z_1_10 + 100000 z_1_2 + 100000 z_1_3 + 100000 z_1_5 + 100000 z_1_6 + 100000 z_1_8 <= 702066.5701607595
 c3799: 120 p_1_10 + 120 p_1_4 + 120 p_1_5 + 120 p_1_6 + 120 p_1_8 + 100000 z_1_10 + 100000 z_1_4 + 100000 z_1_5 + 100000 z_1_6 + 100000 z_1_8 <= 502138.55268847791
 c3800: 120 p_1_1 + 120 p_1_10 + 120 p_1_4 + 120 p_1_5 + 120 p_1_6 + 120 p_1_8 + 100000 z_1_1 + 100000 z_1_10 + 100000 z_1_4 + 100000 z_1_5 + 100000 z_1_6 + 100000 z_1_8 <= 602137.1221247603
 c3801: 120 p_1_10 + 120 p_1_2 + 120 p_1_4 + 120 p_1_5 + 120 p_1_6 + 120 p_1_8 + 100000 z_1_10 + 100000 z_1_2 + 100000 z_1_4 + 100000 z_1_5 + 100000 z_1_6 + 100000 z_1_8 <= 602116.49573271314
 c3802: 120 p_1_1 + 120 p_1_10 + 120 p_1_2 + 120 p_1_4 + 120 p_1_5 + 120 p_1_6 + 120 p_1_8 + 100000 z_1_1 + 100000 z_1_10 + 100000 z_1_2 + 100000 z_1_4 + 100000 z_1_5 + 100000 z_1_6 + 100000 z_1_8 <= 702116.42835299217
 c3803: 120 p_1_10 + 120 p_1_3 + 120 p_1_4 + 120 p_1_5 + 120 p_1_6 + 120 p_1_8 + 100000 z_1_10 + 100000 z_1_3 + 100000 z_1_4 + 100000 z_1_5 + 100000 z_1_6 + 100000 z_1_8 <= 602088.47345403943
 c3804: 120 p_1_1 + 120 p_1_10 + 120 p_1_3 + 120 p_1_4 + 120 p_1_5 + 120 p_1_6 + 120 p_1_8 + 100000 z_1_1 + 100000 z_1_10 + 100000 z_1_3 + 100000 z_1_4 + 100000 z_1_5 + 100000 z_1_6 + 100000 z_1_8 <= 702087.04289032193
 c3805: 120 p_1_10 + 120 p_1_2 + 120 p_1_3 + 120 p_1_4 + 120 p_1_5 + 120 p_1_6 + 120 p_1_8 + 100000 z_1_10 + 100000 z_1_2 + 100000 z_1_3 + 100000 z_1_4 + 100000 z_1_5 + 100000 z_1_6 + 100000 z_1_8 <= 702066.41649827466
 c3806: 120 p_1_1 + 120 p_1_10 + 120 p_1_2 + 120 p_1_3 + 120 p_1_4 + 120 p_1_5 + 120 p_1_6 + 120 p_1_8 + 100000 z_1_1 + 100000 z_1_10 + 100000 z_1_2 + 100000 z_1_3 + 100000 z_1_4 + 100000 z_1_5 + 100000 z_1_6 + 100000 z_1_8 <= 802066.34911855368
 c3807: 120 p_1_10 + 120 p_1_7 + 120 p_1_8 + 100000 z_1_10 + 100000 z_1_7 + 100000 z_1_8 <= 302536.33675807569
 c3808: 120 p_1_1 + 120 p_1_10 + 120 p_1_7 + 120 p_1_8 + 100000 z_1_1 + 100000 z_1_10 + 100000 z_1_7 + 100000 z_1_8 <= 402533.99150942056
 c3809: 120 p_1_10 + 120 p_1_2 + 120 p_1_7 + 120 p_1_8 + 100000 z_1_10 + 100000 z_1_2 + 100000 z_1_7 + 100000 z_1_8 <= 402490.80582732696
 c3810: 120 p_1_1 + 120 p_1_10 + 120 p_1_2 + 120 p_1_7 + 120 p_1_8 + 100000 z_1_1 + 100000 z_1_10 + 100000 z_1_2 + 100000 z_1_7 + 100000 z_1_8 <= 502488.46057867177
 c3811: 120 p_1_10 + 120 p_1_3 + 120 p_1_7 + 120 p_1_8 + 100000 z_1_10 + 100000 z_1_3 + 100000 z_1_7 + 100000 z_1_8 <= 402057.12978466949
 c3812: 120 p_1_1 + 120 p_1_10 + 120 p_1_3 + 120 p_1_7 + 120 p_1_8 + 100000 z_1_1 + 100000 z_1_10 + 100000 z_1_3 + 100000 z_1_7 + 100000 z_1_8 <= 502034.45281656738
 c3813: 120 p_1_10 + 120 p_1_2 + 120 p_1_3 + 120 p_1_7 + 120 p_1_8 + 100000 z_1_10 + 100000 z_1_2 + 100000 z_1_3 + 100000 z_1_7 + 100000 z_1_8 <= 502018.1092544233
 c3814: 120 p_1_1 + 120 p_1_10 + 120 p_1_2 + 120 p_1_3 + 120 p_1_7 + 120 p_1_8 + 100000 z_1_1 + 100000 z_1_10 + 100000 z_1_2 + 100000 z_1_3 + 100000 z_1_7 + 100000 z_1_8 <= 602015.76400576811
 c3815: 120 p_1_10 + 120 p_1_4 + 120 p_1_7 + 120 p_1_8 + 100000 z_1_10 + 100000 z_1_4 + 100000 z_1_7 + 100000 z_1_8 <= 402533.83784693567
 c3816: 120 p_1_1 + 120 p_1_10 + 120 p_1_4 + 120 p_1_7 + 120 p_1_8 + 100000 z_1_1 + 100000 z_1_10 + 100000 z_1_4 + 100000 z_1_7 + 100000 z_1_8 <= 502533.77046721469
 c3817: 120 p_1_10 + 120 p_1_2 + 120 p_1_4 + 120 p_1_7 + 120 p_1_8 + 100000 z_1_10 + 100000 z_1_2 + 100000 z_1_4 + 100000 z_1_7 + 100000 z_1_8 <= 502488.30691618694
 c3818: 120 p_1_1 + 120 p_1_10 + 120 p_1_2 + 120 p_1_4 + 120 p_1_7 + 120 p_1_8 + 100000 z_1_1 + 100000 z_1_10 + 100000 z_1_2 + 100000 z_1_4 + 100000 z_1_7 + 100000 z_1_8 <= 602488.23953646596
 c3819: 120 p_1_10 + 120 p_1_3 + 120 p_1_4 + 120 p_1_7 + 120 p_1_8 + 100000 z_1_10 + 100000 z_1_3 + 100000 z_1_4 + 100000 z_1_7 + 100000 z_1_8 <= 502035.38427544601
 c3820: 120 p_1_1 + 120 p_1_10 + 120 p_1_3 + 120 p_1_4 + 120 p_1_7 + 120 p_1_8 + 100000 z_1_1 + 100000 z_1_10 + 100000 z_1_3 + 100000 z_1_4 + 100000 z_1_7 + 100000 z_1_8 <= 602033.948366447
 c3821: 120 p_1_10 + 120 p_1_2 + 120 p_1_3 + 120 p_1_4 + 120 p_1_7 + 120 p_1_8 + 100000 z_1_10 + 100000 z_1_2 + 100000 z_1_3 + 100000 z_1_4 + 100000 z_1_7 + 100000 z_1_8 <= 602015.61034328328
 c3822: 120 p_1_1 + 120 p_1_10 + 120 p_1_2 + 120 p_1_3 + 120 p_1_4 + 120 p_1_7 + 120 p_1_8 + 100000 z_1_1 + 100000 z_1_10 + 100000 z_1_2 + 100000 z_1_3 + 100000 z_1_4 + 100000 z_1_7 + 100000 z_1_8 <= 702015.5429635623
 c3823: 120 p_1_10 + 120 p_1_5 + 120 p_1_7 + 120 p_1_8 + 100000 z_1_10 + 100000 z_1_5 + 100000 z_1_7 + 100000 z_1_8 <= 402533.0592684049
 c3824: 120 p_1_1 + 120 p_1_10 + 120 p_1_5 + 120 p_1_7 + 120 p_1_8 + 100000 z_1_1 + 100000 z_1_10 + 100000 z_1_5 + 100000 z_1_7 + 100000 z_1_8 <= 502530.71401974978
 c3825: 120 p_1_10 + 120 p_1_2 + 120 p_1_5 + 120 p_1_7 + 120 p_1_8 + 100000 z_1_10 + 100000 z_1_2 + 100000 z_1_5 + 100000 z_1_7 + 100000 z_1_8 <= 502474.37367184449
 c3826: 120 p_1_1 + 120 p_1_10 + 120 p_1_2 + 120 p_1_5 + 120 p_1_7 + 120 p_1_8 + 100000 z_1_1 + 100000 z_1_10 + 100000 z_1_2 + 100000 z_1_5 + 100000 z_1_7 + 100000 z_1_8 <= 602472.0284231893
 c3827: 120 p_1_10 + 120 p_1_3 + 120 p_1_5 + 120 p_1_7 + 120 p_1_8 + 100000 z_1_10 + 100000 z_1_3 + 100000 z_1_5 + 100000 z_1_7 + 100000 z_1_8 <= 502053.85229499877
 c3828: 120 p_1_1 + 120 p_1_10 + 120 p_1_3 + 120 p_1_5 + 120 p_1_7 + 120 p_1_8 + 100000 z_1_1 + 100000 z_1_10 + 100000 z_1_3 + 100000 z_1_5 + 100000 z_1_7 + 100000 z_1_8 <= 602031.1753268966
 c3829: 120 p_1_10 + 120 p_1_2 + 120 p_1_3 + 120 p_1_5 + 120 p_1_7 + 120 p_1_8 + 100000 z_1_10 + 100000 z_1_2 + 100000 z_1_3 + 100000 z_1_5 + 100000 z_1_7 + 100000 z_1_8 <= 602007.30255310552
 c3830: 120 p_1_1 + 120 p_1_10 + 120 p_1_2 + 120 p_1_3 + 120 p_1_5 + 120 p_1_7 + 120 p_1_8 + 100000 z_1_1 + 100000 z_1_10 + 100000 z_1_2 + 100000 z_1_3 + 100000 z_1_5 + 100000 z_1_7 + 100000 z_1_8 <= 702006.3928487763
 c3831: 120 p_1_10 + 120 p_1_4 + 120 p_1_5 + 120 p_1_7 + 120 p_1_8 + 100000 z_1_10 + 100000 z_1_4 + 100000 z_1_5 + 100000 z_1_7 + 100000 z_1_8 <= 502530.56035726488
 c3832: 120 p_1_1 + 120 p_1_10 + 120 p_1_4 + 120 p_1_5 + 120 p_1_7 + 120 p_1_8 + 100000 z_1_1 + 100000 z_1_10 + 100000 z_1_4 + 100000 z_1_5 + 100000 z_1_7 + 100000 z_1_8 <= 602530.49297754397
 c3833: 120 p_1_10 + 120 p_1_2 + 120 p_1_4 + 120 p_1_5 + 120 p_1_7 + 120 p_1_8 + 100000 z_1_10 + 100000 z_1_2 + 100000 z_1_4 + 100000 z_1_5 + 100000 z_1_7 + 100000 z_1_8 <= 602471.87476070446
 c3834: 120 p_1_1 + 120 p_1_10 + 120 p_1_2 + 120 p_1_4 + 120 p_1_5 + 120 p_1_7 + 120 p_1_8 + 100000 z_1_1 + 100000 z_1_10 + 100000 z_1_2 + 100000 z_1_4 + 100000 z_1_5 + 100000 z_1_7 + 100000 z_1_8 <= 702471.80738098349
 c3835: 120 p_1_10 + 120 p_1_3 + 120 p_1_4 + 120 p_1_5 + 120 p_1_7 + 120 p_1_8 + 100000 z_1_10 + 100000 z_1_3 + 100000 z_1_4 + 100000 z_1_5 + 100000 z_1_7 + 100000 z_1_8 <= 602032.10678577528
 c3836: 120 p_1_1 + 120 p_1_10 + 120 p_1_3 + 120 p_1_4 + 120 p_1_5 + 120 p_1_7 + 120 p_1_8 + 100000 z_1_1 + 100000 z_1_10 + 100000 z_1_3 + 100000 z_1_4 + 100000 z_1_5 + 100000 z_1_7 + 100000 z_1_8 <= 702030.67087677622
 c3837: 120 p_1_10 + 120 p_1_2 + 120 p_1_3 + 120 p_1_4 + 120 p_1_5 + 120 p_1_7 + 120 p_1_8 + 100000 z_1_10 + 100000 z_1_2 + 100000 z_1_3 + 100000 z_1_4 + 100000 z_1_5 + 100000 z_1_7 + 100000 z_1_8 <= 702005.9557783769
 c3838: 120 p_1_1 + 120 p_1_10 + 120 p_1_2 + 120 p_1_3 + 120 p_1_4 + 120 p_1_5 + 120 p_1_7 + 120 p_1_8 + 100000 z_1_1 + 100000 z_1_10 + 100000 z_1_2 + 100000 z_1_3 + 100000 z_1_4 + 100000 z_1_5 + 100000 z_1_7 + 100000 z_1_8 <= 802005.88839865592
 c3839: 120 p_1_10 + 120 p_1_6 + 120 p_1_7 + 120 p_1_8 + 100000 z_1_10 + 100000 z_1_6 + 100000 z_1_7 + 100000 z_1_8 <= 402103.07193303958
 c3840: 120 p_1_1 + 120 p_1_10 + 120 p_1_6 + 120 p_1_7 + 120 p_1_8 + 100000 z_1_1 + 100000 z_1_10 + 100000 z_1_6 + 100000 z_1_7 + 100000 z_1_8 <= 502085.62562339357
 c3841: 120 p_1_10 + 120 p_1_2 + 120 p_1_6 + 120 p_1_7 + 120 p_1_8 + 100000 z_1_10 + 100000 z_1_2 + 100000 z_1_6 + 100000 z_1_7 + 100000 z_1_8 <= 502081.86651602358
 c3842: 120 p_1_1 + 120 p_1_10 + 120 p_1_2 + 120 p_1_6 + 120 p_1_7 + 120 p_1_8 + 100000 z_1_1 + 100000 z_1_10 + 100000 z_1_2 + 100000 z_1_6 + 100000 z_1_7 + 100000 z_1_8 <= 602079.52126736846
 c3843: 120 p_1_10 + 120 p_1_3 + 120 p_1_6 + 120 p_1_7 + 120 p_1_8 + 100000 z_1_10 + 100000 z_1_3 + 100000 z_1_6 + 100000 z_1_7 + 100000 z_1_8 <= 502052.99269860116
 c3844: 120 p_1_1 + 120 p_1_10 + 120 p_1_3 + 120 p_1_6 + 120 p_1_7 + 120 p_1_8 + 100000 z_1_1 + 100000 z_1_10 + 100000 z_1_3 + 100000 z_1_6 + 100000 z_1_7 + 100000 z_1_8 <= 602030.31573049899
 c3845: 120 p_1_10 + 120 p_1_2 + 120 p_1_3 + 120 p_1_6 + 120 p_1_7 + 120 p_1_8 + 100000 z_1_10 + 100000 z_1_2 + 100000 z_1_3 + 100000 z_1_6 + 100000 z_1_7 + 100000 z_1_8 <= 602018.06087470707
 c3846: 120 p_1_1 + 120 p_1_10 + 120 p_1_2 + 120 p_1_3 + 120 p_1_6 + 120 p_1_7 + 120 p_1_8 + 100000 z_1_1 + 100000 z_1_10 + 100000 z_1_2 + 100000 z_1_3 + 100000 z_1_6 + 100000 z_1_7 + 100000 z_1_8 <= 702015.71562605188
 c3847: 120 p_1_10 + 120 p_1_4 + 120 p_1_6 + 120 p_1_7 + 120 p_1_8 + 100000 z_1_10 + 100000 z_1_4 + 100000 z_1_6 + 100000 z_1_7 + 100000 z_1_8 <= 502085.47196090868
 c3848: 120 p_1_1 + 120 p_1_10 + 120 p_1_4 + 120 p_1_6 + 120 p_1_7 + 120 p_1_8 + 100000 z_1_1 + 100000 z_1_10 + 100000 z_1_4 + 100000 z_1_6 + 100000 z_1_7 + 100000 z_1_8 <= 602085.40458118776
 c3849: 120 p_1_10 + 120 p_1_2 + 120 p_1_4 + 120 p_1_6 + 120 p_1_7 + 120 p_1_8 + 100000 z_1_10 + 100000 z_1_2 + 100000 z_1_4 + 100000 z_1_6 + 100000 z_1_7 + 100000 z_1_8 <= 602079.3676048835
 c3850: 120 p_1_1 + 120 p_1_10 + 120 p_1_2 + 120 p_1_4 + 120 p_1_6 + 120 p_1_7 + 120 p_1_8 + 100000 z_1_1 + 100000 z_1_10 + 100000 z_1_2 + 100000 z_1_4 + 100000 z_1_6 + 100000 z_1_7 + 100000 z_1_8 <= 702079.30022516253
 c3851: 120 p_1_10 + 120 p_1_3 + 120 p_1_4 + 120 p_1_6 + 120 p_1_7 + 120 p_1_8 + 100000 z_1_10 + 100000 z_1_3 + 100000 z_1_4 + 100000 z_1_6 + 100000 z_1_7 + 100000 z_1_8 <= 602031.24718937767
 c3852: 120 p_1_1 + 120 p_1_10 + 120 p_1_3 + 120 p_1_4 + 120 p_1_6 + 120 p_1_7 + 120 p_1_8 + 100000 z_1_1 + 100000 z_1_10 + 100000 z_1_3 + 100000 z_1_4 + 100000 z_1_6 + 100000 z_1_7 + 100000 z_1_8 <= 702029.81128037861
 c3853: 120 p_1_10 + 120 p_1_2 + 120 p_1_3 + 120 p_1_4 + 120 p_1_6 + 120 p_1_7 + 120 p_1_8 + 100000 z_1_10 + 100000 z_1_2 + 100000 z_1_3 + 100000 z_1_4 + 100000 z_1_6 + 100000 z_1_7 + 100000 z_1_8 <= 702015.56196356704
 c3854: 120 p_1_1 + 120 p_1_10 + 120 p_1_2 + 120 p_1_3 + 120 p_1_4 + 120 p_1_6 + 120 p_1_7 + 120 p_1_8 + 100000 z_1_1 + 100000 z_1_10 + 100000 z_1_2 + 100000 z_1_3 + 100000 z_1_4 + 100000 z_1_6 + 100000 z_1_7 + 100000 z_1_8 <= 802015.49458384607
 c3855: 120 p_1_10 + 120 p_1_5 + 120 p_1_6 + 120 p_1_7 + 120 p_1_8 + 100000 z_1_10 + 100000 z_1_5 + 100000 z_1_6 + 100000 z_1_7 + 100000 z_1_8 <= 502099.7944433688
 c3856: 120 p_1_1 + 120 p_1_10 + 120 p_1_5 + 120 p_1_6 + 120 p_1_7 + 120 p_1_8 + 100000 z_1_1 + 100000 z_1_10 + 100000 z_1_5 + 100000 z_1_6 + 100000 z_1_7 + 100000 z_1_8 <= 602084.08424455323
 c3857: 120 p_1_10 + 120 p_1_2 + 120 p_1_5 + 120 p_1_6 + 120 p_1_7 + 120 p_1_8 + 100000 z_1_10 + 100000 z_1_2 + 100000 z_1_5 + 100000 z_1_6 + 100000 z_1_7 + 100000 z_1_8 <= 602065.43436054117
 c3858: 120 p_1_1 + 120 p_1_10 + 120 p_1_2 + 120 p_1_5 + 120 p_1_6 + 120 p_1_7 + 120 p_1_8 + 100000 z_1_1 + 100000 z_1_10 + 100000 z_1_2 + 100000 z_1_5 + 100000 z_1_6 + 100000 z_1_7 + 100000 z_1_8 <= 702063.08911188599
 c3859: 120 p_1_10 + 120 p_1_3 + 120 p_1_5 + 120 p_1_6 + 120 p_1_7 + 120 p_1_8 + 100000 z_1_10 + 100000 z_1_3 + 100000 z_1_5 + 100000 z_1_6 + 100000 z_1_7 + 100000 z_1_8 <= 602049.71520893043
 c3860: 120 p_1_1 + 120 p_1_10 + 120 p_1_3 + 120 p_1_5 + 120 p_1_6 + 120 p_1_7 + 120 p_1_8 + 100000 z_1_1 + 100000 z_1_10 + 100000 z_1_3 + 100000 z_1_5 + 100000 z_1_6 + 100000 z_1_7 + 100000 z_1_8 <= 702027.0382408282
 c3861: 120 p_1_10 + 120 p_1_2 + 120 p_1_3 + 120 p_1_5 + 120 p_1_6 + 120 p_1_7 + 120 p_1_8 + 100000 z_1_10 + 100000 z_1_2 + 100000 z_1_3 + 100000 z_1_5 + 100000 z_1_6 + 100000 z_1_7 + 100000 z_1_8 <= 702007.2541733894
 c3862: 120 p_1_1 + 120 p_1_10 + 120 p_1_2 + 120 p_1_3 + 120 p_1_5 + 120 p_1_6 + 120 p_1_7 + 120 p_1_8 + 100000 z_1_1 + 100000 z_1_10 + 100000 z_1_2 + 100000 z_1_3 + 100000 z_1_5 + 100000 z_1_6 + 100000 z_1_7 + 100000 z_1_8 <= 802006.34446906007
 c3863: 120 p_1_10 + 120 p_1_4 + 120 p_1_5 + 120 p_1_6 + 120 p_1_7 + 120 p_1_8 + 100000 z_1_10 + 100000 z_1_4 + 100000 z_1_5 + 100000 z_1_6 + 100000 z_1_7 + 100000 z_1_8 <= 602083.93058206839
 c3864: 120 p_1_1 + 120 p_1_10 + 120 p_1_4 + 120 p_1_5 + 120 p_1_6 + 120 p_1_7 + 120 p_1_8 + 100000 z_1_1 + 100000 z_1_10 + 100000 z_1_4 + 100000 z_1_5 + 100000 z_1_6 + 100000 z_1_7 + 100000 z_1_8 <= 702083.86320234742
 c3865: 120 p_1_10 + 120 p_1_2 + 120 p_1_4 + 120 p_1_5 + 120 p_1_6 + 120 p_1_7 + 120 p_1_8 + 100000 z_1_10 + 100000 z_1_2 + 100000 z_1_4 + 100000 z_1_5 + 100000 z_1_6 + 100000 z_1_7 + 100000 z_1_8 <= 702062.93544940103
 c3866: 120 p_1_1 + 120 p_1_10 + 120 p_1_2 + 120 p_1_4 + 120 p_1_5 + 120 p_1_6 + 120 p_1_7 + 120 p_1_8 + 100000 z_1_1 + 100000 z_1_10 + 100000 z_1_2 + 100000 z_1_4 + 100000 z_1_5 + 100000 z_1_6 + 100000 z_1_7 + 100000 z_1_8 <= 802062.86806968017
 c3867: 120 p_1_10 + 120 p_1_3 + 120 p_1_4 + 120 p_1_5 + 120 p_1_6 + 120 p_1_7 + 120 p_1_8 + 100000 z_1_10 + 100000 z_1_3 + 100000 z_1_4 + 100000 z_1_5 + 100000 z_1_6 + 100000 z_1_7 + 100000 z_1_8 <= 702027.96969970688
 c3868: 120 p_1_1 + 120 p_1_10 + 120 p_1_3 + 120 p_1_4 + 120 p_1_5 + 120 p_1_6 + 120 p_1_7 + 120 p_1_8 + 100000 z_1_1 + 100000 z_1_10 + 100000 z_1_3 + 100000 z_1_4 + 100000 z_1_5 + 100000 z_1_6 + 100000 z_1_7 + 100000 z_1_8 <= 802026.53379070782
 c3869: 120 p_1_10 + 120 p_1_2 + 120 p_1_3 + 120 p_1_4 + 120 p_1_5 + 120 p_1_6 + 120 p_1_7 + 120 p_1_8 + 100000 z_1_10 + 100000 z_1_2 + 100000 z_1_3 + 100000 z_1_4 + 100000 z_1_5 + 100000 z_1_6 + 100000 z_1_7 + 100000 z_1_8 <= 802005.90739866067
 c3870: 120 p_1_1 + 120 p_1_10 + 120 p_1_2 + 120 p_1_3 + 120 p_1_4 + 120 p_1_5 + 120 p_1_6 + 120 p_1_7 + 120 p_1_8 + 100000 z_1_1 + 100000 z_1_10 + 100000 z_1_2 + 100000 z_1_3 + 100000 z_1_4 + 100000 z_1_5 + 100000 z_1_6 + 100000 z_1_7 + 100000 z_1_8 <= 902005.84001893969
 c3871: 120 p_1_10 + 120 p_1_9 + 100000 z_1_10 + 100000 z_1_9 <= 202540.08493958542
 c3872: 120 p_1_1 + 120 p_1_10 + 120 p_1_9 + 100000 z_1_1 + 100000 z_1_10 + 100000 z_1_9 <= 302537.73969093023
 c3873: 120 p_1_10 + 120 p_1_2 + 120 p_1_9 + 100000 z_1_10 + 100000 z_1_2 + 100000 z_1_9 <= 302279.63707014662
 c3874: 120 p_1_1 + 120 p_1_10 + 120 p_1_2 + 120 p_1_9 + 100000 z_1_1 + 100000 z_1_10 + 100000 z_1_2 + 100000 z_1_9 <= 402277.29182149144
 c3875: 120 p_1_10 + 120 p_1_3 + 120 p_1_9 + 100000 z_1_10 + 100000 z_1_3 + 100000 z_1_9 <= 302475.30070826417
 c3876: 120 p_1_1 + 120 p_1_10 + 120 p_1_3 + 120 p_1_9 + 100000 z_1_1 + 100000 z_1_10 + 100000 z_1_3 + 100000 z_1_9 <= 402472.95545960899
 c3877: 120 p_1_10 + 120 p_1_2 + 120 p_1_3 + 120 p_1_9 + 100000 z_1_10 + 100000 z_1_2 + 100000 z_1_3 + 100000 z_1_9 <= 402214.85283882538
 c3878: 120 p_1_1 + 120 p_1_10 + 120 p_1_2 + 120 p_1_3 + 120 p_1_9 + 100000 z_1_1 + 100000 z_1_10 + 100000 z_1_2 + 100000 z_1_3 + 100000 z_1_9 <= 502212.50759017025
 c3879: 120 p_1_10 + 120 p_1_4 + 120 p_1_9 + 100000 z_1_10 + 100000 z_1_4 + 100000 z_1_9 <= 302537.5860284454
 c3880: 120 p_1_1 + 120 p_1_10 + 120 p_1_4 + 120 p_1_9 + 100000 z_1_1 + 100000 z_1_10 + 100000 z_1_4 + 100000 z_1_9 <= 402537.51864872442
 c3881: 120 p_1_10 + 120 p_1_2 + 120 p_1_4 + 120 p_1_9 + 100000 z_1_10 + 100000 z_1_2 + 100000 z_1_4 + 100000 z_1_9 <= 402277.1381590066
 c3882: 120 p_1_1 + 120 p_1_10 + 120 p_1_2 + 120 p_1_4 + 120 p_1_9 + 100000 z_1_1 + 100000 z_1_10 + 100000 z_1_2 + 100000 z_1_4 + 100000 z_1_9 <= 502277.07077928563
 c3883: 120 p_1_10 + 120 p_1_3 + 120 p_1_4 + 120 p_1_9 + 100000 z_1_10 + 100000 z_1_3 + 100000 z_1_4 + 100000 z_1_9 <= 402472.80179712415
 c3884: 120 p_1_1 + 120 p_1_10 + 120 p_1_3 + 120 p_1_4 + 120 p_1_9 + 100000 z_1_1 + 100000 z_1_10 + 100000 z_1_3 + 100000 z_1_4 + 100000 z_1_9 <= 502472.73441740318
 c3885: 120 p_1_10 + 120 p_1_2 + 120 p_1_3 + 120 p_1_4 + 120 p_1_9 + 100000 z_1_10 + 100000 z_1_2 + 100000 z_1_3 + 100000 z_1_4 + 100000 z_1_9 <= 502212.35392768536
 c3886: 120 p_1_1 + 120 p_1_10 + 120 p_1_2 + 120 p_1_3 + 120 p_1_4 + 120 p_1_9 + 100000 z_1_1 + 100000 z_1_10 + 100000 z_1_2 + 100000 z_1_3 + 100000 z_1_4 + 100000 z_1_9 <= 602212.28654796444
 c3887: 120 p_1_10 + 120 p_1_5 + 120 p_1_9 + 100000 z_1_10 + 100000 z_1_5 + 100000 z_1_9 <= 302245.12179506372
 c3888: 120 p_1_1 + 120 p_1_10 + 120 p_1_5 + 120 p_1_9 + 100000 z_1_1 + 100000 z_1_10 + 100000 z_1_5 + 100000 z_1_9 <= 402243.82132523932
 c3889: 120 p_1_10 + 120 p_1_2 + 120 p_1_5 + 120 p_1_9 + 100000 z_1_10 + 100000 z_1_2 + 100000 z_1_5 + 100000 z_1_9 <= 402230.35813415056
 c3890: 120 p_1_1 + 120 p_1_10 + 120 p_1_2 + 120 p_1_5 + 120 p_1_9 + 100000 z_1_1 + 100000 z_1_10 + 100000 z_1_2 + 100000 z_1_5 + 100000 z_1_9 <= 502229.05766432622
 c3891: 120 p_1_10 + 120 p_1_3 + 120 p_1_5 + 120 p_1_9 + 100000 z_1_10 + 100000 z_1_3 + 100000 z_1_5 + 100000 z_1_9 <= 402172.20172994095
 c3892: 120 p_1_1 + 120 p_1_10 + 120 p_1_3 + 120 p_1_5 + 120 p_1_9 + 100000 z_1_1 + 100000 z_1_10 + 100000 z_1_3 + 100000 z_1_5 + 100000 z_1_9 <= 502169.85648128577
 c3893: 120 p_1_10 + 120 p_1_2 + 120 p_1_3 + 120 p_1_5 + 120 p_1_9 + 100000 z_1_10 + 100000 z_1_2 + 100000 z_1_3 + 100000 z_1_5 + 100000 z_1_9 <= 502157.43806902779
 c3894: 120 p_1_1 + 120 p_1_10 + 120 p_1_2 + 120 p_1_3 + 120 p_1_5 + 120 p_1_9 + 100000 z_1_1 + 100000 z_1_10 + 100000 z_1_2 + 100000 z_1_3 + 100000 z_1_5 + 100000 z_1_9 <= 602155.09282037267
 c3895: 120 p_1_10 + 120 p_1_4 + 120 p_1_5 + 120 p_1_9 + 100000 z_1_10 + 100000 z_1_4 + 100000 z_1_5 + 100000 z_1_9 <= 402244.42454503215
 c3896: 120 p_1_1 + 120 p_1_10 + 120 p_1_4 + 120 p_1_5 + 120 p_1_9 + 100000 z_1_1 + 100000 z_1_10 + 100000 z_1_4 + 100000 z_1_5 + 100000 z_1_9 <= 502243.60028303351
 c3897: 120 p_1_10 + 120 p_1_2 + 120 p_1_4 + 120 p_1_5 + 120 p_1_9 + 100000 z_1_10 + 100000 z_1_2 + 100000 z_1_4 + 100000 z_1_5 + 100000 z_1_9 <= 502229.66088411905
 c3898: 120 p_1_1 + 120 p_1_10 + 120 p_1_2 + 120 p_1_4 + 120 p_1_5 + 120 p_1_9 + 100000 z_1_1 + 100000 z_1_10 + 100000 z_1_2 + 100000 z_1_4 + 100000 z_1_5 + 100000 z_1_9 <= 602228.83662212035
 c3899: 120 p_1_10 + 120 p_1_3 + 120 p_1_4 + 120 p_1_5 + 120 p_1_9 + 100000 z_1_10 + 100000 z_1_3 + 100000 z_1_4 + 100000 z_1_5 + 100000 z_1_9 <= 502169.70281880087
 c3900: 120 p_1_1 + 120 p_1_10 + 120 p_1_3 + 120 p_1_4 + 120 p_1_5 + 120 p_1_9 + 100000 z_1_1 + 100000 z_1_10 + 100000 z_1_3 + 100000 z_1_4 + 100000 z_1_5 + 100000 z_1_9 <= 602169.63543907995
 c3901: 120 p_1_10 + 120 p_1_2 + 120 p_1_3 + 120 p_1_4 + 120 p_1_5 + 120 p_1_9 + 100000 z_1_10 + 100000 z_1_2 + 100000 z_1_3 + 100000 z_1_4 + 100000 z_1_5 + 100000 z_1_9 <= 602154.93915788771
 c3902: 120 p_1_1 + 120 p_1_10 + 120 p_1_2 + 120 p_1_3 + 120 p_1_4 + 120 p_1_5 + 120 p_1_9 + 100000 z_1_1 + 100000 z_1_10 + 100000 z_1_2 + 100000 z_1_3 + 100000 z_1_4 + 100000 z_1_5 + 100000 z_1_9 <= 702154.87177816685
 c3903: 120 p_1_10 + 120 p_1_6 + 120 p_1_9 + 100000 z_1_10 + 100000 z_1_6 + 100000 z_1_9 <= 302514.43288103514
 c3904: 120 p_1_1 + 120 p_1_10 + 120 p_1_6 + 120 p_1_9 + 100000 z_1_1 + 100000 z_1_10 + 100000 z_1_6 + 100000 z_1_9 <= 402512.08763237996
 c3905: 120 p_1_10 + 120 p_1_2 + 120 p_1_6 + 120 p_1_9 + 100000 z_1_10 + 100000 z_1_2 + 100000 z_1_6 + 100000 z_1_9 <= 402253.98501159635
 c3906: 120 p_1_1 + 120 p_1_10 + 120 p_1_2 + 120 p_1_6 + 120 p_1_9 + 100000 z_1_1 + 100000 z_1_10 + 100000 z_1_2 + 100000 z_1_6 + 100000 z_1_9 <= 502251.63976294117
 c3907: 120 p_1_10 + 120 p_1_3 + 120 p_1_6 + 120 p_1_9 + 100000 z_1_10 + 100000 z_1_3 + 100000 z_1_6 + 100000 z_1_9 <= 402464.35364659672
 c3908: 120 p_1_1 + 120 p_1_10 + 120 p_1_3 + 120 p_1_6 + 120 p_1_9 + 100000 z_1_1 + 100000 z_1_10 + 100000 z_1_3 + 100000 z_1_6 + 100000 z_1_9 <= 502462.00839794154
 c3909: 120 p_1_10 + 120 p_1_2 + 120 p_1_3 + 120 p_1_6 + 120 p_1_9 + 100000 z_1_10 + 100000 z_1_2 + 100000 z_1_3 + 100000 z_1_6 + 100000 z_1_9 <= 502203.90577715792
 c3910: 120 p_1_1 + 120 p_1_10 + 120 p_1_2 + 120 p_1_3 + 120 p_1_6 + 120 p_1_9 + 100000 z_1_1 + 100000 z_1_10 + 100000 z_1_2 + 100000 z_1_3 + 100000 z_1_6 + 100000 z_1_9 <= 602201.5605285028
 c3911: 120 p_1_10 + 120 p_1_4 + 120 p_1_6 + 120 p_1_9 + 100000 z_1_10 + 100000 z_1_4 + 100000 z_1_6 + 100000 z_1_9 <= 402511.93396989512
 c3912: 120 p_1_1 + 120 p_1_10 + 120 p_1_4 + 120 p_1_6 + 120 p_1_9 + 100000 z_1_1 + 100000 z_1_10 + 100000 z_1_4 + 100000 z_1_6 + 100000 z_1_9 <= 502511.86659017415
 c3913: 120 p_1_10 + 120 p_1_2 + 120 p_1_4 + 120 p_1_6 + 120 p_1_9 + 100000 z_1_10 + 100000 z_1_2 + 100000 z_1_4 + 100000 z_1_6 + 100000 z_1_9 <= 502251.48610045633
 c3914: 120 p_1_1 + 120 p_1_10 + 120 p_1_2 + 120 p_1_4 + 120 p_1_6 + 120 p_1_9 + 100000 z_1_1 + 100000 z_1_10 + 100000 z_1_2 + 100000 z_1_4 + 100000 z_1_6 + 100000 z_1_9 <= 602251.41872073535
 c3915: 120 p_1_10 + 120 p_1_3 + 120 p_1_4 + 120 p_1_6 + 120 p_1_9 + 100000 z_1_10 + 100000 z_1_3 + 100000 z_1_4 + 100000 z_1_6 + 100000 z_1_9 <= 502461.85473545664
 c3916: 120 p_1_1 + 120 p_1_10 + 120 p_1_3 + 120 p_1_4 + 120 p_1_6 + 120 p_1_9 + 100000 z_1_1 + 100000 z_1_10 + 100000 z_1_3 + 100000 z_1_4 + 100000 z_1_6 + 100000 z_1_9 <= 602461.78735573567
 c3917: 120 p_1_10 + 120 p_1_2 + 120 p_1_3 + 120 p_1_4 + 120 p_1_6 + 120 p_1_9 + 100000 z_1_10 + 100000 z_1_2 + 100000 z_1_3 + 100000 z_1_4 + 100000 z_1_6 + 100000 z_1_9 <= 602201.40686601785
 c3918: 120 p_1_1 + 120 p_1_10 + 120 p_1_2 + 120 p_1_3 + 120 p_1_4 + 120 p_1_6 + 120 p_1_9 + 100000 z_1_1 + 100000 z_1_10 + 100000 z_1_2 + 100000 z_1_3 + 100000 z_1_4 + 100000 z_1_6 + 100000 z_1_9 <= 702201.33948629699
 c3919: 120 p_1_10 + 120 p_1_5 + 120 p_1_6 + 120 p_1_9 + 100000 z_1_10 + 100000 z_1_5 + 100000 z_1_6 + 100000 z_1_9 <= 402211.33390271186
 c3920: 120 p_1_1 + 120 p_1_10 + 120 p_1_5 + 120 p_1_6 + 120 p_1_9 + 100000 z_1_1 + 100000 z_1_10 + 100000 z_1_5 + 100000 z_1_6 + 100000 z_1_9 <= 502208.98865405674
 c3921: 120 p_1_10 + 120 p_1_2 + 120 p_1_5 + 120 p_1_6 + 120 p_1_9 + 100000 z_1_10 + 100000 z_1_2 + 100000 z_1_5 + 100000 z_1_6 + 100000 z_1_9 <= 502196.57024179876
 c3922: 120 p_1_1 + 120 p_1_10 + 120 p_1_2 + 120 p_1_5 + 120 p_1_6 + 120 p_1_9 + 100000 z_1_1 + 100000 z_1_10 + 100000 z_1_2 + 100000 z_1_5 + 100000 z_1_6 + 100000 z_1_9 <= 602194.22499314358
 c3923: 120 p_1_10 + 120 p_1_3 + 120 p_1_5 + 120 p_1_6 + 120 p_1_9 + 100000 z_1_10 + 100000 z_1_3 + 100000 z_1_5 + 100000 z_1_6 + 100000 z_1_9 <= 502161.25466827344
 c3924: 120 p_1_1 + 120 p_1_10 + 120 p_1_3 + 120 p_1_5 + 120 p_1_6 + 120 p_1_9 + 100000 z_1_1 + 100000 z_1_10 + 100000 z_1_3 + 100000 z_1_5 + 100000 z_1_6 + 100000 z_1_9 <= 602158.90941961831
 c3925: 120 p_1_10 + 120 p_1_2 + 120 p_1_3 + 120 p_1_5 + 120 p_1_6 + 120 p_1_9 + 100000 z_1_10 + 100000 z_1_2 + 100000 z_1_3 + 100000 z_1_5 + 100000 z_1_6 + 100000 z_1_9 <= 602146.49100736028
 c3926: 120 p_1_1 + 120 p_1_10 + 120 p_1_2 + 120 p_1_3 + 120 p_1_5 + 120 p_1_6 + 120 p_1_9 + 100000 z_1_1 + 100000 z_1_10 + 100000 z_1_2 + 100000 z_1_3 + 100000 z_1_5 + 100000 z_1_6 + 100000 z_1_9 <= 702144.1457587051
 c3927: 120 p_1_10 + 120 p_1_4 + 120 p_1_5 + 120 p_1_6 + 120 p_1_9 + 100000 z_1_10 + 100000 z_1_4 + 100000 z_1_5 + 100000 z_1_6 + 100000 z_1_9 <= 502208.83499157184
 c3928: 120 p_1_1 + 120 p_1_10 + 120 p_1_4 + 120 p_1_5 + 120 p_1_6 + 120 p_1_9 + 100000 z_1_1 + 100000 z_1_10 + 100000 z_1_4 + 100000 z_1_5 + 100000 z_1_6 + 100000 z_1_9 <= 602208.76761185087
 c3929: 120 p_1_10 + 120 p_1_2 + 120 p_1_4 + 120 p_1_5 + 120 p_1_6 + 120 p_1_9 + 100000 z_1_10 + 100000 z_1_2 + 100000 z_1_4 + 100000 z_1_5 + 100000 z_1_6 + 100000 z_1_9 <= 602194.07133065874
 c3930: 120 p_1_1 + 120 p_1_10 + 120 p_1_2 + 120 p_1_4 + 120 p_1_5 + 120 p_1_6 + 120 p_1_9 + 100000 z_1_1 + 100000 z_1_10 + 100000 z_1_2 + 100000 z_1_4 + 100000 z_1_5 + 100000 z_1_6 + 100000 z_1_9 <= 702194.00395093777
 c3931: 120 p_1_10 + 120 p_1_3 + 120 p_1_4 + 120 p_1_5 + 120 p_1_6 + 120 p_1_9 + 100000 z_1_10 + 100000 z_1_3 + 100000 z_1_4 + 100000 z_1_5 + 100000 z_1_6 + 100000 z_1_9 <= 602158.75575713336
 c3932: 120 p_1_1 + 120 p_1_10 + 120 p_1_3 + 120 p_1_4 + 120 p_1_5 + 120 p_1_6 + 120 p_1_9 + 100000 z_1_1 + 100000 z_1_10 + 100000 z_1_3 + 100000 z_1_4 + 100000 z_1_5 + 100000 z_1_6 + 100000 z_1_9 <= 702158.6883774125
 c3933: 120 p_1_10 + 120 p_1_2 + 120 p_1_3 + 120 p_1_4 + 120 p_1_5 + 120 p_1_6 + 120 p_1_9 + 100000 z_1_10 + 100000 z_1_2 + 100000 z_1_3 + 100000 z_1_4 + 100000 z_1_5 + 100000 z_1_6 + 100000 z_1_9 <= 702143.99209622026
 c3934: 120 p_1_1 + 120 p_1_10 + 120 p_1_2 + 120 p_1_3 + 120 p_1_4 + 120 p_1_5 + 120 p_1_6 + 120 p_1_9 + 100000 z_1_1 + 100000 z_1_10 + 100000 z_1_2 + 100000 z_1_3 + 100000 z_1_4 + 100000 z_1_5 + 100000 z_1_6 + 100000 z_1_9 <= 802143.92471649928
 c3935: 120 p_1_10 + 120 p_1_7 + 120 p_1_9 + 100000 z_1_10 + 100000 z_1_7 + 100000 z_1_9 <= 302478.42370356002
 c3936: 120 p_1_1 + 120 p_1_10 + 120 p_1_7 + 120 p_1_9 + 100000 z_1_1 + 100000 z_1_10 + 100000 z_1_7 + 100000 z_1_9 <= 402477.51399923075
 c3937: 120 p_1_10 + 120 p_1_2 + 120 p_1_7 + 120 p_1_9 + 100000 z_1_10 + 100000 z_1_2 + 100000 z_1_7 + 100000 z_1_9 <= 402217.97583412123
 c3938: 120 p_1_1 + 120 p_1_10 + 120 p_1_2 + 120 p_1_7 + 120 p_1_9 + 100000 z_1_1 + 100000 z_1_10 + 100000 z_1_2 + 100000 z_1_7 + 100000 z_1_9 <= 502217.06612979196
 c3939: 120 p_1_10 + 120 p_1_3 + 120 p_1_7 + 120 p_1_9 + 100000 z_1_10 + 100000 z_1_3 + 100000 z_1_7 + 100000 z_1_9 <= 402413.63947223884
 c3940: 120 p_1_1 + 120 p_1_10 + 120 p_1_3 + 120 p_1_7 + 120 p_1_9 + 100000 z_1_1 + 100000 z_1_10 + 100000 z_1_3 + 100000 z_1_7 + 100000 z_1_9 <= 502412.72976790956
 c3941: 120 p_1_10 + 120 p_1_2 + 120 p_1_3 + 120 p_1_7 + 120 p_1_9 + 100000 z_1_10 + 100000 z_1_2 + 100000 z_1_3 + 100000 z_1_7 + 100000 z_1_9 <= 502153.19160280004
 c3942: 120 p_1_1 + 120 p_1_10 + 120 p_1_2 + 120 p_1_3 + 120 p_1_7 + 120 p_1_9 + 100000 z_1_1 + 100000 z_1_10 + 100000 z_1_2 + 100000 z_1_3 + 100000 z_1_7 + 100000 z_1_9 <= 602152.28189847071
 c3943: 120 p_1_10 + 120 p_1_4 + 120 p_1_7 + 120 p_1_9 + 100000 z_1_10 + 100000 z_1_4 + 100000 z_1_7 + 100000 z_1_9 <= 402477.07692883135
 c3944: 120 p_1_1 + 120 p_1_10 + 120 p_1_4 + 120 p_1_7 + 120 p_1_9 + 100000 z_1_1 + 100000 z_1_10 + 100000 z_1_4 + 100000 z_1_7 + 100000 z_1_9 <= 502477.00954911037
 c3945: 120 p_1_10 + 120 p_1_2 + 120 p_1_4 + 120 p_1_7 + 120 p_1_9 + 100000 z_1_10 + 100000 z_1_2 + 100000 z_1_4 + 100000 z_1_7 + 100000 z_1_9 <= 502216.62905939255
 c3946: 120 p_1_1 + 120 p_1_10 + 120 p_1_2 + 120 p_1_4 + 120 p_1_7 + 120 p_1_9 + 100000 z_1_1 + 100000 z_1_10 + 100000 z_1_2 + 100000 z_1_4 + 100000 z_1_7 + 100000 z_1_9 <= 602216.56167967163
 c3947: 120 p_1_10 + 120 p_1_3 + 120 p_1_4 + 120 p_1_7 + 120 p_1_9 + 100000 z_1_10 + 100000 z_1_3 + 100000 z_1_4 + 100000 z_1_7 + 100000 z_1_9 <= 502412.2926975101
 c3948: 120 p_1_1 + 120 p_1_10 + 120 p_1_3 + 120 p_1_4 + 120 p_1_7 + 120 p_1_9 + 100000 z_1_1 + 100000 z_1_10 + 100000 z_1_3 + 100000 z_1_4 + 100000 z_1_7 + 100000 z_1_9 <= 602412.22531778913
 c3949: 120 p_1_10 + 120 p_1_2 + 120 p_1_3 + 120 p_1_4 + 120 p_1_7 + 120 p_1_9 + 100000 z_1_10 + 100000 z_1_2 + 100000 z_1_3 + 100000 z_1_4 + 100000 z_1_7 + 100000 z_1_9 <= 602151.84482807131
 c3950: 120 p_1_1 + 120 p_1_10 + 120 p_1_2 + 120 p_1_3 + 120 p_1_4 + 120 p_1_7 + 120 p_1_9 + 100000 z_1_1 + 100000 z_1_10 + 100000 z_1_2 + 100000 z_1_3 + 100000 z_1_4 + 100000 z_1_7 + 100000 z_1_9 <= 702151.77744835033
 c3951: 120 p_1_10 + 120 p_1_5 + 120 p_1_7 + 120 p_1_9 + 100000 z_1_10 + 100000 z_1_5 + 100000 z_1_7 + 100000 z_1_9 <= 402199.52824727411
 c3952: 120 p_1_1 + 120 p_1_10 + 120 p_1_5 + 120 p_1_7 + 120 p_1_9 + 100000 z_1_1 + 100000 z_1_10 + 100000 z_1_5 + 100000 z_1_7 + 100000 z_1_9 <= 502197.18299861893
 c3953: 120 p_1_10 + 120 p_1_2 + 120 p_1_5 + 120 p_1_7 + 120 p_1_9 + 100000 z_1_10 + 100000 z_1_2 + 100000 z_1_5 + 100000 z_1_7 + 100000 z_1_9 <= 502184.76458636095
 c3954: 120 p_1_1 + 120 p_1_10 + 120 p_1_2 + 120 p_1_5 + 120 p_1_7 + 120 p_1_9 + 100000 z_1_1 + 100000 z_1_10 + 100000 z_1_2 + 100000 z_1_5 + 100000 z_1_7 + 100000 z_1_9 <= 602182.41933770583
 c3955: 120 p_1_10 + 120 p_1_3 + 120 p_1_5 + 120 p_1_7 + 120 p_1_9 + 100000 z_1_10 + 100000 z_1_3 + 100000 z_1_5 + 100000 z_1_7 + 100000 z_1_9 <= 502110.54049391556
 c3956: 120 p_1_1 + 120 p_1_10 + 120 p_1_3 + 120 p_1_5 + 120 p_1_7 + 120 p_1_9 + 100000 z_1_1 + 100000 z_1_10 + 100000 z_1_3 + 100000 z_1_5 + 100000 z_1_7 + 100000 z_1_9 <= 602109.63078958634
 c3957: 120 p_1_10 + 120 p_1_2 + 120 p_1_3 + 120 p_1_5 + 120 p_1_7 + 120 p_1_9 + 100000 z_1_10 + 100000 z_1_2 + 100000 z_1_3 + 100000 z_1_5 + 100000 z_1_7 + 100000 z_1_9 <= 602095.77683300246
 c3958: 120 p_1_1 + 120 p_1_10 + 120 p_1_2 + 120 p_1_3 + 120 p_1_5 + 120 p_1_7 + 120 p_1_9 + 100000 z_1_1 + 100000 z_1_10 + 100000 z_1_2 + 100000 z_1_3 + 100000 z_1_5 + 100000 z_1_7 + 100000 z_1_9 <= 702094.86712867313
 c3959: 120 p_1_10 + 120 p_1_4 + 120 p_1_5 + 120 p_1_7 + 120 p_1_9 + 100000 z_1_10 + 100000 z_1_4 + 100000 z_1_5 + 100000 z_1_7 + 100000 z_1_9 <= 502197.02933613409
 c3960: 120 p_1_1 + 120 p_1_10 + 120 p_1_4 + 120 p_1_5 + 120 p_1_7 + 120 p_1_9 + 100000 z_1_1 + 100000 z_1_10 + 100000 z_1_4 + 100000 z_1_5 + 100000 z_1_7 + 100000 z_1_9 <= 602196.96195641311
 c3961: 120 p_1_10 + 120 p_1_2 + 120 p_1_4 + 120 p_1_5 + 120 p_1_7 + 120 p_1_9 + 100000 z_1_10 + 100000 z_1_2 + 100000 z_1_4 + 100000 z_1_5 + 100000 z_1_7 + 100000 z_1_9 <= 602182.26567522087
 c3962: 120 p_1_1 + 120 p_1_10 + 120 p_1_2 + 120 p_1_4 + 120 p_1_5 + 120 p_1_7 + 120 p_1_9 + 100000 z_1_1 + 100000 z_1_10 + 100000 z_1_2 + 100000 z_1_4 + 100000 z_1_5 + 100000 z_1_7 + 100000 z_1_9 <= 702182.19829550001
 c3963: 120 p_1_10 + 120 p_1_3 + 120 p_1_4 + 120 p_1_5 + 120 p_1_7 + 120 p_1_9 + 100000 z_1_10 + 100000 z_1_3 + 100000 z_1_4 + 100000 z_1_5 + 100000 z_1_7 + 100000 z_1_9 <= 602109.19371918682
 c3964: 120 p_1_1 + 120 p_1_10 + 120 p_1_3 + 120 p_1_4 + 120 p_1_5 + 120 p_1_7 + 120 p_1_9 + 100000 z_1_1 + 100000 z_1_10 + 100000 z_1_3 + 100000 z_1_4 + 100000 z_1_5 + 100000 z_1_7 + 100000 z_1_9 <= 702109.12633946596
 c3965: 120 p_1_10 + 120 p_1_2 + 120 p_1_3 + 120 p_1_4 + 120 p_1_5 + 120 p_1_7 + 120 p_1_9 + 100000 z_1_10 + 100000 z_1_2 + 100000 z_1_3 + 100000 z_1_4 + 100000 z_1_5 + 100000 z_1_7 + 100000 z_1_9 <= 702094.43005827372
 c3966: 120 p_1_1 + 120 p_1_10 + 120 p_1_2 + 120 p_1_3 + 120 p_1_4 + 120 p_1_5 + 120 p_1_7 + 120 p_1_9 + 100000 z_1_1 + 100000 z_1_10 + 100000 z_1_2 + 100000 z_1_3 + 100000 z_1_4 + 100000 z_1_5 + 100000 z_1_7 + 100000 z_1_9 <= 802094.36267855274
 c3967: 120 p_1_10 + 120 p_1_6 + 120 p_1_7 + 120 p_1_9 + 100000 z_1_10 + 100000 z_1_6 + 100000 z_1_7 + 100000 z_1_9 <= 402452.77164500975
 c3968: 120 p_1_1 + 120 p_1_10 + 120 p_1_6 + 120 p_1_7 + 120 p_1_9 + 100000 z_1_1 + 100000 z_1_10 + 100000 z_1_6 + 100000 z_1_7 + 100000 z_1_9 <= 502451.86194068048
 c3969: 120 p_1_10 + 120 p_1_2 + 120 p_1_6 + 120 p_1_7 + 120 p_1_9 + 100000 z_1_10 + 100000 z_1_2 + 100000 z_1_6 + 100000 z_1_7 + 100000 z_1_9 <= 502192.32377557096
 c3970: 120 p_1_1 + 120 p_1_10 + 120 p_1_2 + 120 p_1_6 + 120 p_1_7 + 120 p_1_9 + 100000 z_1_1 + 100000 z_1_10 + 100000 z_1_2 + 100000 z_1_6 + 100000 z_1_7 + 100000 z_1_9 <= 602191.41407124174
 c3971: 120 p_1_10 + 120 p_1_3 + 120 p_1_6 + 120 p_1_7 + 120 p_1_9 + 100000 z_1_10 + 100000 z_1_3 + 100000 z_1_6 + 100000 z_1_7 + 100000 z_1_9 <= 502402.69241057133
 c3972: 120 p_1_1 + 120 p_1_10 + 120 p_1_3 + 120 p_1_6 + 120 p_1_7 + 120 p_1_9 + 100000 z_1_1 + 100000 z_1_10 + 100000 z_1_3 + 100000 z_1_6 + 100000 z_1_7 + 100000 z_1_9 <= 602401.78270624205
 c3973: 120 p_1_10 + 120 p_1_2 + 120 p_1_3 + 120 p_1_6 + 120 p_1_7 + 120 p_1_9 + 100000 z_1_10 + 100000 z_1_2 + 100000 z_1_3 + 100000 z_1_6 + 100000 z_1_7 + 100000 z_1_9 <= 602142.24454113259
 c3974: 120 p_1_1 + 120 p_1_10 + 120 p_1_2 + 120 p_1_3 + 120 p_1_6 + 120 p_1_7 + 120 p_1_9 + 100000 z_1_1 + 100000 z_1_10 + 100000 z_1_2 + 100000 z_1_3 + 100000 z_1_6 + 100000 z_1_7 + 100000 z_1_9 <= 702141.33483680326
 c3975: 120 p_1_10 + 120 p_1_4 + 120 p_1_6 + 120 p_1_7 + 120 p_1_9 + 100000 z_1_10 + 100000 z_1_4 + 100000 z_1_6 + 100000 z_1_7 + 100000 z_1_9 <= 502451.42487028107
 c3976: 120 p_1_1 + 120 p_1_10 + 120 p_1_4 + 120 p_1_6 + 120 p_1_7 + 120 p_1_9 + 100000 z_1_1 + 100000 z_1_10 + 100000 z_1_4 + 100000 z_1_6 + 100000 z_1_7 + 100000 z_1_9 <= 602451.35749056016
 c3977: 120 p_1_10 + 120 p_1_2 + 120 p_1_4 + 120 p_1_6 + 120 p_1_7 + 120 p_1_9 + 100000 z_1_10 + 100000 z_1_2 + 100000 z_1_4 + 100000 z_1_6 + 100000 z_1_7 + 100000 z_1_9 <= 602190.97700084234
 c3978: 120 p_1_1 + 120 p_1_10 + 120 p_1_2 + 120 p_1_4 + 120 p_1_6 + 120 p_1_7 + 120 p_1_9 + 100000 z_1_1 + 100000 z_1_10 + 100000 z_1_2 + 100000 z_1_4 + 100000 z_1_6 + 100000 z_1_7 + 100000 z_1_9 <= 702190.90962112136
 c3979: 120 p_1_10 + 120 p_1_3 + 120 p_1_4 + 120 p_1_6 + 120 p_1_7 + 120 p_1_9 + 100000 z_1_10 + 100000 z_1_3 + 100000 z_1_4 + 100000 z_1_6 + 100000 z_1_7 + 100000 z_1_9 <= 602401.34563584265
 c3980: 120 p_1_1 + 120 p_1_10 + 120 p_1_3 + 120 p_1_4 + 120 p_1_6 + 120 p_1_7 + 120 p_1_9 + 100000 z_1_1 + 100000 z_1_10 + 100000 z_1_3 + 100000 z_1_4 + 100000 z_1_6 + 100000 z_1_7 + 100000 z_1_9 <= 702401.27825612167
 c3981: 120 p_1_10 + 120 p_1_2 + 120 p_1_3 + 120 p_1_4 + 120 p_1_6 + 120 p_1_7 + 120 p_1_9 + 100000 z_1_10 + 100000 z_1_2 + 100000 z_1_3 + 100000 z_1_4 + 100000 z_1_6 + 100000 z_1_7 + 100000 z_1_9 <= 702140.89776640385
 c3982: 120 p_1_1 + 120 p_1_10 + 120 p_1_2 + 120 p_1_3 + 120 p_1_4 + 120 p_1_6 + 120 p_1_7 + 120 p_1_9 + 100000 z_1_1 + 100000 z_1_10 + 100000 z_1_2 + 100000 z_1_3 + 100000 z_1_4 + 100000 z_1_6 + 100000 z_1_7 + 100000 z_1_9 <= 802140.83038668288
 c3983: 120 p_1_10 + 120 p_1_5 + 120 p_1_6 + 120 p_1_7 + 120 p_1_9 + 100000 z_1_10 + 100000 z_1_5 + 100000 z_1_6 + 100000 z_1_7 + 100000 z_1_9 <= 502149.67266668653
 c3984: 120 p_1_1 + 120 p_1_10 + 120 p_1_5 + 120 p_1_6 + 120 p_1_7 + 120 p_1_9 + 100000 z_1_1 + 100000 z_1_10 + 100000 z_1_5 + 100000 z_1_6 + 100000 z_1_7 + 100000 z_1_9 <= 602148.76296235726
 c3985: 120 p_1_10 + 120 p_1_2 + 120 p_1_5 + 120 p_1_6 + 120 p_1_7 + 120 p_1_9 + 100000 z_1_10 + 100000 z_1_2 + 100000 z_1_5 + 100000 z_1_6 + 100000 z_1_7 + 100000 z_1_9 <= 602134.90900577337
 c3986: 120 p_1_1 + 120 p_1_10 + 120 p_1_2 + 120 p_1_5 + 120 p_1_6 + 120 p_1_7 + 120 p_1_9 + 100000 z_1_1 + 100000 z_1_10 + 100000 z_1_2 + 100000 z_1_5 + 100000 z_1_6 + 100000 z_1_7 + 100000 z_1_9 <= 702133.99930144416
 c3987: 120 p_1_10 + 120 p_1_3 + 120 p_1_5 + 120 p_1_6 + 120 p_1_7 + 120 p_1_9 + 100000 z_1_10 + 100000 z_1_3 + 100000 z_1_5 + 100000 z_1_6 + 100000 z_1_7 + 100000 z_1_9 <= 602099.5934322481
 c3988: 120 p_1_1 + 120 p_1_10 + 120 p_1_3 + 120 p_1_5 + 120 p_1_6 + 120 p_1_7 + 120 p_1_9 + 100000 z_1_1 + 100000 z_1_10 + 100000 z_1_3 + 100000 z_1_5 + 100000 z_1_6 + 100000 z_1_7 + 100000 z_1_9 <= 702098.68372791877
 c3989: 120 p_1_10 + 120 p_1_2 + 120 p_1_3 + 120 p_1_5 + 120 p_1_6 + 120 p_1_7 + 120 p_1_9 + 100000 z_1_10 + 100000 z_1_2 + 100000 z_1_3 + 100000 z_1_5 + 100000 z_1_6 + 100000 z_1_7 + 100000 z_1_9 <= 702084.829771335
 c3990: 120 p_1_1 + 120 p_1_10 + 120 p_1_2 + 120 p_1_3 + 120 p_1_5 + 120 p_1_6 + 120 p_1_7 + 120 p_1_9 + 100000 z_1_1 + 100000 z_1_10 + 100000 z_1_2 + 100000 z_1_3 + 100000 z_1_5 + 100000 z_1_6 + 100000 z_1_7 + 100000 z_1_9 <= 802083.92006700567
 c3991: 120 p_1_10 + 120 p_1_4 + 120 p_1_5 + 120 p_1_6 + 120 p_1_7 + 120 p_1_9 + 100000 z_1_10 + 100000 z_1_4 + 100000 z_1_5 + 100000 z_1_6 + 100000 z_1_7 + 100000 z_1_9 <= 602148.32589195785
 c3992: 120 p_1_1 + 120 p_1_10 + 120 p_1_4 + 120 p_1_5 + 120 p_1_6 + 120 p_1_7 + 120 p_1_9 + 100000 z_1_1 + 100000 z_1_10 + 100000 z_1_4 + 100000 z_1_5 + 100000 z_1_6 + 100000 z_1_7 + 100000 z_1_9 <= 702148.25851223688
 c3993: 120 p_1_10 + 120 p_1_2 + 120 p_1_4 + 120 p_1_5 + 120 p_1_6 + 120 p_1_7 + 120 p_1_9 + 100000 z_1_10 + 100000 z_1_2 + 100000 z_1_4 + 100000 z_1_5 + 100000 z_1_6 + 100000 z_1_7 + 100000 z_1_9 <= 702133.56223104463
 c3994: 120 p_1_1 + 120 p_1_10 + 120 p_1_2 + 120 p_1_4 + 120 p_1_5 + 120 p_1_6 + 120 p_1_7 + 120 p_1_9 + 100000 z_1_1 + 100000 z_1_10 + 100000 z_1_2 + 100000 z_1_4 + 100000 z_1_5 + 100000 z_1_6 + 100000 z_1_7 + 100000 z_1_9 <= 802133.49485132378
 c3995: 120 p_1_10 + 120 p_1_3 + 120 p_1_4 + 120 p_1_5 + 120 p_1_6 + 120 p_1_7 + 120 p_1_9 + 100000 z_1_10 + 100000 z_1_3 + 100000 z_1_4 + 100000 z_1_5 + 100000 z_1_6 + 100000 z_1_7 + 100000 z_1_9 <= 702098.24665751937
 c3996: 120 p_1_1 + 120 p_1_10 + 120 p_1_3 + 120 p_1_4 + 120 p_1_5 + 120 p_1_6 + 120 p_1_7 + 120 p_1_9 + 100000 z_1_1 + 100000 z_1_10 + 100000 z_1_3 + 100000 z_1_4 + 100000 z_1_5 + 100000 z_1_6 + 100000 z_1_7 + 100000 z_1_9 <= 802098.17927779839
 c3997: 120 p_1_10 + 120 p_1_2 + 120 p_1_3 + 120 p_1_4 + 120 p_1_5 + 120 p_1_6 + 120 p_1_7 + 120 p_1_9 + 100000 z_1_10 + 100000 z_1_2 + 100000 z_1_3 + 100000 z_1_4 + 100000 z_1_5 + 100000 z_1_6 + 100000 z_1_7 + 100000 z_1_9 <= 802083.48299660627
 c3998: 120 p_1_1 + 120 p_1_10 + 120 p_1_2 + 120 p_1_3 + 120 p_1_4 + 120 p_1_5 + 120 p_1_6 + 120 p_1_7 + 120 p_1_9 + 100000 z_1_1 + 100000 z_1_10 + 100000 z_1_2 + 100000 z_1_3 + 100000 z_1_4 + 100000 z_1_5 + 100000 z_1_6 + 100000 z_1_7 + 100000 z_1_9 <= 902083.41561688529
 c3999: 120 p_1_10 + 120 p_1_8 + 120 p_1_9 + 100000 z_1_10 + 100000 z_1_8 + 100000 z_1_9 <= 302149.77792486706
 c4000: 120 p_1_1 + 120 p_1_10 + 120 p_1_8 + 120 p_1_9 + 100000 z_1_1 + 100000 z_1_10 + 100000 z_1_8 + 100000 z_1_9 <= 402147.43267621187
 c4001: 120 p_1_10 + 120 p_1_2 + 120 p_1_8 + 120 p_1_9 + 100000 z_1_10 + 100000 z_1_2 + 100000 z_1_8 + 100000 z_1_9 <= 402147.54480542109
 c4002: 120 p_1_1 + 120 p_1_10 + 120 p_1_2 + 120 p_1_8 + 120 p_1_9 + 100000 z_1_1 + 100000 z_1_10 + 100000 z_1_2 + 100000 z_1_8 + 100000 z_1_9 <= 502145.1995567659
 c4003: 120 p_1_10 + 120 p_1_3 + 120 p_1_8 + 120 p_1_9 + 100000 z_1_10 + 100000 z_1_3 + 100000 z_1_8 + 100000 z_1_9 <= 402055.95955675794
 c4004: 120 p_1_1 + 120 p_1_10 + 120 p_1_3 + 120 p_1_8 + 120 p_1_9 + 100000 z_1_1 + 100000 z_1_10 + 100000 z_1_3 + 100000 z_1_8 + 100000 z_1_9 <= 502053.61430810281
 c4005: 120 p_1_10 + 120 p_1_2 + 120 p_1_3 + 120 p_1_8 + 120 p_1_9 + 100000 z_1_10 + 100000 z_1_2 + 100000 z_1_3 + 100000 z_1_8 + 100000 z_1_9 <= 502053.72643731197
 c4006: 120 p_1_1 + 120 p_1_10 + 120 p_1_2 + 120 p_1_3 + 120 p_1_8 + 120 p_1_9 + 100000 z_1_1 + 100000 z_1_10 + 100000 z_1_2 + 100000 z_1_3 + 100000 z_1_8 + 100000 z_1_9 <= 602051.38118865679
 c4007: 120 p_1_10 + 120 p_1_4 + 120 p_1_8 + 120 p_1_9 + 100000 z_1_10 + 100000 z_1_4 + 100000 z_1_8 + 100000 z_1_9 <= 402147.60398002487
 c4008: 120 p_1_1 + 120 p_1_10 + 120 p_1_4 + 120 p_1_8 + 120 p_1_9 + 100000 z_1_1 + 100000 z_1_10 + 100000 z_1_4 + 100000 z_1_8 + 100000 z_1_9 <= 502147.21163400606
 c4009: 120 p_1_10 + 120 p_1_2 + 120 p_1_4 + 120 p_1_8 + 120 p_1_9 + 100000 z_1_10 + 100000 z_1_2 + 100000 z_1_4 + 100000 z_1_8 + 100000 z_1_9 <= 502145.3708605789
 c4010: 120 p_1_1 + 120 p_1_10 + 120 p_1_2 + 120 p_1_4 + 120 p_1_8 + 120 p_1_9 + 100000 z_1_1 + 100000 z_1_10 + 100000 z_1_2 + 100000 z_1_4 + 100000 z_1_8 + 100000 z_1_9 <= 602144.97851456003
 c4011: 120 p_1_10 + 120 p_1_3 + 120 p_1_4 + 120 p_1_8 + 120 p_1_9 + 100000 z_1_10 + 100000 z_1_3 + 100000 z_1_4 + 100000 z_1_8 + 100000 z_1_9 <= 502053.46064561792
 c4012: 120 p_1_1 + 120 p_1_10 + 120 p_1_3 + 120 p_1_4 + 120 p_1_8 + 120 p_1_9 + 100000 z_1_1 + 100000 z_1_10 + 100000 z_1_3 + 100000 z_1_4 + 100000 z_1_8 + 100000 z_1_9 <= 602053.39326589694
 c4013: 120 p_1_10 + 120 p_1_2 + 120 p_1_3 + 120 p_1_4 + 120 p_1_8 + 120 p_1_9 + 100000 z_1_10 + 100000 z_1_2 + 100000 z_1_3 + 100000 z_1_4 + 100000 z_1_8 + 100000 z_1_9 <= 602051.22752617195
 c4014: 120 p_1_1 + 120 p_1_10 + 120 p_1_2 + 120 p_1_3 + 120 p_1_4 + 120 p_1_8 + 120 p_1_9 + 100000 z_1_1 + 100000 z_1_10 + 100000 z_1_2 + 100000 z_1_3 + 100000 z_1_4 + 100000 z_1_8 + 100000 z_1_9 <= 702051.16014645097
 c4015: 120 p_1_10 + 120 p_1_5 + 120 p_1_8 + 120 p_1_9 + 100000 z_1_10 + 100000 z_1_5 + 100000 z_1_8 + 100000 z_1_9 <= 402145.87631085177
 c4016: 120 p_1_1 + 120 p_1_10 + 120 p_1_5 + 120 p_1_8 + 120 p_1_9 + 100000 z_1_1 + 100000 z_1_10 + 100000 z_1_5 + 100000 z_1_8 + 100000 z_1_9 <= 502143.53106219659
 c4017: 120 p_1_10 + 120 p_1_2 + 120 p_1_5 + 120 p_1_8 + 120 p_1_9 + 100000 z_1_10 + 100000 z_1_2 + 100000 z_1_5 + 100000 z_1_8 + 100000 z_1_9 <= 502131.11264993862
 c4018: 120 p_1_1 + 120 p_1_10 + 120 p_1_2 + 120 p_1_5 + 120 p_1_8 + 120 p_1_9 + 100000 z_1_1 + 100000 z_1_10 + 100000 z_1_2 + 100000 z_1_5 + 100000 z_1_8 + 100000 z_1_9 <= 602128.76740128349
 c4019: 120 p_1_10 + 120 p_1_3 + 120 p_1_5 + 120 p_1_8 + 120 p_1_9 + 100000 z_1_10 + 100000 z_1_3 + 100000 z_1_5 + 100000 z_1_8 + 100000 z_1_9 <= 502052.68206708721
 c4020: 120 p_1_1 + 120 p_1_10 + 120 p_1_3 + 120 p_1_5 + 120 p_1_8 + 120 p_1_9 + 100000 z_1_1 + 100000 z_1_10 + 100000 z_1_3 + 100000 z_1_5 + 100000 z_1_8 + 100000 z_1_9 <= 602050.33681843209
 c4021: 120 p_1_10 + 120 p_1_2 + 120 p_1_3 + 120 p_1_5 + 120 p_1_8 + 120 p_1_9 + 100000 z_1_10 + 100000 z_1_2 + 100000 z_1_3 + 100000 z_1_5 + 100000 z_1_8 + 100000 z_1_9 <= 602050.44894764118
 c4022: 120 p_1_1 + 120 p_1_10 + 120 p_1_2 + 120 p_1_3 + 120 p_1_5 + 120 p_1_8 + 120 p_1_9 + 100000 z_1_1 + 100000 z_1_10 + 100000 z_1_2 + 100000 z_1_3 + 100000 z_1_5 + 100000 z_1_8 + 100000 z_1_9 <= 702048.103698986
 c4023: 120 p_1_10 + 120 p_1_4 + 120 p_1_5 + 120 p_1_8 + 120 p_1_9 + 100000 z_1_10 + 100000 z_1_4 + 100000 z_1_5 + 100000 z_1_8 + 100000 z_1_9 <= 502143.70236600959
 c4024: 120 p_1_1 + 120 p_1_10 + 120 p_1_4 + 120 p_1_5 + 120 p_1_8 + 120 p_1_9 + 100000 z_1_1 + 100000 z_1_10 + 100000 z_1_4 + 100000 z_1_5 + 100000 z_1_8 + 100000 z_1_9 <= 602143.31001999078
 c4025: 120 p_1_10 + 120 p_1_2 + 120 p_1_4 + 120 p_1_5 + 120 p_1_8 + 120 p_1_9 + 100000 z_1_10 + 100000 z_1_2 + 100000 z_1_4 + 100000 z_1_5 + 100000 z_1_8 + 100000 z_1_9 <= 602128.93870509649
 c4026: 120 p_1_1 + 120 p_1_10 + 120 p_1_2 + 120 p_1_4 + 120 p_1_5 + 120 p_1_8 + 120 p_1_9 + 100000 z_1_1 + 100000 z_1_10 + 100000 z_1_2 + 100000 z_1_4 + 100000 z_1_5 + 100000 z_1_8 + 100000 z_1_9 <= 702128.54635907768
 c4027: 120 p_1_10 + 120 p_1_3 + 120 p_1_4 + 120 p_1_5 + 120 p_1_8 + 120 p_1_9 + 100000 z_1_10 + 100000 z_1_3 + 100000 z_1_4 + 100000 z_1_5 + 100000 z_1_8 + 100000 z_1_9 <= 602050.18315594713
 c4028: 120 p_1_1 + 120 p_1_10 + 120 p_1_3 + 120 p_1_4 + 120 p_1_5 + 120 p_1_8 + 120 p_1_9 + 100000 z_1_1 + 100000 z_1_10 + 100000 z_1_3 + 100000 z_1_4 + 100000 z_1_5 + 100000 z_1_8 + 100000 z_1_9 <= 702050.11577622616
 c4029: 120 p_1_10 + 120 p_1_2 + 120 p_1_3 + 120 p_1_4 + 120 p_1_5 + 120 p_1_8 + 120 p_1_9 + 100000 z_1_10 + 100000 z_1_2 + 100000 z_1_3 + 100000 z_1_4 + 100000 z_1_5 + 100000 z_1_8 + 100000 z_1_9 <= 702047.95003650116
 c4030: 120 p_1_1 + 120 p_1_10 + 120 p_1_2 + 120 p_1_3 + 120 p_1_4 + 120 p_1_5 + 120 p_1_8 + 120 p_1_9 + 100000 z_1_1 + 100000 z_1_10 + 100000 z_1_2 + 100000 z_1_3 + 100000 z_1_4 + 100000 z_1_5 + 100000 z_1_8 + 100000 z_1_9 <= 802047.88265678019
 c4031: 120 p_1_10 + 120 p_1_6 + 120 p_1_8 + 120 p_1_9 + 100000 z_1_10 + 100000 z_1_6 + 100000 z_1_8 + 100000 z_1_9 <= 402095.61830197985
 c4032: 120 p_1_1 + 120 p_1_10 + 120 p_1_6 + 120 p_1_8 + 120 p_1_9 + 100000 z_1_1 + 100000 z_1_10 + 100000 z_1_6 + 100000 z_1_8 + 100000 z_1_9 <= 502093.27305332466
 c4033: 120 p_1_10 + 120 p_1_2 + 120 p_1_6 + 120 p_1_8 + 120 p_1_9 + 100000 z_1_10 + 100000 z_1_2 + 100000 z_1_6 + 100000 z_1_8 + 100000 z_1_9 <= 502093.38518253382
 c4034: 120 p_1_1 + 120 p_1_10 + 120 p_1_2 + 120 p_1_6 + 120 p_1_8 + 120 p_1_9 + 100000 z_1_1 + 100000 z_1_10 + 100000 z_1_2 + 100000 z_1_6 + 100000 z_1_8 + 100000 z_1_9 <= 602091.0399338787
 c4035: 120 p_1_10 + 120 p_1_3 + 120 p_1_6 + 120 p_1_8 + 120 p_1_9 + 100000 z_1_10 + 100000 z_1_3 + 100000 z_1_6 + 100000 z_1_8 + 100000 z_1_9 <= 502045.01249509049
 c4036: 120 p_1_1 + 120 p_1_10 + 120 p_1_3 + 120 p_1_6 + 120 p_1_8 + 120 p_1_9 + 100000 z_1_1 + 100000 z_1_10 + 100000 z_1_3 + 100000 z_1_6 + 100000 z_1_8 + 100000 z_1_9 <= 602042.6672464353
 c4037: 120 p_1_10 + 120 p_1_2 + 120 p_1_3 + 120 p_1_6 + 120 p_1_8 + 120 p_1_9 + 100000 z_1_10 + 100000 z_1_2 + 100000 z_1_3 + 100000 z_1_6 + 100000 z_1_8 + 100000 z_1_9 <= 602042.77937564452
 c4038: 120 p_1_1 + 120 p_1_10 + 120 p_1_2 + 120 p_1_3 + 120 p_1_6 + 120 p_1_8 + 120 p_1_9 + 100000 z_1_1 + 100000 z_1_10 + 100000 z_1_2 + 100000 z_1_3 + 100000 z_1_6 + 100000 z_1_8 + 100000 z_1_9 <= 702040.43412698933
 c4039: 120 p_1_10 + 120 p_1_4 + 120 p_1_6 + 120 p_1_8 + 120 p_1_9 + 100000 z_1_10 + 100000 z_1_4 + 100000 z_1_6 + 100000 z_1_8 + 100000 z_1_9 <= 502093.44435713766
 c4040: 120 p_1_1 + 120 p_1_10 + 120 p_1_4 + 120 p_1_6 + 120 p_1_8 + 120 p_1_9 + 100000 z_1_1 + 100000 z_1_10 + 100000 z_1_4 + 100000 z_1_6 + 100000 z_1_8 + 100000 z_1_9 <= 602093.05201111885
 c4041: 120 p_1_10 + 120 p_1_2 + 120 p_1_4 + 120 p_1_6 + 120 p_1_8 + 120 p_1_9 + 100000 z_1_10 + 100000 z_1_2 + 100000 z_1_4 + 100000 z_1_6 + 100000 z_1_8 + 100000 z_1_9 <= 602091.21123769169
 c4042: 120 p_1_1 + 120 p_1_10 + 120 p_1_2 + 120 p_1_4 + 120 p_1_6 + 120 p_1_8 + 120 p_1_9 + 100000 z_1_1 + 100000 z_1_10 + 100000 z_1_2 + 100000 z_1_4 + 100000 z_1_6 + 100000 z_1_8 + 100000 z_1_9 <= 702090.81889167288
 c4043: 120 p_1_10 + 120 p_1_3 + 120 p_1_4 + 120 p_1_6 + 120 p_1_8 + 120 p_1_9 + 100000 z_1_10 + 100000 z_1_3 + 100000 z_1_4 + 100000 z_1_6 + 100000 z_1_8 + 100000 z_1_9 <= 602042.51358395047
 c4044: 120 p_1_1 + 120 p_1_10 + 120 p_1_3 + 120 p_1_4 + 120 p_1_6 + 120 p_1_8 + 120 p_1_9 + 100000 z_1_1 + 100000 z_1_10 + 100000 z_1_3 + 100000 z_1_4 + 100000 z_1_6 + 100000 z_1_8 + 100000 z_1_9 <= 702042.44620422949
 c4045: 120 p_1_10 + 120 p_1_2 + 120 p_1_3 + 120 p_1_4 + 120 p_1_6 + 120 p_1_8 + 120 p_1_9 + 100000 z_1_10 + 100000 z_1_2 + 100000 z_1_3 + 100000 z_1_4 + 100000 z_1_6 + 100000 z_1_8 + 100000 z_1_9 <= 702040.2804645045
 c4046: 120 p_1_1 + 120 p_1_10 + 120 p_1_2 + 120 p_1_3 + 120 p_1_4 + 120 p_1_6 + 120 p_1_8 + 120 p_1_9 + 100000 z_1_1 + 100000 z_1_10 + 100000 z_1_2 + 100000 z_1_3 + 100000 z_1_4 + 100000 z_1_6 + 100000 z_1_8 + 100000 z_1_9 <= 802040.21308478352
 c4047: 120 p_1_10 + 120 p_1_5 + 120 p_1_6 + 120 p_1_8 + 120 p_1_9 + 100000 z_1_10 + 100000 z_1_5 + 100000 z_1_6 + 100000 z_1_8 + 100000 z_1_9 <= 502091.81423985813
 c4048: 120 p_1_1 + 120 p_1_10 + 120 p_1_5 + 120 p_1_6 + 120 p_1_8 + 120 p_1_9 + 100000 z_1_1 + 100000 z_1_10 + 100000 z_1_5 + 100000 z_1_6 + 100000 z_1_8 + 100000 z_1_9 <= 602089.468991203
 c4049: 120 p_1_10 + 120 p_1_2 + 120 p_1_5 + 120 p_1_6 + 120 p_1_8 + 120 p_1_9 + 100000 z_1_10 + 100000 z_1_2 + 100000 z_1_5 + 100000 z_1_6 + 100000 z_1_8 + 100000 z_1_9 <= 602089.58112041221
 c4050: 120 p_1_1 + 120 p_1_10 + 120 p_1_2 + 120 p_1_5 + 120 p_1_6 + 120 p_1_8 + 120 p_1_9 + 100000 z_1_1 + 100000 z_1_10 + 100000 z_1_2 + 100000 z_1_5 + 100000 z_1_6 + 100000 z_1_8 + 100000 z_1_9 <= 702087.23587175703
 c4051: 120 p_1_10 + 120 p_1_3 + 120 p_1_5 + 120 p_1_6 + 120 p_1_8 + 120 p_1_9 + 100000 z_1_10 + 100000 z_1_3 + 100000 z_1_5 + 100000 z_1_6 + 100000 z_1_8 + 100000 z_1_9 <= 602041.7350054197
 c4052: 120 p_1_1 + 120 p_1_10 + 120 p_1_3 + 120 p_1_5 + 120 p_1_6 + 120 p_1_8 + 120 p_1_9 + 100000 z_1_1 + 100000 z_1_10 + 100000 z_1_3 + 100000 z_1_5 + 100000 z_1_6 + 100000 z_1_8 + 100000 z_1_9 <= 702039.38975676452
 c4053: 120 p_1_10 + 120 p_1_2 + 120 p_1_3 + 120 p_1_5 + 120 p_1_6 + 120 p_1_8 + 120 p_1_9 + 100000 z_1_10 + 100000 z_1_2 + 100000 z_1_3 + 100000 z_1_5 + 100000 z_1_6 + 100000 z_1_8 + 100000 z_1_9 <= 702039.50188597373
 c4054: 120 p_1_1 + 120 p_1_10 + 120 p_1_2 + 120 p_1_3 + 120 p_1_5 + 120 p_1_6 + 120 p_1_8 + 120 p_1_9 + 100000 z_1_1 + 100000 z_1_10 + 100000 z_1_2 + 100000 z_1_3 + 100000 z_1_5 + 100000 z_1_6 + 100000 z_1_8 + 100000 z_1_9 <= 802037.15663731855
 c4055: 120 p_1_10 + 120 p_1_4 + 120 p_1_5 + 120 p_1_6 + 120 p_1_8 + 120 p_1_9 + 100000 z_1_10 + 100000 z_1_4 + 100000 z_1_5 + 100000 z_1_6 + 100000 z_1_8 + 100000 z_1_9 <= 602089.54274312232
 c4056: 120 p_1_1 + 120 p_1_10 + 120 p_1_4 + 120 p_1_5 + 120 p_1_6 + 120 p_1_8 + 120 p_1_9 + 100000 z_1_1 + 100000 z_1_10 + 100000 z_1_4 + 100000 z_1_5 + 100000 z_1_6 + 100000 z_1_8 + 100000 z_1_9 <= 702089.24794899719
 c4057: 120 p_1_10 + 120 p_1_2 + 120 p_1_4 + 120 p_1_5 + 120 p_1_6 + 120 p_1_8 + 120 p_1_9 + 100000 z_1_10 + 100000 z_1_2 + 100000 z_1_4 + 100000 z_1_5 + 100000 z_1_6 + 100000 z_1_8 + 100000 z_1_9 <= 702087.08220927208
 c4058: 120 p_1_1 + 120 p_1_10 + 120 p_1_2 + 120 p_1_4 + 120 p_1_5 + 120 p_1_6 + 120 p_1_8 + 120 p_1_9 + 100000 z_1_1 + 100000 z_1_10 + 100000 z_1_2 + 100000 z_1_4 + 100000 z_1_5 + 100000 z_1_6 + 100000 z_1_8 + 100000 z_1_9 <= 802087.01482955122
 c4059: 120 p_1_10 + 120 p_1_3 + 120 p_1_4 + 120 p_1_5 + 120 p_1_6 + 120 p_1_8 + 120 p_1_9 + 100000 z_1_10 + 100000 z_1_3 + 100000 z_1_4 + 100000 z_1_5 + 100000 z_1_6 + 100000 z_1_8 + 100000 z_1_9 <= 702039.23609427968
 c4060: 120 p_1_1 + 120 p_1_10 + 120 p_1_3 + 120 p_1_4 + 120 p_1_5 + 120 p_1_6 + 120 p_1_8 + 120 p_1_9 + 100000 z_1_1 + 100000 z_1_10 + 100000 z_1_3 + 100000 z_1_4 + 100000 z_1_5 + 100000 z_1_6 + 100000 z_1_8 + 100000 z_1_9 <= 802039.16871455871
 c4061: 120 p_1_10 + 120 p_1_2 + 120 p_1_3 + 120 p_1_4 + 120 p_1_5 + 120 p_1_6 + 120 p_1_8 + 120 p_1_9 + 100000 z_1_10 + 100000 z_1_2 + 100000 z_1_3 + 100000 z_1_4 + 100000 z_1_5 + 100000 z_1_6 + 100000 z_1_8 + 100000 z_1_9 <= 802037.00297483371
 c4062: 120 p_1_1 + 120 p_1_10 + 120 p_1_2 + 120 p_1_3 + 120 p_1_4 + 120 p_1_5 + 120 p_1_6 + 120 p_1_8 + 120 p_1_9 + 100000 z_1_1 + 100000 z_1_10 + 100000 z_1_2 + 100000 z_1_3 + 100000 z_1_4 + 100000 z_1_5 + 100000 z_1_6 + 100000 z_1_8 + 100000 z_1_9 <= 902036.93559511274
 c4063: 120 p_1_10 + 120 p_1_7 + 120 p_1_8 + 120 p_1_9 + 100000 z_1_10 + 100000 z_1_7 + 100000 z_1_8 + 100000 z_1_9 <= 402108.84573491581
 c4064: 120 p_1_1 + 120 p_1_10 + 120 p_1_7 + 120 p_1_8 + 120 p_1_9 + 100000 z_1_1 + 100000 z_1_10 + 100000 z_1_7 + 100000 z_1_8 + 100000 z_1_9 <= 502106.50048626063
 c4065: 120 p_1_10 + 120 p_1_2 + 120 p_1_7 + 120 p_1_8 + 120 p_1_9 + 100000 z_1_10 + 100000 z_1_2 + 100000 z_1_7 + 100000 z_1_8 + 100000 z_1_9 <= 502106.61261546984
 c4066: 120 p_1_1 + 120 p_1_10 + 120 p_1_2 + 120 p_1_7 + 120 p_1_8 + 120 p_1_9 + 100000 z_1_1 + 100000 z_1_10 + 100000 z_1_2 + 100000 z_1_7 + 100000 z_1_8 + 100000 z_1_9 <= 602104.26736681466
 c4067: 120 p_1_10 + 120 p_1_3 + 120 p_1_7 + 120 p_1_8 + 120 p_1_9 + 100000 z_1_10 + 100000 z_1_3 + 100000 z_1_7 + 100000 z_1_8 + 100000 z_1_9 <= 502001.82753237954
 c4068: 120 p_1_1 + 120 p_1_10 + 120 p_1_3 + 120 p_1_7 + 120 p_1_8 + 120 p_1_9 + 100000 z_1_1 + 100000 z_1_10 + 100000 z_1_3 + 100000 z_1_7 + 100000 z_1_8 + 100000 z_1_9 <= 601999.48228372436
 c4069: 120 p_1_10 + 120 p_1_2 + 120 p_1_3 + 120 p_1_7 + 120 p_1_8 + 120 p_1_9 + 100000 z_1_10 + 100000 z_1_2 + 100000 z_1_3 + 100000 z_1_7 + 100000 z_1_8 + 100000 z_1_9 <= 601999.59441293357
 c4070: 120 p_1_1 + 120 p_1_10 + 120 p_1_2 + 120 p_1_3 + 120 p_1_7 + 120 p_1_8 + 120 p_1_9 + 100000 z_1_1 + 100000 z_1_10 + 100000 z_1_2 + 100000 z_1_3 + 100000 z_1_7 + 100000 z_1_8 + 100000 z_1_9 <= 701997.24916427839
 c4071: 120 p_1_10 + 120 p_1_4 + 120 p_1_7 + 120 p_1_8 + 120 p_1_9 + 100000 z_1_10 + 100000 z_1_4 + 100000 z_1_7 + 100000 z_1_8 + 100000 z_1_9 <= 502106.34682377579
 c4072: 120 p_1_1 + 120 p_1_10 + 120 p_1_4 + 120 p_1_7 + 120 p_1_8 + 120 p_1_9 + 100000 z_1_1 + 100000 z_1_10 + 100000 z_1_4 + 100000 z_1_7 + 100000 z_1_8 + 100000 z_1_9 <= 602106.27944405482
 c4073: 120 p_1_10 + 120 p_1_2 + 120 p_1_4 + 120 p_1_7 + 120 p_1_8 + 120 p_1_9 + 100000 z_1_10 + 100000 z_1_2 + 100000 z_1_4 + 100000 z_1_7 + 100000 z_1_8 + 100000 z_1_9 <= 602104.11370432982
 c4074: 120 p_1_1 + 120 p_1_10 + 120 p_1_2 + 120 p_1_4 + 120 p_1_7 + 120 p_1_8 + 120 p_1_9 + 100000 z_1_1 + 100000 z_1_10 + 100000 z_1_2 + 100000 z_1_4 + 100000 z_1_7 + 100000 z_1_8 + 100000 z_1_9 <= 702104.04632460885
 c4075: 120 p_1_10 + 120 p_1_3 + 120 p_1_4 + 120 p_1_7 + 120 p_1_8 + 120 p_1_9 + 100000 z_1_10 + 100000 z_1_3 + 100000 z_1_4 + 100000 z_1_7 + 100000 z_1_8 + 100000 z_1_9 <= 601999.32862123952
 c4076: 120 p_1_1 + 120 p_1_10 + 120 p_1_3 + 120 p_1_4 + 120 p_1_7 + 120 p_1_8 + 120 p_1_9 + 100000 z_1_1 + 100000 z_1_10 + 100000 z_1_3 + 100000 z_1_4 + 100000 z_1_7 + 100000 z_1_8 + 100000 z_1_9 <= 701999.26124151854
 c4077: 120 p_1_10 + 120 p_1_2 + 120 p_1_3 + 120 p_1_4 + 120 p_1_7 + 120 p_1_8 + 120 p_1_9 + 100000 z_1_10 + 100000 z_1_2 + 100000 z_1_3 + 100000 z_1_4 + 100000 z_1_7 + 100000 z_1_8 + 100000 z_1_9 <= 701997.09550179355
 c4078: 120 p_1_1 + 120 p_1_10 + 120 p_1_2 + 120 p_1_3 + 120 p_1_4 + 120 p_1_7 + 120 p_1_8 + 120 p_1_9 + 100000 z_1_1 + 100000 z_1_10 + 100000 z_1_2 + 100000 z_1_3 + 100000 z_1_4 + 100000 z_1_7 + 100000 z_1_8 + 100000 z_1_9 <= 801997.02812207257
 c4079: 120 p_1_10 + 120 p_1_5 + 120 p_1_7 + 120 p_1_8 + 120 p_1_9 + 100000 z_1_10 + 100000 z_1_5 + 100000 z_1_7 + 100000 z_1_8 + 100000 z_1_9 <= 502104.94412090053
 c4080: 120 p_1_1 + 120 p_1_10 + 120 p_1_5 + 120 p_1_7 + 120 p_1_8 + 120 p_1_9 + 100000 z_1_1 + 100000 z_1_10 + 100000 z_1_5 + 100000 z_1_7 + 100000 z_1_8 + 100000 z_1_9 <= 602102.59887224529
 c4081: 120 p_1_10 + 120 p_1_2 + 120 p_1_5 + 120 p_1_7 + 120 p_1_8 + 120 p_1_9 + 100000 z_1_10 + 100000 z_1_2 + 100000 z_1_5 + 100000 z_1_7 + 100000 z_1_8 + 100000 z_1_9 <= 602090.18045998737
 c4082: 120 p_1_1 + 120 p_1_10 + 120 p_1_2 + 120 p_1_5 + 120 p_1_7 + 120 p_1_8 + 120 p_1_9 + 100000 z_1_1 + 100000 z_1_10 + 100000 z_1_2 + 100000 z_1_5 + 100000 z_1_7 + 100000 z_1_8 + 100000 z_1_9 <= 702087.83521133219
 c4083: 120 p_1_10 + 120 p_1_3 + 120 p_1_5 + 120 p_1_7 + 120 p_1_8 + 120 p_1_9 + 100000 z_1_10 + 100000 z_1_3 + 100000 z_1_5 + 100000 z_1_7 + 100000 z_1_8 + 100000 z_1_9 <= 601997.9259183642
 c4084: 120 p_1_1 + 120 p_1_10 + 120 p_1_3 + 120 p_1_5 + 120 p_1_7 + 120 p_1_8 + 120 p_1_9 + 100000 z_1_1 + 100000 z_1_10 + 100000 z_1_3 + 100000 z_1_5 + 100000 z_1_7 + 100000 z_1_8 + 100000 z_1_9 <= 701995.58066970902
 c4085: 120 p_1_10 + 120 p_1_2 + 120 p_1_3 + 120 p_1_5 + 120 p_1_7 + 120 p_1_8 + 120 p_1_9 + 100000 z_1_10 + 100000 z_1_2 + 100000 z_1_3 + 100000 z_1_5 + 100000 z_1_7 + 100000 z_1_8 + 100000 z_1_9 <= 701988.78771161579
 c4086: 120 p_1_1 + 120 p_1_10 + 120 p_1_2 + 120 p_1_3 + 120 p_1_5 + 120 p_1_7 + 120 p_1_8 + 120 p_1_9 + 100000 z_1_1 + 100000 z_1_10 + 100000 z_1_2 + 100000 z_1_3 + 100000 z_1_5 + 100000 z_1_7 + 100000 z_1_8 + 100000 z_1_9 <= 801987.87800728658
 c4087: 120 p_1_10 + 120 p_1_4 + 120 p_1_5 + 120 p_1_7 + 120 p_1_8 + 120 p_1_9 + 100000 z_1_10 + 100000 z_1_4 + 100000 z_1_5 + 100000 z_1_7 + 100000 z_1_8 + 100000 z_1_9 <= 602102.44520976045
 c4088: 120 p_1_1 + 120 p_1_10 + 120 p_1_4 + 120 p_1_5 + 120 p_1_7 + 120 p_1_8 + 120 p_1_9 + 100000 z_1_1 + 100000 z_1_10 + 100000 z_1_4 + 100000 z_1_5 + 100000 z_1_7 + 100000 z_1_8 + 100000 z_1_9 <= 702102.37783003948
 c4089: 120 p_1_10 + 120 p_1_2 + 120 p_1_4 + 120 p_1_5 + 120 p_1_7 + 120 p_1_8 + 120 p_1_9 + 100000 z_1_10 + 100000 z_1_2 + 100000 z_1_4 + 100000 z_1_5 + 100000 z_1_7 + 100000 z_1_8 + 100000 z_1_9 <= 702087.68154884735
 c4090: 120 p_1_1 + 120 p_1_10 + 120 p_1_2 + 120 p_1_4 + 120 p_1_5 + 120 p_1_7 + 120 p_1_8 + 120 p_1_9 + 100000 z_1_1 + 100000 z_1_10 + 100000 z_1_2 + 100000 z_1_4 + 100000 z_1_5 + 100000 z_1_7 + 100000 z_1_8 + 100000 z_1_9 <= 802087.61416912638
 c4091: 120 p_1_10 + 120 p_1_3 + 120 p_1_4 + 120 p_1_5 + 120 p_1_7 + 120 p_1_8 + 120 p_1_9 + 100000 z_1_10 + 100000 z_1_3 + 100000 z_1_4 + 100000 z_1_5 + 100000 z_1_7 + 100000 z_1_8 + 100000 z_1_9 <= 701995.42700722418
 c4092: 120 p_1_1 + 120 p_1_10 + 120 p_1_3 + 120 p_1_4 + 120 p_1_5 + 120 p_1_7 + 120 p_1_8 + 120 p_1_9 + 100000 z_1_1 + 100000 z_1_10 + 100000 z_1_3 + 100000 z_1_4 + 100000 z_1_5 + 100000 z_1_7 + 100000 z_1_8 + 100000 z_1_9 <= 801995.3596275032
 c4093: 120 p_1_10 + 120 p_1_2 + 120 p_1_3 + 120 p_1_4 + 120 p_1_5 + 120 p_1_7 + 120 p_1_8 + 120 p_1_9 + 100000 z_1_10 + 100000 z_1_2 + 100000 z_1_3 + 100000 z_1_4 + 100000 z_1_5 + 100000 z_1_7 + 100000 z_1_8 + 100000 z_1_9 <= 801987.44093688717
 c4094: 120 p_1_1 + 120 p_1_10 + 120 p_1_2 + 120 p_1_3 + 120 p_1_4 + 120 p_1_5 + 120 p_1_7 + 120 p_1_8 + 120 p_1_9 + 100000 z_1_1 + 100000 z_1_10 + 100000 z_1_2 + 100000 z_1_3 + 100000 z_1_4 + 100000 z_1_5 + 100000 z_1_7 + 100000 z_1_8 + 100000 z_1_9 <= 901987.3735571662
 c4095: 120 p_1_10 + 120 p_1_6 + 120 p_1_7 + 120 p_1_8 + 120 p_1_9 + 100000 z_1_10 + 100000 z_1_6 + 100000 z_1_7 + 100000 z_1_8 + 100000 z_1_9 <= 502054.6861120286
 c4096: 120 p_1_1 + 120 p_1_10 + 120 p_1_6 + 120 p_1_7 + 120 p_1_8 + 120 p_1_9 + 100000 z_1_1 + 100000 z_1_10 + 100000 z_1_6 + 100000 z_1_7 + 100000 z_1_8 + 100000 z_1_9 <= 602052.34086337336
 c4097: 120 p_1_10 + 120 p_1_2 + 120 p_1_6 + 120 p_1_7 + 120 p_1_8 + 120 p_1_9 + 100000 z_1_10 + 100000 z_1_2 + 100000 z_1_6 + 100000 z_1_7 + 100000 z_1_8 + 100000 z_1_9 <= 602052.45299258258
 c4098: 120 p_1_1 + 120 p_1_10 + 120 p_1_2 + 120 p_1_6 + 120 p_1_7 + 120 p_1_8 + 120 p_1_9 + 100000 z_1_1 + 100000 z_1_10 + 100000 z_1_2 + 100000 z_1_6 + 100000 z_1_7 + 100000 z_1_8 + 100000 z_1_9 <= 702050.10774392739
 c4099: 120 p_1_10 + 120 p_1_3 + 120 p_1_6 + 120 p_1_7 + 120 p_1_8 + 120 p_1_9 + 100000 z_1_10 + 100000 z_1_3 + 100000 z_1_6 + 100000 z_1_7 + 100000 z_1_8 + 100000 z_1_9 <= 601997.69044631114
 c4100: 120 p_1_1 + 120 p_1_10 + 120 p_1_3 + 120 p_1_6 + 120 p_1_7 + 120 p_1_8 + 120 p_1_9 + 100000 z_1_1 + 100000 z_1_10 + 100000 z_1_3 + 100000 z_1_6 + 100000 z_1_7 + 100000 z_1_8 + 100000 z_1_9 <= 701995.34519765608
 c4101: 120 p_1_10 + 120 p_1_2 + 120 p_1_3 + 120 p_1_6 + 120 p_1_7 + 120 p_1_8 + 120 p_1_9 + 100000 z_1_10 + 100000 z_1_2 + 100000 z_1_3 + 100000 z_1_6 + 100000 z_1_7 + 100000 z_1_8 + 100000 z_1_9 <= 701995.45732686517
 c4102: 120 p_1_1 + 120 p_1_10 + 120 p_1_2 + 120 p_1_3 + 120 p_1_6 + 120 p_1_7 + 120 p_1_8 + 120 p_1_9 + 100000 z_1_1 + 100000 z_1_10 + 100000 z_1_2 + 100000 z_1_3 + 100000 z_1_6 + 100000 z_1_7 + 100000 z_1_8 + 100000 z_1_9 <= 801993.11207820999
 c4103: 120 p_1_10 + 120 p_1_4 + 120 p_1_6 + 120 p_1_7 + 120 p_1_8 + 120 p_1_9 + 100000 z_1_10 + 100000 z_1_4 + 100000 z_1_6 + 100000 z_1_7 + 100000 z_1_8 + 100000 z_1_9 <= 602052.18720088853
 c4104: 120 p_1_1 + 120 p_1_10 + 120 p_1_4 + 120 p_1_6 + 120 p_1_7 + 120 p_1_8 + 120 p_1_9 + 100000 z_1_1 + 100000 z_1_10 + 100000 z_1_4 + 100000 z_1_6 + 100000 z_1_7 + 100000 z_1_8 + 100000 z_1_9 <= 702052.11982116755
 c4105: 120 p_1_10 + 120 p_1_2 + 120 p_1_4 + 120 p_1_6 + 120 p_1_7 + 120 p_1_8 + 120 p_1_9 + 100000 z_1_10 + 100000 z_1_2 + 100000 z_1_4 + 100000 z_1_6 + 100000 z_1_7 + 100000 z_1_8 + 100000 z_1_9 <= 702049.95408144256
 c4106: 120 p_1_1 + 120 p_1_10 + 120 p_1_2 + 120 p_1_4 + 120 p_1_6 + 120 p_1_7 + 120 p_1_8 + 120 p_1_9 + 100000 z_1_1 + 100000 z_1_10 + 100000 z_1_2 + 100000 z_1_4 + 100000 z_1_6 + 100000 z_1_7 + 100000 z_1_8 + 100000 z_1_9 <= 802049.88670172158
 c4107: 120 p_1_10 + 120 p_1_3 + 120 p_1_4 + 120 p_1_6 + 120 p_1_7 + 120 p_1_8 + 120 p_1_9 + 100000 z_1_10 + 100000 z_1_3 + 100000 z_1_4 + 100000 z_1_6 + 100000 z_1_7 + 100000 z_1_8 + 100000 z_1_9 <= 701995.19153517112
 c4108: 120 p_1_1 + 120 p_1_10 + 120 p_1_3 + 120 p_1_4 + 120 p_1_6 + 120 p_1_7 + 120 p_1_8 + 120 p_1_9 + 100000 z_1_1 + 100000 z_1_10 + 100000 z_1_3 + 100000 z_1_4 + 100000 z_1_6 + 100000 z_1_7 + 100000 z_1_8 + 100000 z_1_9 <= 801995.12415545015
 c4109: 120 p_1_10 + 120 p_1_2 + 120 p_1_3 + 120 p_1_4 + 120 p_1_6 + 120 p_1_7 + 120 p_1_8 + 120 p_1_9 + 100000 z_1_10 + 100000 z_1_2 + 100000 z_1_3 + 100000 z_1_4 + 100000 z_1_6 + 100000 z_1_7 + 100000 z_1_8 + 100000 z_1_9 <= 801992.95841572515
 c4110: 120 p_1_1 + 120 p_1_10 + 120 p_1_2 + 120 p_1_3 + 120 p_1_4 + 120 p_1_6 + 120 p_1_7 + 120 p_1_8 + 120 p_1_9 + 100000 z_1_1 + 100000 z_1_10 + 100000 z_1_2 + 100000 z_1_3 + 100000 z_1_4 + 100000 z_1_6 + 100000 z_1_7 + 100000 z_1_8 + 100000 z_1_9 <= 901992.89103600418
 c4111: 120 p_1_10 + 120 p_1_5 + 120 p_1_6 + 120 p_1_7 + 120 p_1_8 + 120 p_1_9 + 100000 z_1_10 + 100000 z_1_5 + 100000 z_1_6 + 100000 z_1_7 + 100000 z_1_8 + 100000 z_1_9 <= 602050.78449801332
 c4112: 120 p_1_1 + 120 p_1_10 + 120 p_1_5 + 120 p_1_6 + 120 p_1_7 + 120 p_1_8 + 120 p_1_9 + 100000 z_1_1 + 100000 z_1_10 + 100000 z_1_5 + 100000 z_1_6 + 100000 z_1_7 + 100000 z_1_8 + 100000 z_1_9 <= 702048.43924935814
 c4113: 120 p_1_10 + 120 p_1_2 + 120 p_1_5 + 120 p_1_6 + 120 p_1_7 + 120 p_1_8 + 120 p_1_9 + 100000 z_1_10 + 100000 z_1_2 + 100000 z_1_5 + 100000 z_1_6 + 100000 z_1_7 + 100000 z_1_8 + 100000 z_1_9 <= 702036.02083710011
 c4114: 120 p_1_1 + 120 p_1_10 + 120 p_1_2 + 120 p_1_5 + 120 p_1_6 + 120 p_1_7 + 120 p_1_8 + 120 p_1_9 + 100000 z_1_1 + 100000 z_1_10 + 100000 z_1_2 + 100000 z_1_5 + 100000 z_1_6 + 100000 z_1_7 + 100000 z_1_8 + 100000 z_1_9 <= 802033.67558844492
 c4115: 120 p_1_10 + 120 p_1_3 + 120 p_1_5 + 120 p_1_6 + 120 p_1_7 + 120 p_1_8 + 120 p_1_9 + 100000 z_1_10 + 100000 z_1_3 + 100000 z_1_5 + 100000 z_1_6 + 100000 z_1_7 + 100000 z_1_8 + 100000 z_1_9 <= 701993.78883229592
 c4116: 120 p_1_1 + 120 p_1_10 + 120 p_1_3 + 120 p_1_5 + 120 p_1_6 + 120 p_1_7 + 120 p_1_8 + 120 p_1_9 + 100000 z_1_1 + 100000 z_1_10 + 100000 z_1_3 + 100000 z_1_5 + 100000 z_1_6 + 100000 z_1_7 + 100000 z_1_8 + 100000 z_1_9 <= 801991.44358364074
 c4117: 120 p_1_10 + 120 p_1_2 + 120 p_1_3 + 120 p_1_5 + 120 p_1_6 + 120 p_1_7 + 120 p_1_8 + 120 p_1_9 + 100000 z_1_10 + 100000 z_1_2 + 100000 z_1_3 + 100000 z_1_5 + 100000 z_1_6 + 100000 z_1_7 + 100000 z_1_8 + 100000 z_1_9 <= 801979.0251713827
 c4118: 120 p_1_1 + 120 p_1_10 + 120 p_1_2 + 120 p_1_3 + 120 p_1_5 + 120 p_1_6 + 120 p_1_7 + 120 p_1_8 + 120 p_1_9 + 100000 z_1_1 + 100000 z_1_10 + 100000 z_1_2 + 100000 z_1_3 + 100000 z_1_5 + 100000 z_1_6 + 100000 z_1_7 + 100000 z_1_8 + 100000 z_1_9 <= 901976.93094561913
 c4119: 120 p_1_10 + 120 p_1_4 + 120 p_1_5 + 120 p_1_6 + 120 p_1_7 + 120 p_1_8 + 120 p_1_9 + 100000 z_1_10 + 100000 z_1_4 + 100000 z_1_5 + 100000 z_1_6 + 100000 z_1_7 + 100000 z_1_8 + 100000 z_1_9 <= 702048.28558687319
 c4120: 120 p_1_1 + 120 p_1_10 + 120 p_1_4 + 120 p_1_5 + 120 p_1_6 + 120 p_1_7 + 120 p_1_8 + 120 p_1_9 + 100000 z_1_1 + 100000 z_1_10 + 100000 z_1_4 + 100000 z_1_5 + 100000 z_1_6 + 100000 z_1_7 + 100000 z_1_8 + 100000 z_1_9 <= 802048.21820715233
 c4121: 120 p_1_10 + 120 p_1_2 + 120 p_1_4 + 120 p_1_5 + 120 p_1_6 + 120 p_1_7 + 120 p_1_8 + 120 p_1_9 + 100000 z_1_10 + 100000 z_1_2 + 100000 z_1_4 + 100000 z_1_5 + 100000 z_1_6 + 100000 z_1_7 + 100000 z_1_8 + 100000 z_1_9 <= 802033.52192596009
 c4122: 120 p_1_1 + 120 p_1_10 + 120 p_1_2 + 120 p_1_4 + 120 p_1_5 + 120 p_1_6 + 120 p_1_7 + 120 p_1_8 + 120 p_1_9 + 100000 z_1_1 + 100000 z_1_10 + 100000 z_1_2 + 100000 z_1_4 + 100000 z_1_5 + 100000 z_1_6 + 100000 z_1_7 + 100000 z_1_8 + 100000 z_1_9 <= 902033.45454623911
 c4123: 120 p_1_10 + 120 p_1_3 + 120 p_1_4 + 120 p_1_5 + 120 p_1_6 + 120 p_1_7 + 120 p_1_8 + 120 p_1_9 + 100000 z_1_10 + 100000 z_1_3 + 100000 z_1_4 + 100000 z_1_5 + 100000 z_1_6 + 100000 z_1_7 + 100000 z_1_8 + 100000 z_1_9 <= 801991.2899211559
 c4124: 120 p_1_1 + 120 p_1_10 + 120 p_1_3 + 120 p_1_4 + 120 p_1_5 + 120 p_1_6 + 120 p_1_7 + 120 p_1_8 + 120 p_1_9 + 100000 z_1_1 + 100000 z_1_10 + 100000 z_1_3 + 100000 z_1_4 + 100000 z_1_5 + 100000 z_1_6 + 100000 z_1_7 + 100000 z_1_8 + 100000 z_1_9 <= 901991.22254143492
 c4125: 120 p_1_10 + 120 p_1_2 + 120 p_1_3 + 120 p_1_4 + 120 p_1_5 + 120 p_1_6 + 120 p_1_7 + 120 p_1_8 + 120 p_1_9 + 100000 z_1_10 + 100000 z_1_2 + 100000 z_1_3 + 100000 z_1_4 + 100000 z_1_5 + 100000 z_1_6 + 100000 z_1_7 + 100000 z_1_8 + 100000 z_1_9 <= 901976.52626024268
 c4126: 120 p_1_1 + 120 p_1_10 + 120 p_1_2 + 120 p_1_3 + 120 p_1_4 + 120 p_1_5 + 120 p_1_6 + 120 p_1_7 + 120 p_1_8 + 120 p_1_9 + 100000 z_1_1 + 100000 z_1_10 + 100000 z_1_2 + 100000 z_1_3 + 100000 z_1_4 + 100000 z_1_5 + 100000 z_1_6 + 100000 z_1_7 + 100000 z_1_8 + 100000 z_1_9 <= 1001976.4588805217
 c4127: 120 p_2_1 + 100000 z_2_1 <= 103156.44921878072
 c4128: 120 p_2_2 + 100000 z_2_2 <= 103202.47049209281
 c4129: 120 p_2_1 + 120 p_2_2 + 100000 z_2_1 + 100000 z_2_2 <= 202789.34243294504
 c4130: 120 p_2_3 + 100000 z_2_3 <= 103030.3102810329
 c4131: 120 p_2_1 + 120 p_2_3 + 100000 z_2_1 + 100000 z_2_3 <= 202655.30452367463
 c4132: 120 p_2_2 + 120 p_2_3 + 100000 z_2_2 + 100000 z_2_3 <= 202729.77391918915
 c4133: 120 p_2_1 + 120 p_2_2 + 120 p_2_3 + 100000 z_2_1 + 100000 z_2_2 + 100000 z_2_3 <= 302354.7681618309
 c4134: 120 p_2_4 + 100000 z_2_4 <= 103133.51352165597
 c4135: 120 p_2_1 + 120 p_2_4 + 100000 z_2_1 + 100000 z_2_4 <= 203133.44614193501
 c4136: 120 p_2_2 + 120 p_2_4 + 100000 z_2_2 + 100000 z_2_4 <= 202766.68874954525
 c4137: 120 p_2_1 + 120 p_2_2 + 120 p_2_4 + 100000 z_2_1 + 100000 z_2_2 + 100000 z_2_4 <= 302766.62136982434
 c4138: 120 p_2_3 + 120 p_2_4 + 100000 z_2_3 + 100000 z_2_4 <= 202635.05995016629
 c4139: 120 p_2_1 + 120 p_2_3 + 120 p_2_4 + 100000 z_2_1 + 100000 z_2_3 + 100000 z_2_4 <= 302634.99257044535
 c4140: 120 p_2_2 + 120 p_2_3 + 120 p_2_4 + 100000 z_2_2 + 100000 z_2_3 + 100000 z_2_4 <= 302334.52358832257
 c4141: 120 p_2_1 + 120 p_2_2 + 120 p_2_3 + 120 p_2_4 + 100000 z_2_1 + 100000 z_2_2 + 100000 z_2_3 + 100000 z_2_4 <= 402334.45620860159
 c4142: 120 p_2_5 + 100000 z_2_5 <= 103203.74131885564
 c4143: 120 p_2_1 + 120 p_2_5 + 100000 z_2_1 + 100000 z_2_5 <= 202817.61992461458
 c4144: 120 p_2_2 + 120 p_2_5 + 100000 z_2_2 + 100000 z_2_5 <= 203145.05572229522
 c4145: 120 p_2_1 + 120 p_2_2 + 120 p_2_5 + 100000 z_2_1 + 100000 z_2_2 + 100000 z_2_5 <= 302758.93432805414
 c4146: 120 p_2_3 + 120 p_2_5 + 100000 z_2_3 + 100000 z_2_5 <= 202693.37130852928
 c4147: 120 p_2_1 + 120 p_2_3 + 120 p_2_5 + 100000 z_2_1 + 100000 z_2_3 + 100000 z_2_5 <= 302318.36555117101
 c4148: 120 p_2_2 + 120 p_2_3 + 120 p_2_5 + 100000 z_2_2 + 100000 z_2_3 + 100000 z_2_5 <= 302672.35914939153
 c4149: 120 p_2_1 + 120 p_2_2 + 120 p_2_3 + 120 p_2_5 + 100000 z_2_1 + 100000 z_2_2 + 100000 z_2_3 + 100000 z_2_5 <= 402297.35339203326
 c4150: 120 p_2_4 + 120 p_2_5 + 100000 z_2_4 + 100000 z_2_5 <= 202795.44110976753
 c4151: 120 p_2_1 + 120 p_2_4 + 120 p_2_5 + 100000 z_2_1 + 100000 z_2_4 + 100000 z_2_5 <= 302795.37373004656
 c4152: 120 p_2_2 + 120 p_2_4 + 120 p_2_5 + 100000 z_2_2 + 100000 z_2_4 + 100000 z_2_5 <= 302736.75551320711
 c4153: 120 p_2_1 + 120 p_2_2 + 120 p_2_4 + 120 p_2_5 + 100000 z_2_1 + 100000 z_2_2 + 100000 z_2_4 + 100000 z_2_5 <= 402736.68813348614
 c4154: 120 p_2_3 + 120 p_2_4 + 120 p_2_5 + 100000 z_2_3 + 100000 z_2_4 + 100000 z_2_5 <= 302298.12097766268
 c4155: 120 p_2_1 + 120 p_2_3 + 120 p_2_4 + 120 p_2_5 + 100000 z_2_1 + 100000 z_2_3 + 100000 z_2_4 + 100000 z_2_5 <= 402298.05359794176
 c4156: 120 p_2_2 + 120 p_2_3 + 120 p_2_4 + 120 p_2_5 + 100000 z_2_2 + 100000 z_2_3 + 100000 z_2_4 + 100000 z_2_5 <= 402277.10881852492
 c4157: 120 p_2_1 + 120 p_2_2 + 120 p_2_3 + 120 p_2_4 + 120 p_2_5 + 100000 z_2_1 + 100000 z_2_2 + 100000 z_2_3 + 100000 z_2_4 + 100000 z_2_5 <= 502277.04143880401
 c4158: 120 p_2_6 + 100000 z_2_6 <= 103089.97883628107
 c4159: 120 p_2_1 + 120 p_2_6 + 100000 z_2_1 + 100000 z_2_6 <= 202704.64068949912
 c4160: 120 p_2_2 + 120 p_2_6 + 100000 z_2_2 + 100000 z_2_6 <= 202793.53118078943
 c4161: 120 p_2_1 + 120 p_2_2 + 120 p_2_6 + 100000 z_2_1 + 100000 z_2_2 + 100000 z_2_6 <= 302408.19303400751
 c4162: 120 p_2_3 + 120 p_2_6 + 100000 z_2_3 + 100000 z_2_6 <= 203026.17319496456
 c4163: 120 p_2_1 + 120 p_2_3 + 120 p_2_6 + 100000 z_2_1 + 100000 z_2_3 + 100000 z_2_6 <= 302651.16743760626
 c4164: 120 p_2_2 + 120 p_2_3 + 120 p_2_6 + 100000 z_2_2 + 100000 z_2_3 + 100000 z_2_6 <= 302729.72553947294
 c4165: 120 p_2_1 + 120 p_2_2 + 120 p_2_3 + 120 p_2_6 + 100000 z_2_1 + 100000 z_2_2 + 100000 z_2_3 + 100000 z_2_6 <= 402354.71978211467
 c4166: 120 p_2_4 + 120 p_2_6 + 100000 z_2_4 + 100000 z_2_6 <= 202683.93072951867
 c4167: 120 p_2_1 + 120 p_2_4 + 120 p_2_6 + 100000 z_2_1 + 100000 z_2_4 + 100000 z_2_6 <= 302683.86334979773
 c4168: 120 p_2_2 + 120 p_2_4 + 120 p_2_6 + 100000 z_2_2 + 100000 z_2_4 + 100000 z_2_6 <= 302387.48307402706
 c4169: 120 p_2_1 + 120 p_2_2 + 120 p_2_4 + 120 p_2_6 + 100000 z_2_1 + 100000 z_2_2 + 100000 z_2_4 + 100000 z_2_6 <= 402387.41569430608
 c4170: 120 p_2_3 + 120 p_2_4 + 120 p_2_6 + 100000 z_2_3 + 100000 z_2_4 + 100000 z_2_6 <= 302630.92286409793
 c4171: 120 p_2_1 + 120 p_2_3 + 120 p_2_4 + 120 p_2_6 + 100000 z_2_1 + 100000 z_2_3 + 100000 z_2_4 + 100000 z_2_6 <= 402630.85548437701
 c4172: 120 p_2_2 + 120 p_2_3 + 120 p_2_4 + 120 p_2_6 + 100000 z_2_2 + 100000 z_2_3 + 100000 z_2_4 + 100000 z_2_6 <= 402334.47520860634
 c4173: 120 p_2_1 + 120 p_2_2 + 120 p_2_3 + 120 p_2_4 + 120 p_2_6 + 100000 z_2_1 + 100000 z_2_2 + 100000 z_2_3 + 100000 z_2_4 + 100000 z_2_6 <= 502334.40782888536
 c4174: 120 p_2_5 + 120 p_2_6 + 100000 z_2_5 + 100000 z_2_6 <= 202757.11154365915
 c4175: 120 p_2_1 + 120 p_2_5 + 120 p_2_6 + 100000 z_2_1 + 100000 z_2_5 + 100000 z_2_6 <= 302371.77339687722
 c4176: 120 p_2_2 + 120 p_2_5 + 120 p_2_6 + 100000 z_2_2 + 100000 z_2_5 + 100000 z_2_6 <= 302736.11641099182
 c4177: 120 p_2_1 + 120 p_2_2 + 120 p_2_5 + 120 p_2_6 + 100000 z_2_1 + 100000 z_2_2 + 100000 z_2_5 + 100000 z_2_6 <= 402350.77826420992
 c4178: 120 p_2_3 + 120 p_2_5 + 120 p_2_6 + 100000 z_2_3 + 100000 z_2_5 + 100000 z_2_6 <= 302693.3059023426
 c4179: 120 p_2_1 + 120 p_2_3 + 120 p_2_5 + 120 p_2_6 + 100000 z_2_1 + 100000 z_2_3 + 100000 z_2_5 + 100000 z_2_6 <= 402318.30014498439
 c4180: 120 p_2_2 + 120 p_2_3 + 120 p_2_5 + 120 p_2_6 + 100000 z_2_2 + 100000 z_2_3 + 100000 z_2_5 + 100000 z_2_6 <= 402672.3107696753
 c4181: 120 p_2_1 + 120 p_2_2 + 120 p_2_3 + 120 p_2_5 + 120 p_2_6 + 100000 z_2_1 + 100000 z_2_2 + 100000 z_2_3 + 100000 z_2_5 + 100000 z_2_6 <= 502297.30501231708
 c4182: 120 p_2_4 + 120 p_2_5 + 120 p_2_6 + 100000 z_2_4 + 100000 z_2_5 + 100000 z_2_6 <= 302351.06343689677
 c4183: 120 p_2_1 + 120 p_2_4 + 120 p_2_5 + 120 p_2_6 + 100000 z_2_1 + 100000 z_2_4 + 100000 z_2_5 + 100000 z_2_6 <= 402350.9960571758
 c4184: 120 p_2_2 + 120 p_2_4 + 120 p_2_5 + 120 p_2_6 + 100000 z_2_2 + 100000 z_2_4 + 100000 z_2_5 + 100000 z_2_6 <= 402330.06830422947
 c4185: 120 p_2_1 + 120 p_2_2 + 120 p_2_4 + 120 p_2_5 + 120 p_2_6 + 100000 z_2_1 + 100000 z_2_2 + 100000 z_2_4 + 100000 z_2_5 + 100000 z_2_6 <= 502330.00092450849
 c4186: 120 p_2_3 + 120 p_2_4 + 120 p_2_5 + 120 p_2_6 + 100000 z_2_3 + 100000 z_2_4 + 100000 z_2_5 + 100000 z_2_6 <= 402298.05557147606
 c4187: 120 p_2_1 + 120 p_2_3 + 120 p_2_4 + 120 p_2_5 + 120 p_2_6 + 100000 z_2_1 + 100000 z_2_3 + 100000 z_2_4 + 100000 z_2_5 + 100000 z_2_6 <= 502297.98819175508
 c4188: 120 p_2_2 + 120 p_2_3 + 120 p_2_4 + 120 p_2_5 + 120 p_2_6 + 100000 z_2_2 + 100000 z_2_3 + 100000 z_2_4 + 100000 z_2_5 + 100000 z_2_6 <= 502277.06043880875
 c4189: 120 p_2_1 + 120 p_2_2 + 120 p_2_3 + 120 p_2_4 + 120 p_2_5 + 120 p_2_6 + 100000 z_2_1 + 100000 z_2_2 + 100000 z_2_3 + 100000 z_2_4 + 100000 z_2_5 + 100000 z_2_6 <= 602276.99305908778
 c4190: 120 p_2_7 + 100000 z_2_7 <= 102973.44924658997
 c4191: 120 p_2_1 + 120 p_2_7 + 100000 z_2_1 + 100000 z_2_7 <= 202972.5395422607
 c4192: 120 p_2_2 + 120 p_2_7 + 100000 z_2_2 + 100000 z_2_7 <= 202615.72964778807
 c4193: 120 p_2_1 + 120 p_2_2 + 120 p_2_7 + 100000 z_2_1 + 100000 z_2_2 + 100000 z_2_7 <= 302614.81994345877
 c4194: 120 p_2_3 + 120 p_2_7 + 100000 z_2_3 + 100000 z_2_7 <= 202478.60435952997
 c4195: 120 p_2_1 + 120 p_2_3 + 120 p_2_7 + 100000 z_2_1 + 100000 z_2_3 + 100000 z_2_7 <= 302477.6946552007
 c4196: 120 p_2_2 + 120 p_2_3 + 120 p_2_7 + 100000 z_2_2 + 100000 z_2_3 + 100000 z_2_7 <= 302178.06799768622
 c4197: 120 p_2_1 + 120 p_2_2 + 120 p_2_3 + 120 p_2_7 + 100000 z_2_1 + 100000 z_2_2 + 100000 z_2_3 + 100000 z_2_7 <= 402177.15829335694
 c4198: 120 p_2_4 + 120 p_2_7 + 100000 z_2_4 + 100000 z_2_7 <= 202972.10247186126
 c4199: 120 p_2_1 + 120 p_2_4 + 120 p_2_7 + 100000 z_2_1 + 100000 z_2_4 + 100000 z_2_7 <= 302972.03509214032
 c4200: 120 p_2_2 + 120 p_2_4 + 120 p_2_7 + 100000 z_2_2 + 100000 z_2_4 + 100000 z_2_7 <= 302614.38287305937
 c4201: 120 p_2_1 + 120 p_2_2 + 120 p_2_4 + 120 p_2_7 + 100000 z_2_1 + 100000 z_2_2 + 100000 z_2_4 + 100000 z_2_7 <= 402614.31549333839
 c4202: 120 p_2_3 + 120 p_2_4 + 120 p_2_7 + 100000 z_2_3 + 100000 z_2_4 + 100000 z_2_7 <= 302477.25758480129
 c4203: 120 p_2_1 + 120 p_2_3 + 120 p_2_4 + 120 p_2_7 + 100000 z_2_1 + 100000 z_2_3 + 100000 z_2_4 + 100000 z_2_7 <= 402477.19020508032
 c4204: 120 p_2_2 + 120 p_2_3 + 120 p_2_4 + 120 p_2_7 + 100000 z_2_2 + 100000 z_2_3 + 100000 z_2_4 + 100000 z_2_7 <= 402176.72122295754
 c4205: 120 p_2_1 + 120 p_2_2 + 120 p_2_3 + 120 p_2_4 + 120 p_2_7 + 100000 z_2_1 + 100000 z_2_2 + 100000 z_2_3 + 100000 z_2_4 + 100000 z_2_7 <= 502176.65384323656
 c4206: 120 p_2_5 + 120 p_2_7 + 100000 z_2_5 + 100000 z_2_7 <= 202649.64286182879
 c4207: 120 p_2_1 + 120 p_2_5 + 120 p_2_7 + 100000 z_2_1 + 100000 z_2_5 + 100000 z_2_7 <= 302648.73315749952
 c4208: 120 p_2_2 + 120 p_2_5 + 120 p_2_7 + 100000 z_2_2 + 100000 z_2_5 + 100000 z_2_7 <= 302590.95726526837
 c4209: 120 p_2_1 + 120 p_2_2 + 120 p_2_5 + 120 p_2_7 + 100000 z_2_1 + 100000 z_2_2 + 100000 z_2_5 + 100000 z_2_7 <= 402590.0475609391
 c4210: 120 p_2_3 + 120 p_2_5 + 120 p_2_7 + 100000 z_2_3 + 100000 z_2_5 + 100000 z_2_7 <= 302154.79797476879
 c4211: 120 p_2_1 + 120 p_2_3 + 120 p_2_5 + 120 p_2_7 + 100000 z_2_1 + 100000 z_2_3 + 100000 z_2_5 + 100000 z_2_7 <= 402147.58846239344
 c4212: 120 p_2_2 + 120 p_2_3 + 120 p_2_5 + 120 p_2_7 + 100000 z_2_2 + 100000 z_2_3 + 100000 z_2_5 + 100000 z_2_7 <= 402120.65322788863
 c4213: 120 p_2_1 + 120 p_2_2 + 120 p_2_3 + 120 p_2_5 + 120 p_2_7 + 100000 z_2_1 + 100000 z_2_2 + 100000 z_2_3 + 100000 z_2_5 + 100000 z_2_7 <= 502119.74352355936
 c4214: 120 p_2_4 + 120 p_2_5 + 120 p_2_7 + 100000 z_2_4 + 100000 z_2_5 + 100000 z_2_7 <= 302648.29608710011
 c4215: 120 p_2_1 + 120 p_2_4 + 120 p_2_5 + 120 p_2_7 + 100000 z_2_1 + 100000 z_2_4 + 100000 z_2_5 + 100000 z_2_7 <= 402648.22870737914
 c4216: 120 p_2_2 + 120 p_2_4 + 120 p_2_5 + 120 p_2_7 + 100000 z_2_2 + 100000 z_2_4 + 100000 z_2_5 + 100000 z_2_7 <= 402589.61049053964
 c4217: 120 p_2_1 + 120 p_2_2 + 120 p_2_4 + 120 p_2_5 + 120 p_2_7 + 100000 z_2_1 + 100000 z_2_2 + 100000 z_2_4 + 100000 z_2_5 + 100000 z_2_7 <= 502589.54311081872
 c4218: 120 p_2_3 + 120 p_2_4 + 120 p_2_5 + 120 p_2_7 + 100000 z_2_3 + 100000 z_2_4 + 100000 z_2_5 + 100000 z_2_7 <= 402149.84251561039
 c4219: 120 p_2_1 + 120 p_2_3 + 120 p_2_4 + 120 p_2_5 + 120 p_2_7 + 100000 z_2_1 + 100000 z_2_3 + 100000 z_2_4 + 100000 z_2_5 + 100000 z_2_7 <= 502147.08401227306
 c4220: 120 p_2_2 + 120 p_2_3 + 120 p_2_4 + 120 p_2_5 + 120 p_2_7 + 100000 z_2_2 + 100000 z_2_3 + 100000 z_2_4 + 100000 z_2_5 + 100000 z_2_7 <= 502119.30645315989
 c4221: 120 p_2_1 + 120 p_2_2 + 120 p_2_3 + 120 p_2_4 + 120 p_2_5 + 120 p_2_7 + 100000 z_2_1 + 100000 z_2_2 + 100000 z_2_3 + 100000 z_2_4 + 100000 z_2_5 + 100000 z_2_7 <= 602119.23907343892
 c4222: 120 p_2_6 + 120 p_2_7 + 100000 z_2_6 + 100000 z_2_7 <= 202525.9265486334
 c4223: 120 p_2_1 + 120 p_2_6 + 120 p_2_7 + 100000 z_2_1 + 100000 z_2_6 + 100000 z_2_7 <= 302525.0168443041
 c4224: 120 p_2_2 + 120 p_2_6 + 120 p_2_7 + 100000 z_2_2 + 100000 z_2_6 + 100000 z_2_7 <= 302229.47889314179
 c4225: 120 p_2_1 + 120 p_2_2 + 120 p_2_6 + 120 p_2_7 + 100000 z_2_1 + 100000 z_2_2 + 100000 z_2_6 + 100000 z_2_7 <= 402228.56918881251
 c4226: 120 p_2_3 + 120 p_2_6 + 120 p_2_7 + 100000 z_2_3 + 100000 z_2_6 + 100000 z_2_7 <= 302474.46727346163
 c4227: 120 p_2_1 + 120 p_2_3 + 120 p_2_6 + 120 p_2_7 + 100000 z_2_1 + 100000 z_2_3 + 100000 z_2_6 + 100000 z_2_7 <= 402473.55756913236
 c4228: 120 p_2_2 + 120 p_2_3 + 120 p_2_6 + 120 p_2_7 + 100000 z_2_2 + 100000 z_2_3 + 100000 z_2_6 + 100000 z_2_7 <= 402178.01961796999
 c4229: 120 p_2_1 + 120 p_2_2 + 120 p_2_3 + 120 p_2_6 + 120 p_2_7 + 100000 z_2_1 + 100000 z_2_2 + 100000 z_2_3 + 100000 z_2_6 + 100000 z_2_7 <= 502177.10991364071
 c4230: 120 p_2_4 + 120 p_2_6 + 120 p_2_7 + 100000 z_2_4 + 100000 z_2_6 + 100000 z_2_7 <= 302524.5797739047
 c4231: 120 p_2_1 + 120 p_2_4 + 120 p_2_6 + 120 p_2_7 + 100000 z_2_1 + 100000 z_2_4 + 100000 z_2_6 + 100000 z_2_7 <= 402524.51239418372
 c4232: 120 p_2_2 + 120 p_2_4 + 120 p_2_6 + 120 p_2_7 + 100000 z_2_2 + 100000 z_2_4 + 100000 z_2_6 + 100000 z_2_7 <= 402228.13211841305
 c4233: 120 p_2_1 + 120 p_2_2 + 120 p_2_4 + 120 p_2_6 + 120 p_2_7 + 100000 z_2_1 + 100000 z_2_2 + 100000 z_2_4 + 100000 z_2_6 + 100000 z_2_7 <= 502228.06473869213
 c4234: 120 p_2_3 + 120 p_2_4 + 120 p_2_6 + 120 p_2_7 + 100000 z_2_3 + 100000 z_2_4 + 100000 z_2_6 + 100000 z_2_7 <= 402473.1204987329
 c4235: 120 p_2_1 + 120 p_2_3 + 120 p_2_4 + 120 p_2_6 + 120 p_2_7 + 100000 z_2_1 + 100000 z_2_3 + 100000 z_2_4 + 100000 z_2_6 + 100000 z_2_7 <= 502473.05311901198
 c4236: 120 p_2_2 + 120 p_2_3 + 120 p_2_4 + 120 p_2_6 + 120 p_2_7 + 100000 z_2_2 + 100000 z_2_3 + 100000 z_2_4 + 100000 z_2_6 + 100000 z_2_7 <= 502176.67284324131
 c4237: 120 p_2_1 + 120 p_2_2 + 120 p_2_3 + 120 p_2_4 + 120 p_2_6 + 120 p_2_7 + 100000 z_2_1 + 100000 z_2_2 + 100000 z_2_3 + 100000 z_2_4 + 100000 z_2_6 + 100000 z_2_7 <= 602176.60546352039
 c4238: 120 p_2_5 + 120 p_2_6 + 120 p_2_7 + 100000 z_2_5 + 100000 z_2_6 + 100000 z_2_7 <= 302203.0130866323
 c4239: 120 p_2_1 + 120 p_2_5 + 120 p_2_6 + 120 p_2_7 + 100000 z_2_1 + 100000 z_2_5 + 100000 z_2_6 + 100000 z_2_7 <= 402202.10338230303
 c4240: 120 p_2_2 + 120 p_2_5 + 120 p_2_6 + 120 p_2_7 + 100000 z_2_2 + 100000 z_2_5 + 100000 z_2_6 + 100000 z_2_7 <= 402182.017953965
 c4241: 120 p_2_1 + 120 p_2_2 + 120 p_2_5 + 120 p_2_6 + 120 p_2_7 + 100000 z_2_1 + 100000 z_2_2 + 100000 z_2_5 + 100000 z_2_6 + 100000 z_2_7 <= 502181.10824963573
 c4242: 120 p_2_3 + 120 p_2_5 + 120 p_2_6 + 120 p_2_7 + 100000 z_2_3 + 100000 z_2_5 + 100000 z_2_6 + 100000 z_2_7 <= 402150.66088870045
 c4243: 120 p_2_1 + 120 p_2_3 + 120 p_2_5 + 120 p_2_6 + 120 p_2_7 + 100000 z_2_1 + 100000 z_2_3 + 100000 z_2_5 + 100000 z_2_6 + 100000 z_2_7 <= 502143.4513763251
 c4244: 120 p_2_2 + 120 p_2_3 + 120 p_2_5 + 120 p_2_6 + 120 p_2_7 + 100000 z_2_2 + 100000 z_2_3 + 100000 z_2_5 + 100000 z_2_6 + 100000 z_2_7 <= 502120.6048481724
 c4245: 120 p_2_1 + 120 p_2_2 + 120 p_2_3 + 120 p_2_5 + 120 p_2_6 + 120 p_2_7 + 100000 z_2_1 + 100000 z_2_2 + 100000 z_2_3 + 100000 z_2_5 + 100000 z_2_6 + 100000 z_2_7 <= 602119.69514384307
 c4246: 120 p_2_4 + 120 p_2_5 + 120 p_2_6 + 120 p_2_7 + 100000 z_2_4 + 100000 z_2_5 + 100000 z_2_6 + 100000 z_2_7 <= 402201.66631190357
 c4247: 120 p_2_1 + 120 p_2_4 + 120 p_2_5 + 120 p_2_6 + 120 p_2_7 + 100000 z_2_1 + 100000 z_2_4 + 100000 z_2_5 + 100000 z_2_6 + 100000 z_2_7 <= 502201.59893218265
 c4248: 120 p_2_2 + 120 p_2_4 + 120 p_2_5 + 120 p_2_6 + 120 p_2_7 + 100000 z_2_2 + 100000 z_2_4 + 100000 z_2_5 + 100000 z_2_6 + 100000 z_2_7 <= 502180.67117923626
 c4249: 120 p_2_1 + 120 p_2_2 + 120 p_2_4 + 120 p_2_5 + 120 p_2_6 + 120 p_2_7 + 100000 z_2_1 + 100000 z_2_2 + 100000 z_2_4 + 100000 z_2_5 + 100000 z_2_6 + 100000 z_2_7 <= 602180.60379951529
 c4250: 120 p_2_3 + 120 p_2_4 + 120 p_2_5 + 120 p_2_6 + 120 p_2_7 + 100000 z_2_3 + 100000 z_2_4 + 100000 z_2_5 + 100000 z_2_6 + 100000 z_2_7 <= 502145.70542954205
 c4251: 120 p_2_1 + 120 p_2_3 + 120 p_2_4 + 120 p_2_5 + 120 p_2_6 + 120 p_2_7 + 100000 z_2_1 + 100000 z_2_3 + 100000 z_2_4 + 100000 z_2_5 + 100000 z_2_6 + 100000 z_2_7 <= 602142.94692620472
 c4252: 120 p_2_2 + 120 p_2_3 + 120 p_2_4 + 120 p_2_5 + 120 p_2_6 + 120 p_2_7 + 100000 z_2_2 + 100000 z_2_3 + 100000 z_2_4 + 100000 z_2_5 + 100000 z_2_6 + 100000 z_2_7 <= 602119.25807344366
 c4253: 120 p_2_1 + 120 p_2_2 + 120 p_2_3 + 120 p_2_4 + 120 p_2_5 + 120 p_2_6 + 120 p_2_7 + 100000 z_2_1 + 100000 z_2_2 + 100000 z_2_3 + 100000 z_2_4 + 100000 z_2_5 + 100000 z_2_6 + 100000 z_2_7 <= 702119.19069372269
 c4254: 120 p_2_8 + 100000 z_2_8 <= 103086.87502132815
 c4255: 120 p_2_1 + 120 p_2_8 + 100000 z_2_1 + 100000 z_2_8 <= 202719.56893354384
 c4256: 120 p_2_2 + 120 p_2_8 + 100000 z_2_2 + 100000 z_2_8 <= 203041.3440905794
 c4257: 120 p_2_1 + 120 p_2_2 + 120 p_2_8 + 100000 z_2_1 + 100000 z_2_2 + 100000 z_2_8 <= 302674.03800279507
 c4258: 120 p_2_3 + 120 p_2_8 + 100000 z_2_3 + 100000 z_2_8 <= 202574.71964263381
 c4259: 120 p_2_1 + 120 p_2_3 + 120 p_2_8 + 100000 z_2_1 + 100000 z_2_3 + 100000 z_2_8 <= 302218.42423843779
 c4260: 120 p_2_2 + 120 p_2_3 + 120 p_2_8 + 100000 z_2_2 + 100000 z_2_3 + 100000 z_2_8 <= 302568.64751767571
 c4261: 120 p_2_1 + 120 p_2_2 + 120 p_2_3 + 120 p_2_8 + 100000 z_2_1 + 100000 z_2_2 + 100000 z_2_3 + 100000 z_2_8 <= 402201.34142989141
 c4262: 120 p_2_4 + 120 p_2_8 + 100000 z_2_4 + 100000 z_2_8 <= 202697.99642041573
 c4263: 120 p_2_1 + 120 p_2_4 + 120 p_2_8 + 100000 z_2_1 + 100000 z_2_4 + 100000 z_2_8 <= 302697.92904069478
 c4264: 120 p_2_2 + 120 p_2_4 + 120 p_2_8 + 100000 z_2_2 + 100000 z_2_4 + 100000 z_2_8 <= 302652.46548966697
 c4265: 120 p_2_1 + 120 p_2_2 + 120 p_2_4 + 120 p_2_8 + 100000 z_2_1 + 100000 z_2_2 + 100000 z_2_4 + 100000 z_2_8 <= 402652.39810994599
 c4266: 120 p_2_3 + 120 p_2_4 + 120 p_2_8 + 100000 z_2_3 + 100000 z_2_4 + 100000 z_2_8 <= 302199.54284892604
 c4267: 120 p_2_1 + 120 p_2_3 + 120 p_2_4 + 120 p_2_8 + 100000 z_2_1 + 100000 z_2_3 + 100000 z_2_4 + 100000 z_2_8 <= 402198.11228520848
 c4268: 120 p_2_2 + 120 p_2_3 + 120 p_2_4 + 120 p_2_8 + 100000 z_2_2 + 100000 z_2_3 + 100000 z_2_4 + 100000 z_2_8 <= 402179.76891676331
 c4269: 120 p_2_1 + 120 p_2_2 + 120 p_2_3 + 120 p_2_4 + 120 p_2_8 + 100000 z_2_1 + 100000 z_2_2 + 100000 z_2_3 + 100000 z_2_4 + 100000 z_2_8 <= 502179.70153704239
 c4270: 120 p_2_5 + 120 p_2_8 + 100000 z_2_5 + 100000 z_2_8 <= 203083.59753165737
 c4271: 120 p_2_1 + 120 p_2_5 + 120 p_2_8 + 100000 z_2_1 + 100000 z_2_5 + 100000 z_2_8 <= 302716.29144387308
 c4272: 120 p_2_2 + 120 p_2_5 + 120 p_2_8 + 100000 z_2_2 + 100000 z_2_5 + 100000 z_2_8 <= 303038.06660090864
 c4273: 120 p_2_1 + 120 p_2_2 + 120 p_2_5 + 120 p_2_8 + 100000 z_2_1 + 100000 z_2_2 + 100000 z_2_5 + 100000 z_2_8 <= 402657.60584731266
 c4274: 120 p_2_3 + 120 p_2_5 + 120 p_2_8 + 100000 z_2_3 + 100000 z_2_5 + 100000 z_2_8 <= 302573.22752133099
 c4275: 120 p_2_1 + 120 p_2_3 + 120 p_2_5 + 120 p_2_8 + 100000 z_2_1 + 100000 z_2_3 + 100000 z_2_5 + 100000 z_2_8 <= 402215.146748767
 c4276: 120 p_2_2 + 120 p_2_3 + 120 p_2_5 + 120 p_2_8 + 100000 z_2_2 + 100000 z_2_3 + 100000 z_2_5 + 100000 z_2_8 <= 402565.37002800498
 c4277: 120 p_2_1 + 120 p_2_2 + 120 p_2_3 + 120 p_2_5 + 120 p_2_8 + 100000 z_2_1 + 100000 z_2_2 + 100000 z_2_3 + 100000 z_2_5 + 100000 z_2_8 <= 502190.36427064671
 c4278: 120 p_2_4 + 120 p_2_5 + 120 p_2_8 + 100000 z_2_4 + 100000 z_2_5 + 100000 z_2_8 <= 302694.71893074497
 c4279: 120 p_2_1 + 120 p_2_4 + 120 p_2_5 + 120 p_2_8 + 100000 z_2_1 + 100000 z_2_4 + 100000 z_2_5 + 100000 z_2_8 <= 402694.651551024
 c4280: 120 p_2_2 + 120 p_2_4 + 120 p_2_5 + 120 p_2_8 + 100000 z_2_2 + 100000 z_2_4 + 100000 z_2_5 + 100000 z_2_8 <= 402636.0333341845
 c4281: 120 p_2_1 + 120 p_2_2 + 120 p_2_4 + 120 p_2_5 + 120 p_2_8 + 100000 z_2_1 + 100000 z_2_2 + 100000 z_2_4 + 100000 z_2_5 + 100000 z_2_8 <= 502635.96595446358
 c4282: 120 p_2_3 + 120 p_2_4 + 120 p_2_5 + 120 p_2_8 + 100000 z_2_3 + 100000 z_2_4 + 100000 z_2_5 + 100000 z_2_8 <= 402196.26535925531
 c4283: 120 p_2_1 + 120 p_2_3 + 120 p_2_4 + 120 p_2_5 + 120 p_2_8 + 100000 z_2_1 + 100000 z_2_3 + 100000 z_2_4 + 100000 z_2_5 + 100000 z_2_8 <= 502194.8347955377
 c4284: 120 p_2_2 + 120 p_2_3 + 120 p_2_4 + 120 p_2_5 + 120 p_2_8 + 100000 z_2_2 + 100000 z_2_3 + 100000 z_2_4 + 100000 z_2_5 + 100000 z_2_8 <= 502170.11969713838
 c4285: 120 p_2_1 + 120 p_2_2 + 120 p_2_3 + 120 p_2_4 + 120 p_2_5 + 120 p_2_8 + 100000 z_2_1 + 100000 z_2_2 + 100000 z_2_3 + 100000 z_2_4 + 100000 z_2_5 + 100000 z_2_8 <= 602170.05231741746
 c4286: 120 p_2_6 + 120 p_2_8 + 100000 z_2_6 + 100000 z_2_8 <= 202638.50913530117
 c4287: 120 p_2_1 + 120 p_2_6 + 120 p_2_8 + 100000 z_2_1 + 100000 z_2_6 + 100000 z_2_8 <= 302271.20304751687
 c4288: 120 p_2_2 + 120 p_2_6 + 120 p_2_8 + 100000 z_2_2 + 100000 z_2_6 + 100000 z_2_8 <= 302632.404779276
 c4289: 120 p_2_1 + 120 p_2_2 + 120 p_2_6 + 120 p_2_8 + 100000 z_2_1 + 100000 z_2_2 + 100000 z_2_6 + 100000 z_2_8 <= 402265.0986914917
 c4290: 120 p_2_3 + 120 p_2_6 + 120 p_2_8 + 100000 z_2_3 + 100000 z_2_6 + 100000 z_2_8 <= 302574.70349398465
 c4291: 120 p_2_1 + 120 p_2_3 + 120 p_2_6 + 120 p_2_8 + 100000 z_2_1 + 100000 z_2_3 + 100000 z_2_6 + 100000 z_2_8 <= 402214.28715236939
 c4292: 120 p_2_2 + 120 p_2_3 + 120 p_2_6 + 120 p_2_8 + 100000 z_2_2 + 100000 z_2_3 + 100000 z_2_6 + 100000 z_2_8 <= 402568.59913795948
 c4293: 120 p_2_1 + 120 p_2_2 + 120 p_2_3 + 120 p_2_6 + 120 p_2_8 + 100000 z_2_1 + 100000 z_2_2 + 100000 z_2_3 + 100000 z_2_6 + 100000 z_2_8 <= 502201.29305017518
 c4294: 120 p_2_4 + 120 p_2_6 + 120 p_2_8 + 100000 z_2_4 + 100000 z_2_6 + 100000 z_2_8 <= 302249.63053438877
 c4295: 120 p_2_1 + 120 p_2_4 + 120 p_2_6 + 120 p_2_8 + 100000 z_2_1 + 100000 z_2_4 + 100000 z_2_6 + 100000 z_2_8 <= 402249.56315466779
 c4296: 120 p_2_2 + 120 p_2_4 + 120 p_2_6 + 120 p_2_8 + 100000 z_2_2 + 100000 z_2_4 + 100000 z_2_6 + 100000 z_2_8 <= 402243.52617836359
 c4297: 120 p_2_1 + 120 p_2_2 + 120 p_2_4 + 120 p_2_6 + 120 p_2_8 + 100000 z_2_1 + 100000 z_2_2 + 100000 z_2_4 + 100000 z_2_6 + 100000 z_2_8 <= 502243.45879864262
 c4298: 120 p_2_3 + 120 p_2_4 + 120 p_2_6 + 120 p_2_8 + 100000 z_2_3 + 100000 z_2_4 + 100000 z_2_6 + 100000 z_2_8 <= 402195.4057628577
 c4299: 120 p_2_1 + 120 p_2_3 + 120 p_2_4 + 120 p_2_6 + 120 p_2_8 + 100000 z_2_1 + 100000 z_2_3 + 100000 z_2_4 + 100000 z_2_6 + 100000 z_2_8 <= 502193.97519914014
 c4300: 120 p_2_2 + 120 p_2_3 + 120 p_2_4 + 120 p_2_6 + 120 p_2_8 + 100000 z_2_2 + 100000 z_2_3 + 100000 z_2_4 + 100000 z_2_6 + 100000 z_2_8 <= 502179.72053704708
 c4301: 120 p_2_1 + 120 p_2_2 + 120 p_2_3 + 120 p_2_4 + 120 p_2_6 + 120 p_2_8 + 100000 z_2_1 + 100000 z_2_2 + 100000 z_2_3 + 100000 z_2_4 + 100000 z_2_6 + 100000 z_2_8 <= 602179.65315732616
 c4302: 120 p_2_5 + 120 p_2_6 + 120 p_2_8 + 100000 z_2_5 + 100000 z_2_6 + 100000 z_2_8 <= 302636.96775646089
 c4303: 120 p_2_1 + 120 p_2_5 + 120 p_2_6 + 120 p_2_8 + 100000 z_2_1 + 100000 z_2_5 + 100000 z_2_6 + 100000 z_2_8 <= 402269.66166867659
 c4304: 120 p_2_2 + 120 p_2_5 + 120 p_2_6 + 120 p_2_8 + 100000 z_2_2 + 100000 z_2_5 + 100000 z_2_6 + 100000 z_2_8 <= 402629.12728960527
 c4305: 120 p_2_1 + 120 p_2_2 + 120 p_2_5 + 120 p_2_6 + 120 p_2_8 + 100000 z_2_1 + 100000 z_2_2 + 100000 z_2_5 + 100000 z_2_6 + 100000 z_2_8 <= 502248.66653600929
 c4306: 120 p_2_3 + 120 p_2_5 + 120 p_2_6 + 120 p_2_8 + 100000 z_2_3 + 100000 z_2_5 + 100000 z_2_6 + 100000 z_2_8 <= 402573.16211514437
 c4307: 120 p_2_1 + 120 p_2_3 + 120 p_2_5 + 120 p_2_6 + 120 p_2_8 + 100000 z_2_1 + 100000 z_2_3 + 100000 z_2_5 + 100000 z_2_6 + 100000 z_2_8 <= 502211.00966269866
 c4308: 120 p_2_2 + 120 p_2_3 + 120 p_2_5 + 120 p_2_6 + 120 p_2_8 + 100000 z_2_2 + 100000 z_2_3 + 100000 z_2_5 + 100000 z_2_6 + 100000 z_2_8 <= 502565.32164828875
 c4309: 120 p_2_1 + 120 p_2_2 + 120 p_2_3 + 120 p_2_5 + 120 p_2_6 + 120 p_2_8 + 100000 z_2_1 + 100000 z_2_2 + 100000 z_2_3 + 100000 z_2_5 + 100000 z_2_6 + 100000 z_2_8 <= 602190.31589093048
 c4310: 120 p_2_4 + 120 p_2_5 + 120 p_2_6 + 120 p_2_8 + 100000 z_2_4 + 100000 z_2_5 + 100000 z_2_6 + 100000 z_2_8 <= 402248.08915554843
 c4311: 120 p_2_1 + 120 p_2_4 + 120 p_2_5 + 120 p_2_6 + 120 p_2_8 + 100000 z_2_1 + 100000 z_2_4 + 100000 z_2_5 + 100000 z_2_6 + 100000 z_2_8 <= 502248.02177582751
 c4312: 120 p_2_2 + 120 p_2_4 + 120 p_2_5 + 120 p_2_6 + 120 p_2_8 + 100000 z_2_2 + 100000 z_2_4 + 100000 z_2_5 + 100000 z_2_6 + 100000 z_2_8 <= 502227.09402288112
 c4313: 120 p_2_1 + 120 p_2_2 + 120 p_2_4 + 120 p_2_5 + 120 p_2_6 + 120 p_2_8 + 100000 z_2_1 + 100000 z_2_2 + 100000 z_2_4 + 100000 z_2_5 + 100000 z_2_6 + 100000 z_2_8 <= 602227.02664316015
 c4314: 120 p_2_3 + 120 p_2_4 + 120 p_2_5 + 120 p_2_6 + 120 p_2_8 + 100000 z_2_3 + 100000 z_2_4 + 100000 z_2_5 + 100000 z_2_6 + 100000 z_2_8 <= 502192.12827318691
 c4315: 120 p_2_1 + 120 p_2_3 + 120 p_2_4 + 120 p_2_5 + 120 p_2_6 + 120 p_2_8 + 100000 z_2_1 + 100000 z_2_3 + 100000 z_2_4 + 100000 z_2_5 + 100000 z_2_6 + 100000 z_2_8 <= 602190.69770946936
 c4316: 120 p_2_2 + 120 p_2_3 + 120 p_2_4 + 120 p_2_5 + 120 p_2_6 + 120 p_2_8 + 100000 z_2_2 + 100000 z_2_3 + 100000 z_2_4 + 100000 z_2_5 + 100000 z_2_6 + 100000 z_2_8 <= 602170.07131742209
 c4317: 120 p_2_1 + 120 p_2_2 + 120 p_2_3 + 120 p_2_4 + 120 p_2_5 + 120 p_2_6 + 120 p_2_8 + 100000 z_2_1 + 100000 z_2_2 + 100000 z_2_3 + 100000 z_2_4 + 100000 z_2_5 + 100000 z_2_6 + 100000 z_2_8 <= 702170.00393770123
 c4318: 120 p_2_7 + 120 p_2_8 + 100000 z_2_7 + 100000 z_2_8 <= 202558.33622512597
 c4319: 120 p_2_1 + 120 p_2_7 + 120 p_2_8 + 100000 z_2_1 + 100000 z_2_7 + 100000 z_2_8 <= 302557.42652079667
 c4320: 120 p_2_2 + 120 p_2_7 + 120 p_2_8 + 100000 z_2_2 + 100000 z_2_7 + 100000 z_2_8 <= 302512.80529437721
 c4321: 120 p_2_1 + 120 p_2_2 + 120 p_2_7 + 120 p_2_8 + 100000 z_2_1 + 100000 z_2_2 + 100000 z_2_7 + 100000 z_2_8 <= 402511.89559004793
 c4322: 120 p_2_3 + 120 p_2_7 + 120 p_2_8 + 100000 z_2_3 + 100000 z_2_7 + 100000 z_2_8 <= 302063.49133806594
 c4323: 120 p_2_1 + 120 p_2_3 + 120 p_2_7 + 120 p_2_8 + 100000 z_2_1 + 100000 z_2_3 + 100000 z_2_7 + 100000 z_2_8 <= 402056.28182569059
 c4324: 120 p_2_2 + 120 p_2_3 + 120 p_2_7 + 120 p_2_8 + 100000 z_2_2 + 100000 z_2_3 + 100000 z_2_7 + 100000 z_2_8 <= 402040.10872147355
 c4325: 120 p_2_1 + 120 p_2_2 + 120 p_2_3 + 120 p_2_7 + 120 p_2_8 + 100000 z_2_1 + 100000 z_2_2 + 100000 z_2_3 + 100000 z_2_7 + 100000 z_2_8 <= 502039.19901714427
 c4326: 120 p_2_4 + 120 p_2_7 + 120 p_2_8 + 100000 z_2_4 + 100000 z_2_7 + 100000 z_2_8 <= 302556.98945039726
 c4327: 120 p_2_1 + 120 p_2_4 + 120 p_2_7 + 120 p_2_8 + 100000 z_2_1 + 100000 z_2_4 + 100000 z_2_7 + 100000 z_2_8 <= 402556.92207067629
 c4328: 120 p_2_2 + 120 p_2_4 + 120 p_2_7 + 120 p_2_8 + 100000 z_2_2 + 100000 z_2_4 + 100000 z_2_7 + 100000 z_2_8 <= 402511.45851964853
 c4329: 120 p_2_1 + 120 p_2_2 + 120 p_2_4 + 120 p_2_7 + 120 p_2_8 + 100000 z_2_1 + 100000 z_2_2 + 100000 z_2_4 + 100000 z_2_7 + 100000 z_2_8 <= 502511.39113992755
 c4330: 120 p_2_3 + 120 p_2_4 + 120 p_2_7 + 120 p_2_8 + 100000 z_2_3 + 100000 z_2_4 + 100000 z_2_7 + 100000 z_2_8 <= 402058.5358789076
 c4331: 120 p_2_1 + 120 p_2_3 + 120 p_2_4 + 120 p_2_7 + 120 p_2_8 + 100000 z_2_1 + 100000 z_2_3 + 100000 z_2_4 + 100000 z_2_7 + 100000 z_2_8 <= 502055.77737557021
 c4332: 120 p_2_2 + 120 p_2_3 + 120 p_2_4 + 120 p_2_7 + 120 p_2_8 + 100000 z_2_2 + 100000 z_2_3 + 100000 z_2_4 + 100000 z_2_7 + 100000 z_2_8 <= 502038.76194674487
 c4333: 120 p_2_1 + 120 p_2_2 + 120 p_2_3 + 120 p_2_4 + 120 p_2_7 + 120 p_2_8 + 100000 z_2_1 + 100000 z_2_2 + 100000 z_2_3 + 100000 z_2_4 + 100000 z_2_7 + 100000 z_2_8 <= 602038.69456702389
 c4334: 120 p_2_5 + 120 p_2_7 + 120 p_2_8 + 100000 z_2_5 + 100000 z_2_7 + 100000 z_2_8 <= 302555.05873545521
 c4335: 120 p_2_1 + 120 p_2_5 + 120 p_2_7 + 120 p_2_8 + 100000 z_2_1 + 100000 z_2_5 + 100000 z_2_7 + 100000 z_2_8 <= 402554.14903112594
 c4336: 120 p_2_2 + 120 p_2_5 + 120 p_2_7 + 120 p_2_8 + 100000 z_2_2 + 100000 z_2_5 + 100000 z_2_7 + 100000 z_2_8 <= 402496.37313889473
 c4337: 120 p_2_1 + 120 p_2_2 + 120 p_2_5 + 120 p_2_7 + 120 p_2_8 + 100000 z_2_1 + 100000 z_2_2 + 100000 z_2_5 + 100000 z_2_7 + 100000 z_2_8 <= 502495.46343456546
 c4338: 120 p_2_3 + 120 p_2_5 + 120 p_2_7 + 120 p_2_8 + 100000 z_2_3 + 100000 z_2_5 + 100000 z_2_7 + 100000 z_2_8 <= 402060.21384839521
 c4339: 120 p_2_1 + 120 p_2_3 + 120 p_2_5 + 120 p_2_7 + 120 p_2_8 + 100000 z_2_1 + 100000 z_2_3 + 100000 z_2_5 + 100000 z_2_7 + 100000 z_2_8 <= 502053.00433601986
 c4340: 120 p_2_2 + 120 p_2_3 + 120 p_2_5 + 120 p_2_7 + 120 p_2_8 + 100000 z_2_2 + 100000 z_2_3 + 100000 z_2_5 + 100000 z_2_7 + 100000 z_2_8 <= 502023.67656599107
 c4341: 120 p_2_1 + 120 p_2_2 + 120 p_2_3 + 120 p_2_5 + 120 p_2_7 + 120 p_2_8 + 100000 z_2_1 + 100000 z_2_2 + 100000 z_2_3 + 100000 z_2_5 + 100000 z_2_7 + 100000 z_2_8 <= 602022.7668616618
 c4342: 120 p_2_4 + 120 p_2_5 + 120 p_2_7 + 120 p_2_8 + 100000 z_2_4 + 100000 z_2_5 + 100000 z_2_7 + 100000 z_2_8 <= 402553.71196072648
 c4343: 120 p_2_1 + 120 p_2_4 + 120 p_2_5 + 120 p_2_7 + 120 p_2_8 + 100000 z_2_1 + 100000 z_2_4 + 100000 z_2_5 + 100000 z_2_7 + 100000 z_2_8 <= 502553.64458100556
 c4344: 120 p_2_2 + 120 p_2_4 + 120 p_2_5 + 120 p_2_7 + 120 p_2_8 + 100000 z_2_2 + 100000 z_2_4 + 100000 z_2_5 + 100000 z_2_7 + 100000 z_2_8 <= 502495.02636416606
 c4345: 120 p_2_1 + 120 p_2_2 + 120 p_2_4 + 120 p_2_5 + 120 p_2_7 + 120 p_2_8 + 100000 z_2_1 + 100000 z_2_2 + 100000 z_2_4 + 100000 z_2_5 + 100000 z_2_7 + 100000 z_2_8 <= 602494.95898444508
 c4346: 120 p_2_3 + 120 p_2_4 + 120 p_2_5 + 120 p_2_7 + 120 p_2_8 + 100000 z_2_3 + 100000 z_2_4 + 100000 z_2_5 + 100000 z_2_7 + 100000 z_2_8 <= 502055.25838923681
 c4347: 120 p_2_1 + 120 p_2_3 + 120 p_2_4 + 120 p_2_5 + 120 p_2_7 + 120 p_2_8 + 100000 z_2_1 + 100000 z_2_3 + 100000 z_2_4 + 100000 z_2_5 + 100000 z_2_7 + 100000 z_2_8 <= 602052.49988589948
 c4348: 120 p_2_2 + 120 p_2_3 + 120 p_2_4 + 120 p_2_5 + 120 p_2_7 + 120 p_2_8 + 100000 z_2_2 + 100000 z_2_3 + 100000 z_2_4 + 100000 z_2_5 + 100000 z_2_7 + 100000 z_2_8 <= 602022.3297912624
 c4349: 120 p_2_1 + 120 p_2_2 + 120 p_2_3 + 120 p_2_4 + 120 p_2_5 + 120 p_2_7 + 120 p_2_8 + 100000 z_2_1 + 100000 z_2_2 + 100000 z_2_3 + 100000 z_2_4 + 100000 z_2_5 + 100000 z_2_7 + 100000 z_2_8 <= 702022.26241154142
 c4350: 120 p_2_6 + 120 p_2_7 + 120 p_2_8 + 100000 z_2_6 + 100000 z_2_7 + 100000 z_2_8 <= 302110.8135271694
 c4351: 120 p_2_1 + 120 p_2_6 + 120 p_2_7 + 120 p_2_8 + 100000 z_2_1 + 100000 z_2_6 + 100000 z_2_7 + 100000 z_2_8 <= 402109.06063476973
 c4352: 120 p_2_2 + 120 p_2_6 + 120 p_2_7 + 120 p_2_8 + 100000 z_2_2 + 100000 z_2_6 + 100000 z_2_7 + 100000 z_2_8 <= 402103.86598307383
 c4353: 120 p_2_1 + 120 p_2_2 + 120 p_2_6 + 120 p_2_7 + 120 p_2_8 + 100000 z_2_1 + 100000 z_2_2 + 100000 z_2_6 + 100000 z_2_7 + 100000 z_2_8 <= 502102.95627874456
 c4354: 120 p_2_3 + 120 p_2_6 + 120 p_2_7 + 120 p_2_8 + 100000 z_2_3 + 100000 z_2_6 + 100000 z_2_7 + 100000 z_2_8 <= 402059.3542519976
 c4355: 120 p_2_1 + 120 p_2_3 + 120 p_2_6 + 120 p_2_7 + 120 p_2_8 + 100000 z_2_1 + 100000 z_2_3 + 100000 z_2_6 + 100000 z_2_7 + 100000 z_2_8 <= 502052.14473962225
 c4356: 120 p_2_2 + 120 p_2_3 + 120 p_2_6 + 120 p_2_7 + 120 p_2_8 + 100000 z_2_2 + 100000 z_2_3 + 100000 z_2_6 + 100000 z_2_7 + 100000 z_2_8 <= 502040.06034175731
 c4357: 120 p_2_1 + 120 p_2_2 + 120 p_2_3 + 120 p_2_6 + 120 p_2_7 + 120 p_2_8 + 100000 z_2_1 + 100000 z_2_2 + 100000 z_2_3 + 100000 z_2_6 + 100000 z_2_7 + 100000 z_2_8 <= 602039.15063742804
 c4358: 120 p_2_4 + 120 p_2_6 + 120 p_2_7 + 120 p_2_8 + 100000 z_2_4 + 100000 z_2_6 + 100000 z_2_7 + 100000 z_2_8 <= 402108.62356437033
 c4359: 120 p_2_1 + 120 p_2_4 + 120 p_2_6 + 120 p_2_7 + 120 p_2_8 + 100000 z_2_1 + 100000 z_2_4 + 100000 z_2_6 + 100000 z_2_7 + 100000 z_2_8 <= 502108.55618464935
 c4360: 120 p_2_2 + 120 p_2_4 + 120 p_2_6 + 120 p_2_7 + 120 p_2_8 + 100000 z_2_2 + 100000 z_2_4 + 100000 z_2_6 + 100000 z_2_7 + 100000 z_2_8 <= 502102.51920834515
 c4361: 120 p_2_1 + 120 p_2_2 + 120 p_2_4 + 120 p_2_6 + 120 p_2_7 + 120 p_2_8 + 100000 z_2_1 + 100000 z_2_2 + 100000 z_2_4 + 100000 z_2_6 + 100000 z_2_7 + 100000 z_2_8 <= 602102.45182862424
 c4362: 120 p_2_3 + 120 p_2_4 + 120 p_2_6 + 120 p_2_7 + 120 p_2_8 + 100000 z_2_3 + 100000 z_2_4 + 100000 z_2_6 + 100000 z_2_7 + 100000 z_2_8 <= 502054.39879283926
 c4363: 120 p_2_1 + 120 p_2_3 + 120 p_2_4 + 120 p_2_6 + 120 p_2_7 + 120 p_2_8 + 100000 z_2_1 + 100000 z_2_3 + 100000 z_2_4 + 100000 z_2_6 + 100000 z_2_7 + 100000 z_2_8 <= 602051.64028950187
 c4364: 120 p_2_2 + 120 p_2_3 + 120 p_2_4 + 120 p_2_6 + 120 p_2_7 + 120 p_2_8 + 100000 z_2_2 + 100000 z_2_3 + 100000 z_2_4 + 100000 z_2_6 + 100000 z_2_7 + 100000 z_2_8 <= 602038.71356702864
 c4365: 120 p_2_1 + 120 p_2_2 + 120 p_2_3 + 120 p_2_4 + 120 p_2_6 + 120 p_2_7 + 120 p_2_8 + 100000 z_2_1 + 100000 z_2_2 + 100000 z_2_3 + 100000 z_2_4 + 100000 z_2_6 + 100000 z_2_7 + 100000 z_2_8 <= 702038.64618730766
 c4366: 120 p_2_5 + 120 p_2_6 + 120 p_2_7 + 120 p_2_8 + 100000 z_2_5 + 100000 z_2_6 + 100000 z_2_7 + 100000 z_2_8 <= 402108.42896025867
 c4367: 120 p_2_1 + 120 p_2_5 + 120 p_2_6 + 120 p_2_7 + 120 p_2_8 + 100000 z_2_1 + 100000 z_2_5 + 100000 z_2_6 + 100000 z_2_7 + 100000 z_2_8 <= 502107.51925592939
 c4368: 120 p_2_2 + 120 p_2_5 + 120 p_2_6 + 120 p_2_7 + 120 p_2_8 + 100000 z_2_2 + 100000 z_2_5 + 100000 z_2_6 + 100000 z_2_7 + 100000 z_2_8 <= 502087.43382759136
 c4369: 120 p_2_1 + 120 p_2_2 + 120 p_2_5 + 120 p_2_6 + 120 p_2_7 + 120 p_2_8 + 100000 z_2_1 + 100000 z_2_2 + 100000 z_2_5 + 100000 z_2_6 + 100000 z_2_7 + 100000 z_2_8 <= 602086.52412326215
 c4370: 120 p_2_3 + 120 p_2_5 + 120 p_2_6 + 120 p_2_7 + 120 p_2_8 + 100000 z_2_3 + 100000 z_2_5 + 100000 z_2_6 + 100000 z_2_7 + 100000 z_2_8 <= 502056.07676232682
 c4371: 120 p_2_1 + 120 p_2_3 + 120 p_2_5 + 120 p_2_6 + 120 p_2_7 + 120 p_2_8 + 100000 z_2_1 + 100000 z_2_3 + 100000 z_2_5 + 100000 z_2_6 + 100000 z_2_7 + 100000 z_2_8 <= 602048.86724995147
 c4372: 120 p_2_2 + 120 p_2_3 + 120 p_2_5 + 120 p_2_6 + 120 p_2_7 + 120 p_2_8 + 100000 z_2_2 + 100000 z_2_3 + 100000 z_2_5 + 100000 z_2_6 + 100000 z_2_7 + 100000 z_2_8 <= 602023.6281862749
 c4373: 120 p_2_1 + 120 p_2_2 + 120 p_2_3 + 120 p_2_5 + 120 p_2_6 + 120 p_2_7 + 120 p_2_8 + 100000 z_2_1 + 100000 z_2_2 + 100000 z_2_3 + 100000 z_2_5 + 100000 z_2_6 + 100000 z_2_7 + 100000 z_2_8 <= 702022.71848194557
 c4374: 120 p_2_4 + 120 p_2_5 + 120 p_2_6 + 120 p_2_7 + 120 p_2_8 + 100000 z_2_4 + 100000 z_2_5 + 100000 z_2_6 + 100000 z_2_7 + 100000 z_2_8 <= 502107.08218552999
 c4375: 120 p_2_1 + 120 p_2_4 + 120 p_2_5 + 120 p_2_6 + 120 p_2_7 + 120 p_2_8 + 100000 z_2_1 + 100000 z_2_4 + 100000 z_2_5 + 100000 z_2_6 + 100000 z_2_7 + 100000 z_2_8 <= 602107.01480580901
 c4376: 120 p_2_2 + 120 p_2_4 + 120 p_2_5 + 120 p_2_6 + 120 p_2_7 + 120 p_2_8 + 100000 z_2_2 + 100000 z_2_4 + 100000 z_2_5 + 100000 z_2_6 + 100000 z_2_7 + 100000 z_2_8 <= 602086.08705286274
 c4377: 120 p_2_1 + 120 p_2_2 + 120 p_2_4 + 120 p_2_5 + 120 p_2_6 + 120 p_2_7 + 120 p_2_8 + 100000 z_2_1 + 100000 z_2_2 + 100000 z_2_4 + 100000 z_2_5 + 100000 z_2_6 + 100000 z_2_7 + 100000 z_2_8 <= 702086.01967314177
 c4378: 120 p_2_3 + 120 p_2_4 + 120 p_2_5 + 120 p_2_6 + 120 p_2_7 + 120 p_2_8 + 100000 z_2_3 + 100000 z_2_4 + 100000 z_2_5 + 100000 z_2_6 + 100000 z_2_7 + 100000 z_2_8 <= 602051.12130316847
 c4379: 120 p_2_1 + 120 p_2_3 + 120 p_2_4 + 120 p_2_5 + 120 p_2_6 + 120 p_2_7 + 120 p_2_8 + 100000 z_2_1 + 100000 z_2_3 + 100000 z_2_4 + 100000 z_2_5 + 100000 z_2_6 + 100000 z_2_7 + 100000 z_2_8 <= 702048.36279983108
 c4380: 120 p_2_2 + 120 p_2_3 + 120 p_2_4 + 120 p_2_5 + 120 p_2_6 + 120 p_2_7 + 120 p_2_8 + 100000 z_2_2 + 100000 z_2_3 + 100000 z_2_4 + 100000 z_2_5 + 100000 z_2_6 + 100000 z_2_7 + 100000 z_2_8 <= 702022.28141154617
 c4381: 120 p_2_1 + 120 p_2_2 + 120 p_2_3 + 120 p_2_4 + 120 p_2_5 + 120 p_2_6 + 120 p_2_7 + 120 p_2_8 + 100000 z_2_1 + 100000 z_2_2 + 100000 z_2_3 + 100000 z_2_4 + 100000 z_2_5 + 100000 z_2_6 + 100000 z_2_7 + 100000 z_2_8 <= 802022.21403182519
 c4382: 120 p_2_9 + 100000 z_2_9 <= 103078.72514967447
 c4383: 120 p_2_1 + 120 p_2_9 + 100000 z_2_1 + 100000 z_2_9 <= 202670.24249923599
 c4384: 120 p_2_2 + 120 p_2_9 + 100000 z_2_2 + 100000 z_2_9 <= 202818.27728023569
 c4385: 120 p_2_1 + 120 p_2_2 + 120 p_2_9 + 100000 z_2_1 + 100000 z_2_2 + 100000 z_2_9 <= 302409.79462979722
 c4386: 120 p_2_3 + 120 p_2_9 + 100000 z_2_3 + 100000 z_2_9 <= 202971.70694713818
 c4387: 120 p_2_1 + 120 p_2_3 + 120 p_2_9 + 100000 z_2_1 + 100000 z_2_3 + 100000 z_2_9 <= 302596.70118977991
 c4388: 120 p_2_2 + 120 p_2_3 + 120 p_2_9 + 100000 z_2_2 + 100000 z_2_3 + 100000 z_2_9 <= 302711.25907769939
 c4389: 120 p_2_1 + 120 p_2_2 + 120 p_2_3 + 120 p_2_9 + 100000 z_2_1 + 100000 z_2_2 + 100000 z_2_3 + 100000 z_2_9 <= 402336.25332034117
 c4390: 120 p_2_4 + 120 p_2_9 + 100000 z_2_4 + 100000 z_2_9 <= 202648.77624050356
 c4391: 120 p_2_1 + 120 p_2_4 + 120 p_2_9 + 100000 z_2_1 + 100000 z_2_4 + 100000 z_2_9 <= 302648.70886078262
 c4392: 120 p_2_2 + 120 p_2_4 + 120 p_2_9 + 100000 z_2_2 + 100000 z_2_4 + 100000 z_2_9 <= 302388.3283710648
 c4393: 120 p_2_1 + 120 p_2_2 + 120 p_2_4 + 120 p_2_9 + 100000 z_2_1 + 100000 z_2_2 + 100000 z_2_4 + 100000 z_2_9 <= 402388.26099134382
 c4394: 120 p_2_3 + 120 p_2_4 + 120 p_2_9 + 100000 z_2_3 + 100000 z_2_4 + 100000 z_2_9 <= 302576.45661627158
 c4395: 120 p_2_1 + 120 p_2_3 + 120 p_2_4 + 120 p_2_9 + 100000 z_2_1 + 100000 z_2_3 + 100000 z_2_4 + 100000 z_2_9 <= 402576.38923655066
 c4396: 120 p_2_2 + 120 p_2_3 + 120 p_2_4 + 120 p_2_9 + 100000 z_2_2 + 100000 z_2_3 + 100000 z_2_4 + 100000 z_2_9 <= 402316.00874683284
 c4397: 120 p_2_1 + 120 p_2_2 + 120 p_2_3 + 120 p_2_4 + 120 p_2_9 + 100000 z_2_1 + 100000 z_2_2 + 100000 z_2_3 + 100000 z_2_4 + 100000 z_2_9 <= 502315.94136711187
 c4398: 120 p_2_5 + 120 p_2_9 + 100000 z_2_5 + 100000 z_2_9 <= 202775.62617135121
 c4399: 120 p_2_1 + 120 p_2_5 + 120 p_2_9 + 100000 z_2_1 + 100000 z_2_5 + 100000 z_2_9 <= 302389.50477711018
 c4400: 120 p_2_2 + 120 p_2_5 + 120 p_2_9 + 100000 z_2_2 + 100000 z_2_5 + 100000 z_2_9 <= 302760.86251043808
 c4401: 120 p_2_1 + 120 p_2_2 + 120 p_2_5 + 120 p_2_9 + 100000 z_2_1 + 100000 z_2_2 + 100000 z_2_5 + 100000 z_2_9 <= 402374.74111619702
 c4402: 120 p_2_3 + 120 p_2_5 + 120 p_2_9 + 100000 z_2_3 + 100000 z_2_5 + 100000 z_2_9 <= 302668.60796881496
 c4403: 120 p_2_1 + 120 p_2_3 + 120 p_2_5 + 120 p_2_9 + 100000 z_2_1 + 100000 z_2_3 + 100000 z_2_5 + 100000 z_2_9 <= 402293.60221145669
 c4404: 120 p_2_2 + 120 p_2_3 + 120 p_2_5 + 120 p_2_9 + 100000 z_2_2 + 100000 z_2_3 + 100000 z_2_5 + 100000 z_2_9 <= 402653.8443079018
 c4405: 120 p_2_1 + 120 p_2_2 + 120 p_2_3 + 120 p_2_5 + 120 p_2_9 + 100000 z_2_1 + 100000 z_2_2 + 100000 z_2_3 + 100000 z_2_5 + 100000 z_2_9 <= 502278.83855054353
 c4406: 120 p_2_4 + 120 p_2_5 + 120 p_2_9 + 100000 z_2_4 + 100000 z_2_5 + 100000 z_2_9 <= 302367.3259622631
 c4407: 120 p_2_1 + 120 p_2_4 + 120 p_2_5 + 120 p_2_9 + 100000 z_2_1 + 100000 z_2_4 + 100000 z_2_5 + 100000 z_2_9 <= 402367.25858254218
 c4408: 120 p_2_2 + 120 p_2_4 + 120 p_2_5 + 120 p_2_9 + 100000 z_2_2 + 100000 z_2_4 + 100000 z_2_5 + 100000 z_2_9 <= 402352.56230135
 c4409: 120 p_2_1 + 120 p_2_2 + 120 p_2_4 + 120 p_2_5 + 120 p_2_9 + 100000 z_2_1 + 100000 z_2_2 + 100000 z_2_4 + 100000 z_2_5 + 100000 z_2_9 <= 502352.49492162903
 c4410: 120 p_2_3 + 120 p_2_4 + 120 p_2_5 + 120 p_2_9 + 100000 z_2_3 + 100000 z_2_4 + 100000 z_2_5 + 100000 z_2_9 <= 402273.35763794836
 c4411: 120 p_2_1 + 120 p_2_3 + 120 p_2_4 + 120 p_2_5 + 120 p_2_9 + 100000 z_2_1 + 100000 z_2_3 + 100000 z_2_4 + 100000 z_2_5 + 100000 z_2_9 <= 502273.29025822738
 c4412: 120 p_2_2 + 120 p_2_3 + 120 p_2_4 + 120 p_2_5 + 120 p_2_9 + 100000 z_2_2 + 100000 z_2_3 + 100000 z_2_4 + 100000 z_2_5 + 100000 z_2_9 <= 502258.5939770352
 c4413: 120 p_2_1 + 120 p_2_2 + 120 p_2_3 + 120 p_2_4 + 120 p_2_5 + 120 p_2_9 + 100000 z_2_1 + 100000 z_2_2 + 100000 z_2_3 + 100000 z_2_4 + 100000 z_2_5 + 100000 z_2_9 <= 602258.52659731428
 c4414: 120 p_2_6 + 120 p_2_9 + 100000 z_2_6 + 100000 z_2_9 <= 203024.56552678722
 c4415: 120 p_2_1 + 120 p_2_6 + 120 p_2_9 + 100000 z_2_1 + 100000 z_2_6 + 100000 z_2_9 <= 302639.22738000529
 c4416: 120 p_2_2 + 120 p_2_6 + 120 p_2_9 + 100000 z_2_2 + 100000 z_2_6 + 100000 z_2_9 <= 302764.11765734846
 c4417: 120 p_2_1 + 120 p_2_2 + 120 p_2_6 + 120 p_2_9 + 100000 z_2_1 + 100000 z_2_2 + 100000 z_2_6 + 100000 z_2_9 <= 402378.7795105665
 c4418: 120 p_2_3 + 120 p_2_6 + 120 p_2_9 + 100000 z_2_3 + 100000 z_2_6 + 100000 z_2_9 <= 302967.56986106985
 c4419: 120 p_2_1 + 120 p_2_3 + 120 p_2_6 + 120 p_2_9 + 100000 z_2_1 + 100000 z_2_3 + 100000 z_2_6 + 100000 z_2_9 <= 402585.75412811246
 c4420: 120 p_2_2 + 120 p_2_3 + 120 p_2_6 + 120 p_2_9 + 100000 z_2_2 + 100000 z_2_3 + 100000 z_2_6 + 100000 z_2_9 <= 402707.12199163105
 c4421: 120 p_2_1 + 120 p_2_2 + 120 p_2_3 + 120 p_2_6 + 120 p_2_9 + 100000 z_2_1 + 100000 z_2_2 + 100000 z_2_3 + 100000 z_2_6 + 100000 z_2_9 <= 502325.30625867366
 c4422: 120 p_2_4 + 120 p_2_6 + 120 p_2_9 + 100000 z_2_4 + 100000 z_2_6 + 100000 z_2_9 <= 302618.51742002484
 c4423: 120 p_2_1 + 120 p_2_4 + 120 p_2_6 + 120 p_2_9 + 100000 z_2_1 + 100000 z_2_4 + 100000 z_2_6 + 100000 z_2_9 <= 402618.45004030387
 c4424: 120 p_2_2 + 120 p_2_4 + 120 p_2_6 + 120 p_2_9 + 100000 z_2_2 + 100000 z_2_4 + 100000 z_2_6 + 100000 z_2_9 <= 402358.06955058605
 c4425: 120 p_2_1 + 120 p_2_2 + 120 p_2_4 + 120 p_2_6 + 120 p_2_9 + 100000 z_2_1 + 100000 z_2_2 + 100000 z_2_4 + 100000 z_2_6 + 100000 z_2_9 <= 502358.00217086513
 c4426: 120 p_2_3 + 120 p_2_4 + 120 p_2_6 + 120 p_2_9 + 100000 z_2_3 + 100000 z_2_4 + 100000 z_2_6 + 100000 z_2_9 <= 402565.50955460413
 c4427: 120 p_2_1 + 120 p_2_3 + 120 p_2_4 + 120 p_2_6 + 120 p_2_9 + 100000 z_2_1 + 100000 z_2_3 + 100000 z_2_4 + 100000 z_2_6 + 100000 z_2_9 <= 502565.44217488315
 c4428: 120 p_2_2 + 120 p_2_3 + 120 p_2_4 + 120 p_2_6 + 120 p_2_9 + 100000 z_2_2 + 100000 z_2_3 + 100000 z_2_4 + 100000 z_2_6 + 100000 z_2_9 <= 502305.06168516533
 c4429: 120 p_2_1 + 120 p_2_2 + 120 p_2_3 + 120 p_2_4 + 120 p_2_6 + 120 p_2_9 + 100000 z_2_1 + 100000 z_2_2 + 100000 z_2_3 + 100000 z_2_4 + 100000 z_2_6 + 100000 z_2_9 <= 602304.99430544442
 c4430: 120 p_2_5 + 120 p_2_6 + 120 p_2_9 + 100000 z_2_5 + 100000 z_2_6 + 100000 z_2_9 <= 302721.46654846397
 c4431: 120 p_2_1 + 120 p_2_5 + 120 p_2_6 + 120 p_2_9 + 100000 z_2_1 + 100000 z_2_5 + 100000 z_2_6 + 100000 z_2_9 <= 402336.12840168207
 c4432: 120 p_2_2 + 120 p_2_5 + 120 p_2_6 + 120 p_2_9 + 100000 z_2_2 + 100000 z_2_5 + 100000 z_2_6 + 100000 z_2_9 <= 402706.70288755087
 c4433: 120 p_2_1 + 120 p_2_2 + 120 p_2_5 + 120 p_2_6 + 120 p_2_9 + 100000 z_2_1 + 100000 z_2_2 + 100000 z_2_5 + 100000 z_2_6 + 100000 z_2_9 <= 502321.36474076891
 c4434: 120 p_2_3 + 120 p_2_5 + 120 p_2_6 + 120 p_2_9 + 100000 z_2_3 + 100000 z_2_5 + 100000 z_2_6 + 100000 z_2_9 <= 402664.47088274657
 c4435: 120 p_2_1 + 120 p_2_3 + 120 p_2_5 + 120 p_2_6 + 120 p_2_9 + 100000 z_2_1 + 100000 z_2_3 + 100000 z_2_5 + 100000 z_2_6 + 100000 z_2_9 <= 502282.65514978918
 c4436: 120 p_2_2 + 120 p_2_3 + 120 p_2_5 + 120 p_2_6 + 120 p_2_9 + 100000 z_2_2 + 100000 z_2_3 + 100000 z_2_5 + 100000 z_2_6 + 100000 z_2_9 <= 502649.70722183347
 c4437: 120 p_2_1 + 120 p_2_2 + 120 p_2_3 + 120 p_2_5 + 120 p_2_6 + 120 p_2_9 + 100000 z_2_1 + 100000 z_2_2 + 100000 z_2_3 + 100000 z_2_5 + 100000 z_2_6 + 100000 z_2_9 <= 602267.89148887608
 c4438: 120 p_2_4 + 120 p_2_5 + 120 p_2_6 + 120 p_2_9 + 100000 z_2_4 + 100000 z_2_5 + 100000 z_2_6 + 100000 z_2_9 <= 402315.41844170162
 c4439: 120 p_2_1 + 120 p_2_4 + 120 p_2_5 + 120 p_2_6 + 120 p_2_9 + 100000 z_2_1 + 100000 z_2_4 + 100000 z_2_5 + 100000 z_2_6 + 100000 z_2_9 <= 502315.35106198065
 c4440: 120 p_2_2 + 120 p_2_4 + 120 p_2_5 + 120 p_2_6 + 120 p_2_9 + 100000 z_2_2 + 100000 z_2_4 + 100000 z_2_5 + 100000 z_2_6 + 100000 z_2_9 <= 502300.65478078846
 c4441: 120 p_2_1 + 120 p_2_2 + 120 p_2_4 + 120 p_2_5 + 120 p_2_6 + 120 p_2_9 + 100000 z_2_1 + 100000 z_2_2 + 100000 z_2_4 + 100000 z_2_5 + 100000 z_2_6 + 100000 z_2_9 <= 602300.58740106749
 c4442: 120 p_2_3 + 120 p_2_4 + 120 p_2_5 + 120 p_2_6 + 120 p_2_9 + 100000 z_2_3 + 100000 z_2_4 + 100000 z_2_5 + 100000 z_2_6 + 100000 z_2_9 <= 502262.41057628085
 c4443: 120 p_2_1 + 120 p_2_3 + 120 p_2_4 + 120 p_2_5 + 120 p_2_6 + 120 p_2_9 + 100000 z_2_1 + 100000 z_2_3 + 100000 z_2_4 + 100000 z_2_5 + 100000 z_2_6 + 100000 z_2_9 <= 602262.34319655993
 c4444: 120 p_2_2 + 120 p_2_3 + 120 p_2_4 + 120 p_2_5 + 120 p_2_6 + 120 p_2_9 + 100000 z_2_2 + 100000 z_2_3 + 100000 z_2_4 + 100000 z_2_5 + 100000 z_2_6 + 100000 z_2_9 <= 602247.64691536769
 c4445: 120 p_2_1 + 120 p_2_2 + 120 p_2_3 + 120 p_2_4 + 120 p_2_5 + 120 p_2_6 + 120 p_2_9 + 100000 z_2_1 + 100000 z_2_2 + 100000 z_2_3 + 100000 z_2_4 + 100000 z_2_5 + 100000 z_2_6 + 100000 z_2_9 <= 702247.57953564683
 c4446: 120 p_2_7 + 120 p_2_9 + 100000 z_2_7 + 100000 z_2_9 <= 202488.72868289141
 c4447: 120 p_2_1 + 120 p_2_7 + 120 p_2_9 + 100000 z_2_1 + 100000 z_2_7 + 100000 z_2_9 <= 302487.81897856214
 c4448: 120 p_2_2 + 120 p_2_7 + 120 p_2_9 + 100000 z_2_2 + 100000 z_2_7 + 100000 z_2_9 <= 302231.53643593093
 c4449: 120 p_2_1 + 120 p_2_2 + 120 p_2_7 + 120 p_2_9 + 100000 z_2_1 + 100000 z_2_2 + 100000 z_2_7 + 100000 z_2_9 <= 402230.62673160166
 c4450: 120 p_2_3 + 120 p_2_7 + 120 p_2_9 + 100000 z_2_3 + 100000 z_2_7 + 100000 z_2_9 <= 302420.00102563528
 c4451: 120 p_2_1 + 120 p_2_3 + 120 p_2_7 + 120 p_2_9 + 100000 z_2_1 + 100000 z_2_3 + 100000 z_2_7 + 100000 z_2_9 <= 402419.09132130601
 c4452: 120 p_2_2 + 120 p_2_3 + 120 p_2_7 + 120 p_2_9 + 100000 z_2_2 + 100000 z_2_3 + 100000 z_2_7 + 100000 z_2_9 <= 402159.55315619649
 c4453: 120 p_2_1 + 120 p_2_2 + 120 p_2_3 + 120 p_2_7 + 120 p_2_9 + 100000 z_2_1 + 100000 z_2_2 + 100000 z_2_3 + 100000 z_2_7 + 100000 z_2_9 <= 502158.64345186722
 c4454: 120 p_2_4 + 120 p_2_7 + 120 p_2_9 + 100000 z_2_4 + 100000 z_2_7 + 100000 z_2_9 <= 302487.38190816273
 c4455: 120 p_2_1 + 120 p_2_4 + 120 p_2_7 + 120 p_2_9 + 100000 z_2_1 + 100000 z_2_4 + 100000 z_2_7 + 100000 z_2_9 <= 402487.31452844176
 c4456: 120 p_2_2 + 120 p_2_4 + 120 p_2_7 + 120 p_2_9 + 100000 z_2_2 + 100000 z_2_4 + 100000 z_2_7 + 100000 z_2_9 <= 402230.18966120225
 c4457: 120 p_2_1 + 120 p_2_2 + 120 p_2_4 + 120 p_2_7 + 120 p_2_9 + 100000 z_2_1 + 100000 z_2_2 + 100000 z_2_4 + 100000 z_2_7 + 100000 z_2_9 <= 502230.12228148128
 c4458: 120 p_2_3 + 120 p_2_4 + 120 p_2_7 + 120 p_2_9 + 100000 z_2_3 + 100000 z_2_4 + 100000 z_2_7 + 100000 z_2_9 <= 402418.65425090655
 c4459: 120 p_2_1 + 120 p_2_3 + 120 p_2_4 + 120 p_2_7 + 120 p_2_9 + 100000 z_2_1 + 100000 z_2_3 + 100000 z_2_4 + 100000 z_2_7 + 100000 z_2_9 <= 502418.58687118563
 c4460: 120 p_2_2 + 120 p_2_3 + 120 p_2_4 + 120 p_2_7 + 120 p_2_9 + 100000 z_2_2 + 100000 z_2_3 + 100000 z_2_4 + 100000 z_2_7 + 100000 z_2_9 <= 502158.20638146775
 c4461: 120 p_2_1 + 120 p_2_2 + 120 p_2_3 + 120 p_2_4 + 120 p_2_7 + 120 p_2_9 + 100000 z_2_1 + 100000 z_2_2 + 100000 z_2_3 + 100000 z_2_4 + 100000 z_2_7 + 100000 z_2_9 <= 602158.13900174678
 c4462: 120 p_2_5 + 120 p_2_7 + 120 p_2_9 + 100000 z_2_5 + 100000 z_2_7 + 100000 z_2_9 <= 302221.52771432436
 c4463: 120 p_2_1 + 120 p_2_5 + 120 p_2_7 + 120 p_2_9 + 100000 z_2_1 + 100000 z_2_5 + 100000 z_2_7 + 100000 z_2_9 <= 402220.61800999509
 c4464: 120 p_2_2 + 120 p_2_5 + 120 p_2_7 + 120 p_2_9 + 100000 z_2_2 + 100000 z_2_5 + 100000 z_2_7 + 100000 z_2_9 <= 402206.76405341126
 c4465: 120 p_2_1 + 120 p_2_2 + 120 p_2_5 + 120 p_2_7 + 120 p_2_9 + 100000 z_2_1 + 100000 z_2_2 + 100000 z_2_5 + 100000 z_2_7 + 100000 z_2_9 <= 502205.85434908199
 c4466: 120 p_2_3 + 120 p_2_5 + 120 p_2_7 + 120 p_2_9 + 100000 z_2_3 + 100000 z_2_5 + 100000 z_2_7 + 100000 z_2_9 <= 402116.902047312
 c4467: 120 p_2_1 + 120 p_2_3 + 120 p_2_5 + 120 p_2_7 + 120 p_2_9 + 100000 z_2_1 + 100000 z_2_3 + 100000 z_2_5 + 100000 z_2_7 + 100000 z_2_9 <= 502115.99234298273
 c4468: 120 p_2_2 + 120 p_2_3 + 120 p_2_5 + 120 p_2_7 + 120 p_2_9 + 100000 z_2_2 + 100000 z_2_3 + 100000 z_2_5 + 100000 z_2_7 + 100000 z_2_9 <= 502102.1383863989
 c4469: 120 p_2_1 + 120 p_2_2 + 120 p_2_3 + 120 p_2_5 + 120 p_2_7 + 120 p_2_9 + 100000 z_2_1 + 100000 z_2_2 + 100000 z_2_3 + 100000 z_2_5 + 100000 z_2_7 + 100000 z_2_9 <= 602101.22868206957
 c4470: 120 p_2_4 + 120 p_2_5 + 120 p_2_7 + 120 p_2_9 + 100000 z_2_4 + 100000 z_2_5 + 100000 z_2_7 + 100000 z_2_9 <= 402220.18093959568
 c4471: 120 p_2_1 + 120 p_2_4 + 120 p_2_5 + 120 p_2_7 + 120 p_2_9 + 100000 z_2_1 + 100000 z_2_4 + 100000 z_2_5 + 100000 z_2_7 + 100000 z_2_9 <= 502220.11355987471
 c4472: 120 p_2_2 + 120 p_2_4 + 120 p_2_5 + 120 p_2_7 + 120 p_2_9 + 100000 z_2_2 + 100000 z_2_4 + 100000 z_2_5 + 100000 z_2_7 + 100000 z_2_9 <= 502205.41727868252
 c4473: 120 p_2_1 + 120 p_2_2 + 120 p_2_4 + 120 p_2_5 + 120 p_2_7 + 120 p_2_9 + 100000 z_2_1 + 100000 z_2_2 + 100000 z_2_4 + 100000 z_2_5 + 100000 z_2_7 + 100000 z_2_9 <= 602205.34989896161
 c4474: 120 p_2_3 + 120 p_2_4 + 120 p_2_5 + 120 p_2_7 + 120 p_2_9 + 100000 z_2_3 + 100000 z_2_4 + 100000 z_2_5 + 100000 z_2_7 + 100000 z_2_9 <= 502115.55527258333
 c4475: 120 p_2_1 + 120 p_2_3 + 120 p_2_4 + 120 p_2_5 + 120 p_2_7 + 120 p_2_9 + 100000 z_2_1 + 100000 z_2_3 + 100000 z_2_4 + 100000 z_2_5 + 100000 z_2_7 + 100000 z_2_9 <= 602115.48789286241
 c4476: 120 p_2_2 + 120 p_2_3 + 120 p_2_4 + 120 p_2_5 + 120 p_2_7 + 120 p_2_9 + 100000 z_2_2 + 100000 z_2_3 + 100000 z_2_4 + 100000 z_2_5 + 100000 z_2_7 + 100000 z_2_9 <= 602100.79161167017
 c4477: 120 p_2_1 + 120 p_2_2 + 120 p_2_3 + 120 p_2_4 + 120 p_2_5 + 120 p_2_7 + 120 p_2_9 + 100000 z_2_1 + 100000 z_2_2 + 100000 z_2_3 + 100000 z_2_4 + 100000 z_2_5 + 100000 z_2_7 + 100000 z_2_9 <= 702100.72423194919
 c4478: 120 p_2_6 + 120 p_2_7 + 120 p_2_9 + 100000 z_2_6 + 100000 z_2_7 + 100000 z_2_9 <= 302460.51323913957
 c4479: 120 p_2_1 + 120 p_2_6 + 120 p_2_7 + 120 p_2_9 + 100000 z_2_1 + 100000 z_2_6 + 100000 z_2_7 + 100000 z_2_9 <= 402459.6035348103
 c4480: 120 p_2_2 + 120 p_2_6 + 120 p_2_7 + 120 p_2_9 + 100000 z_2_2 + 100000 z_2_6 + 100000 z_2_7 + 100000 z_2_9 <= 402200.06536970078
 c4481: 120 p_2_1 + 120 p_2_2 + 120 p_2_6 + 120 p_2_7 + 120 p_2_9 + 100000 z_2_1 + 100000 z_2_2 + 100000 z_2_6 + 100000 z_2_7 + 100000 z_2_9 <= 502199.15566537151
 c4482: 120 p_2_3 + 120 p_2_6 + 120 p_2_7 + 120 p_2_9 + 100000 z_2_3 + 100000 z_2_6 + 100000 z_2_7 + 100000 z_2_9 <= 402409.05396396777
 c4483: 120 p_2_1 + 120 p_2_3 + 120 p_2_6 + 120 p_2_7 + 120 p_2_9 + 100000 z_2_1 + 100000 z_2_3 + 100000 z_2_6 + 100000 z_2_7 + 100000 z_2_9 <= 502408.1442596385
 c4484: 120 p_2_2 + 120 p_2_3 + 120 p_2_6 + 120 p_2_7 + 120 p_2_9 + 100000 z_2_2 + 100000 z_2_3 + 100000 z_2_6 + 100000 z_2_7 + 100000 z_2_9 <= 502148.60609452898
 c4485: 120 p_2_1 + 120 p_2_2 + 120 p_2_3 + 120 p_2_6 + 120 p_2_7 + 120 p_2_9 + 100000 z_2_1 + 100000 z_2_2 + 100000 z_2_3 + 100000 z_2_6 + 100000 z_2_7 + 100000 z_2_9 <= 602147.69639019971
 c4486: 120 p_2_4 + 120 p_2_6 + 120 p_2_7 + 120 p_2_9 + 100000 z_2_4 + 100000 z_2_6 + 100000 z_2_7 + 100000 z_2_9 <= 402459.16646441084
 c4487: 120 p_2_1 + 120 p_2_4 + 120 p_2_6 + 120 p_2_7 + 120 p_2_9 + 100000 z_2_1 + 100000 z_2_4 + 100000 z_2_6 + 100000 z_2_7 + 100000 z_2_9 <= 502459.09908468992
 c4488: 120 p_2_2 + 120 p_2_4 + 120 p_2_6 + 120 p_2_7 + 120 p_2_9 + 100000 z_2_2 + 100000 z_2_4 + 100000 z_2_6 + 100000 z_2_7 + 100000 z_2_9 <= 502198.7185949721
 c4489: 120 p_2_1 + 120 p_2_2 + 120 p_2_4 + 120 p_2_6 + 120 p_2_7 + 120 p_2_9 + 100000 z_2_1 + 100000 z_2_2 + 100000 z_2_4 + 100000 z_2_6 + 100000 z_2_7 + 100000 z_2_9 <= 602198.65121525119
 c4490: 120 p_2_3 + 120 p_2_4 + 120 p_2_6 + 120 p_2_7 + 120 p_2_9 + 100000 z_2_3 + 100000 z_2_4 + 100000 z_2_6 + 100000 z_2_7 + 100000 z_2_9 <= 502407.7071892391
 c4491: 120 p_2_1 + 120 p_2_3 + 120 p_2_4 + 120 p_2_6 + 120 p_2_7 + 120 p_2_9 + 100000 z_2_1 + 100000 z_2_3 + 100000 z_2_4 + 100000 z_2_6 + 100000 z_2_7 + 100000 z_2_9 <= 602407.63980951812
 c4492: 120 p_2_2 + 120 p_2_3 + 120 p_2_4 + 120 p_2_6 + 120 p_2_7 + 120 p_2_9 + 100000 z_2_2 + 100000 z_2_3 + 100000 z_2_4 + 100000 z_2_6 + 100000 z_2_7 + 100000 z_2_9 <= 602147.2593198003
 c4493: 120 p_2_1 + 120 p_2_2 + 120 p_2_3 + 120 p_2_4 + 120 p_2_6 + 120 p_2_7 + 120 p_2_9 + 100000 z_2_1 + 100000 z_2_2 + 100000 z_2_3 + 100000 z_2_4 + 100000 z_2_6 + 100000 z_2_7 + 100000 z_2_9 <= 702147.19194007933
 c4494: 120 p_2_5 + 120 p_2_6 + 120 p_2_7 + 120 p_2_9 + 100000 z_2_5 + 100000 z_2_6 + 100000 z_2_7 + 100000 z_2_9 <= 402167.36809143715
 c4495: 120 p_2_1 + 120 p_2_5 + 120 p_2_6 + 120 p_2_7 + 120 p_2_9 + 100000 z_2_1 + 100000 z_2_5 + 100000 z_2_6 + 100000 z_2_7 + 100000 z_2_9 <= 502166.45838710788
 c4496: 120 p_2_2 + 120 p_2_5 + 120 p_2_6 + 120 p_2_7 + 120 p_2_9 + 100000 z_2_2 + 100000 z_2_5 + 100000 z_2_6 + 100000 z_2_7 + 100000 z_2_9 <= 502152.60443052399
 c4497: 120 p_2_1 + 120 p_2_2 + 120 p_2_5 + 120 p_2_6 + 120 p_2_7 + 120 p_2_9 + 100000 z_2_1 + 100000 z_2_2 + 100000 z_2_5 + 100000 z_2_6 + 100000 z_2_7 + 100000 z_2_9 <= 602151.69472619472
 c4498: 120 p_2_3 + 120 p_2_5 + 120 p_2_6 + 120 p_2_7 + 120 p_2_9 + 100000 z_2_3 + 100000 z_2_5 + 100000 z_2_6 + 100000 z_2_7 + 100000 z_2_9 <= 502110.37242571975
 c4499: 120 p_2_1 + 120 p_2_3 + 120 p_2_5 + 120 p_2_6 + 120 p_2_7 + 120 p_2_9 + 100000 z_2_1 + 100000 z_2_3 + 100000 z_2_5 + 100000 z_2_6 + 100000 z_2_7 + 100000 z_2_9 <= 602109.46272139042
 c4500: 120 p_2_2 + 120 p_2_3 + 120 p_2_5 + 120 p_2_6 + 120 p_2_7 + 120 p_2_9 + 100000 z_2_2 + 100000 z_2_3 + 100000 z_2_5 + 100000 z_2_6 + 100000 z_2_7 + 100000 z_2_9 <= 602095.60876480665
 c4501: 120 p_2_1 + 120 p_2_2 + 120 p_2_3 + 120 p_2_5 + 120 p_2_6 + 120 p_2_7 + 120 p_2_9 + 100000 z_2_1 + 100000 z_2_2 + 100000 z_2_3 + 100000 z_2_5 + 100000 z_2_6 + 100000 z_2_7 + 100000 z_2_9 <= 702094.69906047732
 c4502: 120 p_2_4 + 120 p_2_5 + 120 p_2_6 + 120 p_2_7 + 120 p_2_9 + 100000 z_2_4 + 100000 z_2_5 + 100000 z_2_6 + 100000 z_2_7 + 100000 z_2_9 <= 502166.02131670841
 c4503: 120 p_2_1 + 120 p_2_4 + 120 p_2_5 + 120 p_2_6 + 120 p_2_7 + 120 p_2_9 + 100000 z_2_1 + 100000 z_2_4 + 100000 z_2_5 + 100000 z_2_6 + 100000 z_2_7 + 100000 z_2_9 <= 602165.95393698744
 c4504: 120 p_2_2 + 120 p_2_4 + 120 p_2_5 + 120 p_2_6 + 120 p_2_7 + 120 p_2_9 + 100000 z_2_2 + 100000 z_2_4 + 100000 z_2_5 + 100000 z_2_6 + 100000 z_2_7 + 100000 z_2_9 <= 602151.25765579531
 c4505: 120 p_2_1 + 120 p_2_2 + 120 p_2_4 + 120 p_2_5 + 120 p_2_6 + 120 p_2_7 + 120 p_2_9 + 100000 z_2_1 + 100000 z_2_2 + 100000 z_2_4 + 100000 z_2_5 + 100000 z_2_6 + 100000 z_2_7 + 100000 z_2_9 <= 702151.19027607434
 c4506: 120 p_2_3 + 120 p_2_4 + 120 p_2_5 + 120 p_2_6 + 120 p_2_7 + 120 p_2_9 + 100000 z_2_3 + 100000 z_2_4 + 100000 z_2_5 + 100000 z_2_6 + 100000 z_2_7 + 100000 z_2_9 <= 602109.02565099101
 c4507: 120 p_2_1 + 120 p_2_3 + 120 p_2_4 + 120 p_2_5 + 120 p_2_6 + 120 p_2_7 + 120 p_2_9 + 100000 z_2_1 + 100000 z_2_3 + 100000 z_2_4 + 100000 z_2_5 + 100000 z_2_6 + 100000 z_2_7 + 100000 z_2_9 <= 702108.95827127004
 c4508: 120 p_2_2 + 120 p_2_3 + 120 p_2_4 + 120 p_2_5 + 120 p_2_6 + 120 p_2_7 + 120 p_2_9 + 100000 z_2_2 + 100000 z_2_3 + 100000 z_2_4 + 100000 z_2_5 + 100000 z_2_6 + 100000 z_2_7 + 100000 z_2_9 <= 702094.26199007791
 c4509: 120 p_2_1 + 120 p_2_2 + 120 p_2_3 + 120 p_2_4 + 120 p_2_5 + 120 p_2_6 + 120 p_2_7 + 120 p_2_9 + 100000 z_2_1 + 100000 z_2_2 + 100000 z_2_3 + 100000 z_2_4 + 100000 z_2_5 + 100000 z_2_6 + 100000 z_2_7 + 100000 z_2_9 <= 802094.19461035694
 c4510: 120 p_2_8 + 120 p_2_9 + 100000 z_2_8 + 100000 z_2_9 <= 202659.38399816825
 c4511: 120 p_2_1 + 120 p_2_8 + 120 p_2_9 + 100000 z_2_1 + 100000 z_2_8 + 100000 z_2_9 <= 302292.07791038399
 c4512: 120 p_2_2 + 120 p_2_8 + 120 p_2_9 + 100000 z_2_2 + 100000 z_2_8 + 100000 z_2_9 <= 302657.15087872226
 c4513: 120 p_2_1 + 120 p_2_2 + 120 p_2_8 + 120 p_2_9 + 100000 z_2_1 + 100000 z_2_2 + 100000 z_2_8 + 100000 z_2_9 <= 402289.84479093796
 c4514: 120 p_2_3 + 120 p_2_8 + 120 p_2_9 + 100000 z_2_3 + 100000 z_2_8 + 100000 z_2_9 <= 302552.36579563201
 c4515: 120 p_2_1 + 120 p_2_3 + 120 p_2_8 + 120 p_2_9 + 100000 z_2_1 + 100000 z_2_3 + 100000 z_2_8 + 100000 z_2_9 <= 402185.05970784771
 c4516: 120 p_2_2 + 120 p_2_3 + 120 p_2_8 + 120 p_2_9 + 100000 z_2_2 + 100000 z_2_3 + 100000 z_2_8 + 100000 z_2_9 <= 402550.13267618598
 c4517: 120 p_2_1 + 120 p_2_2 + 120 p_2_3 + 120 p_2_8 + 120 p_2_9 + 100000 z_2_1 + 100000 z_2_2 + 100000 z_2_3 + 100000 z_2_8 + 100000 z_2_9 <= 502182.82658840169
 c4518: 120 p_2_4 + 120 p_2_8 + 120 p_2_9 + 100000 z_2_4 + 100000 z_2_8 + 100000 z_2_9 <= 302270.50539725582
 c4519: 120 p_2_1 + 120 p_2_4 + 120 p_2_8 + 120 p_2_9 + 100000 z_2_1 + 100000 z_2_4 + 100000 z_2_8 + 100000 z_2_9 <= 402270.43801753491
 c4520: 120 p_2_2 + 120 p_2_4 + 120 p_2_8 + 120 p_2_9 + 100000 z_2_2 + 100000 z_2_4 + 100000 z_2_8 + 100000 z_2_9 <= 402268.27227780985
 c4521: 120 p_2_1 + 120 p_2_2 + 120 p_2_4 + 120 p_2_8 + 120 p_2_9 + 100000 z_2_1 + 100000 z_2_2 + 100000 z_2_4 + 100000 z_2_8 + 100000 z_2_9 <= 502268.20489808888
 c4522: 120 p_2_3 + 120 p_2_4 + 120 p_2_8 + 120 p_2_9 + 100000 z_2_3 + 100000 z_2_4 + 100000 z_2_8 + 100000 z_2_9 <= 402163.48719471955
 c4523: 120 p_2_1 + 120 p_2_3 + 120 p_2_4 + 120 p_2_8 + 120 p_2_9 + 100000 z_2_1 + 100000 z_2_3 + 100000 z_2_4 + 100000 z_2_8 + 100000 z_2_9 <= 502163.41981499863
 c4524: 120 p_2_2 + 120 p_2_3 + 120 p_2_4 + 120 p_2_8 + 120 p_2_9 + 100000 z_2_2 + 100000 z_2_3 + 100000 z_2_4 + 100000 z_2_8 + 100000 z_2_9 <= 502161.25407527358
 c4525: 120 p_2_1 + 120 p_2_2 + 120 p_2_3 + 120 p_2_4 + 120 p_2_8 + 120 p_2_9 + 100000 z_2_1 + 100000 z_2_2 + 100000 z_2_3 + 100000 z_2_4 + 100000 z_2_8 + 100000 z_2_9 <= 602161.18669555266
 c4526: 120 p_2_5 + 120 p_2_8 + 120 p_2_9 + 100000 z_2_5 + 100000 z_2_8 + 100000 z_2_9 <= 302656.1065084975
 c4527: 120 p_2_1 + 120 p_2_5 + 120 p_2_8 + 120 p_2_9 + 100000 z_2_1 + 100000 z_2_5 + 100000 z_2_8 + 100000 z_2_9 <= 402288.17629636865
 c4528: 120 p_2_2 + 120 p_2_5 + 120 p_2_8 + 120 p_2_9 + 100000 z_2_2 + 100000 z_2_5 + 100000 z_2_8 + 100000 z_2_9 <= 402653.87338905153
 c4529: 120 p_2_1 + 120 p_2_2 + 120 p_2_5 + 120 p_2_8 + 120 p_2_9 + 100000 z_2_1 + 100000 z_2_2 + 100000 z_2_5 + 100000 z_2_8 + 100000 z_2_9 <= 502273.41263545549
 c4530: 120 p_2_3 + 120 p_2_5 + 120 p_2_8 + 120 p_2_9 + 100000 z_2_3 + 100000 z_2_5 + 100000 z_2_8 + 100000 z_2_9 <= 402549.08830596122
 c4531: 120 p_2_1 + 120 p_2_3 + 120 p_2_5 + 120 p_2_8 + 120 p_2_9 + 100000 z_2_1 + 100000 z_2_3 + 100000 z_2_5 + 100000 z_2_8 + 100000 z_2_9 <= 502181.15809383238
 c4532: 120 p_2_2 + 120 p_2_3 + 120 p_2_5 + 120 p_2_8 + 120 p_2_9 + 100000 z_2_2 + 100000 z_2_3 + 100000 z_2_5 + 100000 z_2_8 + 100000 z_2_9 <= 502546.85518651525
 c4533: 120 p_2_1 + 120 p_2_2 + 120 p_2_3 + 120 p_2_5 + 120 p_2_8 + 120 p_2_9 + 100000 z_2_1 + 100000 z_2_2 + 100000 z_2_3 + 100000 z_2_5 + 100000 z_2_8 + 100000 z_2_9 <= 602171.84942915698
 c4534: 120 p_2_4 + 120 p_2_5 + 120 p_2_8 + 120 p_2_9 + 100000 z_2_4 + 100000 z_2_5 + 100000 z_2_8 + 100000 z_2_9 <= 402266.60378324054
 c4535: 120 p_2_1 + 120 p_2_4 + 120 p_2_5 + 120 p_2_8 + 120 p_2_9 + 100000 z_2_1 + 100000 z_2_4 + 100000 z_2_5 + 100000 z_2_8 + 100000 z_2_9 <= 502266.53640351957
 c4536: 120 p_2_2 + 120 p_2_4 + 120 p_2_5 + 120 p_2_8 + 120 p_2_9 + 100000 z_2_2 + 100000 z_2_4 + 100000 z_2_5 + 100000 z_2_8 + 100000 z_2_9 <= 502251.84012232738
 c4537: 120 p_2_1 + 120 p_2_2 + 120 p_2_4 + 120 p_2_5 + 120 p_2_8 + 120 p_2_9 + 100000 z_2_1 + 100000 z_2_2 + 100000 z_2_4 + 100000 z_2_5 + 100000 z_2_8 + 100000 z_2_9 <= 602251.77274260647
 c4538: 120 p_2_3 + 120 p_2_4 + 120 p_2_5 + 120 p_2_8 + 120 p_2_9 + 100000 z_2_3 + 100000 z_2_4 + 100000 z_2_5 + 100000 z_2_8 + 100000 z_2_9 <= 502159.58558070427
 c4539: 120 p_2_1 + 120 p_2_3 + 120 p_2_4 + 120 p_2_5 + 120 p_2_8 + 120 p_2_9 + 100000 z_2_1 + 100000 z_2_3 + 100000 z_2_4 + 100000 z_2_5 + 100000 z_2_8 + 100000 z_2_9 <= 602159.51820098329
 c4540: 120 p_2_2 + 120 p_2_3 + 120 p_2_4 + 120 p_2_5 + 120 p_2_8 + 120 p_2_9 + 100000 z_2_2 + 100000 z_2_3 + 100000 z_2_4 + 100000 z_2_5 + 100000 z_2_8 + 100000 z_2_9 <= 602151.60485564859
 c4541: 120 p_2_1 + 120 p_2_2 + 120 p_2_3 + 120 p_2_4 + 120 p_2_5 + 120 p_2_8 + 120 p_2_9 + 100000 z_2_1 + 100000 z_2_2 + 100000 z_2_3 + 100000 z_2_4 + 100000 z_2_5 + 100000 z_2_8 + 100000 z_2_9 <= 702151.53747592773
 c4542: 120 p_2_6 + 120 p_2_8 + 120 p_2_9 + 100000 z_2_6 + 100000 z_2_8 + 100000 z_2_9 <= 302605.22437528102
 c4543: 120 p_2_1 + 120 p_2_6 + 120 p_2_8 + 120 p_2_9 + 100000 z_2_1 + 100000 z_2_6 + 100000 z_2_8 + 100000 z_2_9 <= 402237.91828749672
 c4544: 120 p_2_2 + 120 p_2_6 + 120 p_2_8 + 120 p_2_9 + 100000 z_2_2 + 100000 z_2_6 + 100000 z_2_8 + 100000 z_2_9 <= 402602.99125583505
 c4545: 120 p_2_1 + 120 p_2_2 + 120 p_2_6 + 120 p_2_8 + 120 p_2_9 + 100000 z_2_1 + 100000 z_2_2 + 100000 z_2_6 + 100000 z_2_8 + 100000 z_2_9 <= 502235.68516805075
 c4546: 120 p_2_3 + 120 p_2_6 + 120 p_2_8 + 120 p_2_9 + 100000 z_2_3 + 100000 z_2_6 + 100000 z_2_8 + 100000 z_2_9 <= 402548.22870956361
 c4547: 120 p_2_1 + 120 p_2_3 + 120 p_2_6 + 120 p_2_8 + 120 p_2_9 + 100000 z_2_1 + 100000 z_2_3 + 100000 z_2_6 + 100000 z_2_8 + 100000 z_2_9 <= 502180.92262177932
 c4548: 120 p_2_2 + 120 p_2_3 + 120 p_2_6 + 120 p_2_8 + 120 p_2_9 + 100000 z_2_2 + 100000 z_2_3 + 100000 z_2_6 + 100000 z_2_8 + 100000 z_2_9 <= 502545.99559011764
 c4549: 120 p_2_1 + 120 p_2_2 + 120 p_2_3 + 120 p_2_6 + 120 p_2_8 + 120 p_2_9 + 100000 z_2_1 + 100000 z_2_2 + 100000 z_2_3 + 100000 z_2_6 + 100000 z_2_8 + 100000 z_2_9 <= 602178.68950233329
 c4550: 120 p_2_4 + 120 p_2_6 + 120 p_2_8 + 120 p_2_9 + 100000 z_2_4 + 100000 z_2_6 + 100000 z_2_8 + 100000 z_2_9 <= 402216.34577436862
 c4551: 120 p_2_1 + 120 p_2_4 + 120 p_2_6 + 120 p_2_8 + 120 p_2_9 + 100000 z_2_1 + 100000 z_2_4 + 100000 z_2_6 + 100000 z_2_8 + 100000 z_2_9 <= 502216.27839464764
 c4552: 120 p_2_2 + 120 p_2_4 + 120 p_2_6 + 120 p_2_8 + 120 p_2_9 + 100000 z_2_2 + 100000 z_2_4 + 100000 z_2_6 + 100000 z_2_8 + 100000 z_2_9 <= 502214.11265492259
 c4553: 120 p_2_1 + 120 p_2_2 + 120 p_2_4 + 120 p_2_6 + 120 p_2_8 + 120 p_2_9 + 100000 z_2_1 + 100000 z_2_2 + 100000 z_2_4 + 100000 z_2_6 + 100000 z_2_8 + 100000 z_2_9 <= 602214.04527520167
 c4554: 120 p_2_3 + 120 p_2_4 + 120 p_2_6 + 120 p_2_8 + 120 p_2_9 + 100000 z_2_3 + 100000 z_2_4 + 100000 z_2_6 + 100000 z_2_8 + 100000 z_2_9 <= 502159.35010865121
 c4555: 120 p_2_1 + 120 p_2_3 + 120 p_2_4 + 120 p_2_6 + 120 p_2_8 + 120 p_2_9 + 100000 z_2_1 + 100000 z_2_3 + 100000 z_2_4 + 100000 z_2_6 + 100000 z_2_8 + 100000 z_2_9 <= 602159.28272893024
 c4556: 120 p_2_2 + 120 p_2_3 + 120 p_2_4 + 120 p_2_6 + 120 p_2_8 + 120 p_2_9 + 100000 z_2_2 + 100000 z_2_3 + 100000 z_2_4 + 100000 z_2_6 + 100000 z_2_8 + 100000 z_2_9 <= 602157.11698920524
 c4557: 120 p_2_1 + 120 p_2_2 + 120 p_2_3 + 120 p_2_4 + 120 p_2_6 + 120 p_2_8 + 120 p_2_9 + 100000 z_2_1 + 100000 z_2_2 + 100000 z_2_3 + 100000 z_2_4 + 100000 z_2_6 + 100000 z_2_8 + 100000 z_2_9 <= 702157.04960948427
 c4558: 120 p_2_5 + 120 p_2_6 + 120 p_2_8 + 120 p_2_9 + 100000 z_2_5 + 100000 z_2_6 + 100000 z_2_8 + 100000 z_2_9 <= 402601.94688561023
 c4559: 120 p_2_1 + 120 p_2_5 + 120 p_2_6 + 120 p_2_8 + 120 p_2_9 + 100000 z_2_1 + 100000 z_2_5 + 100000 z_2_6 + 100000 z_2_8 + 100000 z_2_9 <= 502234.01667348144
 c4560: 120 p_2_2 + 120 p_2_5 + 120 p_2_6 + 120 p_2_8 + 120 p_2_9 + 100000 z_2_2 + 100000 z_2_5 + 100000 z_2_6 + 100000 z_2_8 + 100000 z_2_9 <= 502599.71376616426
 c4561: 120 p_2_1 + 120 p_2_2 + 120 p_2_5 + 120 p_2_6 + 120 p_2_8 + 120 p_2_9 + 100000 z_2_1 + 100000 z_2_2 + 100000 z_2_5 + 100000 z_2_6 + 100000 z_2_8 + 100000 z_2_9 <= 602219.25301256822
 c4562: 120 p_2_3 + 120 p_2_5 + 120 p_2_6 + 120 p_2_8 + 120 p_2_9 + 100000 z_2_3 + 100000 z_2_5 + 100000 z_2_6 + 100000 z_2_8 + 100000 z_2_9 <= 502544.95121989289
 c4563: 120 p_2_1 + 120 p_2_3 + 120 p_2_5 + 120 p_2_6 + 120 p_2_8 + 120 p_2_9 + 100000 z_2_1 + 100000 z_2_3 + 100000 z_2_5 + 100000 z_2_6 + 100000 z_2_8 + 100000 z_2_9 <= 602177.02100776404
 c4564: 120 p_2_2 + 120 p_2_3 + 120 p_2_5 + 120 p_2_6 + 120 p_2_8 + 120 p_2_9 + 100000 z_2_2 + 100000 z_2_3 + 100000 z_2_5 + 100000 z_2_6 + 100000 z_2_8 + 100000 z_2_9 <= 602542.71810044686
 c4565: 120 p_2_1 + 120 p_2_2 + 120 p_2_3 + 120 p_2_5 + 120 p_2_6 + 120 p_2_8 + 120 p_2_9 + 100000 z_2_1 + 100000 z_2_2 + 100000 z_2_3 + 100000 z_2_5 + 100000 z_2_6 + 100000 z_2_8 + 100000 z_2_9 <= 702162.25734685094
 c4566: 120 p_2_4 + 120 p_2_5 + 120 p_2_6 + 120 p_2_8 + 120 p_2_9 + 100000 z_2_4 + 100000 z_2_5 + 100000 z_2_6 + 100000 z_2_8 + 100000 z_2_9 <= 502212.44416035328
 c4567: 120 p_2_1 + 120 p_2_4 + 120 p_2_5 + 120 p_2_6 + 120 p_2_8 + 120 p_2_9 + 100000 z_2_1 + 100000 z_2_4 + 100000 z_2_5 + 100000 z_2_6 + 100000 z_2_8 + 100000 z_2_9 <= 602212.3767806323
 c4568: 120 p_2_2 + 120 p_2_4 + 120 p_2_5 + 120 p_2_6 + 120 p_2_8 + 120 p_2_9 + 100000 z_2_2 + 100000 z_2_4 + 100000 z_2_5 + 100000 z_2_6 + 100000 z_2_8 + 100000 z_2_9 <= 602197.68049944018
 c4569: 120 p_2_1 + 120 p_2_2 + 120 p_2_4 + 120 p_2_5 + 120 p_2_6 + 120 p_2_8 + 120 p_2_9 + 100000 z_2_1 + 100000 z_2_2 + 100000 z_2_4 + 100000 z_2_5 + 100000 z_2_6 + 100000 z_2_8 + 100000 z_2_9 <= 702197.6131197192
 c4570: 120 p_2_3 + 120 p_2_4 + 120 p_2_5 + 120 p_2_6 + 120 p_2_8 + 120 p_2_9 + 100000 z_2_3 + 100000 z_2_4 + 100000 z_2_5 + 100000 z_2_6 + 100000 z_2_8 + 100000 z_2_9 <= 602155.44849463587
 c4571: 120 p_2_1 + 120 p_2_3 + 120 p_2_4 + 120 p_2_5 + 120 p_2_6 + 120 p_2_8 + 120 p_2_9 + 100000 z_2_1 + 100000 z_2_3 + 100000 z_2_4 + 100000 z_2_5 + 100000 z_2_6 + 100000 z_2_8 + 100000 z_2_9 <= 702155.3811149149
 c4572: 120 p_2_2 + 120 p_2_3 + 120 p_2_4 + 120 p_2_5 + 120 p_2_6 + 120 p_2_8 + 120 p_2_9 + 100000 z_2_2 + 100000 z_2_3 + 100000 z_2_4 + 100000 z_2_5 + 100000 z_2_6 + 100000 z_2_8 + 100000 z_2_9 <= 702140.68483372277
 c4573: 120 p_2_1 + 120 p_2_2 + 120 p_2_3 + 120 p_2_4 + 120 p_2_5 + 120 p_2_6 + 120 p_2_8 + 120 p_2_9 + 100000 z_2_1 + 100000 z_2_2 + 100000 z_2_3 + 100000 z_2_4 + 100000 z_2_5 + 100000 z_2_6 + 100000 z_2_8 + 100000 z_2_9 <= 802140.6174540018
 c4574: 120 p_2_7 + 120 p_2_8 + 120 p_2_9 + 100000 z_2_7 + 100000 z_2_8 + 100000 z_2_9 <= 302130.84520196606
 c4575: 120 p_2_1 + 120 p_2_7 + 120 p_2_8 + 120 p_2_9 + 100000 z_2_1 + 100000 z_2_7 + 100000 z_2_8 + 100000 z_2_9 <= 402129.93549763679
 c4576: 120 p_2_2 + 120 p_2_7 + 120 p_2_8 + 120 p_2_9 + 100000 z_2_2 + 100000 z_2_7 + 100000 z_2_8 + 100000 z_2_9 <= 402128.61208252009
 c4577: 120 p_2_1 + 120 p_2_2 + 120 p_2_7 + 120 p_2_8 + 120 p_2_9 + 100000 z_2_1 + 100000 z_2_2 + 100000 z_2_7 + 100000 z_2_8 + 100000 z_2_9 <= 502127.70237819082
 c4578: 120 p_2_3 + 120 p_2_7 + 120 p_2_8 + 120 p_2_9 + 100000 z_2_3 + 100000 z_2_7 + 100000 z_2_8 + 100000 z_2_9 <= 402023.82699942979
 c4579: 120 p_2_1 + 120 p_2_3 + 120 p_2_7 + 120 p_2_8 + 120 p_2_9 + 100000 z_2_1 + 100000 z_2_3 + 100000 z_2_7 + 100000 z_2_8 + 100000 z_2_9 <= 502022.91729510052
 c4580: 120 p_2_2 + 120 p_2_3 + 120 p_2_7 + 120 p_2_8 + 120 p_2_9 + 100000 z_2_2 + 100000 z_2_3 + 100000 z_2_7 + 100000 z_2_8 + 100000 z_2_9 <= 502021.59387998382
 c4581: 120 p_2_1 + 120 p_2_2 + 120 p_2_3 + 120 p_2_7 + 120 p_2_8 + 120 p_2_9 + 100000 z_2_1 + 100000 z_2_2 + 100000 z_2_3 + 100000 z_2_7 + 100000 z_2_8 + 100000 z_2_9 <= 602020.68417565455
 c4582: 120 p_2_4 + 120 p_2_7 + 120 p_2_8 + 120 p_2_9 + 100000 z_2_4 + 100000 z_2_7 + 100000 z_2_8 + 100000 z_2_9 <= 402129.49842723738
 c4583: 120 p_2_1 + 120 p_2_4 + 120 p_2_7 + 120 p_2_8 + 120 p_2_9 + 100000 z_2_1 + 100000 z_2_4 + 100000 z_2_7 + 100000 z_2_8 + 100000 z_2_9 <= 502129.43104751641
 c4584: 120 p_2_2 + 120 p_2_4 + 120 p_2_7 + 120 p_2_8 + 120 p_2_9 + 100000 z_2_2 + 100000 z_2_4 + 100000 z_2_7 + 100000 z_2_8 + 100000 z_2_9 <= 502127.26530779141
 c4585: 120 p_2_1 + 120 p_2_2 + 120 p_2_4 + 120 p_2_7 + 120 p_2_8 + 120 p_2_9 + 100000 z_2_1 + 100000 z_2_2 + 100000 z_2_4 + 100000 z_2_7 + 100000 z_2_8 + 100000 z_2_9 <= 602127.19792807044
 c4586: 120 p_2_3 + 120 p_2_4 + 120 p_2_7 + 120 p_2_8 + 120 p_2_9 + 100000 z_2_3 + 100000 z_2_4 + 100000 z_2_7 + 100000 z_2_8 + 100000 z_2_9 <= 502022.48022470111
 c4587: 120 p_2_1 + 120 p_2_3 + 120 p_2_4 + 120 p_2_7 + 120 p_2_8 + 120 p_2_9 + 100000 z_2_1 + 100000 z_2_3 + 100000 z_2_4 + 100000 z_2_7 + 100000 z_2_8 + 100000 z_2_9 <= 602022.41284498014
 c4588: 120 p_2_2 + 120 p_2_3 + 120 p_2_4 + 120 p_2_7 + 120 p_2_8 + 120 p_2_9 + 100000 z_2_2 + 100000 z_2_3 + 100000 z_2_4 + 100000 z_2_7 + 100000 z_2_8 + 100000 z_2_9 <= 602020.24710525514
 c4589: 120 p_2_1 + 120 p_2_2 + 120 p_2_3 + 120 p_2_4 + 120 p_2_7 + 120 p_2_8 + 120 p_2_9 + 100000 z_2_1 + 100000 z_2_2 + 100000 z_2_3 + 100000 z_2_4 + 100000 z_2_7 + 100000 z_2_8 + 100000 z_2_9 <= 702020.17972553417
 c4590: 120 p_2_5 + 120 p_2_7 + 120 p_2_8 + 120 p_2_9 + 100000 z_2_5 + 100000 z_2_7 + 100000 z_2_8 + 100000 z_2_9 <= 402126.94358795078
 c4591: 120 p_2_1 + 120 p_2_5 + 120 p_2_7 + 120 p_2_8 + 120 p_2_9 + 100000 z_2_1 + 100000 z_2_5 + 100000 z_2_7 + 100000 z_2_8 + 100000 z_2_9 <= 502126.03388362151
 c4592: 120 p_2_2 + 120 p_2_5 + 120 p_2_7 + 120 p_2_8 + 120 p_2_9 + 100000 z_2_2 + 100000 z_2_5 + 100000 z_2_7 + 100000 z_2_8 + 100000 z_2_9 <= 502112.17992703762
 c4593: 120 p_2_1 + 120 p_2_2 + 120 p_2_5 + 120 p_2_7 + 120 p_2_8 + 120 p_2_9 + 100000 z_2_1 + 100000 z_2_2 + 100000 z_2_5 + 100000 z_2_7 + 100000 z_2_8 + 100000 z_2_9 <= 602111.27022270835
 c4594: 120 p_2_3 + 120 p_2_5 + 120 p_2_7 + 120 p_2_8 + 120 p_2_9 + 100000 z_2_3 + 100000 z_2_5 + 100000 z_2_7 + 100000 z_2_8 + 100000 z_2_9 <= 502019.92538541451
 c4595: 120 p_2_1 + 120 p_2_3 + 120 p_2_5 + 120 p_2_7 + 120 p_2_8 + 120 p_2_9 + 100000 z_2_1 + 100000 z_2_3 + 100000 z_2_5 + 100000 z_2_7 + 100000 z_2_8 + 100000 z_2_9 <= 602019.01568108518
 c4596: 120 p_2_2 + 120 p_2_3 + 120 p_2_5 + 120 p_2_7 + 120 p_2_8 + 120 p_2_9 + 100000 z_2_2 + 100000 z_2_3 + 100000 z_2_5 + 100000 z_2_7 + 100000 z_2_8 + 100000 z_2_9 <= 602005.16172450141
 c4597: 120 p_2_1 + 120 p_2_2 + 120 p_2_3 + 120 p_2_5 + 120 p_2_7 + 120 p_2_8 + 120 p_2_9 + 100000 z_2_1 + 100000 z_2_2 + 100000 z_2_3 + 100000 z_2_5 + 100000 z_2_7 + 100000 z_2_8 + 100000 z_2_9 <= 702004.25202017208
 c4598: 120 p_2_4 + 120 p_2_5 + 120 p_2_7 + 120 p_2_8 + 120 p_2_9 + 100000 z_2_4 + 100000 z_2_5 + 100000 z_2_7 + 100000 z_2_8 + 100000 z_2_9 <= 502125.59681322204
 c4599: 120 p_2_1 + 120 p_2_4 + 120 p_2_5 + 120 p_2_7 + 120 p_2_8 + 120 p_2_9 + 100000 z_2_1 + 100000 z_2_4 + 100000 z_2_5 + 100000 z_2_7 + 100000 z_2_8 + 100000 z_2_9 <= 602125.52943350107
 c4600: 120 p_2_2 + 120 p_2_4 + 120 p_2_5 + 120 p_2_7 + 120 p_2_8 + 120 p_2_9 + 100000 z_2_2 + 100000 z_2_4 + 100000 z_2_5 + 100000 z_2_7 + 100000 z_2_8 + 100000 z_2_9 <= 602110.83315230894
 c4601: 120 p_2_1 + 120 p_2_2 + 120 p_2_4 + 120 p_2_5 + 120 p_2_7 + 120 p_2_8 + 120 p_2_9 + 100000 z_2_1 + 100000 z_2_2 + 100000 z_2_4 + 100000 z_2_5 + 100000 z_2_7 + 100000 z_2_8 + 100000 z_2_9 <= 702110.76577258797
 c4602: 120 p_2_3 + 120 p_2_4 + 120 p_2_5 + 120 p_2_7 + 120 p_2_8 + 120 p_2_9 + 100000 z_2_3 + 100000 z_2_4 + 100000 z_2_5 + 100000 z_2_7 + 100000 z_2_8 + 100000 z_2_9 <= 602018.57861068577
 c4603: 120 p_2_1 + 120 p_2_3 + 120 p_2_4 + 120 p_2_5 + 120 p_2_7 + 120 p_2_8 + 120 p_2_9 + 100000 z_2_1 + 100000 z_2_3 + 100000 z_2_4 + 100000 z_2_5 + 100000 z_2_7 + 100000 z_2_8 + 100000 z_2_9 <= 702018.5112309648
 c4604: 120 p_2_2 + 120 p_2_3 + 120 p_2_4 + 120 p_2_5 + 120 p_2_7 + 120 p_2_8 + 120 p_2_9 + 100000 z_2_2 + 100000 z_2_3 + 100000 z_2_4 + 100000 z_2_5 + 100000 z_2_7 + 100000 z_2_8 + 100000 z_2_9 <= 702003.81494977267
 c4605: 120 p_2_1 + 120 p_2_2 + 120 p_2_3 + 120 p_2_4 + 120 p_2_5 + 120 p_2_7 + 120 p_2_8 + 120 p_2_9 + 100000 z_2_1 + 100000 z_2_2 + 100000 z_2_3 + 100000 z_2_4 + 100000 z_2_5 + 100000 z_2_7 + 100000 z_2_8 + 100000 z_2_9 <= 802003.7475700517
 c4606: 120 p_2_6 + 120 p_2_7 + 120 p_2_8 + 120 p_2_9 + 100000 z_2_6 + 100000 z_2_7 + 100000 z_2_8 + 100000 z_2_9 <= 402076.68557907885
 c4607: 120 p_2_1 + 120 p_2_6 + 120 p_2_7 + 120 p_2_8 + 120 p_2_9 + 100000 z_2_1 + 100000 z_2_6 + 100000 z_2_7 + 100000 z_2_8 + 100000 z_2_9 <= 502075.77587474958
 c4608: 120 p_2_2 + 120 p_2_6 + 120 p_2_7 + 120 p_2_8 + 120 p_2_9 + 100000 z_2_2 + 100000 z_2_6 + 100000 z_2_7 + 100000 z_2_8 + 100000 z_2_9 <= 502074.45245963288
 c4609: 120 p_2_1 + 120 p_2_2 + 120 p_2_6 + 120 p_2_7 + 120 p_2_8 + 120 p_2_9 + 100000 z_2_1 + 100000 z_2_2 + 100000 z_2_6 + 100000 z_2_7 + 100000 z_2_8 + 100000 z_2_9 <= 602073.54275530356
 c4610: 120 p_2_3 + 120 p_2_6 + 120 p_2_7 + 120 p_2_8 + 120 p_2_9 + 100000 z_2_3 + 100000 z_2_6 + 100000 z_2_7 + 100000 z_2_8 + 100000 z_2_9 <= 502019.68991336145
 c4611: 120 p_2_1 + 120 p_2_3 + 120 p_2_6 + 120 p_2_7 + 120 p_2_8 + 120 p_2_9 + 100000 z_2_1 + 100000 z_2_3 + 100000 z_2_6 + 100000 z_2_7 + 100000 z_2_8 + 100000 z_2_9 <= 602018.78020903224
 c4612: 120 p_2_2 + 120 p_2_3 + 120 p_2_6 + 120 p_2_7 + 120 p_2_8 + 120 p_2_9 + 100000 z_2_2 + 100000 z_2_3 + 100000 z_2_6 + 100000 z_2_7 + 100000 z_2_8 + 100000 z_2_9 <= 602017.45679391548
 c4613: 120 p_2_1 + 120 p_2_2 + 120 p_2_3 + 120 p_2_6 + 120 p_2_7 + 120 p_2_8 + 120 p_2_9 + 100000 z_2_1 + 100000 z_2_2 + 100000 z_2_3 + 100000 z_2_6 + 100000 z_2_7 + 100000 z_2_8 + 100000 z_2_9 <= 702016.54708958615
 c4614: 120 p_2_4 + 120 p_2_6 + 120 p_2_7 + 120 p_2_8 + 120 p_2_9 + 100000 z_2_4 + 100000 z_2_6 + 100000 z_2_7 + 100000 z_2_8 + 100000 z_2_9 <= 502075.33880435012
 c4615: 120 p_2_1 + 120 p_2_4 + 120 p_2_6 + 120 p_2_7 + 120 p_2_8 + 120 p_2_9 + 100000 z_2_1 + 100000 z_2_4 + 100000 z_2_6 + 100000 z_2_7 + 100000 z_2_8 + 100000 z_2_9 <= 602075.27142462914
 c4616: 120 p_2_2 + 120 p_2_4 + 120 p_2_6 + 120 p_2_7 + 120 p_2_8 + 120 p_2_9 + 100000 z_2_2 + 100000 z_2_4 + 100000 z_2_6 + 100000 z_2_7 + 100000 z_2_8 + 100000 z_2_9 <= 602073.10568490415
 c4617: 120 p_2_1 + 120 p_2_2 + 120 p_2_4 + 120 p_2_6 + 120 p_2_7 + 120 p_2_8 + 120 p_2_9 + 100000 z_2_1 + 100000 z_2_2 + 100000 z_2_4 + 100000 z_2_6 + 100000 z_2_7 + 100000 z_2_8 + 100000 z_2_9 <= 702073.03830518317
 c4618: 120 p_2_3 + 120 p_2_4 + 120 p_2_6 + 120 p_2_7 + 120 p_2_8 + 120 p_2_9 + 100000 z_2_3 + 100000 z_2_4 + 100000 z_2_6 + 100000 z_2_7 + 100000 z_2_8 + 100000 z_2_9 <= 602018.34313863271
 c4619: 120 p_2_1 + 120 p_2_3 + 120 p_2_4 + 120 p_2_6 + 120 p_2_7 + 120 p_2_8 + 120 p_2_9 + 100000 z_2_1 + 100000 z_2_3 + 100000 z_2_4 + 100000 z_2_6 + 100000 z_2_7 + 100000 z_2_8 + 100000 z_2_9 <= 702018.27575891186
 c4620: 120 p_2_2 + 120 p_2_3 + 120 p_2_4 + 120 p_2_6 + 120 p_2_7 + 120 p_2_8 + 120 p_2_9 + 100000 z_2_2 + 100000 z_2_3 + 100000 z_2_4 + 100000 z_2_6 + 100000 z_2_7 + 100000 z_2_8 + 100000 z_2_9 <= 702016.11001918674
 c4621: 120 p_2_1 + 120 p_2_2 + 120 p_2_3 + 120 p_2_4 + 120 p_2_6 + 120 p_2_7 + 120 p_2_8 + 120 p_2_9 + 100000 z_2_1 + 100000 z_2_2 + 100000 z_2_3 + 100000 z_2_4 + 100000 z_2_6 + 100000 z_2_7 + 100000 z_2_8 + 100000 z_2_9 <= 802016.04263946577
 c4622: 120 p_2_5 + 120 p_2_6 + 120 p_2_7 + 120 p_2_8 + 120 p_2_9 + 100000 z_2_5 + 100000 z_2_6 + 100000 z_2_7 + 100000 z_2_8 + 100000 z_2_9 <= 502072.78396506351
 c4623: 120 p_2_1 + 120 p_2_5 + 120 p_2_6 + 120 p_2_7 + 120 p_2_8 + 120 p_2_9 + 100000 z_2_1 + 100000 z_2_5 + 100000 z_2_6 + 100000 z_2_7 + 100000 z_2_8 + 100000 z_2_9 <= 602071.8742607343
 c4624: 120 p_2_2 + 120 p_2_5 + 120 p_2_6 + 120 p_2_7 + 120 p_2_8 + 120 p_2_9 + 100000 z_2_2 + 100000 z_2_5 + 100000 z_2_6 + 100000 z_2_7 + 100000 z_2_8 + 100000 z_2_9 <= 602058.02030415041
 c4625: 120 p_2_1 + 120 p_2_2 + 120 p_2_5 + 120 p_2_6 + 120 p_2_7 + 120 p_2_8 + 120 p_2_9 + 100000 z_2_1 + 100000 z_2_2 + 100000 z_2_5 + 100000 z_2_6 + 100000 z_2_7 + 100000 z_2_8 + 100000 z_2_9 <= 702057.11059982108
 c4626: 120 p_2_3 + 120 p_2_5 + 120 p_2_6 + 120 p_2_7 + 120 p_2_8 + 120 p_2_9 + 100000 z_2_3 + 100000 z_2_5 + 100000 z_2_6 + 100000 z_2_7 + 100000 z_2_8 + 100000 z_2_9 <= 602015.78829934611
 c4627: 120 p_2_1 + 120 p_2_3 + 120 p_2_5 + 120 p_2_6 + 120 p_2_7 + 120 p_2_8 + 120 p_2_9 + 100000 z_2_1 + 100000 z_2_3 + 100000 z_2_5 + 100000 z_2_6 + 100000 z_2_7 + 100000 z_2_8 + 100000 z_2_9 <= 702014.8785950169
 c4628: 120 p_2_2 + 120 p_2_3 + 120 p_2_5 + 120 p_2_6 + 120 p_2_7 + 120 p_2_8 + 120 p_2_9 + 100000 z_2_2 + 100000 z_2_3 + 100000 z_2_5 + 100000 z_2_6 + 100000 z_2_7 + 100000 z_2_8 + 100000 z_2_9 <= 702001.02463843301
 c4629: 120 p_2_1 + 120 p_2_2 + 120 p_2_3 + 120 p_2_5 + 120 p_2_6 + 120 p_2_7 + 120 p_2_8 + 120 p_2_9 + 100000 z_2_1 + 100000 z_2_2 + 100000 z_2_3 + 100000 z_2_5 + 100000 z_2_6 + 100000 z_2_7 + 100000 z_2_8 + 100000 z_2_9 <= 802000.1149341038
 c4630: 120 p_2_4 + 120 p_2_5 + 120 p_2_6 + 120 p_2_7 + 120 p_2_8 + 120 p_2_9 + 100000 z_2_4 + 100000 z_2_5 + 100000 z_2_6 + 100000 z_2_7 + 100000 z_2_8 + 100000 z_2_9 <= 602071.43719033478
 c4631: 120 p_2_1 + 120 p_2_4 + 120 p_2_5 + 120 p_2_6 + 120 p_2_7 + 120 p_2_8 + 120 p_2_9 + 100000 z_2_1 + 100000 z_2_4 + 100000 z_2_5 + 100000 z_2_6 + 100000 z_2_7 + 100000 z_2_8 + 100000 z_2_9 <= 702071.36981061392
 c4632: 120 p_2_2 + 120 p_2_4 + 120 p_2_5 + 120 p_2_6 + 120 p_2_7 + 120 p_2_8 + 120 p_2_9 + 100000 z_2_2 + 100000 z_2_4 + 100000 z_2_5 + 100000 z_2_6 + 100000 z_2_7 + 100000 z_2_8 + 100000 z_2_9 <= 702056.67352942168
 c4633: 120 p_2_1 + 120 p_2_2 + 120 p_2_4 + 120 p_2_5 + 120 p_2_6 + 120 p_2_7 + 120 p_2_8 + 120 p_2_9 + 100000 z_2_1 + 100000 z_2_2 + 100000 z_2_4 + 100000 z_2_5 + 100000 z_2_6 + 100000 z_2_7 + 100000 z_2_8 + 100000 z_2_9 <= 802056.6061497007
 c4634: 120 p_2_3 + 120 p_2_4 + 120 p_2_5 + 120 p_2_6 + 120 p_2_7 + 120 p_2_8 + 120 p_2_9 + 100000 z_2_3 + 100000 z_2_4 + 100000 z_2_5 + 100000 z_2_6 + 100000 z_2_7 + 100000 z_2_8 + 100000 z_2_9 <= 702014.44152461749
 c4635: 120 p_2_1 + 120 p_2_3 + 120 p_2_4 + 120 p_2_5 + 120 p_2_6 + 120 p_2_7 + 120 p_2_8 + 120 p_2_9 + 100000 z_2_1 + 100000 z_2_3 + 100000 z_2_4 + 100000 z_2_5 + 100000 z_2_6 + 100000 z_2_7 + 100000 z_2_8 + 100000 z_2_9 <= 802014.37414489652
 c4636: 120 p_2_2 + 120 p_2_3 + 120 p_2_4 + 120 p_2_5 + 120 p_2_6 + 120 p_2_7 + 120 p_2_8 + 120 p_2_9 + 100000 z_2_2 + 100000 z_2_3 + 100000 z_2_4 + 100000 z_2_5 + 100000 z_2_6 + 100000 z_2_7 + 100000 z_2_8 + 100000 z_2_9 <= 801999.67786370427
 c4637: 120 p_2_1 + 120 p_2_2 + 120 p_2_3 + 120 p_2_4 + 120 p_2_5 + 120 p_2_6 + 120 p_2_7 + 120 p_2_8 + 120 p_2_9 + 100000 z_2_1 + 100000 z_2_2 + 100000 z_2_3 + 100000 z_2_4 + 100000 z_2_5 + 100000 z_2_6 + 100000 z_2_7 + 100000 z_2_8 + 100000 z_2_9 <= 901999.61048398342
 c4638: 120 p_2_10 + 100000 z_2_10 <= 103013.11101556507
 c4639: 120 p_2_1 + 120 p_2_10 + 100000 z_2_1 + 100000 z_2_10 <= 203010.7657669099
 c4640: 120 p_2_10 + 120 p_2_2 + 100000 z_2_10 + 100000 z_2_2 <= 202643.81166316185
 c4641: 120 p_2_1 + 120 p_2_10 + 120 p_2_2 + 100000 z_2_1 + 100000 z_2_10 + 100000 z_2_2 <= 302643.65898107423
 c4642: 120 p_2_10 + 120 p_2_3 + 100000 z_2_10 + 100000 z_2_3 <= 202533.90404215889
 c4643: 120 p_2_1 + 120 p_2_10 + 120 p_2_3 + 100000 z_2_1 + 100000 z_2_10 + 100000 z_2_3 <= 302531.55879350373
 c4644: 120 p_2_10 + 120 p_2_2 + 120 p_2_3 + 100000 z_2_10 + 100000 z_2_2 + 100000 z_2_3 <= 302233.3676803151
 c4645: 120 p_2_1 + 120 p_2_10 + 120 p_2_2 + 120 p_2_3 + 100000 z_2_1 + 100000 z_2_10 + 100000 z_2_2 + 100000 z_2_3 <= 402231.02243165998
 c4646: 120 p_2_10 + 120 p_2_4 + 100000 z_2_10 + 100000 z_2_4 <= 203010.61210442503
 c4647: 120 p_2_1 + 120 p_2_10 + 120 p_2_4 + 100000 z_2_1 + 100000 z_2_10 + 100000 z_2_4 <= 303010.54472470406
 c4648: 120 p_2_10 + 120 p_2_2 + 120 p_2_4 + 100000 z_2_10 + 100000 z_2_2 + 100000 z_2_4 <= 302643.7873323143
 c4649: 120 p_2_1 + 120 p_2_10 + 120 p_2_2 + 120 p_2_4 + 100000 z_2_1 + 100000 z_2_10 + 100000 z_2_2 + 100000 z_2_4 <= 402643.43793886842
 c4650: 120 p_2_10 + 120 p_2_3 + 120 p_2_4 + 100000 z_2_10 + 100000 z_2_3 + 100000 z_2_4 <= 302531.40513101884
 c4651: 120 p_2_1 + 120 p_2_10 + 120 p_2_3 + 120 p_2_4 + 100000 z_2_1 + 100000 z_2_10 + 100000 z_2_3 + 100000 z_2_4 <= 402531.33775129792
 c4652: 120 p_2_10 + 120 p_2_2 + 120 p_2_3 + 120 p_2_4 + 100000 z_2_10 + 100000 z_2_2 + 100000 z_2_3 + 100000 z_2_4 <= 402230.86876917508
 c4653: 120 p_2_1 + 120 p_2_10 + 120 p_2_2 + 120 p_2_3 + 120 p_2_4 + 100000 z_2_1 + 100000 z_2_10 + 100000 z_2_2 + 100000 z_2_3 + 100000 z_2_4 <= 502230.80138945417
 c4654: 120 p_2_10 + 120 p_2_5 + 100000 z_2_10 + 100000 z_2_5 <= 202673.23694256812
 c4655: 120 p_2_1 + 120 p_2_10 + 120 p_2_5 + 100000 z_2_1 + 100000 z_2_10 + 100000 z_2_5 <= 302671.93647274375
 c4656: 120 p_2_10 + 120 p_2_2 + 120 p_2_5 + 100000 z_2_10 + 100000 z_2_2 + 100000 z_2_5 <= 302614.55134600768
 c4657: 120 p_2_1 + 120 p_2_10 + 120 p_2_2 + 120 p_2_5 + 100000 z_2_1 + 100000 z_2_10 + 100000 z_2_2 + 100000 z_2_5 <= 402613.25087618333
 c4658: 120 p_2_10 + 120 p_2_3 + 120 p_2_5 + 100000 z_2_10 + 100000 z_2_3 + 100000 z_2_5 <= 302196.96506965527
 c4659: 120 p_2_1 + 120 p_2_10 + 120 p_2_3 + 120 p_2_5 + 100000 z_2_1 + 100000 z_2_10 + 100000 z_2_3 + 100000 z_2_5 <= 402194.61982100009
 c4660: 120 p_2_10 + 120 p_2_2 + 120 p_2_3 + 120 p_2_5 + 100000 z_2_10 + 100000 z_2_2 + 100000 z_2_3 + 100000 z_2_5 <= 402175.95291051752
 c4661: 120 p_2_1 + 120 p_2_10 + 120 p_2_2 + 120 p_2_3 + 120 p_2_5 + 100000 z_2_1 + 100000 z_2_10 + 100000 z_2_2 + 100000 z_2_3 + 100000 z_2_5 <= 502173.60766186233
 c4662: 120 p_2_10 + 120 p_2_4 + 120 p_2_5 + 100000 z_2_10 + 100000 z_2_4 + 100000 z_2_5 <= 302672.53969253658
 c4663: 120 p_2_1 + 120 p_2_10 + 120 p_2_4 + 120 p_2_5 + 100000 z_2_1 + 100000 z_2_10 + 100000 z_2_4 + 100000 z_2_5 <= 402671.71543053794
 c4664: 120 p_2_10 + 120 p_2_2 + 120 p_2_4 + 120 p_2_5 + 100000 z_2_10 + 100000 z_2_2 + 100000 z_2_4 + 100000 z_2_5 <= 402613.85409597616
 c4665: 120 p_2_1 + 120 p_2_10 + 120 p_2_2 + 120 p_2_4 + 120 p_2_5 + 100000 z_2_1 + 100000 z_2_10 + 100000 z_2_2 + 100000 z_2_4 + 100000 z_2_5 <= 502613.02983397752
 c4666: 120 p_2_10 + 120 p_2_3 + 120 p_2_4 + 120 p_2_5 + 100000 z_2_10 + 100000 z_2_3 + 100000 z_2_4 + 100000 z_2_5 <= 402194.46615851525
 c4667: 120 p_2_1 + 120 p_2_10 + 120 p_2_3 + 120 p_2_4 + 120 p_2_5 + 100000 z_2_1 + 100000 z_2_10 + 100000 z_2_3 + 100000 z_2_4 + 100000 z_2_5 <= 502194.39877879428
 c4668: 120 p_2_10 + 120 p_2_2 + 120 p_2_3 + 120 p_2_4 + 120 p_2_5 + 100000 z_2_10 + 100000 z_2_2 + 100000 z_2_3 + 100000 z_2_4 + 100000 z_2_5 <= 502173.4539993775
 c4669: 120 p_2_1 + 120 p_2_10 + 120 p_2_2 + 120 p_2_3 + 120 p_2_4 + 120 p_2_5 + 100000 z_2_1 + 100000 z_2_10 + 100000 z_2_2 + 100000 z_2_3 + 100000 z_2_4 + 100000 z_2_5 <= 602173.38661965658
 c4670: 120 p_2_10 + 120 p_2_6 + 100000 z_2_10 + 100000 z_2_6 <= 202579.84619052894
 c4671: 120 p_2_1 + 120 p_2_10 + 120 p_2_6 + 100000 z_2_1 + 100000 z_2_10 + 100000 z_2_6 <= 302577.50094187382
 c4672: 120 p_2_10 + 120 p_2_2 + 120 p_2_6 + 100000 z_2_10 + 100000 z_2_2 + 100000 z_2_6 <= 302283.39853503736
 c4673: 120 p_2_1 + 120 p_2_10 + 120 p_2_2 + 120 p_2_6 + 100000 z_2_1 + 100000 z_2_10 + 100000 z_2_2 + 100000 z_2_6 <= 402281.05328638217
 c4674: 120 p_2_10 + 120 p_2_3 + 120 p_2_6 + 100000 z_2_10 + 100000 z_2_3 + 100000 z_2_6 <= 302529.76695609052
 c4675: 120 p_2_1 + 120 p_2_10 + 120 p_2_3 + 120 p_2_6 + 100000 z_2_1 + 100000 z_2_10 + 100000 z_2_3 + 100000 z_2_6 <= 402527.42170743534
 c4676: 120 p_2_10 + 120 p_2_2 + 120 p_2_3 + 120 p_2_6 + 100000 z_2_10 + 100000 z_2_2 + 100000 z_2_3 + 100000 z_2_6 <= 402233.31930059893
 c4677: 120 p_2_1 + 120 p_2_10 + 120 p_2_2 + 120 p_2_3 + 120 p_2_6 + 100000 z_2_1 + 100000 z_2_10 + 100000 z_2_2 + 100000 z_2_3 + 100000 z_2_6 <= 502230.97405194375
 c4678: 120 p_2_10 + 120 p_2_4 + 120 p_2_6 + 100000 z_2_10 + 100000 z_2_4 + 100000 z_2_6 <= 302577.34727938892
 c4679: 120 p_2_1 + 120 p_2_10 + 120 p_2_4 + 120 p_2_6 + 100000 z_2_1 + 100000 z_2_10 + 100000 z_2_4 + 100000 z_2_6 <= 402577.27989966795
 c4680: 120 p_2_10 + 120 p_2_2 + 120 p_2_4 + 120 p_2_6 + 100000 z_2_10 + 100000 z_2_2 + 100000 z_2_4 + 100000 z_2_6 <= 402280.89962389728
 c4681: 120 p_2_1 + 120 p_2_10 + 120 p_2_2 + 120 p_2_4 + 120 p_2_6 + 100000 z_2_1 + 100000 z_2_10 + 100000 z_2_2 + 100000 z_2_4 + 100000 z_2_6 <= 502280.83224417636
 c4682: 120 p_2_10 + 120 p_2_3 + 120 p_2_4 + 120 p_2_6 + 100000 z_2_10 + 100000 z_2_3 + 100000 z_2_4 + 100000 z_2_6 <= 402527.2680449505
 c4683: 120 p_2_1 + 120 p_2_10 + 120 p_2_3 + 120 p_2_4 + 120 p_2_6 + 100000 z_2_1 + 100000 z_2_10 + 100000 z_2_3 + 100000 z_2_4 + 100000 z_2_6 <= 502527.20066522952
 c4684: 120 p_2_10 + 120 p_2_2 + 120 p_2_3 + 120 p_2_4 + 120 p_2_6 + 100000 z_2_10 + 100000 z_2_2 + 100000 z_2_3 + 100000 z_2_4 + 100000 z_2_6 <= 502230.82038945885
 c4685: 120 p_2_1 + 120 p_2_10 + 120 p_2_2 + 120 p_2_3 + 120 p_2_4 + 120 p_2_6 + 100000 z_2_1 + 100000 z_2_10 + 100000 z_2_2 + 100000 z_2_3 + 100000 z_2_4 + 100000 z_2_6 <= 602230.75300973793
 c4686: 120 p_2_10 + 120 p_2_5 + 120 p_2_6 + 100000 z_2_10 + 100000 z_2_5 + 100000 z_2_6 <= 302246.97889790701
 c4687: 120 p_2_1 + 120 p_2_10 + 120 p_2_5 + 120 p_2_6 + 100000 z_2_1 + 100000 z_2_10 + 100000 z_2_5 + 100000 z_2_6 <= 402244.63364925189
 c4688: 120 p_2_10 + 120 p_2_2 + 120 p_2_5 + 120 p_2_6 + 100000 z_2_10 + 100000 z_2_2 + 100000 z_2_5 + 100000 z_2_6 <= 402225.98376523971
 c4689: 120 p_2_1 + 120 p_2_10 + 120 p_2_2 + 120 p_2_5 + 120 p_2_6 + 100000 z_2_1 + 100000 z_2_10 + 100000 z_2_2 + 100000 z_2_5 + 100000 z_2_6 <= 502223.63851658459
 c4690: 120 p_2_10 + 120 p_2_3 + 120 p_2_5 + 120 p_2_6 + 100000 z_2_10 + 100000 z_2_3 + 100000 z_2_5 + 100000 z_2_6 <= 402196.89966346859
 c4691: 120 p_2_1 + 120 p_2_10 + 120 p_2_3 + 120 p_2_5 + 120 p_2_6 + 100000 z_2_1 + 100000 z_2_10 + 100000 z_2_3 + 100000 z_2_5 + 100000 z_2_6 <= 502194.55441481346
 c4692: 120 p_2_10 + 120 p_2_2 + 120 p_2_3 + 120 p_2_5 + 120 p_2_6 + 100000 z_2_10 + 100000 z_2_2 + 100000 z_2_3 + 100000 z_2_5 + 100000 z_2_6 <= 502175.90453080129
 c4693: 120 p_2_1 + 120 p_2_10 + 120 p_2_2 + 120 p_2_3 + 120 p_2_5 + 120 p_2_6 + 100000 z_2_1 + 100000 z_2_10 + 100000 z_2_2 + 100000 z_2_3 + 100000 z_2_5 + 100000 z_2_6 <= 602173.55928214616
 c4694: 120 p_2_10 + 120 p_2_4 + 120 p_2_5 + 120 p_2_6 + 100000 z_2_10 + 100000 z_2_4 + 100000 z_2_5 + 100000 z_2_6 <= 402244.47998676699
 c4695: 120 p_2_1 + 120 p_2_10 + 120 p_2_4 + 120 p_2_5 + 120 p_2_6 + 100000 z_2_1 + 100000 z_2_10 + 100000 z_2_4 + 100000 z_2_5 + 100000 z_2_6 <= 502244.41260704608
 c4696: 120 p_2_10 + 120 p_2_2 + 120 p_2_4 + 120 p_2_5 + 120 p_2_6 + 100000 z_2_10 + 100000 z_2_2 + 100000 z_2_4 + 100000 z_2_5 + 100000 z_2_6 <= 502223.48485409969
 c4697: 120 p_2_1 + 120 p_2_10 + 120 p_2_2 + 120 p_2_4 + 120 p_2_5 + 120 p_2_6 + 100000 z_2_1 + 100000 z_2_10 + 100000 z_2_2 + 100000 z_2_4 + 100000 z_2_5 + 100000 z_2_6 <= 602223.41747437872
 c4698: 120 p_2_10 + 120 p_2_3 + 120 p_2_4 + 120 p_2_5 + 120 p_2_6 + 100000 z_2_10 + 100000 z_2_3 + 100000 z_2_4 + 100000 z_2_5 + 100000 z_2_6 <= 502194.40075232857
 c4699: 120 p_2_1 + 120 p_2_10 + 120 p_2_3 + 120 p_2_4 + 120 p_2_5 + 120 p_2_6 + 100000 z_2_1 + 100000 z_2_10 + 100000 z_2_3 + 100000 z_2_4 + 100000 z_2_5 + 100000 z_2_6 <= 602194.33337260759
 c4700: 120 p_2_10 + 120 p_2_2 + 120 p_2_3 + 120 p_2_4 + 120 p_2_5 + 120 p_2_6 + 100000 z_2_10 + 100000 z_2_2 + 100000 z_2_3 + 100000 z_2_4 + 100000 z_2_5 + 100000 z_2_6 <= 602173.40561966121
 c4701: 120 p_2_1 + 120 p_2_10 + 120 p_2_2 + 120 p_2_3 + 120 p_2_4 + 120 p_2_5 + 120 p_2_6 + 100000 z_2_1 + 100000 z_2_10 + 100000 z_2_2 + 100000 z_2_3 + 100000 z_2_4 + 100000 z_2_5 + 100000 z_2_6 <= 702173.33823994035
 c4702: 120 p_2_10 + 120 p_2_7 + 100000 z_2_10 + 100000 z_2_7 <= 202951.44977953972
 c4703: 120 p_2_1 + 120 p_2_10 + 120 p_2_7 + 100000 z_2_1 + 100000 z_2_10 + 100000 z_2_7 <= 302950.54007521045
 c4704: 120 p_2_10 + 120 p_2_2 + 120 p_2_7 + 100000 z_2_10 + 100000 z_2_2 + 100000 z_2_7 <= 302593.7301807378
 c4705: 120 p_2_1 + 120 p_2_10 + 120 p_2_2 + 120 p_2_7 + 100000 z_2_1 + 100000 z_2_10 + 100000 z_2_2 + 100000 z_2_7 <= 402591.38493208261
 c4706: 120 p_2_10 + 120 p_2_3 + 120 p_2_7 + 100000 z_2_10 + 100000 z_2_3 + 100000 z_2_7 <= 302472.24280613352
 c4707: 120 p_2_1 + 120 p_2_10 + 120 p_2_3 + 120 p_2_7 + 100000 z_2_1 + 100000 z_2_10 + 100000 z_2_3 + 100000 z_2_7 <= 402471.33310180425
 c4708: 120 p_2_10 + 120 p_2_2 + 120 p_2_3 + 120 p_2_7 + 100000 z_2_10 + 100000 z_2_2 + 100000 z_2_3 + 100000 z_2_7 <= 402171.70644428977
 c4709: 120 p_2_1 + 120 p_2_10 + 120 p_2_2 + 120 p_2_3 + 120 p_2_7 + 100000 z_2_1 + 100000 z_2_10 + 100000 z_2_2 + 100000 z_2_3 + 100000 z_2_7 <= 502170.7967399605
 c4710: 120 p_2_10 + 120 p_2_4 + 120 p_2_7 + 100000 z_2_10 + 100000 z_2_4 + 100000 z_2_7 <= 302950.10300481098
 c4711: 120 p_2_1 + 120 p_2_10 + 120 p_2_4 + 120 p_2_7 + 100000 z_2_1 + 100000 z_2_10 + 100000 z_2_4 + 100000 z_2_7 <= 402950.03562509007
 c4712: 120 p_2_10 + 120 p_2_2 + 120 p_2_4 + 120 p_2_7 + 100000 z_2_10 + 100000 z_2_2 + 100000 z_2_4 + 100000 z_2_7 <= 402591.23126959777
 c4713: 120 p_2_1 + 120 p_2_10 + 120 p_2_2 + 120 p_2_4 + 120 p_2_7 + 100000 z_2_1 + 100000 z_2_10 + 100000 z_2_2 + 100000 z_2_4 + 100000 z_2_7 <= 502591.1638898768
 c4714: 120 p_2_10 + 120 p_2_3 + 120 p_2_4 + 120 p_2_7 + 100000 z_2_10 + 100000 z_2_3 + 100000 z_2_4 + 100000 z_2_7 <= 402470.89603140485
 c4715: 120 p_2_1 + 120 p_2_10 + 120 p_2_3 + 120 p_2_4 + 120 p_2_7 + 100000 z_2_1 + 100000 z_2_10 + 100000 z_2_3 + 100000 z_2_4 + 100000 z_2_7 <= 502470.82865168387
 c4716: 120 p_2_10 + 120 p_2_2 + 120 p_2_3 + 120 p_2_4 + 120 p_2_7 + 100000 z_2_10 + 100000 z_2_2 + 100000 z_2_3 + 100000 z_2_4 + 100000 z_2_7 <= 502170.35966956103
 c4717: 120 p_2_1 + 120 p_2_10 + 120 p_2_2 + 120 p_2_3 + 120 p_2_4 + 120 p_2_7 + 100000 z_2_1 + 100000 z_2_10 + 100000 z_2_2 + 100000 z_2_3 + 100000 z_2_4 + 100000 z_2_7 <= 602170.29228984006
 c4718: 120 p_2_10 + 120 p_2_5 + 120 p_2_7 + 100000 z_2_10 + 100000 z_2_5 + 100000 z_2_7 <= 302627.64339477854
 c4719: 120 p_2_1 + 120 p_2_10 + 120 p_2_5 + 120 p_2_7 + 100000 z_2_1 + 100000 z_2_10 + 100000 z_2_5 + 100000 z_2_7 <= 402625.29814612336
 c4720: 120 p_2_10 + 120 p_2_2 + 120 p_2_5 + 120 p_2_7 + 100000 z_2_10 + 100000 z_2_2 + 100000 z_2_5 + 100000 z_2_7 <= 402568.95779821806
 c4721: 120 p_2_1 + 120 p_2_10 + 120 p_2_2 + 120 p_2_5 + 120 p_2_7 + 100000 z_2_1 + 100000 z_2_10 + 100000 z_2_2 + 100000 z_2_5 + 100000 z_2_7 <= 502566.61254956294
 c4722: 120 p_2_10 + 120 p_2_3 + 120 p_2_5 + 120 p_2_7 + 100000 z_2_10 + 100000 z_2_3 + 100000 z_2_5 + 100000 z_2_7 <= 402148.43642137235
 c4723: 120 p_2_1 + 120 p_2_10 + 120 p_2_3 + 120 p_2_5 + 120 p_2_7 + 100000 z_2_1 + 100000 z_2_10 + 100000 z_2_3 + 100000 z_2_5 + 100000 z_2_7 <= 502134.39412930061
 c4724: 120 p_2_10 + 120 p_2_2 + 120 p_2_3 + 120 p_2_5 + 120 p_2_7 + 100000 z_2_10 + 100000 z_2_2 + 100000 z_2_3 + 100000 z_2_5 + 100000 z_2_7 <= 502114.29167449218
 c4725: 120 p_2_1 + 120 p_2_10 + 120 p_2_2 + 120 p_2_3 + 120 p_2_5 + 120 p_2_7 + 100000 z_2_1 + 100000 z_2_10 + 100000 z_2_2 + 100000 z_2_3 + 100000 z_2_5 + 100000 z_2_7 <= 602113.38197016285
 c4726: 120 p_2_10 + 120 p_2_4 + 120 p_2_5 + 120 p_2_7 + 100000 z_2_10 + 100000 z_2_4 + 100000 z_2_5 + 100000 z_2_7 <= 402625.14448363846
 c4727: 120 p_2_1 + 120 p_2_10 + 120 p_2_4 + 120 p_2_5 + 120 p_2_7 + 100000 z_2_1 + 100000 z_2_10 + 100000 z_2_4 + 100000 z_2_5 + 100000 z_2_7 <= 502625.07710391755
 c4728: 120 p_2_10 + 120 p_2_2 + 120 p_2_4 + 120 p_2_5 + 120 p_2_7 + 100000 z_2_10 + 100000 z_2_2 + 100000 z_2_4 + 100000 z_2_5 + 100000 z_2_7 <= 502566.45888707804
 c4729: 120 p_2_1 + 120 p_2_10 + 120 p_2_2 + 120 p_2_4 + 120 p_2_5 + 120 p_2_7 + 100000 z_2_1 + 100000 z_2_10 + 100000 z_2_2 + 100000 z_2_4 + 100000 z_2_5 + 100000 z_2_7 <= 602566.39150735713
 c4730: 120 p_2_10 + 120 p_2_3 + 120 p_2_4 + 120 p_2_5 + 120 p_2_7 + 100000 z_2_10 + 100000 z_2_3 + 100000 z_2_4 + 100000 z_2_5 + 100000 z_2_7 <= 502133.9570589012
 c4731: 120 p_2_1 + 120 p_2_10 + 120 p_2_3 + 120 p_2_4 + 120 p_2_5 + 120 p_2_7 + 100000 z_2_1 + 100000 z_2_10 + 100000 z_2_3 + 100000 z_2_4 + 100000 z_2_5 + 100000 z_2_7 <= 602133.88967918023
 c4732: 120 p_2_10 + 120 p_2_2 + 120 p_2_3 + 120 p_2_4 + 120 p_2_5 + 120 p_2_7 + 100000 z_2_10 + 100000 z_2_2 + 100000 z_2_3 + 100000 z_2_4 + 100000 z_2_5 + 100000 z_2_7 <= 602112.94489976345
 c4733: 120 p_2_1 + 120 p_2_10 + 120 p_2_2 + 120 p_2_3 + 120 p_2_4 + 120 p_2_5 + 120 p_2_7 + 100000 z_2_1 + 100000 z_2_10 + 100000 z_2_2 + 100000 z_2_3 + 100000 z_2_4 + 100000 z_2_5 + 100000 z_2_7 <= 702112.87752004247
 c4734: 120 p_2_10 + 120 p_2_6 + 120 p_2_7 + 100000 z_2_10 + 100000 z_2_6 + 100000 z_2_7 <= 302518.18495450361
 c4735: 120 p_2_1 + 120 p_2_10 + 120 p_2_6 + 120 p_2_7 + 100000 z_2_1 + 100000 z_2_10 + 100000 z_2_6 + 100000 z_2_7 <= 402517.27525017434
 c4736: 120 p_2_10 + 120 p_2_2 + 120 p_2_6 + 120 p_2_7 + 100000 z_2_10 + 100000 z_2_2 + 100000 z_2_6 + 100000 z_2_7 <= 402221.73729901196
 c4737: 120 p_2_1 + 120 p_2_10 + 120 p_2_2 + 120 p_2_6 + 120 p_2_7 + 100000 z_2_1 + 100000 z_2_10 + 100000 z_2_2 + 100000 z_2_6 + 100000 z_2_7 <= 502220.82759468269
 c4738: 120 p_2_10 + 120 p_2_3 + 120 p_2_6 + 120 p_2_7 + 100000 z_2_10 + 100000 z_2_3 + 100000 z_2_6 + 100000 z_2_7 <= 402468.10572006518
 c4739: 120 p_2_1 + 120 p_2_10 + 120 p_2_3 + 120 p_2_6 + 120 p_2_7 + 100000 z_2_1 + 100000 z_2_10 + 100000 z_2_3 + 100000 z_2_6 + 100000 z_2_7 <= 502467.19601573591
 c4740: 120 p_2_10 + 120 p_2_2 + 120 p_2_3 + 120 p_2_6 + 120 p_2_7 + 100000 z_2_10 + 100000 z_2_2 + 100000 z_2_3 + 100000 z_2_6 + 100000 z_2_7 <= 502171.65806457354
 c4741: 120 p_2_1 + 120 p_2_10 + 120 p_2_2 + 120 p_2_3 + 120 p_2_6 + 120 p_2_7 + 100000 z_2_1 + 100000 z_2_10 + 100000 z_2_2 + 100000 z_2_3 + 100000 z_2_6 + 100000 z_2_7 <= 602170.74836024421
 c4742: 120 p_2_10 + 120 p_2_4 + 120 p_2_6 + 120 p_2_7 + 100000 z_2_10 + 100000 z_2_4 + 100000 z_2_6 + 100000 z_2_7 <= 402516.83817977487
 c4743: 120 p_2_1 + 120 p_2_10 + 120 p_2_4 + 120 p_2_6 + 120 p_2_7 + 100000 z_2_1 + 100000 z_2_10 + 100000 z_2_4 + 100000 z_2_6 + 100000 z_2_7 <= 502516.77080005396
 c4744: 120 p_2_10 + 120 p_2_2 + 120 p_2_4 + 120 p_2_6 + 120 p_2_7 + 100000 z_2_10 + 100000 z_2_2 + 100000 z_2_4 + 100000 z_2_6 + 100000 z_2_7 <= 502220.39052428328
 c4745: 120 p_2_1 + 120 p_2_10 + 120 p_2_2 + 120 p_2_4 + 120 p_2_6 + 120 p_2_7 + 100000 z_2_1 + 100000 z_2_10 + 100000 z_2_2 + 100000 z_2_4 + 100000 z_2_6 + 100000 z_2_7 <= 602220.32314456231
 c4746: 120 p_2_10 + 120 p_2_3 + 120 p_2_4 + 120 p_2_6 + 120 p_2_7 + 100000 z_2_10 + 100000 z_2_3 + 100000 z_2_4 + 100000 z_2_6 + 100000 z_2_7 <= 502466.75894533645
 c4747: 120 p_2_1 + 120 p_2_10 + 120 p_2_3 + 120 p_2_4 + 120 p_2_6 + 120 p_2_7 + 100000 z_2_1 + 100000 z_2_10 + 100000 z_2_3 + 100000 z_2_4 + 100000 z_2_6 + 100000 z_2_7 <= 602466.69156561547
 c4748: 120 p_2_10 + 120 p_2_2 + 120 p_2_3 + 120 p_2_4 + 120 p_2_6 + 120 p_2_7 + 100000 z_2_10 + 100000 z_2_2 + 100000 z_2_3 + 100000 z_2_4 + 100000 z_2_6 + 100000 z_2_7 <= 602170.3112898448
 c4749: 120 p_2_1 + 120 p_2_10 + 120 p_2_2 + 120 p_2_3 + 120 p_2_4 + 120 p_2_6 + 120 p_2_7 + 100000 z_2_1 + 100000 z_2_10 + 100000 z_2_2 + 100000 z_2_3 + 100000 z_2_4 + 100000 z_2_6 + 100000 z_2_7 <= 702170.24391012383
 c4750: 120 p_2_10 + 120 p_2_5 + 120 p_2_6 + 120 p_2_7 + 100000 z_2_10 + 100000 z_2_5 + 100000 z_2_6 + 100000 z_2_7 <= 402194.37856974243
 c4751: 120 p_2_1 + 120 p_2_10 + 120 p_2_5 + 120 p_2_6 + 120 p_2_7 + 100000 z_2_1 + 100000 z_2_10 + 100000 z_2_5 + 100000 z_2_6 + 100000 z_2_7 <= 502184.40795755241
 c4752: 120 p_2_10 + 120 p_2_2 + 120 p_2_5 + 120 p_2_6 + 120 p_2_7 + 100000 z_2_10 + 100000 z_2_2 + 100000 z_2_5 + 100000 z_2_6 + 100000 z_2_7 <= 502164.32252921438
 c4753: 120 p_2_1 + 120 p_2_10 + 120 p_2_2 + 120 p_2_5 + 120 p_2_6 + 120 p_2_7 + 100000 z_2_1 + 100000 z_2_10 + 100000 z_2_2 + 100000 z_2_5 + 100000 z_2_6 + 100000 z_2_7 <= 602163.4128248851
 c4754: 120 p_2_10 + 120 p_2_3 + 120 p_2_5 + 120 p_2_6 + 120 p_2_7 + 100000 z_2_10 + 100000 z_2_3 + 100000 z_2_5 + 100000 z_2_6 + 100000 z_2_7 <= 502144.29933530401
 c4755: 120 p_2_1 + 120 p_2_10 + 120 p_2_3 + 120 p_2_5 + 120 p_2_6 + 120 p_2_7 + 100000 z_2_1 + 100000 z_2_10 + 100000 z_2_3 + 100000 z_2_5 + 100000 z_2_6 + 100000 z_2_7 <= 602134.32872311398
 c4756: 120 p_2_10 + 120 p_2_2 + 120 p_2_3 + 120 p_2_5 + 120 p_2_6 + 120 p_2_7 + 100000 z_2_10 + 100000 z_2_2 + 100000 z_2_3 + 100000 z_2_5 + 100000 z_2_6 + 100000 z_2_7 <= 602114.24329477595
 c4757: 120 p_2_1 + 120 p_2_10 + 120 p_2_2 + 120 p_2_3 + 120 p_2_5 + 120 p_2_6 + 120 p_2_7 + 100000 z_2_1 + 100000 z_2_10 + 100000 z_2_2 + 100000 z_2_3 + 100000 z_2_5 + 100000 z_2_6 + 100000 z_2_7 <= 702113.33359044662
 c4758: 120 p_2_10 + 120 p_2_4 + 120 p_2_5 + 120 p_2_6 + 120 p_2_7 + 100000 z_2_10 + 100000 z_2_4 + 100000 z_2_5 + 100000 z_2_6 + 100000 z_2_7 <= 502183.97088715294
 c4759: 120 p_2_1 + 120 p_2_10 + 120 p_2_4 + 120 p_2_5 + 120 p_2_6 + 120 p_2_7 + 100000 z_2_1 + 100000 z_2_10 + 100000 z_2_4 + 100000 z_2_5 + 100000 z_2_6 + 100000 z_2_7 <= 602183.90350743197
 c4760: 120 p_2_10 + 120 p_2_2 + 120 p_2_4 + 120 p_2_5 + 120 p_2_6 + 120 p_2_7 + 100000 z_2_10 + 100000 z_2_2 + 100000 z_2_4 + 100000 z_2_5 + 100000 z_2_6 + 100000 z_2_7 <= 602162.9757544857
 c4761: 120 p_2_1 + 120 p_2_10 + 120 p_2_2 + 120 p_2_4 + 120 p_2_5 + 120 p_2_6 + 120 p_2_7 + 100000 z_2_1 + 100000 z_2_10 + 100000 z_2_2 + 100000 z_2_4 + 100000 z_2_5 + 100000 z_2_6 + 100000 z_2_7 <= 702162.90837476472
 c4762: 120 p_2_10 + 120 p_2_3 + 120 p_2_4 + 120 p_2_5 + 120 p_2_6 + 120 p_2_7 + 100000 z_2_10 + 100000 z_2_3 + 100000 z_2_4 + 100000 z_2_5 + 100000 z_2_6 + 100000 z_2_7 <= 602133.89165271458
 c4763: 120 p_2_1 + 120 p_2_10 + 120 p_2_3 + 120 p_2_4 + 120 p_2_5 + 120 p_2_6 + 120 p_2_7 + 100000 z_2_1 + 100000 z_2_10 + 100000 z_2_3 + 100000 z_2_4 + 100000 z_2_5 + 100000 z_2_6 + 100000 z_2_7 <= 702133.8242729936
 c4764: 120 p_2_10 + 120 p_2_2 + 120 p_2_3 + 120 p_2_4 + 120 p_2_5 + 120 p_2_6 + 120 p_2_7 + 100000 z_2_10 + 100000 z_2_2 + 100000 z_2_3 + 100000 z_2_4 + 100000 z_2_5 + 100000 z_2_6 + 100000 z_2_7 <= 702112.89652004722
 c4765: 120 p_2_1 + 120 p_2_10 + 120 p_2_2 + 120 p_2_3 + 120 p_2_4 + 120 p_2_5 + 120 p_2_6 + 120 p_2_7 + 100000 z_2_1 + 100000 z_2_10 + 100000 z_2_2 + 100000 z_2_3 + 100000 z_2_4 + 100000 z_2_5 + 100000 z_2_6 + 100000 z_2_7 <= 802112.82914032624
 c4766: 120 p_2_10 + 120 p_2_8 + 100000 z_2_10 + 100000 z_2_8 <= 202577.26894802693
 c4767: 120 p_2_1 + 120 p_2_10 + 120 p_2_8 + 100000 z_2_1 + 100000 z_2_10 + 100000 z_2_8 <= 302574.92369937175
 c4768: 120 p_2_10 + 120 p_2_2 + 120 p_2_8 + 100000 z_2_10 + 100000 z_2_2 + 100000 z_2_8 <= 302531.7380172782
 c4769: 120 p_2_1 + 120 p_2_10 + 120 p_2_2 + 120 p_2_8 + 100000 z_2_1 + 100000 z_2_10 + 100000 z_2_2 + 100000 z_2_8 <= 402529.39276862302
 c4770: 120 p_2_10 + 120 p_2_3 + 120 p_2_8 + 100000 z_2_10 + 100000 z_2_3 + 100000 z_2_8 <= 302098.06197462074
 c4771: 120 p_2_1 + 120 p_2_10 + 120 p_2_3 + 120 p_2_8 + 100000 z_2_1 + 100000 z_2_10 + 100000 z_2_3 + 100000 z_2_8 <= 402094.67850826686
 c4772: 120 p_2_10 + 120 p_2_2 + 120 p_2_3 + 120 p_2_8 + 100000 z_2_10 + 100000 z_2_2 + 100000 z_2_3 + 100000 z_2_8 <= 402072.2412788017
 c4773: 120 p_2_1 + 120 p_2_10 + 120 p_2_2 + 120 p_2_3 + 120 p_2_8 + 100000 z_2_1 + 100000 z_2_10 + 100000 z_2_2 + 100000 z_2_3 + 100000 z_2_8 <= 502069.89603014657
 c4774: 120 p_2_10 + 120 p_2_4 + 120 p_2_8 + 100000 z_2_10 + 100000 z_2_4 + 100000 z_2_8 <= 302575.0950031848
 c4775: 120 p_2_1 + 120 p_2_10 + 120 p_2_4 + 120 p_2_8 + 100000 z_2_1 + 100000 z_2_10 + 100000 z_2_4 + 100000 z_2_8 <= 402574.70265716594
 c4776: 120 p_2_10 + 120 p_2_2 + 120 p_2_4 + 120 p_2_8 + 100000 z_2_10 + 100000 z_2_2 + 100000 z_2_4 + 100000 z_2_8 <= 402529.56407243601
 c4777: 120 p_2_1 + 120 p_2_10 + 120 p_2_2 + 120 p_2_4 + 120 p_2_8 + 100000 z_2_1 + 100000 z_2_10 + 100000 z_2_2 + 100000 z_2_4 + 100000 z_2_8 <= 502529.1717264172
 c4778: 120 p_2_10 + 120 p_2_3 + 120 p_2_4 + 120 p_2_8 + 100000 z_2_10 + 100000 z_2_3 + 100000 z_2_4 + 100000 z_2_8 <= 402095.88802977861
 c4779: 120 p_2_1 + 120 p_2_10 + 120 p_2_3 + 120 p_2_4 + 120 p_2_8 + 100000 z_2_1 + 100000 z_2_10 + 100000 z_2_3 + 100000 z_2_4 + 100000 z_2_8 <= 502094.45746606099
 c4780: 120 p_2_10 + 120 p_2_2 + 120 p_2_3 + 120 p_2_4 + 120 p_2_8 + 100000 z_2_10 + 100000 z_2_2 + 100000 z_2_3 + 100000 z_2_4 + 100000 z_2_8 <= 502069.74236766167
 c4781: 120 p_2_1 + 120 p_2_10 + 120 p_2_2 + 120 p_2_3 + 120 p_2_4 + 120 p_2_8 + 100000 z_2_1 + 100000 z_2_10 + 100000 z_2_2 + 100000 z_2_3 + 100000 z_2_4 + 100000 z_2_8 <= 602069.6749879407
 c4782: 120 p_2_10 + 120 p_2_5 + 120 p_2_8 + 100000 z_2_10 + 100000 z_2_5 + 100000 z_2_8 <= 302573.99145835615
 c4783: 120 p_2_1 + 120 p_2_10 + 120 p_2_5 + 120 p_2_8 + 100000 z_2_1 + 100000 z_2_10 + 100000 z_2_5 + 100000 z_2_8 <= 402571.64620970102
 c4784: 120 p_2_10 + 120 p_2_2 + 120 p_2_5 + 120 p_2_8 + 100000 z_2_10 + 100000 z_2_2 + 100000 z_2_5 + 100000 z_2_8 <= 402515.30586179573
 c4785: 120 p_2_1 + 120 p_2_10 + 120 p_2_2 + 120 p_2_5 + 120 p_2_8 + 100000 z_2_1 + 100000 z_2_10 + 100000 z_2_2 + 100000 z_2_5 + 100000 z_2_8 <= 502512.96061314055
 c4786: 120 p_2_10 + 120 p_2_3 + 120 p_2_5 + 120 p_2_8 + 100000 z_2_10 + 100000 z_2_3 + 100000 z_2_5 + 100000 z_2_8 <= 402094.78448495001
 c4787: 120 p_2_1 + 120 p_2_10 + 120 p_2_3 + 120 p_2_5 + 120 p_2_8 + 100000 z_2_1 + 100000 z_2_10 + 100000 z_2_3 + 100000 z_2_5 + 100000 z_2_8 <= 502091.40101859608
 c4788: 120 p_2_10 + 120 p_2_2 + 120 p_2_3 + 120 p_2_5 + 120 p_2_8 + 100000 z_2_10 + 100000 z_2_2 + 100000 z_2_3 + 100000 z_2_5 + 100000 z_2_8 <= 502068.96378913091
 c4789: 120 p_2_1 + 120 p_2_10 + 120 p_2_2 + 120 p_2_3 + 120 p_2_5 + 120 p_2_8 + 100000 z_2_1 + 100000 z_2_10 + 100000 z_2_2 + 100000 z_2_3 + 100000 z_2_5 + 100000 z_2_8 <= 602066.61854047573
 c4790: 120 p_2_10 + 120 p_2_4 + 120 p_2_5 + 120 p_2_8 + 100000 z_2_10 + 100000 z_2_4 + 100000 z_2_5 + 100000 z_2_8 <= 402571.81751351402
 c4791: 120 p_2_1 + 120 p_2_10 + 120 p_2_4 + 120 p_2_5 + 120 p_2_8 + 100000 z_2_1 + 100000 z_2_10 + 100000 z_2_4 + 100000 z_2_5 + 100000 z_2_8 <= 502571.42516749521
 c4792: 120 p_2_10 + 120 p_2_2 + 120 p_2_4 + 120 p_2_5 + 120 p_2_8 + 100000 z_2_10 + 100000 z_2_2 + 100000 z_2_4 + 100000 z_2_5 + 100000 z_2_8 <= 502513.1319169536
 c4793: 120 p_2_1 + 120 p_2_10 + 120 p_2_2 + 120 p_2_4 + 120 p_2_5 + 120 p_2_8 + 100000 z_2_1 + 100000 z_2_10 + 100000 z_2_2 + 100000 z_2_4 + 100000 z_2_5 + 100000 z_2_8 <= 602512.73957093479
 c4794: 120 p_2_10 + 120 p_2_3 + 120 p_2_4 + 120 p_2_5 + 120 p_2_8 + 100000 z_2_10 + 100000 z_2_3 + 100000 z_2_4 + 100000 z_2_5 + 100000 z_2_8 <= 502092.61054010782
 c4795: 120 p_2_1 + 120 p_2_10 + 120 p_2_3 + 120 p_2_4 + 120 p_2_5 + 120 p_2_8 + 100000 z_2_1 + 100000 z_2_10 + 100000 z_2_3 + 100000 z_2_4 + 100000 z_2_5 + 100000 z_2_8 <= 602091.17997639021
 c4796: 120 p_2_10 + 120 p_2_2 + 120 p_2_3 + 120 p_2_4 + 120 p_2_5 + 120 p_2_8 + 100000 z_2_10 + 100000 z_2_2 + 100000 z_2_3 + 100000 z_2_4 + 100000 z_2_5 + 100000 z_2_8 <= 602066.46487799089
 c4797: 120 p_2_1 + 120 p_2_10 + 120 p_2_2 + 120 p_2_3 + 120 p_2_4 + 120 p_2_5 + 120 p_2_8 + 100000 z_2_1 + 100000 z_2_10 + 100000 z_2_2 + 100000 z_2_3 + 100000 z_2_4 + 100000 z_2_5 + 100000 z_2_8 <= 702066.39749826991
 c4798: 120 p_2_10 + 120 p_2_6 + 120 p_2_8 + 100000 z_2_10 + 100000 z_2_6 + 100000 z_2_8 <= 302144.00412299082
 c4799: 120 p_2_1 + 120 p_2_10 + 120 p_2_6 + 120 p_2_8 + 100000 z_2_1 + 100000 z_2_10 + 100000 z_2_6 + 100000 z_2_8 <= 402140.62065663689
 c4800: 120 p_2_10 + 120 p_2_2 + 120 p_2_6 + 120 p_2_8 + 100000 z_2_10 + 100000 z_2_2 + 100000 z_2_6 + 100000 z_2_8 <= 402122.79870597483
 c4801: 120 p_2_1 + 120 p_2_10 + 120 p_2_2 + 120 p_2_6 + 120 p_2_8 + 100000 z_2_1 + 100000 z_2_10 + 100000 z_2_2 + 100000 z_2_6 + 100000 z_2_8 <= 502120.45345731964
 c4802: 120 p_2_10 + 120 p_2_3 + 120 p_2_6 + 120 p_2_8 + 100000 z_2_10 + 100000 z_2_3 + 100000 z_2_6 + 100000 z_2_8 <= 402093.9248885524
 c4803: 120 p_2_1 + 120 p_2_10 + 120 p_2_3 + 120 p_2_6 + 120 p_2_8 + 100000 z_2_1 + 100000 z_2_10 + 100000 z_2_3 + 100000 z_2_6 + 100000 z_2_8 <= 502090.54142219847
 c4804: 120 p_2_10 + 120 p_2_2 + 120 p_2_3 + 120 p_2_6 + 120 p_2_8 + 100000 z_2_10 + 100000 z_2_2 + 100000 z_2_3 + 100000 z_2_6 + 100000 z_2_8 <= 502072.19289908546
 c4805: 120 p_2_1 + 120 p_2_10 + 120 p_2_2 + 120 p_2_3 + 120 p_2_6 + 120 p_2_8 + 100000 z_2_1 + 100000 z_2_10 + 100000 z_2_2 + 100000 z_2_3 + 100000 z_2_6 + 100000 z_2_8 <= 602069.84765043028
 c4806: 120 p_2_10 + 120 p_2_4 + 120 p_2_6 + 120 p_2_8 + 100000 z_2_10 + 100000 z_2_4 + 100000 z_2_6 + 100000 z_2_8 <= 402141.8301781487
 c4807: 120 p_2_1 + 120 p_2_10 + 120 p_2_4 + 120 p_2_6 + 120 p_2_8 + 100000 z_2_1 + 100000 z_2_10 + 100000 z_2_4 + 100000 z_2_6 + 100000 z_2_8 <= 502140.39961443108
 c4808: 120 p_2_10 + 120 p_2_2 + 120 p_2_4 + 120 p_2_6 + 120 p_2_8 + 100000 z_2_10 + 100000 z_2_2 + 100000 z_2_4 + 100000 z_2_6 + 100000 z_2_8 <= 502120.62476113264
 c4809: 120 p_2_1 + 120 p_2_10 + 120 p_2_2 + 120 p_2_4 + 120 p_2_6 + 120 p_2_8 + 100000 z_2_1 + 100000 z_2_10 + 100000 z_2_2 + 100000 z_2_4 + 100000 z_2_6 + 100000 z_2_8 <= 602120.23241511383
 c4810: 120 p_2_10 + 120 p_2_3 + 120 p_2_4 + 120 p_2_6 + 120 p_2_8 + 100000 z_2_10 + 100000 z_2_3 + 100000 z_2_4 + 100000 z_2_6 + 100000 z_2_8 <= 502091.75094371021
 c4811: 120 p_2_1 + 120 p_2_10 + 120 p_2_3 + 120 p_2_4 + 120 p_2_6 + 120 p_2_8 + 100000 z_2_1 + 100000 z_2_10 + 100000 z_2_3 + 100000 z_2_4 + 100000 z_2_6 + 100000 z_2_8 <= 602090.32037999271
 c4812: 120 p_2_10 + 120 p_2_2 + 120 p_2_3 + 120 p_2_4 + 120 p_2_6 + 120 p_2_8 + 100000 z_2_10 + 100000 z_2_2 + 100000 z_2_3 + 100000 z_2_4 + 100000 z_2_6 + 100000 z_2_8 <= 602069.69398794544
 c4813: 120 p_2_1 + 120 p_2_10 + 120 p_2_2 + 120 p_2_3 + 120 p_2_4 + 120 p_2_6 + 120 p_2_8 + 100000 z_2_1 + 100000 z_2_10 + 100000 z_2_2 + 100000 z_2_3 + 100000 z_2_4 + 100000 z_2_6 + 100000 z_2_8 <= 702069.62660822447
 c4814: 120 p_2_10 + 120 p_2_5 + 120 p_2_6 + 120 p_2_8 + 100000 z_2_10 + 100000 z_2_5 + 100000 z_2_6 + 100000 z_2_8 <= 402140.72663332004
 c4815: 120 p_2_1 + 120 p_2_10 + 120 p_2_5 + 120 p_2_6 + 120 p_2_8 + 100000 z_2_1 + 100000 z_2_10 + 100000 z_2_5 + 100000 z_2_6 + 100000 z_2_8 <= 502137.34316696617
 c4816: 120 p_2_10 + 120 p_2_2 + 120 p_2_5 + 120 p_2_6 + 120 p_2_8 + 100000 z_2_10 + 100000 z_2_2 + 100000 z_2_5 + 100000 z_2_6 + 100000 z_2_8 <= 502118.99464385316
 c4817: 120 p_2_1 + 120 p_2_10 + 120 p_2_2 + 120 p_2_5 + 120 p_2_6 + 120 p_2_8 + 100000 z_2_1 + 100000 z_2_10 + 100000 z_2_2 + 100000 z_2_5 + 100000 z_2_6 + 100000 z_2_8 <= 602116.64939519798
 c4818: 120 p_2_10 + 120 p_2_3 + 120 p_2_5 + 120 p_2_6 + 120 p_2_8 + 100000 z_2_10 + 100000 z_2_3 + 100000 z_2_5 + 100000 z_2_6 + 100000 z_2_8 <= 502090.64739888161
 c4819: 120 p_2_1 + 120 p_2_10 + 120 p_2_3 + 120 p_2_5 + 120 p_2_6 + 120 p_2_8 + 100000 z_2_1 + 100000 z_2_10 + 100000 z_2_3 + 100000 z_2_5 + 100000 z_2_6 + 100000 z_2_8 <= 602087.26393252774
 c4820: 120 p_2_10 + 120 p_2_2 + 120 p_2_3 + 120 p_2_5 + 120 p_2_6 + 120 p_2_8 + 100000 z_2_10 + 100000 z_2_2 + 100000 z_2_3 + 100000 z_2_5 + 100000 z_2_6 + 100000 z_2_8 <= 602068.91540941468
 c4821: 120 p_2_1 + 120 p_2_10 + 120 p_2_2 + 120 p_2_3 + 120 p_2_5 + 120 p_2_6 + 120 p_2_8 + 100000 z_2_1 + 100000 z_2_10 + 100000 z_2_2 + 100000 z_2_3 + 100000 z_2_5 + 100000 z_2_6 + 100000 z_2_8 <= 702066.5701607595
 c4822: 120 p_2_10 + 120 p_2_4 + 120 p_2_5 + 120 p_2_6 + 120 p_2_8 + 100000 z_2_10 + 100000 z_2_4 + 100000 z_2_5 + 100000 z_2_6 + 100000 z_2_8 <= 502138.55268847791
 c4823: 120 p_2_1 + 120 p_2_10 + 120 p_2_4 + 120 p_2_5 + 120 p_2_6 + 120 p_2_8 + 100000 z_2_1 + 100000 z_2_10 + 100000 z_2_4 + 100000 z_2_5 + 100000 z_2_6 + 100000 z_2_8 <= 602137.1221247603
 c4824: 120 p_2_10 + 120 p_2_2 + 120 p_2_4 + 120 p_2_5 + 120 p_2_6 + 120 p_2_8 + 100000 z_2_10 + 100000 z_2_2 + 100000 z_2_4 + 100000 z_2_5 + 100000 z_2_6 + 100000 z_2_8 <= 602116.49573271314
 c4825: 120 p_2_1 + 120 p_2_10 + 120 p_2_2 + 120 p_2_4 + 120 p_2_5 + 120 p_2_6 + 120 p_2_8 + 100000 z_2_1 + 100000 z_2_10 + 100000 z_2_2 + 100000 z_2_4 + 100000 z_2_5 + 100000 z_2_6 + 100000 z_2_8 <= 702116.42835299217
 c4826: 120 p_2_10 + 120 p_2_3 + 120 p_2_4 + 120 p_2_5 + 120 p_2_6 + 120 p_2_8 + 100000 z_2_10 + 100000 z_2_3 + 100000 z_2_4 + 100000 z_2_5 + 100000 z_2_6 + 100000 z_2_8 <= 602088.47345403943
 c4827: 120 p_2_1 + 120 p_2_10 + 120 p_2_3 + 120 p_2_4 + 120 p_2_5 + 120 p_2_6 + 120 p_2_8 + 100000 z_2_1 + 100000 z_2_10 + 100000 z_2_3 + 100000 z_2_4 + 100000 z_2_5 + 100000 z_2_6 + 100000 z_2_8 <= 702087.04289032193
 c4828: 120 p_2_10 + 120 p_2_2 + 120 p_2_3 + 120 p_2_4 + 120 p_2_5 + 120 p_2_6 + 120 p_2_8 + 100000 z_2_10 + 100000 z_2_2 + 100000 z_2_3 + 100000 z_2_4 + 100000 z_2_5 + 100000 z_2_6 + 100000 z_2_8 <= 702066.41649827466
 c4829: 120 p_2_1 + 120 p_2_10 + 120 p_2_2 + 120 p_2_3 + 120 p_2_4 + 120 p_2_5 + 120 p_2_6 + 120 p_2_8 + 100000 z_2_1 + 100000 z_2_10 + 100000 z_2_2 + 100000 z_2_3 + 100000 z_2_4 + 100000 z_2_5 + 100000 z_2_6 + 100000 z_2_8 <= 802066.34911855368
 c4830: 120 p_2_10 + 120 p_2_7 + 120 p_2_8 + 100000 z_2_10 + 100000 z_2_7 + 100000 z_2_8 <= 302536.33675807569
 c4831: 120 p_2_1 + 120 p_2_10 + 120 p_2_7 + 120 p_2_8 + 100000 z_2_1 + 100000 z_2_10 + 100000 z_2_7 + 100000 z_2_8 <= 402533.99150942056
 c4832: 120 p_2_10 + 120 p_2_2 + 120 p_2_7 + 120 p_2_8 + 100000 z_2_10 + 100000 z_2_2 + 100000 z_2_7 + 100000 z_2_8 <= 402490.80582732696
 c4833: 120 p_2_1 + 120 p_2_10 + 120 p_2_2 + 120 p_2_7 + 120 p_2_8 + 100000 z_2_1 + 100000 z_2_10 + 100000 z_2_2 + 100000 z_2_7 + 100000 z_2_8 <= 502488.46057867177
 c4834: 120 p_2_10 + 120 p_2_3 + 120 p_2_7 + 120 p_2_8 + 100000 z_2_10 + 100000 z_2_3 + 100000 z_2_7 + 100000 z_2_8 <= 402057.12978466949
 c4835: 120 p_2_1 + 120 p_2_10 + 120 p_2_3 + 120 p_2_7 + 120 p_2_8 + 100000 z_2_1 + 100000 z_2_10 + 100000 z_2_3 + 100000 z_2_7 + 100000 z_2_8 <= 502034.45281656738
 c4836: 120 p_2_10 + 120 p_2_2 + 120 p_2_3 + 120 p_2_7 + 120 p_2_8 + 100000 z_2_10 + 100000 z_2_2 + 100000 z_2_3 + 100000 z_2_7 + 100000 z_2_8 <= 502018.1092544233
 c4837: 120 p_2_1 + 120 p_2_10 + 120 p_2_2 + 120 p_2_3 + 120 p_2_7 + 120 p_2_8 + 100000 z_2_1 + 100000 z_2_10 + 100000 z_2_2 + 100000 z_2_3 + 100000 z_2_7 + 100000 z_2_8 <= 602015.76400576811
 c4838: 120 p_2_10 + 120 p_2_4 + 120 p_2_7 + 120 p_2_8 + 100000 z_2_10 + 100000 z_2_4 + 100000 z_2_7 + 100000 z_2_8 <= 402533.83784693567
 c4839: 120 p_2_1 + 120 p_2_10 + 120 p_2_4 + 120 p_2_7 + 120 p_2_8 + 100000 z_2_1 + 100000 z_2_10 + 100000 z_2_4 + 100000 z_2_7 + 100000 z_2_8 <= 502533.77046721469
 c4840: 120 p_2_10 + 120 p_2_2 + 120 p_2_4 + 120 p_2_7 + 120 p_2_8 + 100000 z_2_10 + 100000 z_2_2 + 100000 z_2_4 + 100000 z_2_7 + 100000 z_2_8 <= 502488.30691618694
 c4841: 120 p_2_1 + 120 p_2_10 + 120 p_2_2 + 120 p_2_4 + 120 p_2_7 + 120 p_2_8 + 100000 z_2_1 + 100000 z_2_10 + 100000 z_2_2 + 100000 z_2_4 + 100000 z_2_7 + 100000 z_2_8 <= 602488.23953646596
 c4842: 120 p_2_10 + 120 p_2_3 + 120 p_2_4 + 120 p_2_7 + 120 p_2_8 + 100000 z_2_10 + 100000 z_2_3 + 100000 z_2_4 + 100000 z_2_7 + 100000 z_2_8 <= 502035.38427544601
 c4843: 120 p_2_1 + 120 p_2_10 + 120 p_2_3 + 120 p_2_4 + 120 p_2_7 + 120 p_2_8 + 100000 z_2_1 + 100000 z_2_10 + 100000 z_2_3 + 100000 z_2_4 + 100000 z_2_7 + 100000 z_2_8 <= 602033.948366447
 c4844: 120 p_2_10 + 120 p_2_2 + 120 p_2_3 + 120 p_2_4 + 120 p_2_7 + 120 p_2_8 + 100000 z_2_10 + 100000 z_2_2 + 100000 z_2_3 + 100000 z_2_4 + 100000 z_2_7 + 100000 z_2_8 <= 602015.61034328328
 c4845: 120 p_2_1 + 120 p_2_10 + 120 p_2_2 + 120 p_2_3 + 120 p_2_4 + 120 p_2_7 + 120 p_2_8 + 100000 z_2_1 + 100000 z_2_10 + 100000 z_2_2 + 100000 z_2_3 + 100000 z_2_4 + 100000 z_2_7 + 100000 z_2_8 <= 702015.5429635623
 c4846: 120 p_2_10 + 120 p_2_5 + 120 p_2_7 + 120 p_2_8 + 100000 z_2_10 + 100000 z_2_5 + 100000 z_2_7 + 100000 z_2_8 <= 402533.0592684049
 c4847: 120 p_2_1 + 120 p_2_10 + 120 p_2_5 + 120 p_2_7 + 120 p_2_8 + 100000 z_2_1 + 100000 z_2_10 + 100000 z_2_5 + 100000 z_2_7 + 100000 z_2_8 <= 502530.71401974978
 c4848: 120 p_2_10 + 120 p_2_2 + 120 p_2_5 + 120 p_2_7 + 120 p_2_8 + 100000 z_2_10 + 100000 z_2_2 + 100000 z_2_5 + 100000 z_2_7 + 100000 z_2_8 <= 502474.37367184449
 c4849: 120 p_2_1 + 120 p_2_10 + 120 p_2_2 + 120 p_2_5 + 120 p_2_7 + 120 p_2_8 + 100000 z_2_1 + 100000 z_2_10 + 100000 z_2_2 + 100000 z_2_5 + 100000 z_2_7 + 100000 z_2_8 <= 602472.0284231893
 c4850: 120 p_2_10 + 120 p_2_3 + 120 p_2_5 + 120 p_2_7 + 120 p_2_8 + 100000 z_2_10 + 100000 z_2_3 + 100000 z_2_5 + 100000 z_2_7 + 100000 z_2_8 <= 502053.85229499877
 c4851: 120 p_2_1 + 120 p_2_10 + 120 p_2_3 + 120 p_2_5 + 120 p_2_7 + 120 p_2_8 + 100000 z_2_1 + 100000 z_2_10 + 100000 z_2_3 + 100000 z_2_5 + 100000 z_2_7 + 100000 z_2_8 <= 602031.1753268966
 c4852: 120 p_2_10 + 120 p_2_2 + 120 p_2_3 + 120 p_2_5 + 120 p_2_7 + 120 p_2_8 + 100000 z_2_10 + 100000 z_2_2 + 100000 z_2_3 + 100000 z_2_5 + 100000 z_2_7 + 100000 z_2_8 <= 602007.30255310552
 c4853: 120 p_2_1 + 120 p_2_10 + 120 p_2_2 + 120 p_2_3 + 120 p_2_5 + 120 p_2_7 + 120 p_2_8 + 100000 z_2_1 + 100000 z_2_10 + 100000 z_2_2 + 100000 z_2_3 + 100000 z_2_5 + 100000 z_2_7 + 100000 z_2_8 <= 702006.3928487763
 c4854: 120 p_2_10 + 120 p_2_4 + 120 p_2_5 + 120 p_2_7 + 120 p_2_8 + 100000 z_2_10 + 100000 z_2_4 + 100000 z_2_5 + 100000 z_2_7 + 100000 z_2_8 <= 502530.56035726488
 c4855: 120 p_2_1 + 120 p_2_10 + 120 p_2_4 + 120 p_2_5 + 120 p_2_7 + 120 p_2_8 + 100000 z_2_1 + 100000 z_2_10 + 100000 z_2_4 + 100000 z_2_5 + 100000 z_2_7 + 100000 z_2_8 <= 602530.49297754397
 c4856: 120 p_2_10 + 120 p_2_2 + 120 p_2_4 + 120 p_2_5 + 120 p_2_7 + 120 p_2_8 + 100000 z_2_10 + 100000 z_2_2 + 100000 z_2_4 + 100000 z_2_5 + 100000 z_2_7 + 100000 z_2_8 <= 602471.87476070446
 c4857: 120 p_2_1 + 120 p_2_10 + 120 p_2_2 + 120 p_2_4 + 120 p_2_5 + 120 p_2_7 + 120 p_2_8 + 100000 z_2_1 + 100000 z_2_10 + 100000 z_2_2 + 100000 z_2_4 + 100000 z_2_5 + 100000 z_2_7 + 100000 z_2_8 <= 702471.80738098349
 c4858: 120 p_2_10 + 120 p_2_3 + 120 p_2_4 + 120 p_2_5 + 120 p_2_7 + 120 p_2_8 + 100000 z_2_10 + 100000 z_2_3 + 100000 z_2_4 + 100000 z_2_5 + 100000 z_2_7 + 100000 z_2_8 <= 602032.10678577528
 c4859: 120 p_2_1 + 120 p_2_10 + 120 p_2_3 + 120 p_2_4 + 120 p_2_5 + 120 p_2_7 + 120 p_2_8 + 100000 z_2_1 + 100000 z_2_10 + 100000 z_2_3 + 100000 z_2_4 + 100000 z_2_5 + 100000 z_2_7 + 100000 z_2_8 <= 702030.67087677622
 c4860: 120 p_2_10 + 120 p_2_2 + 120 p_2_3 + 120 p_2_4 + 120 p_2_5 + 120 p_2_7 + 120 p_2_8 + 100000 z_2_10 + 100000 z_2_2 + 100000 z_2_3 + 100000 z_2_4 + 100000 z_2_5 + 100000 z_2_7 + 100000 z_2_8 <= 702005.9557783769
 c4861: 120 p_2_1 + 120 p_2_10 + 120 p_2_2 + 120 p_2_3 + 120 p_2_4 + 120 p_2_5 + 120 p_2_7 + 120 p_2_8 + 100000 z_2_1 + 100000 z_2_10 + 100000 z_2_2 + 100000 z_2_3 + 100000 z_2_4 + 100000 z_2_5 + 100000 z_2_7 + 100000 z_2_8 <= 802005.88839865592
 c4862: 120 p_2_10 + 120 p_2_6 + 120 p_2_7 + 120 p_2_8 + 100000 z_2_10 + 100000 z_2_6 + 100000 z_2_7 + 100000 z_2_8 <= 402103.07193303958
 c4863: 120 p_2_1 + 120 p_2_10 + 120 p_2_6 + 120 p_2_7 + 120 p_2_8 + 100000 z_2_1 + 100000 z_2_10 + 100000 z_2_6 + 100000 z_2_7 + 100000 z_2_8 <= 502085.62562339357
 c4864: 120 p_2_10 + 120 p_2_2 + 120 p_2_6 + 120 p_2_7 + 120 p_2_8 + 100000 z_2_10 + 100000 z_2_2 + 100000 z_2_6 + 100000 z_2_7 + 100000 z_2_8 <= 502081.86651602358
 c4865: 120 p_2_1 + 120 p_2_10 + 120 p_2_2 + 120 p_2_6 + 120 p_2_7 + 120 p_2_8 + 100000 z_2_1 + 100000 z_2_10 + 100000 z_2_2 + 100000 z_2_6 + 100000 z_2_7 + 100000 z_2_8 <= 602079.52126736846
 c4866: 120 p_2_10 + 120 p_2_3 + 120 p_2_6 + 120 p_2_7 + 120 p_2_8 + 100000 z_2_10 + 100000 z_2_3 + 100000 z_2_6 + 100000 z_2_7 + 100000 z_2_8 <= 502052.99269860116
 c4867: 120 p_2_1 + 120 p_2_10 + 120 p_2_3 + 120 p_2_6 + 120 p_2_7 + 120 p_2_8 + 100000 z_2_1 + 100000 z_2_10 + 100000 z_2_3 + 100000 z_2_6 + 100000 z_2_7 + 100000 z_2_8 <= 602030.31573049899
 c4868: 120 p_2_10 + 120 p_2_2 + 120 p_2_3 + 120 p_2_6 + 120 p_2_7 + 120 p_2_8 + 100000 z_2_10 + 100000 z_2_2 + 100000 z_2_3 + 100000 z_2_6 + 100000 z_2_7 + 100000 z_2_8 <= 602018.06087470707
 c4869: 120 p_2_1 + 120 p_2_10 + 120 p_2_2 + 120 p_2_3 + 120 p_2_6 + 120 p_2_7 + 120 p_2_8 + 100000 z_2_1 + 100000 z_2_10 + 100000 z_2_2 + 100000 z_2_3 + 100000 z_2_6 + 100000 z_2_7 + 100000 z_2_8 <= 702015.71562605188
 c4870: 120 p_2_10 + 120 p_2_4 + 120 p_2_6 + 120 p_2_7 + 120 p_2_8 + 100000 z_2_10 + 100000 z_2_4 + 100000 z_2_6 + 100000 z_2_7 + 100000 z_2_8 <= 502085.47196090868
 c4871: 120 p_2_1 + 120 p_2_10 + 120 p_2_4 + 120 p_2_6 + 120 p_2_7 + 120 p_2_8 + 100000 z_2_1 + 100000 z_2_10 + 100000 z_2_4 + 100000 z_2_6 + 100000 z_2_7 + 100000 z_2_8 <= 602085.40458118776
 c4872: 120 p_2_10 + 120 p_2_2 + 120 p_2_4 + 120 p_2_6 + 120 p_2_7 + 120 p_2_8 + 100000 z_2_10 + 100000 z_2_2 + 100000 z_2_4 + 100000 z_2_6 + 100000 z_2_7 + 100000 z_2_8 <= 602079.3676048835
 c4873: 120 p_2_1 + 120 p_2_10 + 120 p_2_2 + 120 p_2_4 + 120 p_2_6 + 120 p_2_7 + 120 p_2_8 + 100000 z_2_1 + 100000 z_2_10 + 100000 z_2_2 + 100000 z_2_4 + 100000 z_2_6 + 100000 z_2_7 + 100000 z_2_8 <= 702079.30022516253
 c4874: 120 p_2_10 + 120 p_2_3 + 120 p_2_4 + 120 p_2_6 + 120 p_2_7 + 120 p_2_8 + 100000 z_2_10 + 100000 z_2_3 + 100000 z_2_4 + 100000 z_2_6 + 100000 z_2_7 + 100000 z_2_8 <= 602031.24718937767
 c4875: 120 p_2_1 + 120 p_2_10 + 120 p_2_3 + 120 p_2_4 + 120 p_2_6 + 120 p_2_7 + 120 p_2_8 + 100000 z_2_1 + 100000 z_2_10 + 100000 z_2_3 + 100000 z_2_4 + 100000 z_2_6 + 100000 z_2_7 + 100000 z_2_8 <= 702029.81128037861
 c4876: 120 p_2_10 + 120 p_2_2 + 120 p_2_3 + 120 p_2_4 + 120 p_2_6 + 120 p_2_7 + 120 p_2_8 + 100000 z_2_10 + 100000 z_2_2 + 100000 z_2_3 + 100000 z_2_4 + 100000 z_2_6 + 100000 z_2_7 + 100000 z_2_8 <= 702015.56196356704
 c4877: 120 p_2_1 + 120 p_2_10 + 120 p_2_2 + 120 p_2_3 + 120 p_2_4 + 120 p_2_6 + 120 p_2_7 + 120 p_2_8 + 100000 z_2_1 + 100000 z_2_10 + 100000 z_2_2 + 100000 z_2_3 + 100000 z_2_4 + 100000 z_2_6 + 100000 z_2_7 + 100000 z_2_8 <= 802015.49458384607
 c4878: 120 p_2_10 + 120 p_2_5 + 120 p_2_6 + 120 p_2_7 + 120 p_2_8 + 100000 z_2_10 + 100000 z_2_5 + 100000 z_2_6 + 100000 z_2_7 + 100000 z_2_8 <= 502099.7944433688
 c4879: 120 p_2_1 + 120 p_2_10 + 120 p_2_5 + 120 p_2_6 + 120 p_2_7 + 120 p_2_8 + 100000 z_2_1 + 100000 z_2_10 + 100000 z_2_5 + 100000 z_2_6 + 100000 z_2_7 + 100000 z_2_8 <= 602084.08424455323
 c4880: 120 p_2_10 + 120 p_2_2 + 120 p_2_5 + 120 p_2_6 + 120 p_2_7 + 120 p_2_8 + 100000 z_2_10 + 100000 z_2_2 + 100000 z_2_5 + 100000 z_2_6 + 100000 z_2_7 + 100000 z_2_8 <= 602065.43436054117
 c4881: 120 p_2_1 + 120 p_2_10 + 120 p_2_2 + 120 p_2_5 + 120 p_2_6 + 120 p_2_7 + 120 p_2_8 + 100000 z_2_1 + 100000 z_2_10 + 100000 z_2_2 + 100000 z_2_5 + 100000 z_2_6 + 100000 z_2_7 + 100000 z_2_8 <= 702063.08911188599
 c4882: 120 p_2_10 + 120 p_2_3 + 120 p_2_5 + 120 p_2_6 + 120 p_2_7 + 120 p_2_8 + 100000 z_2_10 + 100000 z_2_3 + 100000 z_2_5 + 100000 z_2_6 + 100000 z_2_7 + 100000 z_2_8 <= 602049.71520893043
 c4883: 120 p_2_1 + 120 p_2_10 + 120 p_2_3 + 120 p_2_5 + 120 p_2_6 + 120 p_2_7 + 120 p_2_8 + 100000 z_2_1 + 100000 z_2_10 + 100000 z_2_3 + 100000 z_2_5 + 100000 z_2_6 + 100000 z_2_7 + 100000 z_2_8 <= 702027.0382408282
 c4884: 120 p_2_10 + 120 p_2_2 + 120 p_2_3 + 120 p_2_5 + 120 p_2_6 + 120 p_2_7 + 120 p_2_8 + 100000 z_2_10 + 100000 z_2_2 + 100000 z_2_3 + 100000 z_2_5 + 100000 z_2_6 + 100000 z_2_7 + 100000 z_2_8 <= 702007.2541733894
 c4885: 120 p_2_1 + 120 p_2_10 + 120 p_2_2 + 120 p_2_3 + 120 p_2_5 + 120 p_2_6 + 120 p_2_7 + 120 p_2_8 + 100000 z_2_1 + 100000 z_2_10 + 100000 z_2_2 + 100000 z_2_3 + 100000 z_2_5 + 100000 z_2_6 + 100000 z_2_7 + 100000 z_2_8 <= 802006.34446906007
 c4886: 120 p_2_10 + 120 p_2_4 + 120 p_2_5 + 120 p_2_6 + 120 p_2_7 + 120 p_2_8 + 100000 z_2_10 + 100000 z_2_4 + 100000 z_2_5 + 100000 z_2_6 + 100000 z_2_7 + 100000 z_2_8 <= 602083.93058206839
 c4887: 120 p_2_1 + 120 p_2_10 + 120 p_2_4 + 120 p_2_5 + 120 p_2_6 + 120 p_2_7 + 120 p_2_8 + 100000 z_2_1 + 100000 z_2_10 + 100000 z_2_4 + 100000 z_2_5 + 100000 z_2_6 + 100000 z_2_7 + 100000 z_2_8 <= 702083.86320234742
 c4888: 120 p_2_10 + 120 p_2_2 + 120 p_2_4 + 120 p_2_5 + 120 p_2_6 + 120 p_2_7 + 120 p_2_8 + 100000 z_2_10 + 100000 z_2_2 + 100000 z_2_4 + 100000 z_2_5 + 100000 z_2_6 + 100000 z_2_7 + 100000 z_2_8 <= 702062.93544940103
 c4889: 120 p_2_1 + 120 p_2_10 + 120 p_2_2 + 120 p_2_4 + 120 p_2_5 + 120 p_2_6 + 120 p_2_7 + 120 p_2_8 + 100000 z_2_1 + 100000 z_2_10 + 100000 z_2_2 + 100000 z_2_4 + 100000 z_2_5 + 100000 z_2_6 + 100000 z_2_7 + 100000 z_2_8 <= 802062.86806968017
 c4890: 120 p_2_10 + 120 p_2_3 + 120 p_2_4 + 120 p_2_5 + 120 p_2_6 + 120 p_2_7 + 120 p_2_8 + 100000 z_2_10 + 100000 z_2_3 + 100000 z_2_4 + 100000 z_2_5 + 100000 z_2_6 + 100000 z_2_7 + 100000 z_2_8 <= 702027.96969970688
 c4891: 120 p_2_1 + 120 p_2_10 + 120 p_2_3 + 120 p_2_4 + 120 p_2_5 + 120 p_2_6 + 120 p_2_7 + 120 p_2_8 + 100000 z_2_1 + 100000 z_2_10 + 100000 z_2_3 + 100000 z_2_4 + 100000 z_2_5 + 100000 z_2_6 + 100000 z_2_7 + 100000 z_2_8 <= 802026.53379070782
 c4892: 120 p_2_10 + 120 p_2_2 + 120 p_2_3 + 120 p_2_4 + 120 p_2_5 + 120 p_2_6 + 120 p_2_7 + 120 p_2_8 + 100000 z_2_10 + 100000 z_2_2 + 100000 z_2_3 + 100000 z_2_4 + 100000 z_2_5 + 100000 z_2_6 + 100000 z_2_7 + 100000 z_2_8 <= 802005.90739866067
 c4893: 120 p_2_1 + 120 p_2_10 + 120 p_2_2 + 120 p_2_3 + 120 p_2_4 + 120 p_2_5 + 120 p_2_6 + 120 p_2_7 + 120 p_2_8 + 100000 z_2_1 + 100000 z_2_10 + 100000 z_2_2 + 100000 z_2_3 + 100000 z_2_4 + 100000 z_2_5 + 100000 z_2_6 + 100000 z_2_7 + 100000 z_2_8 <= 902005.84001893969
 c4894: 120 p_2_10 + 120 p_2_9 + 100000 z_2_10 + 100000 z_2_9 <= 202540.08493958542
 c4895: 120 p_2_1 + 120 p_2_10 + 120 p_2_9 + 100000 z_2_1 + 100000 z_2_10 + 100000 z_2_9 <= 302537.73969093023
 c4896: 120 p_2_10 + 120 p_2_2 + 120 p_2_9 + 100000 z_2_10 + 100000 z_2_2 + 100000 z_2_9 <= 302279.63707014662
 c4897: 120 p_2_1 + 120 p_2_10 + 120 p_2_2 + 120 p_2_9 + 100000 z_2_1 + 100000 z_2_10 + 100000 z_2_2 + 100000 z_2_9 <= 402277.29182149144
 c4898: 120 p_2_10 + 120 p_2_3 + 120 p_2_9 + 100000 z_2_10 + 100000 z_2_3 + 100000 z_2_9 <= 302475.30070826417
 c4899: 120 p_2_1 + 120 p_2_10 + 120 p_2_3 + 120 p_2_9 + 100000 z_2_1 + 100000 z_2_10 + 100000 z_2_3 + 100000 z_2_9 <= 402472.95545960899
 c4900: 120 p_2_10 + 120 p_2_2 + 120 p_2_3 + 120 p_2_9 + 100000 z_2_10 + 100000 z_2_2 + 100000 z_2_3 + 100000 z_2_9 <= 402214.85283882538
 c4901: 120 p_2_1 + 120 p_2_10 + 120 p_2_2 + 120 p_2_3 + 120 p_2_9 + 100000 z_2_1 + 100000 z_2_10 + 100000 z_2_2 + 100000 z_2_3 + 100000 z_2_9 <= 502212.50759017025
 c4902: 120 p_2_10 + 120 p_2_4 + 120 p_2_9 + 100000 z_2_10 + 100000 z_2_4 + 100000 z_2_9 <= 302537.5860284454
 c4903: 120 p_2_1 + 120 p_2_10 + 120 p_2_4 + 120 p_2_9 + 100000 z_2_1 + 100000 z_2_10 + 100000 z_2_4 + 100000 z_2_9 <= 402537.51864872442
 c4904: 120 p_2_10 + 120 p_2_2 + 120 p_2_4 + 120 p_2_9 + 100000 z_2_10 + 100000 z_2_2 + 100000 z_2_4 + 100000 z_2_9 <= 402277.1381590066
 c4905: 120 p_2_1 + 120 p_2_10 + 120 p_2_2 + 120 p_2_4 + 120 p_2_9 + 100000 z_2_1 + 100000 z_2_10 + 100000 z_2_2 + 100000 z_2_4 + 100000 z_2_9 <= 502277.07077928563
 c4906: 120 p_2_10 + 120 p_2_3 + 120 p_2_4 + 120 p_2_9 + 100000 z_2_10 + 100000 z_2_3 + 100000 z_2_4 + 100000 z_2_9 <= 402472.80179712415
 c4907: 120 p_2_1 + 120 p_2_10 + 120 p_2_3 + 120 p_2_4 + 120 p_2_9 + 100000 z_2_1 + 100000 z_2_10 + 100000 z_2_3 + 100000 z_2_4 + 100000 z_2_9 <= 502472.73441740318
 c4908: 120 p_2_10 + 120 p_2_2 + 120 p_2_3 + 120 p_2_4 + 120 p_2_9 + 100000 z_2_10 + 100000 z_2_2 + 100000 z_2_3 + 100000 z_2_4 + 100000 z_2_9 <= 502212.35392768536
 c4909: 120 p_2_1 + 120 p_2_10 + 120 p_2_2 + 120 p_2_3 + 120 p_2_4 + 120 p_2_9 + 100000 z_2_1 + 100000 z_2_10 + 100000 z_2_2 + 100000 z_2_3 + 100000 z_2_4 + 100000 z_2_9 <= 602212.28654796444
 c4910: 120 p_2_10 + 120 p_2_5 + 120 p_2_9 + 100000 z_2_10 + 100000 z_2_5 + 100000 z_2_9 <= 302245.12179506372
 c4911: 120 p_2_1 + 120 p_2_10 + 120 p_2_5 + 120 p_2_9 + 100000 z_2_1 + 100000 z_2_10 + 100000 z_2_5 + 100000 z_2_9 <= 402243.82132523932
 c4912: 120 p_2_10 + 120 p_2_2 + 120 p_2_5 + 120 p_2_9 + 100000 z_2_10 + 100000 z_2_2 + 100000 z_2_5 + 100000 z_2_9 <= 402230.35813415056
 c4913: 120 p_2_1 + 120 p_2_10 + 120 p_2_2 + 120 p_2_5 + 120 p_2_9 + 100000 z_2_1 + 100000 z_2_10 + 100000 z_2_2 + 100000 z_2_5 + 100000 z_2_9 <= 502229.05766432622
 c4914: 120 p_2_10 + 120 p_2_3 + 120 p_2_5 + 120 p_2_9 + 100000 z_2_10 + 100000 z_2_3 + 100000 z_2_5 + 100000 z_2_9 <= 402172.20172994095
 c4915: 120 p_2_1 + 120 p_2_10 + 120 p_2_3 + 120 p_2_5 + 120 p_2_9 + 100000 z_2_1 + 100000 z_2_10 + 100000 z_2_3 + 100000 z_2_5 + 100000 z_2_9 <= 502169.85648128577
 c4916: 120 p_2_10 + 120 p_2_2 + 120 p_2_3 + 120 p_2_5 + 120 p_2_9 + 100000 z_2_10 + 100000 z_2_2 + 100000 z_2_3 + 100000 z_2_5 + 100000 z_2_9 <= 502157.43806902779
 c4917: 120 p_2_1 + 120 p_2_10 + 120 p_2_2 + 120 p_2_3 + 120 p_2_5 + 120 p_2_9 + 100000 z_2_1 + 100000 z_2_10 + 100000 z_2_2 + 100000 z_2_3 + 100000 z_2_5 + 100000 z_2_9 <= 602155.09282037267
 c4918: 120 p_2_10 + 120 p_2_4 + 120 p_2_5 + 120 p_2_9 + 100000 z_2_10 + 100000 z_2_4 + 100000 z_2_5 + 100000 z_2_9 <= 402244.42454503215
 c4919: 120 p_2_1 + 120 p_2_10 + 120 p_2_4 + 120 p_2_5 + 120 p_2_9 + 100000 z_2_1 + 100000 z_2_10 + 100000 z_2_4 + 100000 z_2_5 + 100000 z_2_9 <= 502243.60028303351
 c4920: 120 p_2_10 + 120 p_2_2 + 120 p_2_4 + 120 p_2_5 + 120 p_2_9 + 100000 z_2_10 + 100000 z_2_2 + 100000 z_2_4 + 100000 z_2_5 + 100000 z_2_9 <= 502229.66088411905
 c4921: 120 p_2_1 + 120 p_2_10 + 120 p_2_2 + 120 p_2_4 + 120 p_2_5 + 120 p_2_9 + 100000 z_2_1 + 100000 z_2_10 + 100000 z_2_2 + 100000 z_2_4 + 100000 z_2_5 + 100000 z_2_9 <= 602228.83662212035
 c4922: 120 p_2_10 + 120 p_2_3 + 120 p_2_4 + 120 p_2_5 + 120 p_2_9 + 100000 z_2_10 + 100000 z_2_3 + 100000 z_2_4 + 100000 z_2_5 + 100000 z_2_9 <= 502169.70281880087
 c4923: 120 p_2_1 + 120 p_2_10 + 120 p_2_3 + 120 p_2_4 + 120 p_2_5 + 120 p_2_9 + 100000 z_2_1 + 100000 z_2_10 + 100000 z_2_3 + 100000 z_2_4 + 100000 z_2_5 + 100000 z_2_9 <= 602169.63543907995
 c4924: 120 p_2_10 + 120 p_2_2 + 120 p_2_3 + 120 p_2_4 + 120 p_2_5 + 120 p_2_9 + 100000 z_2_10 + 100000 z_2_2 + 100000 z_2_3 + 100000 z_2_4 + 100000 z_2_5 + 100000 z_2_9 <= 602154.93915788771
 c4925: 120 p_2_1 + 120 p_2_10 + 120 p_2_2 + 120 p_2_3 + 120 p_2_4 + 120 p_2_5 + 120 p_2_9 + 100000 z_2_1 + 100000 z_2_10 + 100000 z_2_2 + 100000 z_2_3 + 100000 z_2_4 + 100000 z_2_5 + 100000 z_2_9 <= 702154.87177816685
 c4926: 120 p_2_10 + 120 p_2_6 + 120 p_2_9 + 100000 z_2_10 + 100000 z_2_6 + 100000 z_2_9 <= 302514.43288103514
 c4927: 120 p_2_1 + 120 p_2_10 + 120 p_2_6 + 120 p_2_9 + 100000 z_2_1 + 100000 z_2_10 + 100000 z_2_6 + 100000 z_2_9 <= 402512.08763237996
 c4928: 120 p_2_10 + 120 p_2_2 + 120 p_2_6 + 120 p_2_9 + 100000 z_2_10 + 100000 z_2_2 + 100000 z_2_6 + 100000 z_2_9 <= 402253.98501159635
 c4929: 120 p_2_1 + 120 p_2_10 + 120 p_2_2 + 120 p_2_6 + 120 p_2_9 + 100000 z_2_1 + 100000 z_2_10 + 100000 z_2_2 + 100000 z_2_6 + 100000 z_2_9 <= 502251.63976294117
 c4930: 120 p_2_10 + 120 p_2_3 + 120 p_2_6 + 120 p_2_9 + 100000 z_2_10 + 100000 z_2_3 + 100000 z_2_6 + 100000 z_2_9 <= 402464.35364659672
 c4931: 120 p_2_1 + 120 p_2_10 + 120 p_2_3 + 120 p_2_6 + 120 p_2_9 + 100000 z_2_1 + 100000 z_2_10 + 100000 z_2_3 + 100000 z_2_6 + 100000 z_2_9 <= 502462.00839794154
 c4932: 120 p_2_10 + 120 p_2_2 + 120 p_2_3 + 120 p_2_6 + 120 p_2_9 + 100000 z_2_10 + 100000 z_2_2 + 100000 z_2_3 + 100000 z_2_6 + 100000 z_2_9 <= 502203.90577715792
 c4933: 120 p_2_1 + 120 p_2_10 + 120 p_2_2 + 120 p_2_3 + 120 p_2_6 + 120 p_2_9 + 100000 z_2_1 + 100000 z_2_10 + 100000 z_2_2 + 100000 z_2_3 + 100000 z_2_6 + 100000 z_2_9 <= 602201.5605285028
 c4934: 120 p_2_10 + 120 p_2_4 + 120 p_2_6 + 120 p_2_9 + 100000 z_2_10 + 100000 z_2_4 + 100000 z_2_6 + 100000 z_2_9 <= 402511.93396989512
 c4935: 120 p_2_1 + 120 p_2_10 + 120 p_2_4 + 120 p_2_6 + 120 p_2_9 + 100000 z_2_1 + 100000 z_2_10 + 100000 z_2_4 + 100000 z_2_6 + 100000 z_2_9 <= 502511.86659017415
 c4936: 120 p_2_10 + 120 p_2_2 + 120 p_2_4 + 120 p_2_6 + 120 p_2_9 + 100000 z_2_10 + 100000 z_2_2 + 100000 z_2_4 + 100000 z_2_6 + 100000 z_2_9 <= 502251.48610045633
 c4937: 120 p_2_1 + 120 p_2_10 + 120 p_2_2 + 120 p_2_4 + 120 p_2_6 + 120 p_2_9 + 100000 z_2_1 + 100000 z_2_10 + 100000 z_2_2 + 100000 z_2_4 + 100000 z_2_6 + 100000 z_2_9 <= 602251.41872073535
 c4938: 120 p_2_10 + 120 p_2_3 + 120 p_2_4 + 120 p_2_6 + 120 p_2_9 + 100000 z_2_10 + 100000 z_2_3 + 100000 z_2_4 + 100000 z_2_6 + 100000 z_2_9 <= 502461.85473545664
 c4939: 120 p_2_1 + 120 p_2_10 + 120 p_2_3 + 120 p_2_4 + 120 p_2_6 + 120 p_2_9 + 100000 z_2_1 + 100000 z_2_10 + 100000 z_2_3 + 100000 z_2_4 + 100000 z_2_6 + 100000 z_2_9 <= 602461.78735573567
 c4940: 120 p_2_10 + 120 p_2_2 + 120 p_2_3 + 120 p_2_4 + 120 p_2_6 + 120 p_2_9 + 100000 z_2_10 + 100000 z_2_2 + 100000 z_2_3 + 100000 z_2_4 + 100000 z_2_6 + 100000 z_2_9 <= 602201.40686601785
 c4941: 120 p_2_1 + 120 p_2_10 + 120 p_2_2 + 120 p_2_3 + 120 p_2_4 + 120 p_2_6 + 120 p_2_9 + 100000 z_2_1 + 100000 z_2_10 + 100000 z_2_2 + 100000 z_2_3 + 100000 z_2_4 + 100000 z_2_6 + 100000 z_2_9 <= 702201.33948629699
 c4942: 120 p_2_10 + 120 p_2_5 + 120 p_2_6 + 120 p_2_9 + 100000 z_2_10 + 100000 z_2_5 + 100000 z_2_6 + 100000 z_2_9 <= 402211.33390271186
 c4943: 120 p_2_1 + 120 p_2_10 + 120 p_2_5 + 120 p_2_6 + 120 p_2_9 + 100000 z_2_1 + 100000 z_2_10 + 100000 z_2_5 + 100000 z_2_6 + 100000 z_2_9 <= 502208.98865405674
 c4944: 120 p_2_10 + 120 p_2_2 + 120 p_2_5 + 120 p_2_6 + 120 p_2_9 + 100000 z_2_10 + 100000 z_2_2 + 100000 z_2_5 + 100000 z_2_6 + 100000 z_2_9 <= 502196.57024179876
 c4945: 120 p_2_1 + 120 p_2_10 + 120 p_2_2 + 120 p_2_5 + 120 p_2_6 + 120 p_2_9 + 100000 z_2_1 + 100000 z_2_10 + 100000 z_2_2 + 100000 z_2_5 + 100000 z_2_6 + 100000 z_2_9 <= 602194.22499314358
 c4946: 120 p_2_10 + 120 p_2_3 + 120 p_2_5 + 120 p_2_6 + 120 p_2_9 + 100000 z_2_10 + 100000 z_2_3 + 100000 z_2_5 + 100000 z_2_6 + 100000 z_2_9 <= 502161.25466827344
 c4947: 120 p_2_1 + 120 p_2_10 + 120 p_2_3 + 120 p_2_5 + 120 p_2_6 + 120 p_2_9 + 100000 z_2_1 + 100000 z_2_10 + 100000 z_2_3 + 100000 z_2_5 + 100000 z_2_6 + 100000 z_2_9 <= 602158.90941961831
 c4948: 120 p_2_10 + 120 p_2_2 + 120 p_2_3 + 120 p_2_5 + 120 p_2_6 + 120 p_2_9 + 100000 z_2_10 + 100000 z_2_2 + 100000 z_2_3 + 100000 z_2_5 + 100000 z_2_6 + 100000 z_2_9 <= 602146.49100736028
 c4949: 120 p_2_1 + 120 p_2_10 + 120 p_2_2 + 120 p_2_3 + 120 p_2_5 + 120 p_2_6 + 120 p_2_9 + 100000 z_2_1 + 100000 z_2_10 + 100000 z_2_2 + 100000 z_2_3 + 100000 z_2_5 + 100000 z_2_6 + 100000 z_2_9 <= 702144.1457587051
 c4950: 120 p_2_10 + 120 p_2_4 + 120 p_2_5 + 120 p_2_6 + 120 p_2_9 + 100000 z_2_10 + 100000 z_2_4 + 100000 z_2_5 + 100000 z_2_6 + 100000 z_2_9 <= 502208.83499157184
 c4951: 120 p_2_1 + 120 p_2_10 + 120 p_2_4 + 120 p_2_5 + 120 p_2_6 + 120 p_2_9 + 100000 z_2_1 + 100000 z_2_10 + 100000 z_2_4 + 100000 z_2_5 + 100000 z_2_6 + 100000 z_2_9 <= 602208.76761185087
 c4952: 120 p_2_10 + 120 p_2_2 + 120 p_2_4 + 120 p_2_5 + 120 p_2_6 + 120 p_2_9 + 100000 z_2_10 + 100000 z_2_2 + 100000 z_2_4 + 100000 z_2_5 + 100000 z_2_6 + 100000 z_2_9 <= 602194.07133065874
 c4953: 120 p_2_1 + 120 p_2_10 + 120 p_2_2 + 120 p_2_4 + 120 p_2_5 + 120 p_2_6 + 120 p_2_9 + 100000 z_2_1 + 100000 z_2_10 + 100000 z_2_2 + 100000 z_2_4 + 100000 z_2_5 + 100000 z_2_6 + 100000 z_2_9 <= 702194.00395093777
 c4954: 120 p_2_10 + 120 p_2_3 + 120 p_2_4 + 120 p_2_5 + 120 p_2_6 + 120 p_2_9 + 100000 z_2_10 + 100000 z_2_3 + 100000 z_2_4 + 100000 z_2_5 + 100000 z_2_6 + 100000 z_2_9 <= 602158.75575713336
 c4955: 120 p_2_1 + 120 p_2_10 + 120 p_2_3 + 120 p_2_4 + 120 p_2_5 + 120 p_2_6 + 120 p_2_9 + 100000 z_2_1 + 100000 z_2_10 + 100000 z_2_3 + 100000 z_2_4 + 100000 z_2_5 + 100000 z_2_6 + 100000 z_2_9 <= 702158.6883774125
 c4956: 120 p_2_10 + 120 p_2_2 + 120 p_2_3 + 120 p_2_4 + 120 p_2_5 + 120 p_2_6 + 120 p_2_9 + 100000 z_2_10 + 100000 z_2_2 + 100000 z_2_3 + 100000 z_2_4 + 100000 z_2_5 + 100000 z_2_6 + 100000 z_2_9 <= 702143.99209622026
 c4957: 120 p_2_1 + 120 p_2_10 + 120 p_2_2 + 120 p_2_3 + 120 p_2_4 + 120 p_2_5 + 120 p_2_6 + 120 p_2_9 + 100000 z_2_1 + 100000 z_2_10 + 100000 z_2_2 + 100000 z_2_3 + 100000 z_2_4 + 100000 z_2_5 + 100000 z_2_6 + 100000 z_2_9 <= 802143.92471649928
 c4958: 120 p_2_10 + 120 p_2_7 + 120 p_2_9 + 100000 z_2_10 + 100000 z_2_7 + 100000 z_2_9 <= 302478.42370356002
 c4959: 120 p_2_1 + 120 p_2_10 + 120 p_2_7 + 120 p_2_9 + 100000 z_2_1 + 100000 z_2_10 + 100000 z_2_7 + 100000 z_2_9 <= 402477.51399923075
 c4960: 120 p_2_10 + 120 p_2_2 + 120 p_2_7 + 120 p_2_9 + 100000 z_2_10 + 100000 z_2_2 + 100000 z_2_7 + 100000 z_2_9 <= 402217.97583412123
 c4961: 120 p_2_1 + 120 p_2_10 + 120 p_2_2 + 120 p_2_7 + 120 p_2_9 + 100000 z_2_1 + 100000 z_2_10 + 100000 z_2_2 + 100000 z_2_7 + 100000 z_2_9 <= 502217.06612979196
 c4962: 120 p_2_10 + 120 p_2_3 + 120 p_2_7 + 120 p_2_9 + 100000 z_2_10 + 100000 z_2_3 + 100000 z_2_7 + 100000 z_2_9 <= 402413.63947223884
 c4963: 120 p_2_1 + 120 p_2_10 + 120 p_2_3 + 120 p_2_7 + 120 p_2_9 + 100000 z_2_1 + 100000 z_2_10 + 100000 z_2_3 + 100000 z_2_7 + 100000 z_2_9 <= 502412.72976790956
 c4964: 120 p_2_10 + 120 p_2_2 + 120 p_2_3 + 120 p_2_7 + 120 p_2_9 + 100000 z_2_10 + 100000 z_2_2 + 100000 z_2_3 + 100000 z_2_7 + 100000 z_2_9 <= 502153.19160280004
 c4965: 120 p_2_1 + 120 p_2_10 + 120 p_2_2 + 120 p_2_3 + 120 p_2_7 + 120 p_2_9 + 100000 z_2_1 + 100000 z_2_10 + 100000 z_2_2 + 100000 z_2_3 + 100000 z_2_7 + 100000 z_2_9 <= 602152.28189847071
 c4966: 120 p_2_10 + 120 p_2_4 + 120 p_2_7 + 120 p_2_9 + 100000 z_2_10 + 100000 z_2_4 + 100000 z_2_7 + 100000 z_2_9 <= 402477.07692883135
 c4967: 120 p_2_1 + 120 p_2_10 + 120 p_2_4 + 120 p_2_7 + 120 p_2_9 + 100000 z_2_1 + 100000 z_2_10 + 100000 z_2_4 + 100000 z_2_7 + 100000 z_2_9 <= 502477.00954911037
 c4968: 120 p_2_10 + 120 p_2_2 + 120 p_2_4 + 120 p_2_7 + 120 p_2_9 + 100000 z_2_10 + 100000 z_2_2 + 100000 z_2_4 + 100000 z_2_7 + 100000 z_2_9 <= 502216.62905939255
 c4969: 120 p_2_1 + 120 p_2_10 + 120 p_2_2 + 120 p_2_4 + 120 p_2_7 + 120 p_2_9 + 100000 z_2_1 + 100000 z_2_10 + 100000 z_2_2 + 100000 z_2_4 + 100000 z_2_7 + 100000 z_2_9 <= 602216.56167967163
 c4970: 120 p_2_10 + 120 p_2_3 + 120 p_2_4 + 120 p_2_7 + 120 p_2_9 + 100000 z_2_10 + 100000 z_2_3 + 100000 z_2_4 + 100000 z_2_7 + 100000 z_2_9 <= 502412.2926975101
 c4971: 120 p_2_1 + 120 p_2_10 + 120 p_2_3 + 120 p_2_4 + 120 p_2_7 + 120 p_2_9 + 100000 z_2_1 + 100000 z_2_10 + 100000 z_2_3 + 100000 z_2_4 + 100000 z_2_7 + 100000 z_2_9 <= 602412.22531778913
 c4972: 120 p_2_10 + 120 p_2_2 + 120 p_2_3 + 120 p_2_4 + 120 p_2_7 + 120 p_2_9 + 100000 z_2_10 + 100000 z_2_2 + 100000 z_2_3 + 100000 z_2_4 + 100000 z_2_7 + 100000 z_2_9 <= 602151.84482807131
 c4973: 120 p_2_1 + 120 p_2_10 + 120 p_2_2 + 120 p_2_3 + 120 p_2_4 + 120 p_2_7 + 120 p_2_9 + 100000 z_2_1 + 100000 z_2_10 + 100000 z_2_2 + 100000 z_2_3 + 100000 z_2_4 + 100000 z_2_7 + 100000 z_2_9 <= 702151.77744835033
 c4974: 120 p_2_10 + 120 p_2_5 + 120 p_2_7 + 120 p_2_9 + 100000 z_2_10 + 100000 z_2_5 + 100000 z_2_7 + 100000 z_2_9 <= 402199.52824727411
 c4975: 120 p_2_1 + 120 p_2_10 + 120 p_2_5 + 120 p_2_7 + 120 p_2_9 + 100000 z_2_1 + 100000 z_2_10 + 100000 z_2_5 + 100000 z_2_7 + 100000 z_2_9 <= 502197.18299861893
 c4976: 120 p_2_10 + 120 p_2_2 + 120 p_2_5 + 120 p_2_7 + 120 p_2_9 + 100000 z_2_10 + 100000 z_2_2 + 100000 z_2_5 + 100000 z_2_7 + 100000 z_2_9 <= 502184.76458636095
 c4977: 120 p_2_1 + 120 p_2_10 + 120 p_2_2 + 120 p_2_5 + 120 p_2_7 + 120 p_2_9 + 100000 z_2_1 + 100000 z_2_10 + 100000 z_2_2 + 100000 z_2_5 + 100000 z_2_7 + 100000 z_2_9 <= 602182.41933770583
 c4978: 120 p_2_10 + 120 p_2_3 + 120 p_2_5 + 120 p_2_7 + 120 p_2_9 + 100000 z_2_10 + 100000 z_2_3 + 100000 z_2_5 + 100000 z_2_7 + 100000 z_2_9 <= 502110.54049391556
 c4979: 120 p_2_1 + 120 p_2_10 + 120 p_2_3 + 120 p_2_5 + 120 p_2_7 + 120 p_2_9 + 100000 z_2_1 + 100000 z_2_10 + 100000 z_2_3 + 100000 z_2_5 + 100000 z_2_7 + 100000 z_2_9 <= 602109.63078958634
 c4980: 120 p_2_10 + 120 p_2_2 + 120 p_2_3 + 120 p_2_5 + 120 p_2_7 + 120 p_2_9 + 100000 z_2_10 + 100000 z_2_2 + 100000 z_2_3 + 100000 z_2_5 + 100000 z_2_7 + 100000 z_2_9 <= 602095.77683300246
 c4981: 120 p_2_1 + 120 p_2_10 + 120 p_2_2 + 120 p_2_3 + 120 p_2_5 + 120 p_2_7 + 120 p_2_9 + 100000 z_2_1 + 100000 z_2_10 + 100000 z_2_2 + 100000 z_2_3 + 100000 z_2_5 + 100000 z_2_7 + 100000 z_2_9 <= 702094.86712867313
 c4982: 120 p_2_10 + 120 p_2_4 + 120 p_2_5 + 120 p_2_7 + 120 p_2_9 + 100000 z_2_10 + 100000 z_2_4 + 100000 z_2_5 + 100000 z_2_7 + 100000 z_2_9 <= 502197.02933613409
 c4983: 120 p_2_1 + 120 p_2_10 + 120 p_2_4 + 120 p_2_5 + 120 p_2_7 + 120 p_2_9 + 100000 z_2_1 + 100000 z_2_10 + 100000 z_2_4 + 100000 z_2_5 + 100000 z_2_7 + 100000 z_2_9 <= 602196.96195641311
 c4984: 120 p_2_10 + 120 p_2_2 + 120 p_2_4 + 120 p_2_5 + 120 p_2_7 + 120 p_2_9 + 100000 z_2_10 + 100000 z_2_2 + 100000 z_2_4 + 100000 z_2_5 + 100000 z_2_7 + 100000 z_2_9 <= 602182.26567522087
 c4985: 120 p_2_1 + 120 p_2_10 + 120 p_2_2 + 120 p_2_4 + 120 p_2_5 + 120 p_2_7 + 120 p_2_9 + 100000 z_2_1 + 100000 z_2_10 + 100000 z_2_2 + 100000 z_2_4 + 100000 z_2_5 + 100000 z_2_7 + 100000 z_2_9 <= 702182.19829550001
 c4986: 120 p_2_10 + 120 p_2_3 + 120 p_2_4 + 120 p_2_5 + 120 p_2_7 + 120 p_2_9 + 100000 z_2_10 + 100000 z_2_3 + 100000 z_2_4 + 100000 z_2_5 + 100000 z_2_7 + 100000 z_2_9 <= 602109.19371918682
 c4987: 120 p_2_1 + 120 p_2_10 + 120 p_2_3 + 120 p_2_4 + 120 p_2_5 + 120 p_2_7 + 120 p_2_9 + 100000 z_2_1 + 100000 z_2_10 + 100000 z_2_3 + 100000 z_2_4 + 100000 z_2_5 + 100000 z_2_7 + 100000 z_2_9 <= 702109.12633946596
 c4988: 120 p_2_10 + 120 p_2_2 + 120 p_2_3 + 120 p_2_4 + 120 p_2_5 + 120 p_2_7 + 120 p_2_9 + 100000 z_2_10 + 100000 z_2_2 + 100000 z_2_3 + 100000 z_2_4 + 100000 z_2_5 + 100000 z_2_7 + 100000 z_2_9 <= 702094.43005827372
 c4989: 120 p_2_1 + 120 p_2_10 + 120 p_2_2 + 120 p_2_3 + 120 p_2_4 + 120 p_2_5 + 120 p_2_7 + 120 p_2_9 + 100000 z_2_1 + 100000 z_2_10 + 100000 z_2_2 + 100000 z_2_3 + 100000 z_2_4 + 100000 z_2_5 + 100000 z_2_7 + 100000 z_2_9 <= 802094.36267855274
 c4990: 120 p_2_10 + 120 p_2_6 + 120 p_2_7 + 120 p_2_9 + 100000 z_2_10 + 100000 z_2_6 + 100000 z_2_7 + 100000 z_2_9 <= 402452.77164500975
 c4991: 120 p_2_1 + 120 p_2_10 + 120 p_2_6 + 120 p_2_7 + 120 p_2_9 + 100000 z_2_1 + 100000 z_2_10 + 100000 z_2_6 + 100000 z_2_7 + 100000 z_2_9 <= 502451.86194068048
 c4992: 120 p_2_10 + 120 p_2_2 + 120 p_2_6 + 120 p_2_7 + 120 p_2_9 + 100000 z_2_10 + 100000 z_2_2 + 100000 z_2_6 + 100000 z_2_7 + 100000 z_2_9 <= 502192.32377557096
 c4993: 120 p_2_1 + 120 p_2_10 + 120 p_2_2 + 120 p_2_6 + 120 p_2_7 + 120 p_2_9 + 100000 z_2_1 + 100000 z_2_10 + 100000 z_2_2 + 100000 z_2_6 + 100000 z_2_7 + 100000 z_2_9 <= 602191.41407124174
 c4994: 120 p_2_10 + 120 p_2_3 + 120 p_2_6 + 120 p_2_7 + 120 p_2_9 + 100000 z_2_10 + 100000 z_2_3 + 100000 z_2_6 + 100000 z_2_7 + 100000 z_2_9 <= 502402.69241057133
 c4995: 120 p_2_1 + 120 p_2_10 + 120 p_2_3 + 120 p_2_6 + 120 p_2_7 + 120 p_2_9 + 100000 z_2_1 + 100000 z_2_10 + 100000 z_2_3 + 100000 z_2_6 + 100000 z_2_7 + 100000 z_2_9 <= 602401.78270624205
 c4996: 120 p_2_10 + 120 p_2_2 + 120 p_2_3 + 120 p_2_6 + 120 p_2_7 + 120 p_2_9 + 100000 z_2_10 + 100000 z_2_2 + 100000 z_2_3 + 100000 z_2_6 + 100000 z_2_7 + 100000 z_2_9 <= 602142.24454113259
 c4997: 120 p_2_1 + 120 p_2_10 + 120 p_2_2 + 120 p_2_3 + 120 p_2_6 + 120 p_2_7 + 120 p_2_9 + 100000 z_2_1 + 100000 z_2_10 + 100000 z_2_2 + 100000 z_2_3 + 100000 z_2_6 + 100000 z_2_7 + 100000 z_2_9 <= 702141.33483680326
 c4998: 120 p_2_10 + 120 p_2_4 + 120 p_2_6 + 120 p_2_7 + 120 p_2_9 + 100000 z_2_10 + 100000 z_2_4 + 100000 z_2_6 + 100000 z_2_7 + 100000 z_2_9 <= 502451.42487028107
 c4999: 120 p_2_1 + 120 p_2_10 + 120 p_2_4 + 120 p_2_6 + 120 p_2_7 + 120 p_2_9 + 100000 z_2_1 + 100000 z_2_10 + 100000 z_2_4 + 100000 z_2_6 + 100000 z_2_7 + 100000 z_2_9 <= 602451.35749056016
 c5000: 120 p_2_10 + 120 p_2_2 + 120 p_2_4 + 120 p_2_6 + 120 p_2_7 + 120 p_2_9 + 100000 z_2_10 + 100000 z_2_2 + 100000 z_2_4 + 100000 z_2_6 + 100000 z_2_7 + 100000 z_2_9 <= 602190.97700084234
 c5001: 120 p_2_1 + 120 p_2_10 + 120 p_2_2 + 120 p_2_4 + 120 p_2_6 + 120 p_2_7 + 120 p_2_9 + 100000 z_2_1 + 100000 z_2_10 + 100000 z_2_2 + 100000 z_2_4 + 100000 z_2_6 + 100000 z_2_7 + 100000 z_2_9 <= 702190.90962112136
 c5002: 120 p_2_10 + 120 p_2_3 + 120 p_2_4 + 120 p_2_6 + 120 p_2_7 + 120 p_2_9 + 100000 z_2_10 + 100000 z_2_3 + 100000 z_2_4 + 100000 z_2_6 + 100000 z_2_7 + 100000 z_2_9 <= 602401.34563584265
 c5003: 120 p_2_1 + 120 p_2_10 + 120 p_2_3 + 120 p_2_4 + 120 p_2_6 + 120 p_2_7 + 120 p_2_9 + 100000 z_2_1 + 100000 z_2_10 + 100000 z_2_3 + 100000 z_2_4 + 100000 z_2_6 + 100000 z_2_7 + 100000 z_2_9 <= 702401.27825612167
 c5004: 120 p_2_10 + 120 p_2_2 + 120 p_2_3 + 120 p_2_4 + 120 p_2_6 + 120 p_2_7 + 120 p_2_9 + 100000 z_2_10 + 100000 z_2_2 + 100000 z_2_3 + 100000 z_2_4 + 100000 z_2_6 + 100000 z_2_7 + 100000 z_2_9 <= 702140.89776640385
 c5005: 120 p_2_1 + 120 p_2_10 + 120 p_2_2 + 120 p_2_3 + 120 p_2_4 + 120 p_2_6 + 120 p_2_7 + 120 p_2_9 + 100000 z_2_1 + 100000 z_2_10 + 100000 z_2_2 + 100000 z_2_3 + 100000 z_2_4 + 100000 z_2_6 + 100000 z_2_7 + 100000 z_2_9 <= 802140.83038668288
 c5006: 120 p_2_10 + 120 p_2_5 + 120 p_2_6 + 120 p_2_7 + 120 p_2_9 + 100000 z_2_10 + 100000 z_2_5 + 100000 z_2_6 + 100000 z_2_7 + 100000 z_2_9 <= 502149.67266668653
 c5007: 120 p_2_1 + 120 p_2_10 + 120 p_2_5 + 120 p_2_6 + 120 p_2_7 + 120 p_2_9 + 100000 z_2_1 + 100000 z_2_10 + 100000 z_2_5 + 100000 z_2_6 + 100000 z_2_7 + 100000 z_2_9 <= 602148.76296235726
 c5008: 120 p_2_10 + 120 p_2_2 + 120 p_2_5 + 120 p_2_6 + 120 p_2_7 + 120 p_2_9 + 100000 z_2_10 + 100000 z_2_2 + 100000 z_2_5 + 100000 z_2_6 + 100000 z_2_7 + 100000 z_2_9 <= 602134.90900577337
 c5009: 120 p_2_1 + 120 p_2_10 + 120 p_2_2 + 120 p_2_5 + 120 p_2_6 + 120 p_2_7 + 120 p_2_9 + 100000 z_2_1 + 100000 z_2_10 + 100000 z_2_2 + 100000 z_2_5 + 100000 z_2_6 + 100000 z_2_7 + 100000 z_2_9 <= 702133.99930144416
 c5010: 120 p_2_10 + 120 p_2_3 + 120 p_2_5 + 120 p_2_6 + 120 p_2_7 + 120 p_2_9 + 100000 z_2_10 + 100000 z_2_3 + 100000 z_2_5 + 100000 z_2_6 + 100000 z_2_7 + 100000 z_2_9 <= 602099.5934322481
 c5011: 120 p_2_1 + 120 p_2_10 + 120 p_2_3 + 120 p_2_5 + 120 p_2_6 + 120 p_2_7 + 120 p_2_9 + 100000 z_2_1 + 100000 z_2_10 + 100000 z_2_3 + 100000 z_2_5 + 100000 z_2_6 + 100000 z_2_7 + 100000 z_2_9 <= 702098.68372791877
 c5012: 120 p_2_10 + 120 p_2_2 + 120 p_2_3 + 120 p_2_5 + 120 p_2_6 + 120 p_2_7 + 120 p_2_9 + 100000 z_2_10 + 100000 z_2_2 + 100000 z_2_3 + 100000 z_2_5 + 100000 z_2_6 + 100000 z_2_7 + 100000 z_2_9 <= 702084.829771335
 c5013: 120 p_2_1 + 120 p_2_10 + 120 p_2_2 + 120 p_2_3 + 120 p_2_5 + 120 p_2_6 + 120 p_2_7 + 120 p_2_9 + 100000 z_2_1 + 100000 z_2_10 + 100000 z_2_2 + 100000 z_2_3 + 100000 z_2_5 + 100000 z_2_6 + 100000 z_2_7 + 100000 z_2_9 <= 802083.92006700567
 c5014: 120 p_2_10 + 120 p_2_4 + 120 p_2_5 + 120 p_2_6 + 120 p_2_7 + 120 p_2_9 + 100000 z_2_10 + 100000 z_2_4 + 100000 z_2_5 + 100000 z_2_6 + 100000 z_2_7 + 100000 z_2_9 <= 602148.32589195785
 c5015: 120 p_2_1 + 120 p_2_10 + 120 p_2_4 + 120 p_2_5 + 120 p_2_6 + 120 p_2_7 + 120 p_2_9 + 100000 z_2_1 + 100000 z_2_10 + 100000 z_2_4 + 100000 z_2_5 + 100000 z_2_6 + 100000 z_2_7 + 100000 z_2_9 <= 702148.25851223688
 c5016: 120 p_2_10 + 120 p_2_2 + 120 p_2_4 + 120 p_2_5 + 120 p_2_6 + 120 p_2_7 + 120 p_2_9 + 100000 z_2_10 + 100000 z_2_2 + 100000 z_2_4 + 100000 z_2_5 + 100000 z_2_6 + 100000 z_2_7 + 100000 z_2_9 <= 702133.56223104463
 c5017: 120 p_2_1 + 120 p_2_10 + 120 p_2_2 + 120 p_2_4 + 120 p_2_5 + 120 p_2_6 + 120 p_2_7 + 120 p_2_9 + 100000 z_2_1 + 100000 z_2_10 + 100000 z_2_2 + 100000 z_2_4 + 100000 z_2_5 + 100000 z_2_6 + 100000 z_2_7 + 100000 z_2_9 <= 802133.49485132378
 c5018: 120 p_2_10 + 120 p_2_3 + 120 p_2_4 + 120 p_2_5 + 120 p_2_6 + 120 p_2_7 + 120 p_2_9 + 100000 z_2_10 + 100000 z_2_3 + 100000 z_2_4 + 100000 z_2_5 + 100000 z_2_6 + 100000 z_2_7 + 100000 z_2_9 <= 702098.24665751937
 c5019: 120 p_2_1 + 120 p_2_10 + 120 p_2_3 + 120 p_2_4 + 120 p_2_5 + 120 p_2_6 + 120 p_2_7 + 120 p_2_9 + 100000 z_2_1 + 100000 z_2_10 + 100000 z_2_3 + 100000 z_2_4 + 100000 z_2_5 + 100000 z_2_6 + 100000 z_2_7 + 100000 z_2_9 <= 802098.17927779839
 c5020: 120 p_2_10 + 120 p_2_2 + 120 p_2_3 + 120 p_2_4 + 120 p_2_5 + 120 p_2_6 + 120 p_2_7 + 120 p_2_9 + 100000 z_2_10 + 100000 z_2_2 + 100000 z_2_3 + 100000 z_2_4 + 100000 z_2_5 + 100000 z_2_6 + 100000 z_2_7 + 100000 z_2_9 <= 802083.48299660627
 c5021: 120 p_2_1 + 120 p_2_10 + 120 p_2_2 + 120 p_2_3 + 120 p_2_4 + 120 p_2_5 + 120 p_2_6 + 120 p_2_7 + 120 p_2_9 + 100000 z_2_1 + 100000 z_2_10 + 100000 z_2_2 + 100000 z_2_3 + 100000 z_2_4 + 100000 z_2_5 + 100000 z_2_6 + 100000 z_2_7 + 100000 z_2_9 <= 902083.41561688529
 c5022: 120 p_2_10 + 120 p_2_8 + 120 p_2_9 + 100000 z_2_10 + 100000 z_2_8 + 100000 z_2_9 <= 302149.77792486706
 c5023: 120 p_2_1 + 120 p_2_10 + 120 p_2_8 + 120 p_2_9 + 100000 z_2_1 + 100000 z_2_10 + 100000 z_2_8 + 100000 z_2_9 <= 402147.43267621187
 c5024: 120 p_2_10 + 120 p_2_2 + 120 p_2_8 + 120 p_2_9 + 100000 z_2_10 + 100000 z_2_2 + 100000 z_2_8 + 100000 z_2_9 <= 402147.54480542109
 c5025: 120 p_2_1 + 120 p_2_10 + 120 p_2_2 + 120 p_2_8 + 120 p_2_9 + 100000 z_2_1 + 100000 z_2_10 + 100000 z_2_2 + 100000 z_2_8 + 100000 z_2_9 <= 502145.1995567659
 c5026: 120 p_2_10 + 120 p_2_3 + 120 p_2_8 + 120 p_2_9 + 100000 z_2_10 + 100000 z_2_3 + 100000 z_2_8 + 100000 z_2_9 <= 402055.95955675794
 c5027: 120 p_2_1 + 120 p_2_10 + 120 p_2_3 + 120 p_2_8 + 120 p_2_9 + 100000 z_2_1 + 100000 z_2_10 + 100000 z_2_3 + 100000 z_2_8 + 100000 z_2_9 <= 502053.61430810281
 c5028: 120 p_2_10 + 120 p_2_2 + 120 p_2_3 + 120 p_2_8 + 120 p_2_9 + 100000 z_2_10 + 100000 z_2_2 + 100000 z_2_3 + 100000 z_2_8 + 100000 z_2_9 <= 502053.72643731197
 c5029: 120 p_2_1 + 120 p_2_10 + 120 p_2_2 + 120 p_2_3 + 120 p_2_8 + 120 p_2_9 + 100000 z_2_1 + 100000 z_2_10 + 100000 z_2_2 + 100000 z_2_3 + 100000 z_2_8 + 100000 z_2_9 <= 602051.38118865679
 c5030: 120 p_2_10 + 120 p_2_4 + 120 p_2_8 + 120 p_2_9 + 100000 z_2_10 + 100000 z_2_4 + 100000 z_2_8 + 100000 z_2_9 <= 402147.60398002487
 c5031: 120 p_2_1 + 120 p_2_10 + 120 p_2_4 + 120 p_2_8 + 120 p_2_9 + 100000 z_2_1 + 100000 z_2_10 + 100000 z_2_4 + 100000 z_2_8 + 100000 z_2_9 <= 502147.21163400606
 c5032: 120 p_2_10 + 120 p_2_2 + 120 p_2_4 + 120 p_2_8 + 120 p_2_9 + 100000 z_2_10 + 100000 z_2_2 + 100000 z_2_4 + 100000 z_2_8 + 100000 z_2_9 <= 502145.3708605789
 c5033: 120 p_2_1 + 120 p_2_10 + 120 p_2_2 + 120 p_2_4 + 120 p_2_8 + 120 p_2_9 + 100000 z_2_1 + 100000 z_2_10 + 100000 z_2_2 + 100000 z_2_4 + 100000 z_2_8 + 100000 z_2_9 <= 602144.97851456003
 c5034: 120 p_2_10 + 120 p_2_3 + 120 p_2_4 + 120 p_2_8 + 120 p_2_9 + 100000 z_2_10 + 100000 z_2_3 + 100000 z_2_4 + 100000 z_2_8 + 100000 z_2_9 <= 502053.46064561792
 c5035: 120 p_2_1 + 120 p_2_10 + 120 p_2_3 + 120 p_2_4 + 120 p_2_8 + 120 p_2_9 + 100000 z_2_1 + 100000 z_2_10 + 100000 z_2_3 + 100000 z_2_4 + 100000 z_2_8 + 100000 z_2_9 <= 602053.39326589694
 c5036: 120 p_2_10 + 120 p_2_2 + 120 p_2_3 + 120 p_2_4 + 120 p_2_8 + 120 p_2_9 + 100000 z_2_10 + 100000 z_2_2 + 100000 z_2_3 + 100000 z_2_4 + 100000 z_2_8 + 100000 z_2_9 <= 602051.22752617195
 c5037: 120 p_2_1 + 120 p_2_10 + 120 p_2_2 + 120 p_2_3 + 120 p_2_4 + 120 p_2_8 + 120 p_2_9 + 100000 z_2_1 + 100000 z_2_10 + 100000 z_2_2 + 100000 z_2_3 + 100000 z_2_4 + 100000 z_2_8 + 100000 z_2_9 <= 702051.16014645097
 c5038: 120 p_2_10 + 120 p_2_5 + 120 p_2_8 + 120 p_2_9 + 100000 z_2_10 + 100000 z_2_5 + 100000 z_2_8 + 100000 z_2_9 <= 402145.87631085177
 c5039: 120 p_2_1 + 120 p_2_10 + 120 p_2_5 + 120 p_2_8 + 120 p_2_9 + 100000 z_2_1 + 100000 z_2_10 + 100000 z_2_5 + 100000 z_2_8 + 100000 z_2_9 <= 502143.53106219659
 c5040: 120 p_2_10 + 120 p_2_2 + 120 p_2_5 + 120 p_2_8 + 120 p_2_9 + 100000 z_2_10 + 100000 z_2_2 + 100000 z_2_5 + 100000 z_2_8 + 100000 z_2_9 <= 502131.11264993862
 c5041: 120 p_2_1 + 120 p_2_10 + 120 p_2_2 + 120 p_2_5 + 120 p_2_8 + 120 p_2_9 + 100000 z_2_1 + 100000 z_2_10 + 100000 z_2_2 + 100000 z_2_5 + 100000 z_2_8 + 100000 z_2_9 <= 602128.76740128349
 c5042: 120 p_2_10 + 120 p_2_3 + 120 p_2_5 + 120 p_2_8 + 120 p_2_9 + 100000 z_2_10 + 100000 z_2_3 + 100000 z_2_5 + 100000 z_2_8 + 100000 z_2_9 <= 502052.68206708721
 c5043: 120 p_2_1 + 120 p_2_10 + 120 p_2_3 + 120 p_2_5 + 120 p_2_8 + 120 p_2_9 + 100000 z_2_1 + 100000 z_2_10 + 100000 z_2_3 + 100000 z_2_5 + 100000 z_2_8 + 100000 z_2_9 <= 602050.33681843209
 c5044: 120 p_2_10 + 120 p_2_2 + 120 p_2_3 + 120 p_2_5 + 120 p_2_8 + 120 p_2_9 + 100000 z_2_10 + 100000 z_2_2 + 100000 z_2_3 + 100000 z_2_5 + 100000 z_2_8 + 100000 z_2_9 <= 602050.44894764118
 c5045: 120 p_2_1 + 120 p_2_10 + 120 p_2_2 + 120 p_2_3 + 120 p_2_5 + 120 p_2_8 + 120 p_2_9 + 100000 z_2_1 + 100000 z_2_10 + 100000 z_2_2 + 100000 z_2_3 + 100000 z_2_5 + 100000 z_2_8 + 100000 z_2_9 <= 702048.103698986
 c5046: 120 p_2_10 + 120 p_2_4 + 120 p_2_5 + 120 p_2_8 + 120 p_2_9 + 100000 z_2_10 + 100000 z_2_4 + 100000 z_2_5 + 100000 z_2_8 + 100000 z_2_9 <= 502143.70236600959
 c5047: 120 p_2_1 + 120 p_2_10 + 120 p_2_4 + 120 p_2_5 + 120 p_2_8 + 120 p_2_9 + 100000 z_2_1 + 100000 z_2_10 + 100000 z_2_4 + 100000 z_2_5 + 100000 z_2_8 + 100000 z_2_9 <= 602143.31001999078
 c5048: 120 p_2_10 + 120 p_2_2 + 120 p_2_4 + 120 p_2_5 + 120 p_2_8 + 120 p_2_9 + 100000 z_2_10 + 100000 z_2_2 + 100000 z_2_4 + 100000 z_2_5 + 100000 z_2_8 + 100000 z_2_9 <= 602128.93870509649
 c5049: 120 p_2_1 + 120 p_2_10 + 120 p_2_2 + 120 p_2_4 + 120 p_2_5 + 120 p_2_8 + 120 p_2_9 + 100000 z_2_1 + 100000 z_2_10 + 100000 z_2_2 + 100000 z_2_4 + 100000 z_2_5 + 100000 z_2_8 + 100000 z_2_9 <= 702128.54635907768
 c5050: 120 p_2_10 + 120 p_2_3 + 120 p_2_4 + 120 p_2_5 + 120 p_2_8 + 120 p_2_9 + 100000 z_2_10 + 100000 z_2_3 + 100000 z_2_4 + 100000 z_2_5 + 100000 z_2_8 + 100000 z_2_9 <= 602050.18315594713
 c5051: 120 p_2_1 + 120 p_2_10 + 120 p_2_3 + 120 p_2_4 + 120 p_2_5 + 120 p_2_8 + 120 p_2_9 + 100000 z_2_1 + 100000 z_2_10 + 100000 z_2_3 + 100000 z_2_4 + 100000 z_2_5 + 100000 z_2_8 + 100000 z_2_9 <= 702050.11577622616
 c5052: 120 p_2_10 + 120 p_2_2 + 120 p_2_3 + 120 p_2_4 + 120 p_2_5 + 120 p_2_8 + 120 p_2_9 + 100000 z_2_10 + 100000 z_2_2 + 100000 z_2_3 + 100000 z_2_4 + 100000 z_2_5 + 100000 z_2_8 + 100000 z_2_9 <= 702047.95003650116
 c5053: 120 p_2_1 + 120 p_2_10 + 120 p_2_2 + 120 p_2_3 + 120 p_2_4 + 120 p_2_5 + 120 p_2_8 + 120 p_2_9 + 100000 z_2_1 + 100000 z_2_10 + 100000 z_2_2 + 100000 z_2_3 + 100000 z_2_4 + 100000 z_2_5 + 100000 z_2_8 + 100000 z_2_9 <= 802047.88265678019
 c5054: 120 p_2_10 + 120 p_2_6 + 120 p_2_8 + 120 p_2_9 + 100000 z_2_10 + 100000 z_2_6 + 100000 z_2_8 + 100000 z_2_9 <= 402095.61830197985
 c5055: 120 p_2_1 + 120 p_2_10 + 120 p_2_6 + 120 p_2_8 + 120 p_2_9 + 100000 z_2_1 + 100000 z_2_10 + 100000 z_2_6 + 100000 z_2_8 + 100000 z_2_9 <= 502093.27305332466
 c5056: 120 p_2_10 + 120 p_2_2 + 120 p_2_6 + 120 p_2_8 + 120 p_2_9 + 100000 z_2_10 + 100000 z_2_2 + 100000 z_2_6 + 100000 z_2_8 + 100000 z_2_9 <= 502093.38518253382
 c5057: 120 p_2_1 + 120 p_2_10 + 120 p_2_2 + 120 p_2_6 + 120 p_2_8 + 120 p_2_9 + 100000 z_2_1 + 100000 z_2_10 + 100000 z_2_2 + 100000 z_2_6 + 100000 z_2_8 + 100000 z_2_9 <= 602091.0399338787
 c5058: 120 p_2_10 + 120 p_2_3 + 120 p_2_6 + 120 p_2_8 + 120 p_2_9 + 100000 z_2_10 + 100000 z_2_3 + 100000 z_2_6 + 100000 z_2_8 + 100000 z_2_9 <= 502045.01249509049
 c5059: 120 p_2_1 + 120 p_2_10 + 120 p_2_3 + 120 p_2_6 + 120 p_2_8 + 120 p_2_9 + 100000 z_2_1 + 100000 z_2_10 + 100000 z_2_3 + 100000 z_2_6 + 100000 z_2_8 + 100000 z_2_9 <= 602042.6672464353
 c5060: 120 p_2_10 + 120 p_2_2 + 120 p_2_3 + 120 p_2_6 + 120 p_2_8 + 120 p_2_9 + 100000 z_2_10 + 100000 z_2_2 + 100000 z_2_3 + 100000 z_2_6 + 100000 z_2_8 + 100000 z_2_9 <= 602042.77937564452
 c5061: 120 p_2_1 + 120 p_2_10 + 120 p_2_2 + 120 p_2_3 + 120 p_2_6 + 120 p_2_8 + 120 p_2_9 + 100000 z_2_1 + 100000 z_2_10 + 100000 z_2_2 + 100000 z_2_3 + 100000 z_2_6 + 100000 z_2_8 + 100000 z_2_9 <= 702040.43412698933
 c5062: 120 p_2_10 + 120 p_2_4 + 120 p_2_6 + 120 p_2_8 + 120 p_2_9 + 100000 z_2_10 + 100000 z_2_4 + 100000 z_2_6 + 100000 z_2_8 + 100000 z_2_9 <= 502093.44435713766
 c5063: 120 p_2_1 + 120 p_2_10 + 120 p_2_4 + 120 p_2_6 + 120 p_2_8 + 120 p_2_9 + 100000 z_2_1 + 100000 z_2_10 + 100000 z_2_4 + 100000 z_2_6 + 100000 z_2_8 + 100000 z_2_9 <= 602093.05201111885
 c5064: 120 p_2_10 + 120 p_2_2 + 120 p_2_4 + 120 p_2_6 + 120 p_2_8 + 120 p_2_9 + 100000 z_2_10 + 100000 z_2_2 + 100000 z_2_4 + 100000 z_2_6 + 100000 z_2_8 + 100000 z_2_9 <= 602091.21123769169
 c5065: 120 p_2_1 + 120 p_2_10 + 120 p_2_2 + 120 p_2_4 + 120 p_2_6 + 120 p_2_8 + 120 p_2_9 + 100000 z_2_1 + 100000 z_2_10 + 100000 z_2_2 + 100000 z_2_4 + 100000 z_2_6 + 100000 z_2_8 + 100000 z_2_9 <= 702090.81889167288
 c5066: 120 p_2_10 + 120 p_2_3 + 120 p_2_4 + 120 p_2_6 + 120 p_2_8 + 120 p_2_9 + 100000 z_2_10 + 100000 z_2_3 + 100000 z_2_4 + 100000 z_2_6 + 100000 z_2_8 + 100000 z_2_9 <= 602042.51358395047
 c5067: 120 p_2_1 + 120 p_2_10 + 120 p_2_3 + 120 p_2_4 + 120 p_2_6 + 120 p_2_8 + 120 p_2_9 + 100000 z_2_1 + 100000 z_2_10 + 100000 z_2_3 + 100000 z_2_4 + 100000 z_2_6 + 100000 z_2_8 + 100000 z_2_9 <= 702042.44620422949
 c5068: 120 p_2_10 + 120 p_2_2 + 120 p_2_3 + 120 p_2_4 + 120 p_2_6 + 120 p_2_8 + 120 p_2_9 + 100000 z_2_10 + 100000 z_2_2 + 100000 z_2_3 + 100000 z_2_4 + 100000 z_2_6 + 100000 z_2_8 + 100000 z_2_9 <= 702040.2804645045
 c5069: 120 p_2_1 + 120 p_2_10 + 120 p_2_2 + 120 p_2_3 + 120 p_2_4 + 120 p_2_6 + 120 p_2_8 + 120 p_2_9 + 100000 z_2_1 + 100000 z_2_10 + 100000 z_2_2 + 100000 z_2_3 + 100000 z_2_4 + 100000 z_2_6 + 100000 z_2_8 + 100000 z_2_9 <= 802040.21308478352
 c5070: 120 p_2_10 + 120 p_2_5 + 120 p_2_6 + 120 p_2_8 + 120 p_2_9 + 100000 z_2_10 + 100000 z_2_5 + 100000 z_2_6 + 100000 z_2_8 + 100000 z_2_9 <= 502091.81423985813
 c5071: 120 p_2_1 + 120 p_2_10 + 120 p_2_5 + 120 p_2_6 + 120 p_2_8 + 120 p_2_9 + 100000 z_2_1 + 100000 z_2_10 + 100000 z_2_5 + 100000 z_2_6 + 100000 z_2_8 + 100000 z_2_9 <= 602089.468991203
 c5072: 120 p_2_10 + 120 p_2_2 + 120 p_2_5 + 120 p_2_6 + 120 p_2_8 + 120 p_2_9 + 100000 z_2_10 + 100000 z_2_2 + 100000 z_2_5 + 100000 z_2_6 + 100000 z_2_8 + 100000 z_2_9 <= 602089.58112041221
 c5073: 120 p_2_1 + 120 p_2_10 + 120 p_2_2 + 120 p_2_5 + 120 p_2_6 + 120 p_2_8 + 120 p_2_9 + 100000 z_2_1 + 100000 z_2_10 + 100000 z_2_2 + 100000 z_2_5 + 100000 z_2_6 + 100000 z_2_8 + 100000 z_2_9 <= 702087.23587175703
 c5074: 120 p_2_10 + 120 p_2_3 + 120 p_2_5 + 120 p_2_6 + 120 p_2_8 + 120 p_2_9 + 100000 z_2_10 + 100000 z_2_3 + 100000 z_2_5 + 100000 z_2_6 + 100000 z_2_8 + 100000 z_2_9 <= 602041.7350054197
 c5075: 120 p_2_1 + 120 p_2_10 + 120 p_2_3 + 120 p_2_5 + 120 p_2_6 + 120 p_2_8 + 120 p_2_9 + 100000 z_2_1 + 100000 z_2_10 + 100000 z_2_3 + 100000 z_2_5 + 100000 z_2_6 + 100000 z_2_8 + 100000 z_2_9 <= 702039.38975676452
 c5076: 120 p_2_10 + 120 p_2_2 + 120 p_2_3 + 120 p_2_5 + 120 p_2_6 + 120 p_2_8 + 120 p_2_9 + 100000 z_2_10 + 100000 z_2_2 + 100000 z_2_3 + 100000 z_2_5 + 100000 z_2_6 + 100000 z_2_8 + 100000 z_2_9 <= 702039.50188597373
 c5077: 120 p_2_1 + 120 p_2_10 + 120 p_2_2 + 120 p_2_3 + 120 p_2_5 + 120 p_2_6 + 120 p_2_8 + 120 p_2_9 + 100000 z_2_1 + 100000 z_2_10 + 100000 z_2_2 + 100000 z_2_3 + 100000 z_2_5 + 100000 z_2_6 + 100000 z_2_8 + 100000 z_2_9 <= 802037.15663731855
 c5078: 120 p_2_10 + 120 p_2_4 + 120 p_2_5 + 120 p_2_6 + 120 p_2_8 + 120 p_2_9 + 100000 z_2_10 + 100000 z_2_4 + 100000 z_2_5 + 100000 z_2_6 + 100000 z_2_8 + 100000 z_2_9 <= 602089.54274312232
 c5079: 120 p_2_1 + 120 p_2_10 + 120 p_2_4 + 120 p_2_5 + 120 p_2_6 + 120 p_2_8 + 120 p_2_9 + 100000 z_2_1 + 100000 z_2_10 + 100000 z_2_4 + 100000 z_2_5 + 100000 z_2_6 + 100000 z_2_8 + 100000 z_2_9 <= 702089.24794899719
 c5080: 120 p_2_10 + 120 p_2_2 + 120 p_2_4 + 120 p_2_5 + 120 p_2_6 + 120 p_2_8 + 120 p_2_9 + 100000 z_2_10 + 100000 z_2_2 + 100000 z_2_4 + 100000 z_2_5 + 100000 z_2_6 + 100000 z_2_8 + 100000 z_2_9 <= 702087.08220927208
 c5081: 120 p_2_1 + 120 p_2_10 + 120 p_2_2 + 120 p_2_4 + 120 p_2_5 + 120 p_2_6 + 120 p_2_8 + 120 p_2_9 + 100000 z_2_1 + 100000 z_2_10 + 100000 z_2_2 + 100000 z_2_4 + 100000 z_2_5 + 100000 z_2_6 + 100000 z_2_8 + 100000 z_2_9 <= 802087.01482955122
 c5082: 120 p_2_10 + 120 p_2_3 + 120 p_2_4 + 120 p_2_5 + 120 p_2_6 + 120 p_2_8 + 120 p_2_9 + 100000 z_2_10 + 100000 z_2_3 + 100000 z_2_4 + 100000 z_2_5 + 100000 z_2_6 + 100000 z_2_8 + 100000 z_2_9 <= 702039.23609427968
 c5083: 120 p_2_1 + 120 p_2_10 + 120 p_2_3 + 120 p_2_4 + 120 p_2_5 + 120 p_2_6 + 120 p_2_8 + 120 p_2_9 + 100000 z_2_1 + 100000 z_2_10 + 100000 z_2_3 + 100000 z_2_4 + 100000 z_2_5 + 100000 z_2_6 + 100000 z_2_8 + 100000 z_2_9 <= 802039.16871455871
 c5084: 120 p_2_10 + 120 p_2_2 + 120 p_2_3 + 120 p_2_4 + 120 p_2_5 + 120 p_2_6 + 120 p_2_8 + 120 p_2_9 + 100000 z_2_10 + 100000 z_2_2 + 100000 z_2_3 + 100000 z_2_4 + 100000 z_2_5 + 100000 z_2_6 + 100000 z_2_8 + 100000 z_2_9 <= 802037.00297483371
 c5085: 120 p_2_1 + 120 p_2_10 + 120 p_2_2 + 120 p_2_3 + 120 p_2_4 + 120 p_2_5 + 120 p_2_6 + 120 p_2_8 + 120 p_2_9 + 100000 z_2_1 + 100000 z_2_10 + 100000 z_2_2 + 100000 z_2_3 + 100000 z_2_4 + 100000 z_2_5 + 100000 z_2_6 + 100000 z_2_8 + 100000 z_2_9 <= 902036.93559511274
 c5086: 120 p_2_10 + 120 p_2_7 + 120 p_2_8 + 120 p_2_9 + 100000 z_2_10 + 100000 z_2_7 + 100000 z_2_8 + 100000 z_2_9 <= 402108.84573491581
 c5087: 120 p_2_1 + 120 p_2_10 + 120 p_2_7 + 120 p_2_8 + 120 p_2_9 + 100000 z_2_1 + 100000 z_2_10 + 100000 z_2_7 + 100000 z_2_8 + 100000 z_2_9 <= 502106.50048626063
 c5088: 120 p_2_10 + 120 p_2_2 + 120 p_2_7 + 120 p_2_8 + 120 p_2_9 + 100000 z_2_10 + 100000 z_2_2 + 100000 z_2_7 + 100000 z_2_8 + 100000 z_2_9 <= 502106.61261546984
 c5089: 120 p_2_1 + 120 p_2_10 + 120 p_2_2 + 120 p_2_7 + 120 p_2_8 + 120 p_2_9 + 100000 z_2_1 + 100000 z_2_10 + 100000 z_2_2 + 100000 z_2_7 + 100000 z_2_8 + 100000 z_2_9 <= 602104.26736681466
 c5090: 120 p_2_10 + 120 p_2_3 + 120 p_2_7 + 120 p_2_8 + 120 p_2_9 + 100000 z_2_10 + 100000 z_2_3 + 100000 z_2_7 + 100000 z_2_8 + 100000 z_2_9 <= 502001.82753237954
 c5091: 120 p_2_1 + 120 p_2_10 + 120 p_2_3 + 120 p_2_7 + 120 p_2_8 + 120 p_2_9 + 100000 z_2_1 + 100000 z_2_10 + 100000 z_2_3 + 100000 z_2_7 + 100000 z_2_8 + 100000 z_2_9 <= 601999.48228372436
 c5092: 120 p_2_10 + 120 p_2_2 + 120 p_2_3 + 120 p_2_7 + 120 p_2_8 + 120 p_2_9 + 100000 z_2_10 + 100000 z_2_2 + 100000 z_2_3 + 100000 z_2_7 + 100000 z_2_8 + 100000 z_2_9 <= 601999.59441293357
 c5093: 120 p_2_1 + 120 p_2_10 + 120 p_2_2 + 120 p_2_3 + 120 p_2_7 + 120 p_2_8 + 120 p_2_9 + 100000 z_2_1 + 100000 z_2_10 + 100000 z_2_2 + 100000 z_2_3 + 100000 z_2_7 + 100000 z_2_8 + 100000 z_2_9 <= 701997.24916427839
 c5094: 120 p_2_10 + 120 p_2_4 + 120 p_2_7 + 120 p_2_8 + 120 p_2_9 + 100000 z_2_10 + 100000 z_2_4 + 100000 z_2_7 + 100000 z_2_8 + 100000 z_2_9 <= 502106.34682377579
 c5095: 120 p_2_1 + 120 p_2_10 + 120 p_2_4 + 120 p_2_7 + 120 p_2_8 + 120 p_2_9 + 100000 z_2_1 + 100000 z_2_10 + 100000 z_2_4 + 100000 z_2_7 + 100000 z_2_8 + 100000 z_2_9 <= 602106.27944405482
 c5096: 120 p_2_10 + 120 p_2_2 + 120 p_2_4 + 120 p_2_7 + 120 p_2_8 + 120 p_2_9 + 100000 z_2_10 + 100000 z_2_2 + 100000 z_2_4 + 100000 z_2_7 + 100000 z_2_8 + 100000 z_2_9 <= 602104.11370432982
 c5097: 120 p_2_1 + 120 p_2_10 + 120 p_2_2 + 120 p_2_4 + 120 p_2_7 + 120 p_2_8 + 120 p_2_9 + 100000 z_2_1 + 100000 z_2_10 + 100000 z_2_2 + 100000 z_2_4 + 100000 z_2_7 + 100000 z_2_8 + 100000 z_2_9 <= 702104.04632460885
 c5098: 120 p_2_10 + 120 p_2_3 + 120 p_2_4 + 120 p_2_7 + 120 p_2_8 + 120 p_2_9 + 100000 z_2_10 + 100000 z_2_3 + 100000 z_2_4 + 100000 z_2_7 + 100000 z_2_8 + 100000 z_2_9 <= 601999.32862123952
 c5099: 120 p_2_1 + 120 p_2_10 + 120 p_2_3 + 120 p_2_4 + 120 p_2_7 + 120 p_2_8 + 120 p_2_9 + 100000 z_2_1 + 100000 z_2_10 + 100000 z_2_3 + 100000 z_2_4 + 100000 z_2_7 + 100000 z_2_8 + 100000 z_2_9 <= 701999.26124151854
 c5100: 120 p_2_10 + 120 p_2_2 + 120 p_2_3 + 120 p_2_4 + 120 p_2_7 + 120 p_2_8 + 120 p_2_9 + 100000 z_2_10 + 100000 z_2_2 + 100000 z_2_3 + 100000 z_2_4 + 100000 z_2_7 + 100000 z_2_8 + 100000 z_2_9 <= 701997.09550179355
 c5101: 120 p_2_1 + 120 p_2_10 + 120 p_2_2 + 120 p_2_3 + 120 p_2_4 + 120 p_2_7 + 120 p_2_8 + 120 p_2_9 + 100000 z_2_1 + 100000 z_2_10 + 100000 z_2_2 + 100000 z_2_3 + 100000 z_2_4 + 100000 z_2_7 + 100000 z_2_8 + 100000 z_2_9 <= 801997.02812207257
 c5102: 120 p_2_10 + 120 p_2_5 + 120 p_2_7 + 120 p_2_8 + 120 p_2_9 + 100000 z_2_10 + 100000 z_2_5 + 100000 z_2_7 + 100000 z_2_8 + 100000 z_2_9 <= 502104.94412090053
 c5103: 120 p_2_1 + 120 p_2_10 + 120 p_2_5 + 120 p_2_7 + 120 p_2_8 + 120 p_2_9 + 100000 z_2_1 + 100000 z_2_10 + 100000 z_2_5 + 100000 z_2_7 + 100000 z_2_8 + 100000 z_2_9 <= 602102.59887224529
 c5104: 120 p_2_10 + 120 p_2_2 + 120 p_2_5 + 120 p_2_7 + 120 p_2_8 + 120 p_2_9 + 100000 z_2_10 + 100000 z_2_2 + 100000 z_2_5 + 100000 z_2_7 + 100000 z_2_8 + 100000 z_2_9 <= 602090.18045998737
 c5105: 120 p_2_1 + 120 p_2_10 + 120 p_2_2 + 120 p_2_5 + 120 p_2_7 + 120 p_2_8 + 120 p_2_9 + 100000 z_2_1 + 100000 z_2_10 + 100000 z_2_2 + 100000 z_2_5 + 100000 z_2_7 + 100000 z_2_8 + 100000 z_2_9 <= 702087.83521133219
 c5106: 120 p_2_10 + 120 p_2_3 + 120 p_2_5 + 120 p_2_7 + 120 p_2_8 + 120 p_2_9 + 100000 z_2_10 + 100000 z_2_3 + 100000 z_2_5 + 100000 z_2_7 + 100000 z_2_8 + 100000 z_2_9 <= 601997.9259183642
 c5107: 120 p_2_1 + 120 p_2_10 + 120 p_2_3 + 120 p_2_5 + 120 p_2_7 + 120 p_2_8 + 120 p_2_9 + 100000 z_2_1 + 100000 z_2_10 + 100000 z_2_3 + 100000 z_2_5 + 100000 z_2_7 + 100000 z_2_8 + 100000 z_2_9 <= 701995.58066970902
 c5108: 120 p_2_10 + 120 p_2_2 + 120 p_2_3 + 120 p_2_5 + 120 p_2_7 + 120 p_2_8 + 120 p_2_9 + 100000 z_2_10 + 100000 z_2_2 + 100000 z_2_3 + 100000 z_2_5 + 100000 z_2_7 + 100000 z_2_8 + 100000 z_2_9 <= 701988.78771161579
 c5109: 120 p_2_1 + 120 p_2_10 + 120 p_2_2 + 120 p_2_3 + 120 p_2_5 + 120 p_2_7 + 120 p_2_8 + 120 p_2_9 + 100000 z_2_1 + 100000 z_2_10 + 100000 z_2_2 + 100000 z_2_3 + 100000 z_2_5 + 100000 z_2_7 + 100000 z_2_8 + 100000 z_2_9 <= 801987.87800728658
 c5110: 120 p_2_10 + 120 p_2_4 + 120 p_2_5 + 120 p_2_7 + 120 p_2_8 + 120 p_2_9 + 100000 z_2_10 + 100000 z_2_4 + 100000 z_2_5 + 100000 z_2_7 + 100000 z_2_8 + 100000 z_2_9 <= 602102.44520976045
 c5111: 120 p_2_1 + 120 p_2_10 + 120 p_2_4 + 120 p_2_5 + 120 p_2_7 + 120 p_2_8 + 120 p_2_9 + 100000 z_2_1 + 100000 z_2_10 + 100000 z_2_4 + 100000 z_2_5 + 100000 z_2_7 + 100000 z_2_8 + 100000 z_2_9 <= 702102.37783003948
 c5112: 120 p_2_10 + 120 p_2_2 + 120 p_2_4 + 120 p_2_5 + 120 p_2_7 + 120 p_2_8 + 120 p_2_9 + 100000 z_2_10 + 100000 z_2_2 + 100000 z_2_4 + 100000 z_2_5 + 100000 z_2_7 + 100000 z_2_8 + 100000 z_2_9 <= 702087.68154884735
 c5113: 120 p_2_1 + 120 p_2_10 + 120 p_2_2 + 120 p_2_4 + 120 p_2_5 + 120 p_2_7 + 120 p_2_8 + 120 p_2_9 + 100000 z_2_1 + 100000 z_2_10 + 100000 z_2_2 + 100000 z_2_4 + 100000 z_2_5 + 100000 z_2_7 + 100000 z_2_8 + 100000 z_2_9 <= 802087.61416912638
 c5114: 120 p_2_10 + 120 p_2_3 + 120 p_2_4 + 120 p_2_5 + 120 p_2_7 + 120 p_2_8 + 120 p_2_9 + 100000 z_2_10 + 100000 z_2_3 + 100000 z_2_4 + 100000 z_2_5 + 100000 z_2_7 + 100000 z_2_8 + 100000 z_2_9 <= 701995.42700722418
 c5115: 120 p_2_1 + 120 p_2_10 + 120 p_2_3 + 120 p_2_4 + 120 p_2_5 + 120 p_2_7 + 120 p_2_8 + 120 p_2_9 + 100000 z_2_1 + 100000 z_2_10 + 100000 z_2_3 + 100000 z_2_4 + 100000 z_2_5 + 100000 z_2_7 + 100000 z_2_8 + 100000 z_2_9 <= 801995.3596275032
 c5116: 120 p_2_10 + 120 p_2_2 + 120 p_2_3 + 120 p_2_4 + 120 p_2_5 + 120 p_2_7 + 120 p_2_8 + 120 p_2_9 + 100000 z_2_10 + 100000 z_2_2 + 100000 z_2_3 + 100000 z_2_4 + 100000 z_2_5 + 100000 z_2_7 + 100000 z_2_8 + 100000 z_2_9 <= 801987.44093688717
 c5117: 120 p_2_1 + 120 p_2_10 + 120 p_2_2 + 120 p_2_3 + 120 p_2_4 + 120 p_2_5 + 120 p_2_7 + 120 p_2_8 + 120 p_2_9 + 100000 z_2_1 + 100000 z_2_10 + 100000 z_2_2 + 100000 z_2_3 + 100000 z_2_4 + 100000 z_2_5 + 100000 z_2_7 + 100000 z_2_8 + 100000 z_2_9 <= 901987.3735571662
 c5118: 120 p_2_10 + 120 p_2_6 + 120 p_2_7 + 120 p_2_8 + 120 p_2_9 + 100000 z_2_10 + 100000 z_2_6 + 100000 z_2_7 + 100000 z_2_8 + 100000 z_2_9 <= 502054.6861120286
 c5119: 120 p_2_1 + 120 p_2_10 + 120 p_2_6 + 120 p_2_7 + 120 p_2_8 + 120 p_2_9 + 100000 z_2_1 + 100000 z_2_10 + 100000 z_2_6 + 100000 z_2_7 + 100000 z_2_8 + 100000 z_2_9 <= 602052.34086337336
 c5120: 120 p_2_10 + 120 p_2_2 + 120 p_2_6 + 120 p_2_7 + 120 p_2_8 + 120 p_2_9 + 100000 z_2_10 + 100000 z_2_2 + 100000 z_2_6 + 100000 z_2_7 + 100000 z_2_8 + 100000 z_2_9 <= 602052.45299258258
 c5121: 120 p_2_1 + 120 p_2_10 + 120 p_2_2 + 120 p_2_6 + 120 p_2_7 + 120 p_2_8 + 120 p_2_9 + 100000 z_2_1 + 100000 z_2_10 + 100000 z_2_2 + 100000 z_2_6 + 100000 z_2_7 + 100000 z_2_8 + 100000 z_2_9 <= 702050.10774392739
 c5122: 120 p_2_10 + 120 p_2_3 + 120 p_2_6 + 120 p_2_7 + 120 p_2_8 + 120 p_2_9 + 100000 z_2_10 + 100000 z_2_3 + 100000 z_2_6 + 100000 z_2_7 + 100000 z_2_8 + 100000 z_2_9 <= 601997.69044631114
 c5123: 120 p_2_1 + 120 p_2_10 + 120 p_2_3 + 120 p_2_6 + 120 p_2_7 + 120 p_2_8 + 120 p_2_9 + 100000 z_2_1 + 100000 z_2_10 + 100000 z_2_3 + 100000 z_2_6 + 100000 z_2_7 + 100000 z_2_8 + 100000 z_2_9 <= 701995.34519765608
 c5124: 120 p_2_10 + 120 p_2_2 + 120 p_2_3 + 120 p_2_6 + 120 p_2_7 + 120 p_2_8 + 120 p_2_9 + 100000 z_2_10 + 100000 z_2_2 + 100000 z_2_3 + 100000 z_2_6 + 100000 z_2_7 + 100000 z_2_8 + 100000 z_2_9 <= 701995.45732686517
 c5125: 120 p_2_1 + 120 p_2_10 + 120 p_2_2 + 120 p_2_3 + 120 p_2_6 + 120 p_2_7 + 120 p_2_8 + 120 p_2_9 + 100000 z_2_1 + 100000 z_2_10 + 100000 z_2_2 + 100000 z_2_3 + 100000 z_2_6 + 100000 z_2_7 + 100000 z_2_8 + 100000 z_2_9 <= 801993.11207820999
 c5126: 120 p_2_10 + 120 p_2_4 + 120 p_2_6 + 120 p_2_7 + 120 p_2_8 + 120 p_2_9 + 100000 z_2_10 + 100000 z_2_4 + 100000 z_2_6 + 100000 z_2_7 + 100000 z_2_8 + 100000 z_2_9 <= 602052.18720088853
 c5127: 120 p_2_1 + 120 p_2_10 + 120 p_2_4 + 120 p_2_6 + 120 p_2_7 + 120 p_2_8 + 120 p_2_9 + 100000 z_2_1 + 100000 z_2_10 + 100000 z_2_4 + 100000 z_2_6 + 100000 z_2_7 + 100000 z_2_8 + 100000 z_2_9 <= 702052.11982116755
 c5128: 120 p_2_10 + 120 p_2_2 + 120 p_2_4 + 120 p_2_6 + 120 p_2_7 + 120 p_2_8 + 120 p_2_9 + 100000 z_2_10 + 100000 z_2_2 + 100000 z_2_4 + 100000 z_2_6 + 100000 z_2_7 + 100000 z_2_8 + 100000 z_2_9 <= 702049.95408144256
 c5129: 120 p_2_1 + 120 p_2_10 + 120 p_2_2 + 120 p_2_4 + 120 p_2_6 + 120 p_2_7 + 120 p_2_8 + 120 p_2_9 + 100000 z_2_1 + 100000 z_2_10 + 100000 z_2_2 + 100000 z_2_4 + 100000 z_2_6 + 100000 z_2_7 + 100000 z_2_8 + 100000 z_2_9 <= 802049.88670172158
 c5130: 120 p_2_10 + 120 p_2_3 + 120 p_2_4 + 120 p_2_6 + 120 p_2_7 + 120 p_2_8 + 120 p_2_9 + 100000 z_2_10 + 100000 z_2_3 + 100000 z_2_4 + 100000 z_2_6 + 100000 z_2_7 + 100000 z_2_8 + 100000 z_2_9 <= 701995.19153517112
 c5131: 120 p_2_1 + 120 p_2_10 + 120 p_2_3 + 120 p_2_4 + 120 p_2_6 + 120 p_2_7 + 120 p_2_8 + 120 p_2_9 + 100000 z_2_1 + 100000 z_2_10 + 100000 z_2_3 + 100000 z_2_4 + 100000 z_2_6 + 100000 z_2_7 + 100000 z_2_8 + 100000 z_2_9 <= 801995.12415545015
 c5132: 120 p_2_10 + 120 p_2_2 + 120 p_2_3 + 120 p_2_4 + 120 p_2_6 + 120 p_2_7 + 120 p_2_8 + 120 p_2_9 + 100000 z_2_10 + 100000 z_2_2 + 100000 z_2_3 + 100000 z_2_4 + 100000 z_2_6 + 100000 z_2_7 + 100000 z_2_8 + 100000 z_2_9 <= 801992.95841572515
 c5133: 120 p_2_1 + 120 p_2_10 + 120 p_2_2 + 120 p_2_3 + 120 p_2_4 + 120 p_2_6 + 120 p_2_7 + 120 p_2_8 + 120 p_2_9 + 100000 z_2_1 + 100000 z_2_10 + 100000 z_2_2 + 100000 z_2_3 + 100000 z_2_4 + 100000 z_2_6 + 100000 z_2_7 + 100000 z_2_8 + 100000 z_2_9 <= 901992.89103600418
 c5134: 120 p_2_10 + 120 p_2_5 + 120 p_2_6 + 120 p_2_7 + 120 p_2_8 + 120 p_2_9 + 100000 z_2_10 + 100000 z_2_5 + 100000 z_2_6 + 100000 z_2_7 + 100000 z_2_8 + 100000 z_2_9 <= 602050.78449801332
 c5135: 120 p_2_1 + 120 p_2_10 + 120 p_2_5 + 120 p_2_6 + 120 p_2_7 + 120 p_2_8 + 120 p_2_9 + 100000 z_2_1 + 100000 z_2_10 + 100000 z_2_5 + 100000 z_2_6 + 100000 z_2_7 + 100000 z_2_8 + 100000 z_2_9 <= 702048.43924935814
 c5136: 120 p_2_10 + 120 p_2_2 + 120 p_2_5 + 120 p_2_6 + 120 p_2_7 + 120 p_2_8 + 120 p_2_9 + 100000 z_2_10 + 100000 z_2_2 + 100000 z_2_5 + 100000 z_2_6 + 100000 z_2_7 + 100000 z_2_8 + 100000 z_2_9 <= 702036.02083710011
 c5137: 120 p_2_1 + 120 p_2_10 + 120 p_2_2 + 120 p_2_5 + 120 p_2_6 + 120 p_2_7 + 120 p_2_8 + 120 p_2_9 + 100000 z_2_1 + 100000 z_2_10 + 100000 z_2_2 + 100000 z_2_5 + 100000 z_2_6 + 100000 z_2_7 + 100000 z_2_8 + 100000 z_2_9 <= 802033.67558844492
 c5138: 120 p_2_10 + 120 p_2_3 + 120 p_2_5 + 120 p_2_6 + 120 p_2_7 + 120 p_2_8 + 120 p_2_9 + 100000 z_2_10 + 100000 z_2_3 + 100000 z_2_5 + 100000 z_2_6 + 100000 z_2_7 + 100000 z_2_8 + 100000 z_2_9 <= 701993.78883229592
 c5139: 120 p_2_1 + 120 p_2_10 + 120 p_2_3 + 120 p_2_5 + 120 p_2_6 + 120 p_2_7 + 120 p_2_8 + 120 p_2_9 + 100000 z_2_1 + 100000 z_2_10 + 100000 z_2_3 + 100000 z_2_5 + 100000 z_2_6 + 100000 z_2_7 + 100000 z_2_8 + 100000 z_2_9 <= 801991.44358364074
 c5140: 120 p_2_10 + 120 p_2_2 + 120 p_2_3 + 120 p_2_5 + 120 p_2_6 + 120 p_2_7 + 120 p_2_8 + 120 p_2_9 + 100000 z_2_10 + 100000 z_2_2 + 100000 z_2_3 + 100000 z_2_5 + 100000 z_2_6 + 100000 z_2_7 + 100000 z_2_8 + 100000 z_2_9 <= 801979.0251713827
 c5141: 120 p_2_1 + 120 p_2_10 + 120 p_2_2 + 120 p_2_3 + 120 p_2_5 + 120 p_2_6 + 120 p_2_7 + 120 p_2_8 + 120 p_2_9 + 100000 z_2_1 + 100000 z_2_10 + 100000 z_2_2 + 100000 z_2_3 + 100000 z_2_5 + 100000 z_2_6 + 100000 z_2_7 + 100000 z_2_8 + 100000 z_2_9 <= 901976.93094561913
 c5142: 120 p_2_10 + 120 p_2_4 + 120 p_2_5 + 120 p_2_6 + 120 p_2_7 + 120 p_2_8 + 120 p_2_9 + 100000 z_2_10 + 100000 z_2_4 + 100000 z_2_5 + 100000 z_2_6 + 100000 z_2_7 + 100000 z_2_8 + 100000 z_2_9 <= 702048.28558687319
 c5143: 120 p_2_1 + 120 p_2_10 + 120 p_2_4 + 120 p_2_5 + 120 p_2_6 + 120 p_2_7 + 120 p_2_8 + 120 p_2_9 + 100000 z_2_1 + 100000 z_2_10 + 100000 z_2_4 + 100000 z_2_5 + 100000 z_2_6 + 100000 z_2_7 + 100000 z_2_8 + 100000 z_2_9 <= 802048.21820715233
 c5144: 120 p_2_10 + 120 p_2_2 + 120 p_2_4 + 120 p_2_5 + 120 p_2_6 + 120 p_2_7 + 120 p_2_8 + 120 p_2_9 + 100000 z_2_10 + 100000 z_2_2 + 100000 z_2_4 + 100000 z_2_5 + 100000 z_2_6 + 100000 z_2_7 + 100000 z_2_8 + 100000 z_2_9 <= 802033.52192596009
 c5145: 120 p_2_1 + 120 p_2_10 + 120 p_2_2 + 120 p_2_4 + 120 p_2_5 + 120 p_2_6 + 120 p_2_7 + 120 p_2_8 + 120 p_2_9 + 100000 z_2_1 + 100000 z_2_10 + 100000 z_2_2 + 100000 z_2_4 + 100000 z_2_5 + 100000 z_2_6 + 100000 z_2_7 + 100000 z_2_8 + 100000 z_2_9 <= 902033.45454623911
 c5146: 120 p_2_10 + 120 p_2_3 + 120 p_2_4 + 120 p_2_5 + 120 p_2_6 + 120 p_2_7 + 120 p_2_8 + 120 p_2_9 + 100000 z_2_10 + 100000 z_2_3 + 100000 z_2_4 + 100000 z_2_5 + 100000 z_2_6 + 100000 z_2_7 + 100000 z_2_8 + 100000 z_2_9 <= 801991.2899211559
 c5147: 120 p_2_1 + 120 p_2_10 + 120 p_2_3 + 120 p_2_4 + 120 p_2_5 + 120 p_2_6 + 120 p_2_7 + 120 p_2_8 + 120 p_2_9 + 100000 z_2_1 + 100000 z_2_10 + 100000 z_2_3 + 100000 z_2_4 + 100000 z_2_5 + 100000 z_2_6 + 100000 z_2_7 + 100000 z_2_8 + 100000 z_2_9 <= 901991.22254143492
 c5148: 120 p_2_10 + 120 p_2_2 + 120 p_2_3 + 120 p_2_4 + 120 p_2_5 + 120 p_2_6 + 120 p_2_7 + 120 p_2_8 + 120 p_2_9 + 100000 z_2_10 + 100000 z_2_2 + 100000 z_2_3 + 100000 z_2_4 + 100000 z_2_5 + 100000 z_2_6 + 100000 z_2_7 + 100000 z_2_8 + 100000 z_2_9 <= 901976.52626024268
 c5149: 120 p_2_1 + 120 p_2_10 + 120 p_2_2 + 120 p_2_3 + 120 p_2_4 + 120 p_2_5 + 120 p_2_6 + 120 p_2_7 + 120 p_2_8 + 120 p_2_9 + 100000 z_2_1 + 100000 z_2_10 + 100000 z_2_2 + 100000 z_2_3 + 100000 z_2_4 + 100000 z_2_5 + 100000 z_2_6 + 100000 z_2_7 + 100000 z_2_8 + 100000 z_2_9 <= 1001976.4588805217
 c5150: 120 p_0_1 + 120 p_0_2 + 6930.6575670549519 z_0_1 + 6930.6575670549519 z_0_2 <= 16650.65756705495
 c5151: 120 p_0_1 + 120 p_0_3 + 7304.6954763253616 z_0_1 + 7304.6954763253616 z_0_3 <= 17264.69547632536
 c5152: 120 p_0_1 + 120 p_0_4 + 8386.5538580649736 z_0_1 + 8386.5538580649736 z_0_4 <= 19906.553858064974
 c5153: 120 p_0_1 + 120 p_0_5 + 8582.3800753854193 z_0_1 + 8582.3800753854193 z_0_5 <= 19982.380075385419
 c5154: 120 p_0_1 + 120 p_0_6 + 8575.3593105008804 z_0_1 + 8575.3593105008804 z_0_6 <= 19855.35931050088
 c5155: 120 p_0_1 + 120 p_0_7 + 7107.4604577393038 z_0_1 + 7107.4604577393038 z_0_7 <= 17187.460457739304
 c5156: 120 p_0_1 + 120 p_0_8 + 7840.4310664561581 z_0_1 + 7840.4310664561581 z_0_8 <= 18400.431066456156
 c5157: 120 p_0_1 + 120 p_0_9 + 7409.7575007640226 z_0_1 + 7409.7575007640226 z_0_9 <= 17489.757500764023
 c5158: 120 p_0_1 + 120 p_0_10 + 7789.2342330900965 z_0_1 + 7789.2342330900965 z_0_10 <= 18589.234233090097
 c5159: 120 p_0_2 + 120 p_0_3 + 4950.2260808108522 z_0_2 + 4950.2260808108522 z_0_3 <= 12630.226080810851
 c5160: 120 p_0_2 + 120 p_0_4 + 6473.311250454738 z_0_2 + 6473.311250454738 z_0_4 <= 15713.311250454739
 c5161: 120 p_0_2 + 120 p_0_5 + 5974.9442777047943 z_0_2 + 5974.9442777047943 z_0_5 <= 15094.944277704795
 c5162: 120 p_0_2 + 120 p_0_6 + 6206.4688192105677 z_0_2 + 6206.4688192105677 z_0_6 <= 15206.468819210568
 c5163: 120 p_0_2 + 120 p_0_7 + 5184.2703522119318 z_0_2 + 5184.2703522119318 z_0_7 <= 12984.270352211932
 c5164: 120 p_0_2 + 120 p_0_8 + 5238.6559094206123 z_0_2 + 5238.6559094206123 z_0_8 <= 13518.655909420613
 c5165: 120 p_0_2 + 120 p_0_9 + 4981.7227197643124 z_0_2 + 4981.7227197643124 z_0_9 <= 12781.722719764311
 c5166: 120 p_0_10 + 120 p_0_2 + 5876.1883368381623 z_0_10 + 5876.1883368381623 z_0_2 <= 14396.188336838162
 c5167: 120 p_0_3 + 120 p_0_4 + 6844.9400498336945 z_0_3 + 6844.9400498336945 z_0_4 <= 16324.940049833695
 c5168: 120 p_0_3 + 120 p_0_5 + 6666.6286914707134 z_0_3 + 6666.6286914707134 z_0_5 <= 16026.628691470713
 c5169: 120 p_0_3 + 120 p_0_6 + 6213.82680503545 z_0_3 + 6213.82680503545 z_0_6 <= 15453.826805035449
 c5170: 120 p_0_3 + 120 p_0_7 + 5561.3956404700311 z_0_3 + 5561.3956404700311 z_0_7 <= 13601.395640470031
 c5171: 120 p_0_3 + 120 p_0_8 + 5945.2803573661868 z_0_3 + 5945.2803573661868 z_0_8 <= 14465.280357366188
 c5172: 120 p_0_3 + 120 p_0_9 + 5068.2930528618017 z_0_3 + 5068.2930528618017 z_0_9 <= 13108.293052861802
 c5173: 120 p_0_10 + 120 p_0_3 + 6226.0959578411166 z_0_10 + 6226.0959578411166 z_0_3 <= 14986.095957841117
 c5174: 120 p_0_4 + 120 p_0_5 + 8124.5588902324698 z_0_4 + 8124.5588902324698 z_0_5 <= 19044.558890232471
 c5175: 120 p_0_4 + 120 p_0_6 + 8116.0692704813273 z_0_4 + 8116.0692704813273 z_0_6 <= 18916.069270481326
 c5176: 120 p_0_4 + 120 p_0_7 + 6627.8975281387311 z_0_4 + 6627.8975281387311 z_0_7 <= 16227.897528138732
 c5177: 120 p_0_4 + 120 p_0_8 + 7382.0035795842759 z_0_4 + 7382.0035795842759 z_0_8 <= 17462.003579584278
 c5178: 120 p_0_4 + 120 p_0_9 + 6951.2237594964308 z_0_4 + 6951.2237594964308 z_0_9 <= 16551.223759496432
 c5179: 120 p_0_10 + 120 p_0_4 + 7309.3878955749697 z_0_10 + 7309.3878955749697 z_0_4 <= 17629.387895574971
 c5180: 120 p_0_5 + 120 p_0_6 + 7922.8884563408619 z_0_5 + 7922.8884563408619 z_0_6 <= 18602.888456340861
 c5181: 120 p_0_5 + 120 p_0_7 + 6830.3571381712136 z_0_5 + 6830.3571381712136 z_0_7 <= 16310.357138171214
 c5182: 120 p_0_5 + 120 p_0_8 + 6876.4024683426278 z_0_5 + 6876.4024683426278 z_0_8 <= 16836.402468342629
 c5183: 120 p_0_5 + 120 p_0_9 + 6704.3738286487805 z_0_5 + 6704.3738286487805 z_0_9 <= 16184.373828648781
 c5184: 120 p_0_10 + 120 p_0_5 + 7526.7630574318655 z_0_10 + 7526.7630574318655 z_0_5 <= 17726.763057431865
 c5185: 120 p_0_6 + 120 p_0_7 + 6834.0734513666084 z_0_6 + 6834.0734513666084 z_0_7 <= 16194.073451366608
 c5186: 120 p_0_6 + 120 p_0_8 + 7201.4908646988188 z_0_6 + 7201.4908646988188 z_0_8 <= 17041.490864698819
 c5187: 120 p_0_6 + 120 p_0_9 + 6335.4344732127665 z_0_6 + 6335.4344732127665 z_0_9 <= 15695.434473212767
 c5188: 120 p_0_10 + 120 p_0_6 + 7500.1538094710431 z_0_10 + 7500.1538094710431 z_0_6 <= 17580.153809471041
 c5189: 120 p_0_7 + 120 p_0_8 + 6081.6637748740341 z_0_7 + 6081.6637748740341 z_0_8 <= 14721.663774874034
 c5190: 120 p_0_7 + 120 p_0_9 + 5671.2713171085925 z_0_7 + 5671.2713171085925 z_0_9 <= 13831.271317108592
 c5191: 120 p_0_10 + 120 p_0_7 + 5928.5502204602963 z_0_10 + 5928.5502204602963 z_0_7 <= 14808.550220460296
 c5192: 120 p_0_8 + 120 p_0_9 + 5980.6160018317405 z_0_8 + 5980.6160018317405 z_0_9 <= 14620.616001831741
 c5193: 120 p_0_10 + 120 p_0_8 + 6782.7310519730563 z_0_10 + 6782.7310519730563 z_0_8 <= 16142.731051973056
 c5194: 120 p_0_10 + 120 p_0_9 + 6339.9150604145943 z_0_10 + 6339.9150604145943 z_0_9 <= 15219.915060414594
 c5195: 120 p_0_1 + 120 p_0_2 + 120 p_0_3 + 7725.2318381691193 z_0_1 + 7725.2318381691193 z_0_2 + 7725.2318381691193 z_0_3 <= 25530.46367633824
 c5196: 120 p_0_1 + 120 p_0_2 + 120 p_0_4 + 8873.3786301756882 z_0_1 + 8873.3786301756882 z_0_2 + 8873.3786301756882 z_0_4 <= 29386.757260351376
 c5197: 120 p_0_1 + 120 p_0_2 + 120 p_0_5 + 8761.0656719458566 z_0_1 + 8761.0656719458566 z_0_2 + 8761.0656719458566 z_0_5 <= 29042.131343891713
 c5198: 120 p_0_1 + 120 p_0_2 + 120 p_0_6 + 8991.8069659925059 z_0_1 + 8991.8069659925059 z_0_2 + 8991.8069659925059 z_0_6 <= 29383.613931985012
 c5199: 120 p_0_1 + 120 p_0_2 + 120 p_0_7 + 7585.180056541205 z_0_1 + 7585.180056541205 z_0_2 + 7585.180056541205 z_0_7 <= 25370.36011308241
 c5200: 120 p_0_1 + 120 p_0_2 + 120 p_0_8 + 8005.9619972049122 z_0_1 + 8005.9619972049122 z_0_2 + 8005.9619972049122 z_0_8 <= 26691.923994409826
 c5201: 120 p_0_1 + 120 p_0_2 + 120 p_0_9 + 7790.2053702028061 z_0_1 + 7790.2053702028061 z_0_2 + 7790.2053702028061 z_0_9 <= 25780.410740405612
 c5202: 120 p_0_1 + 120 p_0_10 + 120 p_0_2 + 8276.3410189257665 z_0_1 + 8276.3410189257665 z_0_10 + 8276.3410189257665 z_0_2 <= 27472.682037851533
 c5203: 120 p_0_1 + 120 p_0_3 + 120 p_0_4 + 9245.0074295546456 z_0_1 + 9245.0074295546456 z_0_3 + 9245.0074295546456 z_0_4 <= 30370.014859109295
 c5204: 120 p_0_1 + 120 p_0_3 + 120 p_0_5 + 9441.6344488289815 z_0_1 + 9441.6344488289815 z_0_3 + 9441.6344488289815 z_0_5 <= 30643.268897657963
 c5205: 120 p_0_1 + 120 p_0_3 + 120 p_0_6 + 8988.8325623937162 z_0_1 + 8988.8325623937162 z_0_3 + 8988.8325623937162 z_0_6 <= 29617.665124787432
 c5206: 120 p_0_1 + 120 p_0_3 + 120 p_0_7 + 7962.3053447993043 z_0_1 + 7962.3053447993043 z_0_3 + 7962.3053447993043 z_0_7 <= 26364.610689598609
 c5207: 120 p_0_1 + 120 p_0_3 + 120 p_0_8 + 8701.5757615622388 z_0_1 + 8701.5757615622388 z_0_3 + 8701.5757615622388 z_0_8 <= 28323.151523124478
 c5208: 120 p_0_1 + 120 p_0_3 + 120 p_0_9 + 7843.2988102200688 z_0_1 + 7843.2988102200688 z_0_3 + 7843.2988102200688 z_0_9 <= 26126.597620440138
 c5209: 120 p_0_1 + 120 p_0_10 + 120 p_0_3 + 8628.4412064962817 z_0_1 + 8628.4412064962817 z_0_10 + 8628.4412064962817 z_0_3 <= 28416.882412992563
 c5210: 120 p_0_1 + 120 p_0_4 + 120 p_0_5 + 10524.62626995342 z_0_1 + 10524.62626995342 z_0_4 + 10524.62626995342 z_0_5 <= 34369.25253990684
 c5211: 120 p_0_1 + 120 p_0_4 + 120 p_0_6 + 10516.136650202279 z_0_1 + 10516.136650202279 z_0_4 + 10516.136650202279 z_0_6 <= 34232.273300404559
 c5212: 120 p_0_1 + 120 p_0_4 + 120 p_0_7 + 9027.9649078596813 z_0_1 + 9027.9649078596813 z_0_4 + 9027.9649078596813 z_0_7 <= 30055.929815719363
 c5213: 120 p_0_1 + 120 p_0_4 + 120 p_0_8 + 9782.070959305227 z_0_1 + 9782.070959305227 z_0_4 + 9782.070959305227 z_0_8 <= 32044.141918610454
 c5214: 120 p_0_1 + 120 p_0_4 + 120 p_0_9 + 9351.291139217381 z_0_1 + 9351.291139217381 z_0_4 + 9351.291139217381 z_0_9 <= 30702.582278434762
 c5215: 120 p_0_1 + 120 p_0_10 + 120 p_0_4 + 9709.4552752959207 z_0_1 + 9709.4552752959207 z_0_10 + 9709.4552752959207 z_0_4 <= 32138.910550591841
 c5216: 120 p_0_1 + 120 p_0_5 + 120 p_0_6 + 10708.226603122801 z_0_1 + 10708.226603122801 z_0_5 + 10708.226603122801 z_0_6 <= 34496.453206245606
 c5217: 120 p_0_1 + 120 p_0_5 + 120 p_0_7 + 9231.2668425004867 z_0_1 + 9231.2668425004867 z_0_5 + 9231.2668425004867 z_0_7 <= 30342.53368500097
 c5218: 120 p_0_1 + 120 p_0_5 + 120 p_0_8 + 9643.7085561269269 z_0_1 + 9643.7085561269269 z_0_5 + 9643.7085561269269 z_0_8 <= 31647.417112253854
 c5219: 120 p_0_1 + 120 p_0_5 + 120 p_0_9 + 9490.4952228898437 z_0_1 + 9490.4952228898437 z_0_5 + 9490.4952228898437 z_0_9 <= 30860.990445779687
 c5220: 120 p_0_1 + 120 p_0_10 + 120 p_0_5 + 9928.0635272562358 z_0_1 + 9928.0635272562358 z_0_10 + 9928.0635272562358 z_0_5 <= 32456.127054512472
 c5221: 120 p_0_1 + 120 p_0_6 + 120 p_0_7 + 9234.9831556958816 z_0_1 + 9234.9831556958816 z_0_6 + 9234.9831556958816 z_0_7 <= 30229.966311391763
 c5222: 120 p_0_1 + 120 p_0_6 + 120 p_0_8 + 9968.7969524831187 z_0_1 + 9968.7969524831187 z_0_6 + 9968.7969524831187 z_0_8 <= 32177.593904966234
 c5223: 120 p_0_1 + 120 p_0_6 + 120 p_0_9 + 9120.7726199947065 z_0_1 + 9120.7726199947065 z_0_6 + 9120.7726199947065 z_0_9 <= 30001.545239989413
 c5224: 120 p_0_1 + 120 p_0_10 + 120 p_0_6 + 9902.49905812621 z_0_1 + 9902.49905812621 z_0_10 + 9902.49905812621 z_0_6 <= 32284.99811625242
 c5225: 120 p_0_1 + 120 p_0_7 + 120 p_0_8 + 8482.5734792033072 z_0_1 + 8482.5734792033072 z_0_7 + 8482.5734792033072 z_0_8 <= 28005.146958406614
 c5226: 120 p_0_1 + 120 p_0_7 + 120 p_0_9 + 8072.1810214378656 z_0_1 + 8072.1810214378656 z_0_7 + 8072.1810214378656 z_0_9 <= 26704.362042875731
 c5227: 120 p_0_1 + 120 p_0_10 + 120 p_0_7 + 8329.4599247895694 z_0_1 + 8329.4599247895694 z_0_10 + 8329.4599247895694 z_0_7 <= 27938.919849579142
 c5228: 120 p_0_1 + 120 p_0_8 + 120 p_0_9 + 8747.9220896160405 z_0_1 + 8747.9220896160405 z_0_8 + 8747.9220896160405 z_0_9 <= 28535.844179232081
 c5229: 120 p_0_1 + 120 p_0_10 + 120 p_0_8 + 9185.0763006282214 z_0_1 + 9185.0763006282214 z_0_10 + 9185.0763006282214 z_0_8 <= 30130.152601256443
 c5230: 120 p_0_1 + 120 p_0_10 + 120 p_0_9 + 8742.2603090697594 z_0_1 + 8742.2603090697594 z_0_10 + 8742.2603090697594 z_0_9 <= 28764.520618139519
 c5231: 120 p_0_2 + 120 p_0_3 + 120 p_0_4 + 7265.4764116774522 z_0_2 + 7265.4764116774522 z_0_3 + 7265.4764116774522 z_0_4 <= 24130.952823354903
 c5232: 120 p_0_2 + 120 p_0_3 + 120 p_0_5 + 6807.6408506084517 z_0_2 + 6807.6408506084517 z_0_3 + 6807.6408506084517 z_0_5 <= 23095.281701216903
 c5233: 120 p_0_2 + 120 p_0_3 + 120 p_0_6 + 6630.2744605270764 z_0_2 + 6630.2744605270764 z_0_3 + 6630.2744605270764 z_0_6 <= 22620.548921054153
 c5234: 120 p_0_2 + 120 p_0_3 + 120 p_0_7 + 5981.9320023137889 z_0_2 + 5981.9320023137889 z_0_3 + 5981.9320023137889 z_0_7 <= 20123.86400462758
 c5235: 120 p_0_2 + 120 p_0_3 + 120 p_0_8 + 6071.3524823242697 z_0_2 + 6071.3524823242697 z_0_3 + 6071.3524823242697 z_0_8 <= 20782.704964648539
 c5236: 120 p_0_2 + 120 p_0_3 + 120 p_0_9 + 5448.7409223005852 z_0_2 + 5448.7409223005852 z_0_3 + 5448.7409223005852 z_0_9 <= 19057.48184460117
 c5237: 120 p_0_10 + 120 p_0_2 + 120 p_0_3 + 6646.6323196848753 z_0_10 + 6646.6323196848753 z_0_2 + 6646.6323196848753 z_0_3 <= 22173.264639369751
 c5238: 120 p_0_2 + 120 p_0_4 + 120 p_0_5 + 8303.244486792908 z_0_2 + 8303.244486792908 z_0_4 + 8303.244486792908 z_0_5 <= 27646.488973585816
 c5239: 120 p_0_2 + 120 p_0_4 + 120 p_0_6 + 8532.5169259729537 z_0_2 + 8532.5169259729537 z_0_4 + 8532.5169259729537 z_0_6 <= 27985.033851945911
 c5240: 120 p_0_2 + 120 p_0_4 + 120 p_0_7 + 7105.6171269406323 z_0_2 + 7105.6171269406323 z_0_4 + 7105.6171269406323 z_0_7 <= 23931.234253881263
 c5241: 120 p_0_2 + 120 p_0_4 + 120 p_0_8 + 7547.5345103330301 z_0_2 + 7547.5345103330301 z_0_4 + 7547.5345103330301 z_0_8 <= 25295.069020666062
 c5242: 120 p_0_2 + 120 p_0_4 + 120 p_0_9 + 7331.6716289352153 z_0_2 + 7331.6716289352153 z_0_4 + 7331.6716289352153 z_0_9 <= 24383.343257870431
 c5243: 120 p_0_10 + 120 p_0_2 + 120 p_0_4 + 7796.2126676856833 z_0_10 + 7796.2126676856833 z_0_2 + 7796.2126676856833 z_0_4 <= 26032.425335371368
 c5244: 120 p_0_2 + 120 p_0_5 + 120 p_0_6 + 8063.8835890081682 z_0_2 + 8063.8835890081682 z_0_5 + 8063.8835890081682 z_0_6 <= 26927.767178016336
 c5245: 120 p_0_2 + 120 p_0_5 + 120 p_0_7 + 7009.0427347316509 z_0_2 + 7009.0427347316509 z_0_5 + 7009.0427347316509 z_0_7 <= 23618.085469463302
 c5246: 120 p_0_2 + 120 p_0_5 + 120 p_0_8 + 7041.9333990913819 z_0_2 + 7041.9333990913819 z_0_5 + 7041.9333990913819 z_0_8 <= 24163.866798182768
 c5247: 120 p_0_2 + 120 p_0_5 + 120 p_0_9 + 6839.1374895619128 z_0_2 + 6839.1374895619128 z_0_5 + 6839.1374895619128 z_0_9 <= 23278.274979123828
 c5248: 120 p_0_10 + 120 p_0_2 + 120 p_0_5 + 7705.4486539923028 z_0_10 + 7705.4486539923028 z_0_2 + 7705.4486539923028 z_0_5 <= 25730.897307984607
 c5249: 120 p_0_2 + 120 p_0_6 + 120 p_0_7 + 7250.5211068582348 z_0_2 + 7250.5211068582348 z_0_6 + 7250.5211068582348 z_0_7 <= 23981.042213716468
 c5250: 120 p_0_2 + 120 p_0_6 + 120 p_0_8 + 7327.5952207239852 z_0_2 + 7327.5952207239852 z_0_6 + 7327.5952207239852 z_0_8 <= 24615.190441447969
 c5251: 120 p_0_2 + 120 p_0_6 + 120 p_0_9 + 6715.8823426515501 z_0_2 + 6715.8823426515501 z_0_6 + 6715.8823426515501 z_0_9 <= 22911.764685303096
 c5252: 120 p_0_10 + 120 p_0_2 + 120 p_0_6 + 7916.6014649626695 z_0_10 + 7916.6014649626695 z_0_2 + 7916.6014649626695 z_0_6 <= 26033.202929925337
 c5253: 120 p_0_2 + 120 p_0_7 + 120 p_0_8 + 6247.1947056227882 z_0_2 + 6247.1947056227882 z_0_7 + 6247.1947056227882 z_0_8 <= 21254.389411245578
 c5254: 120 p_0_2 + 120 p_0_7 + 120 p_0_9 + 6048.4635640690494 z_0_2 + 6048.4635640690494 z_0_7 + 6048.4635640690494 z_0_9 <= 20376.927128138097
 c5255: 120 p_0_10 + 120 p_0_2 + 120 p_0_7 + 6406.2698192621965 z_0_10 + 6406.2698192621965 z_0_2 + 6406.2698192621965 z_0_7 <= 21812.539638524391
 c5256: 120 p_0_2 + 120 p_0_8 + 120 p_0_9 + 6102.8491212777299 z_0_2 + 6102.8491212777299 z_0_8 + 6102.8491212777299 z_0_9 <= 20965.69824255546
 c5257: 120 p_0_10 + 120 p_0_2 + 120 p_0_8 + 6948.2619827218105 z_0_10 + 6948.2619827218105 z_0_2 + 6948.2619827218105 z_0_8 <= 23376.523965443619
 c5258: 120 p_0_10 + 120 p_0_2 + 120 p_0_9 + 6720.3629298533779 z_0_10 + 6720.3629298533779 z_0_2 + 6720.3629298533779 z_0_9 <= 22440.725859706756
 c5259: 120 p_0_3 + 120 p_0_4 + 120 p_0_5 + 8981.8790223373144 z_0_3 + 8981.8790223373144 z_0_4 + 8981.8790223373144 z_0_5 <= 29243.758044674629
 c5260: 120 p_0_3 + 120 p_0_4 + 120 p_0_6 + 8529.0771359020509 z_0_3 + 8529.0771359020509 z_0_4 + 8529.0771359020509 z_0_6 <= 28218.154271804102
 c5261: 120 p_0_3 + 120 p_0_4 + 120 p_0_7 + 7482.7424151987307 z_0_3 + 7482.7424151987307 z_0_4 + 7482.7424151987307 z_0_7 <= 24925.484830397461
 c5262: 120 p_0_3 + 120 p_0_4 + 120 p_0_8 + 8240.4571510739479 z_0_3 + 8240.4571510739479 z_0_4 + 8240.4571510739479 z_0_8 <= 26920.914302147896
 c5263: 120 p_0_3 + 120 p_0_4 + 120 p_0_9 + 7383.5433837284027 z_0_3 + 7383.5433837284027 z_0_4 + 7383.5433837284027 z_0_9 <= 24727.086767456803
 c5264: 120 p_0_10 + 120 p_0_3 + 120 p_0_4 + 8148.5948689811548 z_0_10 + 8148.5948689811548 z_0_3 + 8148.5948689811548 z_0_4 <= 26977.189737962308
 c5265: 120 p_0_3 + 120 p_0_5 + 120 p_0_6 + 8346.6940976573696 z_0_3 + 8346.6940976573696 z_0_5 + 8346.6940976573696 z_0_6 <= 27733.388195314743
 c5266: 120 p_0_3 + 120 p_0_5 + 120 p_0_7 + 7685.2020252312141 z_0_3 + 7685.2020252312141 z_0_5 + 7685.2020252312141 z_0_7 <= 25210.404050462428
 c5267: 120 p_0_3 + 120 p_0_5 + 120 p_0_8 + 7746.7724786689841 z_0_3 + 7746.7724786689841 z_0_5 + 7746.7724786689841 z_0_8 <= 25813.54495733797
 c5268: 120 p_0_3 + 120 p_0_5 + 120 p_0_9 + 7171.3920311850534 z_0_3 + 7171.3920311850534 z_0_5 + 7171.3920311850534 z_0_9 <= 24182.784062370109
 c5269: 120 p_0_10 + 120 p_0_3 + 120 p_0_5 + 8363.0349303447365 z_0_10 + 8363.0349303447365 z_0_3 + 8363.0349303447365 z_0_5 <= 27286.069860689473
 c5270: 120 p_0_3 + 120 p_0_6 + 120 p_0_7 + 7245.5327265383867 z_0_3 + 7245.5327265383867 z_0_6 + 7245.5327265383867 z_0_7 <= 24211.065453076775
 c5271: 120 p_0_3 + 120 p_0_6 + 120 p_0_8 + 7625.2965060153274 z_0_3 + 7625.2965060153274 z_0_6 + 7625.2965060153274 z_0_8 <= 25450.593012030655
 c5272: 120 p_0_3 + 120 p_0_6 + 120 p_0_9 + 6752.4301389301581 z_0_3 + 6752.4301389301581 z_0_6 + 6752.4301389301581 z_0_9 <= 23224.860277860316
 c5273: 120 p_0_10 + 120 p_0_3 + 120 p_0_6 + 7910.2330439094731 z_0_10 + 7910.2330439094731 z_0_3 + 7910.2330439094731 z_0_6 <= 26260.466087818946
 c5274: 120 p_0_3 + 120 p_0_7 + 120 p_0_8 + 6936.5086619340336 z_0_3 + 6936.5086619340336 z_0_7 + 6936.5086619340336 z_0_8 <= 22873.017323868069
 c5275: 120 p_0_3 + 120 p_0_7 + 120 p_0_9 + 6099.9989743647384 z_0_3 + 6099.9989743647384 z_0_7 + 6099.9989743647384 z_0_9 <= 20719.997948729477
 c5276: 120 p_0_10 + 120 p_0_3 + 120 p_0_7 + 6767.7571938664814 z_0_10 + 6767.7571938664814 z_0_3 + 6767.7571938664814 z_0_7 <= 22775.514387732965
 c5277: 120 p_0_3 + 120 p_0_8 + 120 p_0_9 + 6447.6342043680133 z_0_3 + 6447.6342043680133 z_0_8 + 6447.6342043680133 z_0_9 <= 21895.268408736029
 c5278: 120 p_0_10 + 120 p_0_3 + 120 p_0_8 + 7621.9380253792415 z_0_10 + 7621.9380253792415 z_0_3 + 7621.9380253792415 z_0_8 <= 24963.876050758485
 c5279: 120 p_0_10 + 120 p_0_3 + 120 p_0_9 + 6764.6992917358248 z_0_10 + 6764.6992917358248 z_0_3 + 6764.6992917358248 z_0_9 <= 22769.398583471648
 c5280: 120 p_0_4 + 120 p_0_5 + 120 p_0_6 + 10248.936563103247 z_0_4 + 10248.936563103247 z_0_5 + 10248.936563103247 z_0_6 <= 33097.87312620649
 c5281: 120 p_0_4 + 120 p_0_5 + 120 p_0_7 + 8751.7039128999131 z_0_4 + 8751.7039128999131 z_0_5 + 8751.7039128999131 z_0_7 <= 28903.407825799826
 c5282: 120 p_0_4 + 120 p_0_5 + 120 p_0_8 + 9185.2810692550447 z_0_4 + 9185.2810692550447 z_0_5 + 9185.2810692550447 z_0_8 <= 30250.562138510089
 c5283: 120 p_0_4 + 120 p_0_5 + 120 p_0_9 + 9032.6740377368933 z_0_4 + 9032.6740377368933 z_0_5 + 9032.6740377368933 z_0_9 <= 29465.34807547379
 c5284: 120 p_0_10 + 120 p_0_4 + 120 p_0_5 + 9447.460307463416 z_0_10 + 9447.460307463416 z_0_4 + 9447.460307463416 z_0_5 <= 31014.920614926836
 c5285: 120 p_0_4 + 120 p_0_6 + 120 p_0_7 + 8755.4202260953098 z_0_4 + 8755.4202260953098 z_0_6 + 8755.4202260953098 z_0_7 <= 28790.84045219062
 c5286: 120 p_0_4 + 120 p_0_6 + 120 p_0_8 + 9510.3694656112366 z_0_4 + 9510.3694656112366 z_0_6 + 9510.3694656112366 z_0_8 <= 30780.738931222473
 c5287: 120 p_0_4 + 120 p_0_6 + 120 p_0_9 + 8661.4825799751525 z_0_4 + 8661.4825799751525 z_0_6 + 8661.4825799751525 z_0_9 <= 28602.965159950305
 c5288: 120 p_0_10 + 120 p_0_4 + 120 p_0_6 + 9422.6527206110804 z_0_10 + 9422.6527206110804 z_0_4 + 9422.6527206110804 z_0_6 <= 30845.305441222161
 c5289: 120 p_0_4 + 120 p_0_7 + 120 p_0_8 + 8003.0105496027345 z_0_4 + 8003.0105496027345 z_0_7 + 8003.0105496027345 z_0_8 <= 26566.021099205467
 c5290: 120 p_0_4 + 120 p_0_7 + 120 p_0_9 + 7592.6180918372938 z_0_4 + 7592.6180918372938 z_0_7 + 7592.6180918372938 z_0_9 <= 25265.236183674591
 c5291: 120 p_0_10 + 120 p_0_4 + 120 p_0_7 + 7849.8969951889967 z_0_10 + 7849.8969951889967 z_0_4 + 7849.8969951889967 z_0_7 <= 26499.793990377995
 c5292: 120 p_0_4 + 120 p_0_8 + 120 p_0_9 + 8289.4946027441583 z_0_4 + 8289.4946027441583 z_0_8 + 8289.4946027441583 z_0_9 <= 27138.989205488317
 c5293: 120 p_0_10 + 120 p_0_4 + 120 p_0_8 + 8704.9049968152212 z_0_10 + 8704.9049968152212 z_0_4 + 8704.9049968152212 z_0_8 <= 28689.809993630442
 c5294: 120 p_0_10 + 120 p_0_4 + 120 p_0_9 + 8262.4139715546316 z_0_10 + 8262.4139715546316 z_0_4 + 8262.4139715546316 z_0_9 <= 27324.82794310926
 c5295: 120 p_0_5 + 120 p_0_6 + 120 p_0_7 + 8956.9869133677184 z_0_5 + 8956.9869133677184 z_0_6 + 8956.9869133677184 z_0_7 <= 29073.973826735433
 c5296: 120 p_0_5 + 120 p_0_6 + 120 p_0_8 + 9003.0322435391317 z_0_5 + 9003.0322435391317 z_0_6 + 9003.0322435391317 z_0_8 <= 29646.064487078263
 c5297: 120 p_0_5 + 120 p_0_6 + 120 p_0_9 + 8438.5334515360191 z_0_5 + 8438.5334515360191 z_0_6 + 8438.5334515360191 z_0_9 <= 28037.066903072038
 c5298: 120 p_0_10 + 120 p_0_5 + 120 p_0_6 + 9633.0211020929637 z_0_10 + 9633.0211020929637 z_0_5 + 9633.0211020929637 z_0_6 <= 31146.042204185927
 c5299: 120 p_0_5 + 120 p_0_7 + 120 p_0_8 + 7884.9412645448037 z_0_5 + 7884.9412645448037 z_0_7 + 7884.9412645448037 z_0_8 <= 26209.882529089609
 c5300: 120 p_0_5 + 120 p_0_7 + 120 p_0_9 + 7738.4722856756362 z_0_5 + 7738.4722856756362 z_0_7 + 7738.4722856756362 z_0_9 <= 25436.944571351272
 c5301: 120 p_0_10 + 120 p_0_5 + 120 p_0_7 + 8052.3566052214792 z_0_10 + 8052.3566052214792 z_0_5 + 8052.3566052214792 z_0_7 <= 26784.713210442955
 c5302: 120 p_0_5 + 120 p_0_8 + 120 p_0_9 + 7783.8934915025102 z_0_5 + 7783.8934915025102 z_0_8 + 7783.8934915025102 z_0_9 <= 26007.786983005022
 c5303: 120 p_0_10 + 120 p_0_5 + 120 p_0_8 + 8586.0085416438269 z_0_10 + 8586.0085416438269 z_0_5 + 8586.0085416438269 z_0_8 <= 28332.017083287654
 c5304: 120 p_0_10 + 120 p_0_5 + 120 p_0_9 + 8434.878204936289 z_0_10 + 8434.878204936289 z_0_5 + 8434.878204936289 z_0_9 <= 27549.756409872578
 c5305: 120 p_0_6 + 120 p_0_7 + 120 p_0_8 + 8209.1864728306118 z_0_6 + 8209.1864728306118 z_0_7 + 8209.1864728306118 z_0_8 <= 26738.372945661227
 c5306: 120 p_0_6 + 120 p_0_7 + 120 p_0_9 + 7379.4867608604327 z_0_6 + 7379.4867608604327 z_0_7 + 7379.4867608604327 z_0_9 <= 24598.973521720865
 c5307: 120 p_0_10 + 120 p_0_6 + 120 p_0_7 + 8041.8150454964089 z_0_10 + 8041.8150454964089 z_0_6 + 8041.8150454964089 z_0_7 <= 26643.630090992818
 c5308: 120 p_0_6 + 120 p_0_8 + 120 p_0_9 + 7714.7756247189782 z_0_6 + 7714.7756247189782 z_0_8 + 7714.7756247189782 z_0_9 <= 25749.551249437955
 c5309: 120 p_0_10 + 120 p_0_6 + 120 p_0_8 + 8895.9958770091689 z_0_10 + 8895.9958770091689 z_0_6 + 8895.9958770091689 z_0_8 <= 28831.991754018338
 c5310: 120 p_0_10 + 120 p_0_6 + 120 p_0_9 + 8045.5671189648683 z_0_10 + 8045.5671189648683 z_0_6 + 8045.5671189648683 z_0_9 <= 26651.134237929738
 c5311: 120 p_0_7 + 120 p_0_8 + 120 p_0_9 + 6989.1547980339164 z_0_7 + 6989.1547980339164 z_0_8 + 6989.1547980339164 z_0_9 <= 23098.309596067833
 c5312: 120 p_0_10 + 120 p_0_7 + 120 p_0_8 + 7303.6632419242997 z_0_10 + 7303.6632419242997 z_0_7 + 7303.6632419242997 z_0_8 <= 24447.326483848599
 c5313: 120 p_0_10 + 120 p_0_7 + 120 p_0_9 + 6881.5762964399592 z_0_10 + 6881.5762964399592 z_0_7 + 6881.5762964399592 z_0_9 <= 23123.15259287992
 c5314: 120 p_0_10 + 120 p_0_8 + 120 p_0_9 + 7690.2220751329387 z_0_10 + 7690.2220751329387 z_0_8 + 7690.2220751329387 z_0_9 <= 25220.444150265881
 c5315: 120 p_1_1 + 120 p_1_2 + 6930.6575670549519 z_1_1 + 6930.6575670549519 z_1_2 <= 16650.65756705495
 c5316: 120 p_1_1 + 120 p_1_3 + 7304.6954763253616 z_1_1 + 7304.6954763253616 z_1_3 <= 17264.69547632536
 c5317: 120 p_1_1 + 120 p_1_4 + 8386.5538580649736 z_1_1 + 8386.5538580649736 z_1_4 <= 19906.553858064974
 c5318: 120 p_1_1 + 120 p_1_5 + 8582.3800753854193 z_1_1 + 8582.3800753854193 z_1_5 <= 19982.380075385419
 c5319: 120 p_1_1 + 120 p_1_6 + 8575.3593105008804 z_1_1 + 8575.3593105008804 z_1_6 <= 19855.35931050088
 c5320: 120 p_1_1 + 120 p_1_7 + 7107.4604577393038 z_1_1 + 7107.4604577393038 z_1_7 <= 17187.460457739304
 c5321: 120 p_1_1 + 120 p_1_8 + 7840.4310664561581 z_1_1 + 7840.4310664561581 z_1_8 <= 18400.431066456156
 c5322: 120 p_1_1 + 120 p_1_9 + 7409.7575007640226 z_1_1 + 7409.7575007640226 z_1_9 <= 17489.757500764023
 c5323: 120 p_1_1 + 120 p_1_10 + 7789.2342330900965 z_1_1 + 7789.2342330900965 z_1_10 <= 18589.234233090097
 c5324: 120 p_1_2 + 120 p_1_3 + 4950.2260808108522 z_1_2 + 4950.2260808108522 z_1_3 <= 12630.226080810851
 c5325: 120 p_1_2 + 120 p_1_4 + 6473.311250454738 z_1_2 + 6473.311250454738 z_1_4 <= 15713.311250454739
 c5326: 120 p_1_2 + 120 p_1_5 + 5974.9442777047943 z_1_2 + 5974.9442777047943 z_1_5 <= 15094.944277704795
 c5327: 120 p_1_2 + 120 p_1_6 + 6206.4688192105677 z_1_2 + 6206.4688192105677 z_1_6 <= 15206.468819210568
 c5328: 120 p_1_2 + 120 p_1_7 + 5184.2703522119318 z_1_2 + 5184.2703522119318 z_1_7 <= 12984.270352211932
 c5329: 120 p_1_2 + 120 p_1_8 + 5238.6559094206123 z_1_2 + 5238.6559094206123 z_1_8 <= 13518.655909420613
 c5330: 120 p_1_2 + 120 p_1_9 + 4981.7227197643124 z_1_2 + 4981.7227197643124 z_1_9 <= 12781.722719764311
 c5331: 120 p_1_10 + 120 p_1_2 + 5876.1883368381623 z_1_10 + 5876.1883368381623 z_1_2 <= 14396.188336838162
 c5332: 120 p_1_3 + 120 p_1_4 + 6844.9400498336945 z_1_3 + 6844.9400498336945 z_1_4 <= 16324.940049833695
 c5333: 120 p_1_3 + 120 p_1_5 + 6666.6286914707134 z_1_3 + 6666.6286914707134 z_1_5 <= 16026.628691470713
 c5334: 120 p_1_3 + 120 p_1_6 + 6213.82680503545 z_1_3 + 6213.82680503545 z_1_6 <= 15453.826805035449
 c5335: 120 p_1_3 + 120 p_1_7 + 5561.3956404700311 z_1_3 + 5561.3956404700311 z_1_7 <= 13601.395640470031
 c5336: 120 p_1_3 + 120 p_1_8 + 5945.2803573661868 z_1_3 + 5945.2803573661868 z_1_8 <= 14465.280357366188
 c5337: 120 p_1_3 + 120 p_1_9 + 5068.2930528618017 z_1_3 + 5068.2930528618017 z_1_9 <= 13108.293052861802
 c5338: 120 p_1_10 + 120 p_1_3 + 6226.0959578411166 z_1_10 + 6226.0959578411166 z_1_3 <= 14986.095957841117
 c5339: 120 p_1_4 + 120 p_1_5 + 8124.5588902324698 z_1_4 + 8124.5588902324698 z_1_5 <= 19044.558890232471
 c5340: 120 p_1_4 + 120 p_1_6 + 8116.0692704813273 z_1_4 + 8116.0692704813273 z_1_6 <= 18916.069270481326
 c5341: 120 p_1_4 + 120 p_1_7 + 6627.8975281387311 z_1_4 + 6627.8975281387311 z_1_7 <= 16227.897528138732
 c5342: 120 p_1_4 + 120 p_1_8 + 7382.0035795842759 z_1_4 + 7382.0035795842759 z_1_8 <= 17462.003579584278
 c5343: 120 p_1_4 + 120 p_1_9 + 6951.2237594964308 z_1_4 + 6951.2237594964308 z_1_9 <= 16551.223759496432
 c5344: 120 p_1_10 + 120 p_1_4 + 7309.3878955749697 z_1_10 + 7309.3878955749697 z_1_4 <= 17629.387895574971
 c5345: 120 p_1_5 + 120 p_1_6 + 7922.8884563408619 z_1_5 + 7922.8884563408619 z_1_6 <= 18602.888456340861
 c5346: 120 p_1_5 + 120 p_1_7 + 6830.3571381712136 z_1_5 + 6830.3571381712136 z_1_7 <= 16310.357138171214
 c5347: 120 p_1_5 + 120 p_1_8 + 6876.4024683426278 z_1_5 + 6876.4024683426278 z_1_8 <= 16836.402468342629
 c5348: 120 p_1_5 + 120 p_1_9 + 6704.3738286487805 z_1_5 + 6704.3738286487805 z_1_9 <= 16184.373828648781
 c5349: 120 p_1_10 + 120 p_1_5 + 7526.7630574318655 z_1_10 + 7526.7630574318655 z_1_5 <= 17726.763057431865
 c5350: 120 p_1_6 + 120 p_1_7 + 6834.0734513666084 z_1_6 + 6834.0734513666084 z_1_7 <= 16194.073451366608
 c5351: 120 p_1_6 + 120 p_1_8 + 7201.4908646988188 z_1_6 + 7201.4908646988188 z_1_8 <= 17041.490864698819
 c5352: 120 p_1_6 + 120 p_1_9 + 6335.4344732127665 z_1_6 + 6335.4344732127665 z_1_9 <= 15695.434473212767
 c5353: 120 p_1_10 + 120 p_1_6 + 7500.1538094710431 z_1_10 + 7500.1538094710431 z_1_6 <= 17580.153809471041
 c5354: 120 p_1_7 + 120 p_1_8 + 6081.6637748740341 z_1_7 + 6081.6637748740341 z_1_8 <= 14721.663774874034
 c5355: 120 p_1_7 + 120 p_1_9 + 5671.2713171085925 z_1_7 + 5671.2713171085925 z_1_9 <= 13831.271317108592
 c5356: 120 p_1_10 + 120 p_1_7 + 5928.5502204602963 z_1_10 + 5928.5502204602963 z_1_7 <= 14808.550220460296
 c5357: 120 p_1_8 + 120 p_1_9 + 5980.6160018317405 z_1_8 + 5980.6160018317405 z_1_9 <= 14620.616001831741
 c5358: 120 p_1_10 + 120 p_1_8 + 6782.7310519730563 z_1_10 + 6782.7310519730563 z_1_8 <= 16142.731051973056
 c5359: 120 p_1_10 + 120 p_1_9 + 6339.9150604145943 z_1_10 + 6339.9150604145943 z_1_9 <= 15219.915060414594
 c5360: 120 p_1_1 + 120 p_1_2 + 120 p_1_3 + 7725.2318381691193 z_1_1 + 7725.2318381691193 z_1_2 + 7725.2318381691193 z_1_3 <= 25530.46367633824
 c5361: 120 p_1_1 + 120 p_1_2 + 120 p_1_4 + 8873.3786301756882 z_1_1 + 8873.3786301756882 z_1_2 + 8873.3786301756882 z_1_4 <= 29386.757260351376
 c5362: 120 p_1_1 + 120 p_1_2 + 120 p_1_5 + 8761.0656719458566 z_1_1 + 8761.0656719458566 z_1_2 + 8761.0656719458566 z_1_5 <= 29042.131343891713
 c5363: 120 p_1_1 + 120 p_1_2 + 120 p_1_6 + 8991.8069659925059 z_1_1 + 8991.8069659925059 z_1_2 + 8991.8069659925059 z_1_6 <= 29383.613931985012
 c5364: 120 p_1_1 + 120 p_1_2 + 120 p_1_7 + 7585.180056541205 z_1_1 + 7585.180056541205 z_1_2 + 7585.180056541205 z_1_7 <= 25370.36011308241
 c5365: 120 p_1_1 + 120 p_1_2 + 120 p_1_8 + 8005.9619972049122 z_1_1 + 8005.9619972049122 z_1_2 + 8005.9619972049122 z_1_8 <= 26691.923994409826
 c5366: 120 p_1_1 + 120 p_1_2 + 120 p_1_9 + 7790.2053702028061 z_1_1 + 7790.2053702028061 z_1_2 + 7790.2053702028061 z_1_9 <= 25780.410740405612
 c5367: 120 p_1_1 + 120 p_1_10 + 120 p_1_2 + 8276.3410189257665 z_1_1 + 8276.3410189257665 z_1_10 + 8276.3410189257665 z_1_2 <= 27472.682037851533
 c5368: 120 p_1_1 + 120 p_1_3 + 120 p_1_4 + 9245.0074295546456 z_1_1 + 9245.0074295546456 z_1_3 + 9245.0074295546456 z_1_4 <= 30370.014859109295
 c5369: 120 p_1_1 + 120 p_1_3 + 120 p_1_5 + 9441.6344488289815 z_1_1 + 9441.6344488289815 z_1_3 + 9441.6344488289815 z_1_5 <= 30643.268897657963
 c5370: 120 p_1_1 + 120 p_1_3 + 120 p_1_6 + 8988.8325623937162 z_1_1 + 8988.8325623937162 z_1_3 + 8988.8325623937162 z_1_6 <= 29617.665124787432
 c5371: 120 p_1_1 + 120 p_1_3 + 120 p_1_7 + 7962.3053447993043 z_1_1 + 7962.3053447993043 z_1_3 + 7962.3053447993043 z_1_7 <= 26364.610689598609
 c5372: 120 p_1_1 + 120 p_1_3 + 120 p_1_8 + 8701.5757615622388 z_1_1 + 8701.5757615622388 z_1_3 + 8701.5757615622388 z_1_8 <= 28323.151523124478
 c5373: 120 p_1_1 + 120 p_1_3 + 120 p_1_9 + 7843.2988102200688 z_1_1 + 7843.2988102200688 z_1_3 + 7843.2988102200688 z_1_9 <= 26126.597620440138
 c5374: 120 p_1_1 + 120 p_1_10 + 120 p_1_3 + 8628.4412064962817 z_1_1 + 8628.4412064962817 z_1_10 + 8628.4412064962817 z_1_3 <= 28416.882412992563
 c5375: 120 p_1_1 + 120 p_1_4 + 120 p_1_5 + 10524.62626995342 z_1_1 + 10524.62626995342 z_1_4 + 10524.62626995342 z_1_5 <= 34369.25253990684
 c5376: 120 p_1_1 + 120 p_1_4 + 120 p_1_6 + 10516.136650202279 z_1_1 + 10516.136650202279 z_1_4 + 10516.136650202279 z_1_6 <= 34232.273300404559
 c5377: 120 p_1_1 + 120 p_1_4 + 120 p_1_7 + 9027.9649078596813 z_1_1 + 9027.9649078596813 z_1_4 + 9027.9649078596813 z_1_7 <= 30055.929815719363
 c5378: 120 p_1_1 + 120 p_1_4 + 120 p_1_8 + 9782.070959305227 z_1_1 + 9782.070959305227 z_1_4 + 9782.070959305227 z_1_8 <= 32044.141918610454
 c5379: 120 p_1_1 + 120 p_1_4 + 120 p_1_9 + 9351.291139217381 z_1_1 + 9351.291139217381 z_1_4 + 9351.291139217381 z_1_9 <= 30702.582278434762
 c5380: 120 p_1_1 + 120 p_1_10 + 120 p_1_4 + 9709.4552752959207 z_1_1 + 9709.4552752959207 z_1_10 + 9709.4552752959207 z_1_4 <= 32138.910550591841
 c5381: 120 p_1_1 + 120 p_1_5 + 120 p_1_6 + 10708.226603122801 z_1_1 + 10708.226603122801 z_1_5 + 10708.226603122801 z_1_6 <= 34496.453206245606
 c5382: 120 p_1_1 + 120 p_1_5 + 120 p_1_7 + 9231.2668425004867 z_1_1 + 9231.2668425004867 z_1_5 + 9231.2668425004867 z_1_7 <= 30342.53368500097
 c5383: 120 p_1_1 + 120 p_1_5 + 120 p_1_8 + 9643.7085561269269 z_1_1 + 9643.7085561269269 z_1_5 + 9643.7085561269269 z_1_8 <= 31647.417112253854
 c5384: 120 p_1_1 + 120 p_1_5 + 120 p_1_9 + 9490.4952228898437 z_1_1 + 9490.4952228898437 z_1_5 + 9490.4952228898437 z_1_9 <= 30860.990445779687
 c5385: 120 p_1_1 + 120 p_1_10 + 120 p_1_5 + 9928.0635272562358 z_1_1 + 9928.0635272562358 z_1_10 + 9928.0635272562358 z_1_5 <= 32456.127054512472
 c5386: 120 p_1_1 + 120 p_1_6 + 120 p_1_7 + 9234.9831556958816 z_1_1 + 9234.9831556958816 z_1_6 + 9234.9831556958816 z_1_7 <= 30229.966311391763
 c5387: 120 p_1_1 + 120 p_1_6 + 120 p_1_8 + 9968.7969524831187 z_1_1 + 9968.7969524831187 z_1_6 + 9968.7969524831187 z_1_8 <= 32177.593904966234
 c5388: 120 p_1_1 + 120 p_1_6 + 120 p_1_9 + 9120.7726199947065 z_1_1 + 9120.7726199947065 z_1_6 + 9120.7726199947065 z_1_9 <= 30001.545239989413
 c5389: 120 p_1_1 + 120 p_1_10 + 120 p_1_6 + 9902.49905812621 z_1_1 + 9902.49905812621 z_1_10 + 9902.49905812621 z_1_6 <= 32284.99811625242
 c5390: 120 p_1_1 + 120 p_1_7 + 120 p_1_8 + 8482.5734792033072 z_1_1 + 8482.5734792033072 z_1_7 + 8482.5734792033072 z_1_8 <= 28005.146958406614
 c5391: 120 p_1_1 + 120 p_1_7 + 120 p_1_9 + 8072.1810214378656 z_1_1 + 8072.1810214378656 z_1_7 + 8072.1810214378656 z_1_9 <= 26704.362042875731
 c5392: 120 p_1_1 + 120 p_1_10 + 120 p_1_7 + 8329.4599247895694 z_1_1 + 8329.4599247895694 z_1_10 + 8329.4599247895694 z_1_7 <= 27938.919849579142
 c5393: 120 p_1_1 + 120 p_1_8 + 120 p_1_9 + 8747.9220896160405 z_1_1 + 8747.9220896160405 z_1_8 + 8747.9220896160405 z_1_9 <= 28535.844179232081
 c5394: 120 p_1_1 + 120 p_1_10 + 120 p_1_8 + 9185.0763006282214 z_1_1 + 9185.0763006282214 z_1_10 + 9185.0763006282214 z_1_8 <= 30130.152601256443
 c5395: 120 p_1_1 + 120 p_1_10 + 120 p_1_9 + 8742.2603090697594 z_1_1 + 8742.2603090697594 z_1_10 + 8742.2603090697594 z_1_9 <= 28764.520618139519
 c5396: 120 p_1_2 + 120 p_1_3 + 120 p_1_4 + 7265.4764116774522 z_1_2 + 7265.4764116774522 z_1_3 + 7265.4764116774522 z_1_4 <= 24130.952823354903
 c5397: 120 p_1_2 + 120 p_1_3 + 120 p_1_5 + 6807.6408506084517 z_1_2 + 6807.6408506084517 z_1_3 + 6807.6408506084517 z_1_5 <= 23095.281701216903
 c5398: 120 p_1_2 + 120 p_1_3 + 120 p_1_6 + 6630.2744605270764 z_1_2 + 6630.2744605270764 z_1_3 + 6630.2744605270764 z_1_6 <= 22620.548921054153
 c5399: 120 p_1_2 + 120 p_1_3 + 120 p_1_7 + 5981.9320023137889 z_1_2 + 5981.9320023137889 z_1_3 + 5981.9320023137889 z_1_7 <= 20123.86400462758
 c5400: 120 p_1_2 + 120 p_1_3 + 120 p_1_8 + 6071.3524823242697 z_1_2 + 6071.3524823242697 z_1_3 + 6071.3524823242697 z_1_8 <= 20782.704964648539
 c5401: 120 p_1_2 + 120 p_1_3 + 120 p_1_9 + 5448.7409223005852 z_1_2 + 5448.7409223005852 z_1_3 + 5448.7409223005852 z_1_9 <= 19057.48184460117
 c5402: 120 p_1_10 + 120 p_1_2 + 120 p_1_3 + 6646.6323196848753 z_1_10 + 6646.6323196848753 z_1_2 + 6646.6323196848753 z_1_3 <= 22173.264639369751
 c5403: 120 p_1_2 + 120 p_1_4 + 120 p_1_5 + 8303.244486792908 z_1_2 + 8303.244486792908 z_1_4 + 8303.244486792908 z_1_5 <= 27646.488973585816
 c5404: 120 p_1_2 + 120 p_1_4 + 120 p_1_6 + 8532.5169259729537 z_1_2 + 8532.5169259729537 z_1_4 + 8532.5169259729537 z_1_6 <= 27985.033851945911
 c5405: 120 p_1_2 + 120 p_1_4 + 120 p_1_7 + 7105.6171269406323 z_1_2 + 7105.6171269406323 z_1_4 + 7105.6171269406323 z_1_7 <= 23931.234253881263
 c5406: 120 p_1_2 + 120 p_1_4 + 120 p_1_8 + 7547.5345103330301 z_1_2 + 7547.5345103330301 z_1_4 + 7547.5345103330301 z_1_8 <= 25295.069020666062
 c5407: 120 p_1_2 + 120 p_1_4 + 120 p_1_9 + 7331.6716289352153 z_1_2 + 7331.6716289352153 z_1_4 + 7331.6716289352153 z_1_9 <= 24383.343257870431
 c5408: 120 p_1_10 + 120 p_1_2 + 120 p_1_4 + 7796.2126676856833 z_1_10 + 7796.2126676856833 z_1_2 + 7796.2126676856833 z_1_4 <= 26032.425335371368
 c5409: 120 p_1_2 + 120 p_1_5 + 120 p_1_6 + 8063.8835890081682 z_1_2 + 8063.8835890081682 z_1_5 + 8063.8835890081682 z_1_6 <= 26927.767178016336
 c5410: 120 p_1_2 + 120 p_1_5 + 120 p_1_7 + 7009.0427347316509 z_1_2 + 7009.0427347316509 z_1_5 + 7009.0427347316509 z_1_7 <= 23618.085469463302
 c5411: 120 p_1_2 + 120 p_1_5 + 120 p_1_8 + 7041.9333990913819 z_1_2 + 7041.9333990913819 z_1_5 + 7041.9333990913819 z_1_8 <= 24163.866798182768
 c5412: 120 p_1_2 + 120 p_1_5 + 120 p_1_9 + 6839.1374895619128 z_1_2 + 6839.1374895619128 z_1_5 + 6839.1374895619128 z_1_9 <= 23278.274979123828
 c5413: 120 p_1_10 + 120 p_1_2 + 120 p_1_5 + 7705.4486539923028 z_1_10 + 7705.4486539923028 z_1_2 + 7705.4486539923028 z_1_5 <= 25730.897307984607
 c5414: 120 p_1_2 + 120 p_1_6 + 120 p_1_7 + 7250.5211068582348 z_1_2 + 7250.5211068582348 z_1_6 + 7250.5211068582348 z_1_7 <= 23981.042213716468
 c5415: 120 p_1_2 + 120 p_1_6 + 120 p_1_8 + 7327.5952207239852 z_1_2 + 7327.5952207239852 z_1_6 + 7327.5952207239852 z_1_8 <= 24615.190441447969
 c5416: 120 p_1_2 + 120 p_1_6 + 120 p_1_9 + 6715.8823426515501 z_1_2 + 6715.8823426515501 z_1_6 + 6715.8823426515501 z_1_9 <= 22911.764685303096
 c5417: 120 p_1_10 + 120 p_1_2 + 120 p_1_6 + 7916.6014649626695 z_1_10 + 7916.6014649626695 z_1_2 + 7916.6014649626695 z_1_6 <= 26033.202929925337
 c5418: 120 p_1_2 + 120 p_1_7 + 120 p_1_8 + 6247.1947056227882 z_1_2 + 6247.1947056227882 z_1_7 + 6247.1947056227882 z_1_8 <= 21254.389411245578
 c5419: 120 p_1_2 + 120 p_1_7 + 120 p_1_9 + 6048.4635640690494 z_1_2 + 6048.4635640690494 z_1_7 + 6048.4635640690494 z_1_9 <= 20376.927128138097
 c5420: 120 p_1_10 + 120 p_1_2 + 120 p_1_7 + 6406.2698192621965 z_1_10 + 6406.2698192621965 z_1_2 + 6406.2698192621965 z_1_7 <= 21812.539638524391
 c5421: 120 p_1_2 + 120 p_1_8 + 120 p_1_9 + 6102.8491212777299 z_1_2 + 6102.8491212777299 z_1_8 + 6102.8491212777299 z_1_9 <= 20965.69824255546
 c5422: 120 p_1_10 + 120 p_1_2 + 120 p_1_8 + 6948.2619827218105 z_1_10 + 6948.2619827218105 z_1_2 + 6948.2619827218105 z_1_8 <= 23376.523965443619
 c5423: 120 p_1_10 + 120 p_1_2 + 120 p_1_9 + 6720.3629298533779 z_1_10 + 6720.3629298533779 z_1_2 + 6720.3629298533779 z_1_9 <= 22440.725859706756
 c5424: 120 p_1_3 + 120 p_1_4 + 120 p_1_5 + 8981.8790223373144 z_1_3 + 8981.8790223373144 z_1_4 + 8981.8790223373144 z_1_5 <= 29243.758044674629
 c5425: 120 p_1_3 + 120 p_1_4 + 120 p_1_6 + 8529.0771359020509 z_1_3 + 8529.0771359020509 z_1_4 + 8529.0771359020509 z_1_6 <= 28218.154271804102
 c5426: 120 p_1_3 + 120 p_1_4 + 120 p_1_7 + 7482.7424151987307 z_1_3 + 7482.7424151987307 z_1_4 + 7482.7424151987307 z_1_7 <= 24925.484830397461
 c5427: 120 p_1_3 + 120 p_1_4 + 120 p_1_8 + 8240.4571510739479 z_1_3 + 8240.4571510739479 z_1_4 + 8240.4571510739479 z_1_8 <= 26920.914302147896
 c5428: 120 p_1_3 + 120 p_1_4 + 120 p_1_9 + 7383.5433837284027 z_1_3 + 7383.5433837284027 z_1_4 + 7383.5433837284027 z_1_9 <= 24727.086767456803
 c5429: 120 p_1_10 + 120 p_1_3 + 120 p_1_4 + 8148.5948689811548 z_1_10 + 8148.5948689811548 z_1_3 + 8148.5948689811548 z_1_4 <= 26977.189737962308
 c5430: 120 p_1_3 + 120 p_1_5 + 120 p_1_6 + 8346.6940976573696 z_1_3 + 8346.6940976573696 z_1_5 + 8346.6940976573696 z_1_6 <= 27733.388195314743
 c5431: 120 p_1_3 + 120 p_1_5 + 120 p_1_7 + 7685.2020252312141 z_1_3 + 7685.2020252312141 z_1_5 + 7685.2020252312141 z_1_7 <= 25210.404050462428
 c5432: 120 p_1_3 + 120 p_1_5 + 120 p_1_8 + 7746.7724786689841 z_1_3 + 7746.7724786689841 z_1_5 + 7746.7724786689841 z_1_8 <= 25813.54495733797
 c5433: 120 p_1_3 + 120 p_1_5 + 120 p_1_9 + 7171.3920311850534 z_1_3 + 7171.3920311850534 z_1_5 + 7171.3920311850534 z_1_9 <= 24182.784062370109
 c5434: 120 p_1_10 + 120 p_1_3 + 120 p_1_5 + 8363.0349303447365 z_1_10 + 8363.0349303447365 z_1_3 + 8363.0349303447365 z_1_5 <= 27286.069860689473
 c5435: 120 p_1_3 + 120 p_1_6 + 120 p_1_7 + 7245.5327265383867 z_1_3 + 7245.5327265383867 z_1_6 + 7245.5327265383867 z_1_7 <= 24211.065453076775
 c5436: 120 p_1_3 + 120 p_1_6 + 120 p_1_8 + 7625.2965060153274 z_1_3 + 7625.2965060153274 z_1_6 + 7625.2965060153274 z_1_8 <= 25450.593012030655
 c5437: 120 p_1_3 + 120 p_1_6 + 120 p_1_9 + 6752.4301389301581 z_1_3 + 6752.4301389301581 z_1_6 + 6752.4301389301581 z_1_9 <= 23224.860277860316
 c5438: 120 p_1_10 + 120 p_1_3 + 120 p_1_6 + 7910.2330439094731 z_1_10 + 7910.2330439094731 z_1_3 + 7910.2330439094731 z_1_6 <= 26260.466087818946
 c5439: 120 p_1_3 + 120 p_1_7 + 120 p_1_8 + 6936.5086619340336 z_1_3 + 6936.5086619340336 z_1_7 + 6936.5086619340336 z_1_8 <= 22873.017323868069
 c5440: 120 p_1_3 + 120 p_1_7 + 120 p_1_9 + 6099.9989743647384 z_1_3 + 6099.9989743647384 z_1_7 + 6099.9989743647384 z_1_9 <= 20719.997948729477
 c5441: 120 p_1_10 + 120 p_1_3 + 120 p_1_7 + 6767.7571938664814 z_1_10 + 6767.7571938664814 z_1_3 + 6767.7571938664814 z_1_7 <= 22775.514387732965
 c5442: 120 p_1_3 + 120 p_1_8 + 120 p_1_9 + 6447.6342043680133 z_1_3 + 6447.6342043680133 z_1_8 + 6447.6342043680133 z_1_9 <= 21895.268408736029
 c5443: 120 p_1_10 + 120 p_1_3 + 120 p_1_8 + 7621.9380253792415 z_1_10 + 7621.9380253792415 z_1_3 + 7621.9380253792415 z_1_8 <= 24963.876050758485
 c5444: 120 p_1_10 + 120 p_1_3 + 120 p_1_9 + 6764.6992917358248 z_1_10 + 6764.6992917358248 z_1_3 + 6764.6992917358248 z_1_9 <= 22769.398583471648
 c5445: 120 p_1_4 + 120 p_1_5 + 120 p_1_6 + 10248.936563103247 z_1_4 + 10248.936563103247 z_1_5 + 10248.936563103247 z_1_6 <= 33097.87312620649
 c5446: 120 p_1_4 + 120 p_1_5 + 120 p_1_7 + 8751.7039128999131 z_1_4 + 8751.7039128999131 z_1_5 + 8751.7039128999131 z_1_7 <= 28903.407825799826
 c5447: 120 p_1_4 + 120 p_1_5 + 120 p_1_8 + 9185.2810692550447 z_1_4 + 9185.2810692550447 z_1_5 + 9185.2810692550447 z_1_8 <= 30250.562138510089
 c5448: 120 p_1_4 + 120 p_1_5 + 120 p_1_9 + 9032.6740377368933 z_1_4 + 9032.6740377368933 z_1_5 + 9032.6740377368933 z_1_9 <= 29465.34807547379
 c5449: 120 p_1_10 + 120 p_1_4 + 120 p_1_5 + 9447.460307463416 z_1_10 + 9447.460307463416 z_1_4 + 9447.460307463416 z_1_5 <= 31014.920614926836
 c5450: 120 p_1_4 + 120 p_1_6 + 120 p_1_7 + 8755.4202260953098 z_1_4 + 8755.4202260953098 z_1_6 + 8755.4202260953098 z_1_7 <= 28790.84045219062
 c5451: 120 p_1_4 + 120 p_1_6 + 120 p_1_8 + 9510.3694656112366 z_1_4 + 9510.3694656112366 z_1_6 + 9510.3694656112366 z_1_8 <= 30780.738931222473
 c5452: 120 p_1_4 + 120 p_1_6 + 120 p_1_9 + 8661.4825799751525 z_1_4 + 8661.4825799751525 z_1_6 + 8661.4825799751525 z_1_9 <= 28602.965159950305
 c5453: 120 p_1_10 + 120 p_1_4 + 120 p_1_6 + 9422.6527206110804 z_1_10 + 9422.6527206110804 z_1_4 + 9422.6527206110804 z_1_6 <= 30845.305441222161
 c5454: 120 p_1_4 + 120 p_1_7 + 120 p_1_8 + 8003.0105496027345 z_1_4 + 8003.0105496027345 z_1_7 + 8003.0105496027345 z_1_8 <= 26566.021099205467
 c5455: 120 p_1_4 + 120 p_1_7 + 120 p_1_9 + 7592.6180918372938 z_1_4 + 7592.6180918372938 z_1_7 + 7592.6180918372938 z_1_9 <= 25265.236183674591
 c5456: 120 p_1_10 + 120 p_1_4 + 120 p_1_7 + 7849.8969951889967 z_1_10 + 7849.8969951889967 z_1_4 + 7849.8969951889967 z_1_7 <= 26499.793990377995
 c5457: 120 p_1_4 + 120 p_1_8 + 120 p_1_9 + 8289.4946027441583 z_1_4 + 8289.4946027441583 z_1_8 + 8289.4946027441583 z_1_9 <= 27138.989205488317
 c5458: 120 p_1_10 + 120 p_1_4 + 120 p_1_8 + 8704.9049968152212 z_1_10 + 8704.9049968152212 z_1_4 + 8704.9049968152212 z_1_8 <= 28689.809993630442
 c5459: 120 p_1_10 + 120 p_1_4 + 120 p_1_9 + 8262.4139715546316 z_1_10 + 8262.4139715546316 z_1_4 + 8262.4139715546316 z_1_9 <= 27324.82794310926
 c5460: 120 p_1_5 + 120 p_1_6 + 120 p_1_7 + 8956.9869133677184 z_1_5 + 8956.9869133677184 z_1_6 + 8956.9869133677184 z_1_7 <= 29073.973826735433
 c5461: 120 p_1_5 + 120 p_1_6 + 120 p_1_8 + 9003.0322435391317 z_1_5 + 9003.0322435391317 z_1_6 + 9003.0322435391317 z_1_8 <= 29646.064487078263
 c5462: 120 p_1_5 + 120 p_1_6 + 120 p_1_9 + 8438.5334515360191 z_1_5 + 8438.5334515360191 z_1_6 + 8438.5334515360191 z_1_9 <= 28037.066903072038
 c5463: 120 p_1_10 + 120 p_1_5 + 120 p_1_6 + 9633.0211020929637 z_1_10 + 9633.0211020929637 z_1_5 + 9633.0211020929637 z_1_6 <= 31146.042204185927
 c5464: 120 p_1_5 + 120 p_1_7 + 120 p_1_8 + 7884.9412645448037 z_1_5 + 7884.9412645448037 z_1_7 + 7884.9412645448037 z_1_8 <= 26209.882529089609
 c5465: 120 p_1_5 + 120 p_1_7 + 120 p_1_9 + 7738.4722856756362 z_1_5 + 7738.4722856756362 z_1_7 + 7738.4722856756362 z_1_9 <= 25436.944571351272
 c5466: 120 p_1_10 + 120 p_1_5 + 120 p_1_7 + 8052.3566052214792 z_1_10 + 8052.3566052214792 z_1_5 + 8052.3566052214792 z_1_7 <= 26784.713210442955
 c5467: 120 p_1_5 + 120 p_1_8 + 120 p_1_9 + 7783.8934915025102 z_1_5 + 7783.8934915025102 z_1_8 + 7783.8934915025102 z_1_9 <= 26007.786983005022
 c5468: 120 p_1_10 + 120 p_1_5 + 120 p_1_8 + 8586.0085416438269 z_1_10 + 8586.0085416438269 z_1_5 + 8586.0085416438269 z_1_8 <= 28332.017083287654
 c5469: 120 p_1_10 + 120 p_1_5 + 120 p_1_9 + 8434.878204936289 z_1_10 + 8434.878204936289 z_1_5 + 8434.878204936289 z_1_9 <= 27549.756409872578
 c5470: 120 p_1_6 + 120 p_1_7 + 120 p_1_8 + 8209.1864728306118 z_1_6 + 8209.1864728306118 z_1_7 + 8209.1864728306118 z_1_8 <= 26738.372945661227
 c5471: 120 p_1_6 + 120 p_1_7 + 120 p_1_9 + 7379.4867608604327 z_1_6 + 7379.4867608604327 z_1_7 + 7379.4867608604327 z_1_9 <= 24598.973521720865
 c5472: 120 p_1_10 + 120 p_1_6 + 120 p_1_7 + 8041.8150454964089 z_1_10 + 8041.8150454964089 z_1_6 + 8041.8150454964089 z_1_7 <= 26643.630090992818
 c5473: 120 p_1_6 + 120 p_1_8 + 120 p_1_9 + 7714.7756247189782 z_1_6 + 7714.7756247189782 z_1_8 + 7714.7756247189782 z_1_9 <= 25749.551249437955
 c5474: 120 p_1_10 + 120 p_1_6 + 120 p_1_8 + 8895.9958770091689 z_1_10 + 8895.9958770091689 z_1_6 + 8895.9958770091689 z_1_8 <= 28831.991754018338
 c5475: 120 p_1_10 + 120 p_1_6 + 120 p_1_9 + 8045.5671189648683 z_1_10 + 8045.5671189648683 z_1_6 + 8045.5671189648683 z_1_9 <= 26651.134237929738
 c5476: 120 p_1_7 + 120 p_1_8 + 120 p_1_9 + 6989.1547980339164 z_1_7 + 6989.1547980339164 z_1_8 + 6989.1547980339164 z_1_9 <= 23098.309596067833
 c5477: 120 p_1_10 + 120 p_1_7 + 120 p_1_8 + 7303.6632419242997 z_1_10 + 7303.6632419242997 z_1_7 + 7303.6632419242997 z_1_8 <= 24447.326483848599
 c5478: 120 p_1_10 + 120 p_1_7 + 120 p_1_9 + 6881.5762964399592 z_1_10 + 6881.5762964399592 z_1_7 + 6881.5762964399592 z_1_9 <= 23123.15259287992
 c5479: 120 p_1_10 + 120 p_1_8 + 120 p_1_9 + 7690.2220751329387 z_1_10 + 7690.2220751329387 z_1_8 + 7690.2220751329387 z_1_9 <= 25220.444150265881
 c5480: 120 p_2_1 + 120 p_2_2 + 6930.6575670549519 z_2_1 + 6930.6575670549519 z_2_2 <= 16650.65756705495
 c5481: 120 p_2_1 + 120 p_2_3 + 7304.6954763253616 z_2_1 + 7304.6954763253616 z_2_3 <= 17264.69547632536
 c5482: 120 p_2_1 + 120 p_2_4 + 8386.5538580649736 z_2_1 + 8386.5538580649736 z_2_4 <= 19906.553858064974
 c5483: 120 p_2_1 + 120 p_2_5 + 8582.3800753854193 z_2_1 + 8582.3800753854193 z_2_5 <= 19982.380075385419
 c5484: 120 p_2_1 + 120 p_2_6 + 8575.3593105008804 z_2_1 + 8575.3593105008804 z_2_6 <= 19855.35931050088
 c5485: 120 p_2_1 + 120 p_2_7 + 7107.4604577393038 z_2_1 + 7107.4604577393038 z_2_7 <= 17187.460457739304
 c5486: 120 p_2_1 + 120 p_2_8 + 7840.4310664561581 z_2_1 + 7840.4310664561581 z_2_8 <= 18400.431066456156
 c5487: 120 p_2_1 + 120 p_2_9 + 7409.7575007640226 z_2_1 + 7409.7575007640226 z_2_9 <= 17489.757500764023
 c5488: 120 p_2_1 + 120 p_2_10 + 7789.2342330900965 z_2_1 + 7789.2342330900965 z_2_10 <= 18589.234233090097
 c5489: 120 p_2_2 + 120 p_2_3 + 4950.2260808108522 z_2_2 + 4950.2260808108522 z_2_3 <= 12630.226080810851
 c5490: 120 p_2_2 + 120 p_2_4 + 6473.311250454738 z_2_2 + 6473.311250454738 z_2_4 <= 15713.311250454739
 c5491: 120 p_2_2 + 120 p_2_5 + 5974.9442777047943 z_2_2 + 5974.9442777047943 z_2_5 <= 15094.944277704795
 c5492: 120 p_2_2 + 120 p_2_6 + 6206.4688192105677 z_2_2 + 6206.4688192105677 z_2_6 <= 15206.468819210568
 c5493: 120 p_2_2 + 120 p_2_7 + 5184.2703522119318 z_2_2 + 5184.2703522119318 z_2_7 <= 12984.270352211932
 c5494: 120 p_2_2 + 120 p_2_8 + 5238.6559094206123 z_2_2 + 5238.6559094206123 z_2_8 <= 13518.655909420613
 c5495: 120 p_2_2 + 120 p_2_9 + 4981.7227197643124 z_2_2 + 4981.7227197643124 z_2_9 <= 12781.722719764311
 c5496: 120 p_2_10 + 120 p_2_2 + 5876.1883368381623 z_2_10 + 5876.1883368381623 z_2_2 <= 14396.188336838162
 c5497: 120 p_2_3 + 120 p_2_4 + 6844.9400498336945 z_2_3 + 6844.9400498336945 z_2_4 <= 16324.940049833695
 c5498: 120 p_2_3 + 120 p_2_5 + 6666.6286914707134 z_2_3 + 6666.6286914707134 z_2_5 <= 16026.628691470713
 c5499: 120 p_2_3 + 120 p_2_6 + 6213.82680503545 z_2_3 + 6213.82680503545 z_2_6 <= 15453.826805035449
 c5500: 120 p_2_3 + 120 p_2_7 + 5561.3956404700311 z_2_3 + 5561.3956404700311 z_2_7 <= 13601.395640470031
 c5501: 120 p_2_3 + 120 p_2_8 + 5945.2803573661868 z_2_3 + 5945.2803573661868 z_2_8 <= 14465.280357366188
 c5502: 120 p_2_3 + 120 p_2_9 + 5068.2930528618017 z_2_3 + 5068.2930528618017 z_2_9 <= 13108.293052861802
 c5503: 120 p_2_10 + 120 p_2_3 + 6226.0959578411166 z_2_10 + 6226.0959578411166 z_2_3 <= 14986.095957841117
 c5504: 120 p_2_4 + 120 p_2_5 + 8124.5588902324698 z_2_4 + 8124.5588902324698 z_2_5 <= 19044.558890232471
 c5505: 120 p_2_4 + 120 p_2_6 + 8116.0692704813273 z_2_4 + 8116.0692704813273 z_2_6 <= 18916.069270481326
 c5506: 120 p_2_4 + 120 p_2_7 + 6627.8975281387311 z_2_4 + 6627.8975281387311 z_2_7 <= 16227.897528138732
 c5507: 120 p_2_4 + 120 p_2_8 + 7382.0035795842759 z_2_4 + 7382.0035795842759 z_2_8 <= 17462.003579584278
 c5508: 120 p_2_4 + 120 p_2_9 + 6951.2237594964308 z_2_4 + 6951.2237594964308 z_2_9 <= 16551.223759496432
 c5509: 120 p_2_10 + 120 p_2_4 + 7309.3878955749697 z_2_10 + 7309.3878955749697 z_2_4 <= 17629.387895574971
 c5510: 120 p_2_5 + 120 p_2_6 + 7922.8884563408619 z_2_5 + 7922.8884563408619 z_2_6 <= 18602.888456340861
 c5511: 120 p_2_5 + 120 p_2_7 + 6830.3571381712136 z_2_5 + 6830.3571381712136 z_2_7 <= 16310.357138171214
 c5512: 120 p_2_5 + 120 p_2_8 + 6876.4024683426278 z_2_5 + 6876.4024683426278 z_2_8 <= 16836.402468342629
 c5513: 120 p_2_5 + 120 p_2_9 + 6704.3738286487805 z_2_5 + 6704.3738286487805 z_2_9 <= 16184.373828648781
 c5514: 120 p_2_10 + 120 p_2_5 + 7526.7630574318655 z_2_10 + 7526.7630574318655 z_2_5 <= 17726.763057431865
 c5515: 120 p_2_6 + 120 p_2_7 + 6834.0734513666084 z_2_6 + 6834.0734513666084 z_2_7 <= 16194.073451366608
 c5516: 120 p_2_6 + 120 p_2_8 + 7201.4908646988188 z_2_6 + 7201.4908646988188 z_2_8 <= 17041.490864698819
 c5517: 120 p_2_6 + 120 p_2_9 + 6335.4344732127665 z_2_6 + 6335.4344732127665 z_2_9 <= 15695.434473212767
 c5518: 120 p_2_10 + 120 p_2_6 + 7500.1538094710431 z_2_10 + 7500.1538094710431 z_2_6 <= 17580.153809471041
 c5519: 120 p_2_7 + 120 p_2_8 + 6081.6637748740341 z_2_7 + 6081.6637748740341 z_2_8 <= 14721.663774874034
 c5520: 120 p_2_7 + 120 p_2_9 + 5671.2713171085925 z_2_7 + 5671.2713171085925 z_2_9 <= 13831.271317108592
 c5521: 120 p_2_10 + 120 p_2_7 + 5928.5502204602963 z_2_10 + 5928.5502204602963 z_2_7 <= 14808.550220460296
 c5522: 120 p_2_8 + 120 p_2_9 + 5980.6160018317405 z_2_8 + 5980.6160018317405 z_2_9 <= 14620.616001831741
 c5523: 120 p_2_10 + 120 p_2_8 + 6782.7310519730563 z_2_10 + 6782.7310519730563 z_2_8 <= 16142.731051973056
 c5524: 120 p_2_10 + 120 p_2_9 + 6339.9150604145943 z_2_10 + 6339.9150604145943 z_2_9 <= 15219.915060414594
 c5525: 120 p_2_1 + 120 p_2_2 + 120 p_2_3 + 7725.2318381691193 z_2_1 + 7725.2318381691193 z_2_2 + 7725.2318381691193 z_2_3 <= 25530.46367633824
 c5526: 120 p_2_1 + 120 p_2_2 + 120 p_2_4 + 8873.3786301756882 z_2_1 + 8873.3786301756882 z_2_2 + 8873.3786301756882 z_2_4 <= 29386.757260351376
 c5527: 120 p_2_1 + 120 p_2_2 + 120 p_2_5 + 8761.0656719458566 z_2_1 + 8761.0656719458566 z_2_2 + 8761.0656719458566 z_2_5 <= 29042.131343891713
 c5528: 120 p_2_1 + 120 p_2_2 + 120 p_2_6 + 8991.8069659925059 z_2_1 + 8991.8069659925059 z_2_2 + 8991.8069659925059 z_2_6 <= 29383.613931985012
 c5529: 120 p_2_1 + 120 p_2_2 + 120 p_2_7 + 7585.180056541205 z_2_1 + 7585.180056541205 z_2_2 + 7585.180056541205 z_2_7 <= 25370.36011308241
 c5530: 120 p_2_1 + 120 p_2_2 + 120 p_2_8 + 8005.9619972049122 z_2_1 + 8005.9619972049122 z_2_2 + 8005.9619972049122 z_2_8 <= 26691.923994409826
 c5531: 120 p_2_1 + 120 p_2_2 + 120 p_2_9 + 7790.2053702028061 z_2_1 + 7790.2053702028061 z_2_2 + 7790.2053702028061 z_2_9 <= 25780.410740405612
 c5532: 120 p_2_1 + 120 p_2_10 + 120 p_2_2 + 8276.3410189257665 z_2_1 + 8276.3410189257665 z_2_10 + 8276.3410189257665 z_2_2 <= 27472.682037851533
 c5533: 120 p_2_1 + 120 p_2_3 + 120 p_2_4 + 9245.0074295546456 z_2_1 + 9245.0074295546456 z_2_3 + 9245.0074295546456 z_2_4 <= 30370.014859109295
 c5534: 120 p_2_1 + 120 p_2_3 + 120 p_2_5 + 9441.6344488289815 z_2_1 + 9441.6344488289815 z_2_3 + 9441.6344488289815 z_2_5 <= 30643.268897657963
 c5535: 120 p_2_1 + 120 p_2_3 + 120 p_2_6 + 8988.8325623937162 z_2_1 + 8988.8325623937162 z_2_3 + 8988.8325623937162 z_2_6 <= 29617.665124787432
 c5536: 120 p_2_1 + 120 p_2_3 + 120 p_2_7 + 7962.3053447993043 z_2_1 + 7962.3053447993043 z_2_3 + 7962.3053447993043 z_2_7 <= 26364.610689598609
 c5537: 120 p_2_1 + 120 p_2_3 + 120 p_2_8 + 8701.5757615622388 z_2_1 + 8701.5757615622388 z_2_3 + 8701.5757615622388 z_2_8 <= 28323.151523124478
 c5538: 120 p_2_1 + 120 p_2_3 + 120 p_2_9 + 7843.2988102200688 z_2_1 + 7843.2988102200688 z_2_3 + 7843.2988102200688 z_2_9 <= 26126.597620440138
 c5539: 120 p_2_1 + 120 p_2_10 + 120 p_2_3 + 8628.4412064962817 z_2_1 + 8628.4412064962817 z_2_10 + 8628.4412064962817 z_2_3 <= 28416.882412992563
 c5540: 120 p_2_1 + 120 p_2_4 + 120 p_2_5 + 10524.62626995342 z_2_1 + 10524.62626995342 z_2_4 + 10524.62626995342 z_2_5 <= 34369.25253990684
 c5541: 120 p_2_1 + 120 p_2_4 + 120 p_2_6 + 10516.136650202279 z_2_1 + 10516.136650202279 z_2_4 + 10516.136650202279 z_2_6 <= 34232.273300404559
 c5542: 120 p_2_1 + 120 p_2_4 + 120 p_2_7 + 9027.9649078596813 z_2_1 + 9027.9649078596813 z_2_4 + 9027.9649078596813 z_2_7 <= 30055.929815719363
 c5543: 120 p_2_1 + 120 p_2_4 + 120 p_2_8 + 9782.070959305227 z_2_1 + 9782.070959305227 z_2_4 + 9782.070959305227 z_2_8 <= 32044.141918610454
 c5544: 120 p_2_1 + 120 p_2_4 + 120 p_2_9 + 9351.291139217381 z_2_1 + 9351.291139217381 z_2_4 + 9351.291139217381 z_2_9 <= 30702.582278434762
 c5545: 120 p_2_1 + 120 p_2_10 + 120 p_2_4 + 9709.4552752959207 z_2_1 + 9709.4552752959207 z_2_10 + 9709.4552752959207 z_2_4 <= 32138.910550591841
 c5546: 120 p_2_1 + 120 p_2_5 + 120 p_2_6 + 10708.226603122801 z_2_1 + 10708.226603122801 z_2_5 + 10708.226603122801 z_2_6 <= 34496.453206245606
 c5547: 120 p_2_1 + 120 p_2_5 + 120 p_2_7 + 9231.2668425004867 z_2_1 + 9231.2668425004867 z_2_5 + 9231.2668425004867 z_2_7 <= 30342.53368500097
 c5548: 120 p_2_1 + 120 p_2_5 + 120 p_2_8 + 9643.7085561269269 z_2_1 + 9643.7085561269269 z_2_5 + 9643.7085561269269 z_2_8 <= 31647.417112253854
 c5549: 120 p_2_1 + 120 p_2_5 + 120 p_2_9 + 9490.4952228898437 z_2_1 + 9490.4952228898437 z_2_5 + 9490.4952228898437 z_2_9 <= 30860.990445779687
 c5550: 120 p_2_1 + 120 p_2_10 + 120 p_2_5 + 9928.0635272562358 z_2_1 + 9928.0635272562358 z_2_10 + 9928.0635272562358 z_2_5 <= 32456.127054512472
 c5551: 120 p_2_1 + 120 p_2_6 + 120 p_2_7 + 9234.9831556958816 z_2_1 + 9234.9831556958816 z_2_6 + 9234.9831556958816 z_2_7 <= 30229.966311391763
 c5552: 120 p_2_1 + 120 p_2_6 + 120 p_2_8 + 9968.7969524831187 z_2_1 + 9968.7969524831187 z_2_6 + 9968.7969524831187 z_2_8 <= 32177.593904966234
 c5553: 120 p_2_1 + 120 p_2_6 + 120 p_2_9 + 9120.7726199947065 z_2_1 + 9120.7726199947065 z_2_6 + 9120.7726199947065 z_2_9 <= 30001.545239989413
 c5554: 120 p_2_1 + 120 p_2_10 + 120 p_2_6 + 9902.49905812621 z_2_1 + 9902.49905812621 z_2_10 + 9902.49905812621 z_2_6 <= 32284.99811625242
 c5555: 120 p_2_1 + 120 p_2_7 + 120 p_2_8 + 8482.5734792033072 z_2_1 + 8482.5734792033072 z_2_7 + 8482.5734792033072 z_2_8 <= 28005.146958406614
 c5556: 120 p_2_1 + 120 p_2_7 + 120 p_2_9 + 8072.1810214378656 z_2_1 + 8072.1810214378656 z_2_7 + 8072.1810214378656 z_2_9 <= 26704.362042875731
 c5557: 120 p_2_1 + 120 p_2_10 + 120 p_2_7 + 8329.4599247895694 z_2_1 + 8329.4599247895694 z_2_10 + 8329.4599247895694 z_2_7 <= 27938.919849579142
 c5558: 120 p_2_1 + 120 p_2_8 + 120 p_2_9 + 8747.9220896160405 z_2_1 + 8747.9220896160405 z_2_8 + 8747.9220896160405 z_2_9 <= 28535.844179232081
 c5559: 120 p_2_1 + 120 p_2_10 + 120 p_2_8 + 9185.0763006282214 z_2_1 + 9185.0763006282214 z_2_10 + 9185.0763006282214 z_2_8 <= 30130.152601256443
 c5560: 120 p_2_1 + 120 p_2_10 + 120 p_2_9 + 8742.2603090697594 z_2_1 + 8742.2603090697594 z_2_10 + 8742.2603090697594 z_2_9 <= 28764.520618139519
 c5561: 120 p_2_2 + 120 p_2_3 + 120 p_2_4 + 7265.4764116774522 z_2_2 + 7265.4764116774522 z_2_3 + 7265.4764116774522 z_2_4 <= 24130.952823354903
 c5562: 120 p_2_2 + 120 p_2_3 + 120 p_2_5 + 6807.6408506084517 z_2_2 + 6807.6408506084517 z_2_3 + 6807.6408506084517 z_2_5 <= 23095.281701216903
 c5563: 120 p_2_2 + 120 p_2_3 + 120 p_2_6 + 6630.2744605270764 z_2_2 + 6630.2744605270764 z_2_3 + 6630.2744605270764 z_2_6 <= 22620.548921054153
 c5564: 120 p_2_2 + 120 p_2_3 + 120 p_2_7 + 5981.9320023137889 z_2_2 + 5981.9320023137889 z_2_3 + 5981.9320023137889 z_2_7 <= 20123.86400462758
 c5565: 120 p_2_2 + 120 p_2_3 + 120 p_2_8 + 6071.3524823242697 z_2_2 + 6071.3524823242697 z_2_3 + 6071.3524823242697 z_2_8 <= 20782.704964648539
 c5566: 120 p_2_2 + 120 p_2_3 + 120 p_2_9 + 5448.7409223005852 z_2_2 + 5448.7409223005852 z_2_3 + 5448.7409223005852 z_2_9 <= 19057.48184460117
 c5567: 120 p_2_10 + 120 p_2_2 + 120 p_2_3 + 6646.6323196848753 z_2_10 + 6646.6323196848753 z_2_2 + 6646.6323196848753 z_2_3 <= 22173.264639369751
 c5568: 120 p_2_2 + 120 p_2_4 + 120 p_2_5 + 8303.244486792908 z_2_2 + 8303.244486792908 z_2_4 + 8303.244486792908 z_2_5 <= 27646.488973585816
 c5569: 120 p_2_2 + 120 p_2_4 + 120 p_2_6 + 8532.5169259729537 z_2_2 + 8532.5169259729537 z_2_4 + 8532.5169259729537 z_2_6 <= 27985.033851945911
 c5570: 120 p_2_2 + 120 p_2_4 + 120 p_2_7 + 7105.6171269406323 z_2_2 + 7105.6171269406323 z_2_4 + 7105.6171269406323 z_2_7 <= 23931.234253881263
 c5571: 120 p_2_2 + 120 p_2_4 + 120 p_2_8 + 7547.5345103330301 z_2_2 + 7547.5345103330301 z_2_4 + 7547.5345103330301 z_2_8 <= 25295.069020666062
 c5572: 120 p_2_2 + 120 p_2_4 + 120 p_2_9 + 7331.6716289352153 z_2_2 + 7331.6716289352153 z_2_4 + 7331.6716289352153 z_2_9 <= 24383.343257870431
 c5573: 120 p_2_10 + 120 p_2_2 + 120 p_2_4 + 7796.2126676856833 z_2_10 + 7796.2126676856833 z_2_2 + 7796.2126676856833 z_2_4 <= 26032.425335371368
 c5574: 120 p_2_2 + 120 p_2_5 + 120 p_2_6 + 8063.8835890081682 z_2_2 + 8063.8835890081682 z_2_5 + 8063.8835890081682 z_2_6 <= 26927.767178016336
 c5575: 120 p_2_2 + 120 p_2_5 + 120 p_2_7 + 7009.0427347316509 z_2_2 + 7009.0427347316509 z_2_5 + 7009.0427347316509 z_2_7 <= 23618.085469463302
 c5576: 120 p_2_2 + 120 p_2_5 + 120 p_2_8 + 7041.9333990913819 z_2_2 + 7041.9333990913819 z_2_5 + 7041.9333990913819 z_2_8 <= 24163.866798182768
 c5577: 120 p_2_2 + 120 p_2_5 + 120 p_2_9 + 6839.1374895619128 z_2_2 + 6839.1374895619128 z_2_5 + 6839.1374895619128 z_2_9 <= 23278.274979123828
 c5578: 120 p_2_10 + 120 p_2_2 + 120 p_2_5 + 7705.4486539923028 z_2_10 + 7705.4486539923028 z_2_2 + 7705.4486539923028 z_2_5 <= 25730.897307984607
 c5579: 120 p_2_2 + 120 p_2_6 + 120 p_2_7 + 7250.5211068582348 z_2_2 + 7250.5211068582348 z_2_6 + 7250.5211068582348 z_2_7 <= 23981.042213716468
 c5580: 120 p_2_2 + 120 p_2_6 + 120 p_2_8 + 7327.5952207239852 z_2_2 + 7327.5952207239852 z_2_6 + 7327.5952207239852 z_2_8 <= 24615.190441447969
 c5581: 120 p_2_2 + 120 p_2_6 + 120 p_2_9 + 6715.8823426515501 z_2_2 + 6715.8823426515501 z_2_6 + 6715.8823426515501 z_2_9 <= 22911.764685303096
 c5582: 120 p_2_10 + 120 p_2_2 + 120 p_2_6 + 7916.6014649626695 z_2_10 + 7916.6014649626695 z_2_2 + 7916.6014649626695 z_2_6 <= 26033.202929925337
 c5583: 120 p_2_2 + 120 p_2_7 + 120 p_2_8 + 6247.1947056227882 z_2_2 + 6247.1947056227882 z_2_7 + 6247.1947056227882 z_2_8 <= 21254.389411245578
 c5584: 120 p_2_2 + 120 p_2_7 + 120 p_2_9 + 6048.4635640690494 z_2_2 + 6048.4635640690494 z_2_7 + 6048.4635640690494 z_2_9 <= 20376.927128138097
 c5585: 120 p_2_10 + 120 p_2_2 + 120 p_2_7 + 6406.2698192621965 z_2_10 + 6406.2698192621965 z_2_2 + 6406.2698192621965 z_2_7 <= 21812.539638524391
 c5586: 120 p_2_2 + 120 p_2_8 + 120 p_2_9 + 6102.8491212777299 z_2_2 + 6102.8491212777299 z_2_8 + 6102.8491212777299 z_2_9 <= 20965.69824255546
 c5587: 120 p_2_10 + 120 p_2_2 + 120 p_2_8 + 6948.2619827218105 z_2_10 + 6948.2619827218105 z_2_2 + 6948.2619827218105 z_2_8 <= 23376.523965443619
 c5588: 120 p_2_10 + 120 p_2_2 + 120 p_2_9 + 6720.3629298533779 z_2_10 + 6720.3629298533779 z_2_2 + 6720.3629298533779 z_2_9 <= 22440.725859706756
 c5589: 120 p_2_3 + 120 p_2_4 + 120 p_2_5 + 8981.8790223373144 z_2_3 + 8981.8790223373144 z_2_4 + 8981.8790223373144 z_2_5 <= 29243.758044674629
 c5590: 120 p_2_3 + 120 p_2_4 + 120 p_2_6 + 8529.0771359020509 z_2_3 + 8529.0771359020509 z_2_4 + 8529.0771359020509 z_2_6 <= 28218.154271804102
 c5591: 120 p_2_3 + 120 p_2_4 + 120 p_2_7 + 7482.7424151987307 z_2_3 + 7482.7424151987307 z_2_4 + 7482.7424151987307 z_2_7 <= 24925.484830397461
 c5592: 120 p_2_3 + 120 p_2_4 + 120 p_2_8 + 8240.4571510739479 z_2_3 + 8240.4571510739479 z_2_4 + 8240.4571510739479 z_2_8 <= 26920.914302147896
 c5593: 120 p_2_3 + 120 p_2_4 + 120 p_2_9 + 7383.5433837284027 z_2_3 + 7383.5433837284027 z_2_4 + 7383.5433837284027 z_2_9 <= 24727.086767456803
 c5594: 120 p_2_10 + 120 p_2_3 + 120 p_2_4 + 8148.5948689811548 z_2_10 + 8148.5948689811548 z_2_3 + 8148.5948689811548 z_2_4 <= 26977.189737962308
 c5595: 120 p_2_3 + 120 p_2_5 + 120 p_2_6 + 8346.6940976573696 z_2_3 + 8346.6940976573696 z_2_5 + 8346.6940976573696 z_2_6 <= 27733.388195314743
 c5596: 120 p_2_3 + 120 p_2_5 + 120 p_2_7 + 7685.2020252312141 z_2_3 + 7685.2020252312141 z_2_5 + 7685.2020252312141 z_2_7 <= 25210.404050462428
 c5597: 120 p_2_3 + 120 p_2_5 + 120 p_2_8 + 7746.7724786689841 z_2_3 + 7746.7724786689841 z_2_5 + 7746.7724786689841 z_2_8 <= 25813.54495733797
 c5598: 120 p_2_3 + 120 p_2_5 + 120 p_2_9 + 7171.3920311850534 z_2_3 + 7171.3920311850534 z_2_5 + 7171.3920311850534 z_2_9 <= 24182.784062370109
 c5599: 120 p_2_10 + 120 p_2_3 + 120 p_2_5 + 8363.0349303447365 z_2_10 + 8363.0349303447365 z_2_3 + 8363.0349303447365 z_2_5 <= 27286.069860689473
 c5600: 120 p_2_3 + 120 p_2_6 + 120 p_2_7 + 7245.5327265383867 z_2_3 + 7245.5327265383867 z_2_6 + 7245.5327265383867 z_2_7 <= 24211.065453076775
 c5601: 120 p_2_3 + 120 p_2_6 + 120 p_2_8 + 7625.2965060153274 z_2_3 + 7625.2965060153274 z_2_6 + 7625.2965060153274 z_2_8 <= 25450.593012030655
 c5602: 120 p_2_3 + 120 p_2_6 + 120 p_2_9 + 6752.4301389301581 z_2_3 + 6752.4301389301581 z_2_6 + 6752.4301389301581 z_2_9 <= 23224.860277860316
 c5603: 120 p_2_10 + 120 p_2_3 + 120 p_2_6 + 7910.2330439094731 z_2_10 + 7910.2330439094731 z_2_3 + 7910.2330439094731 z_2_6 <= 26260.466087818946
 c5604: 120 p_2_3 + 120 p_2_7 + 120 p_2_8 + 6936.5086619340336 z_2_3 + 6936.5086619340336 z_2_7 + 6936.5086619340336 z_2_8 <= 22873.017323868069
 c5605: 120 p_2_3 + 120 p_2_7 + 120 p_2_9 + 6099.9989743647384 z_2_3 + 6099.9989743647384 z_2_7 + 6099.9989743647384 z_2_9 <= 20719.997948729477
 c5606: 120 p_2_10 + 120 p_2_3 + 120 p_2_7 + 6767.7571938664814 z_2_10 + 6767.7571938664814 z_2_3 + 6767.7571938664814 z_2_7 <= 22775.514387732965
 c5607: 120 p_2_3 + 120 p_2_8 + 120 p_2_9 + 6447.6342043680133 z_2_3 + 6447.6342043680133 z_2_8 + 6447.6342043680133 z_2_9 <= 21895.268408736029
 c5608: 120 p_2_10 + 120 p_2_3 + 120 p_2_8 + 7621.9380253792415 z_2_10 + 7621.9380253792415 z_2_3 + 7621.9380253792415 z_2_8 <= 24963.876050758485
 c5609: 120 p_2_10 + 120 p_2_3 + 120 p_2_9 + 6764.6992917358248 z_2_10 + 6764.6992917358248 z_2_3 + 6764.6992917358248 z_2_9 <= 22769.398583471648
 c5610: 120 p_2_4 + 120 p_2_5 + 120 p_2_6 + 10248.936563103247 z_2_4 + 10248.936563103247 z_2_5 + 10248.936563103247 z_2_6 <= 33097.87312620649
 c5611: 120 p_2_4 + 120 p_2_5 + 120 p_2_7 + 8751.7039128999131 z_2_4 + 8751.7039128999131 z_2_5 + 8751.7039128999131 z_2_7 <= 28903.407825799826
 c5612: 120 p_2_4 + 120 p_2_5 + 120 p_2_8 + 9185.2810692550447 z_2_4 + 9185.2810692550447 z_2_5 + 9185.2810692550447 z_2_8 <= 30250.562138510089
 c5613: 120 p_2_4 + 120 p_2_5 + 120 p_2_9 + 9032.6740377368933 z_2_4 + 9032.6740377368933 z_2_5 + 9032.6740377368933 z_2_9 <= 29465.34807547379
 c5614: 120 p_2_10 + 120 p_2_4 + 120 p_2_5 + 9447.460307463416 z_2_10 + 9447.460307463416 z_2_4 + 9447.460307463416 z_2_5 <= 31014.920614926836
 c5615: 120 p_2_4 + 120 p_2_6 + 120 p_2_7 + 8755.4202260953098 z_2_4 + 8755.4202260953098 z_2_6 + 8755.4202260953098 z_2_7 <= 28790.84045219062
 c5616: 120 p_2_4 + 120 p_2_6 + 120 p_2_8 + 9510.3694656112366 z_2_4 + 9510.3694656112366 z_2_6 + 9510.3694656112366 z_2_8 <= 30780.738931222473
 c5617: 120 p_2_4 + 120 p_2_6 + 120 p_2_9 + 8661.4825799751525 z_2_4 + 8661.4825799751525 z_2_6 + 8661.4825799751525 z_2_9 <= 28602.965159950305
 c5618: 120 p_2_10 + 120 p_2_4 + 120 p_2_6 + 9422.6527206110804 z_2_10 + 9422.6527206110804 z_2_4 + 9422.6527206110804 z_2_6 <= 30845.305441222161
 c5619: 120 p_2_4 + 120 p_2_7 + 120 p_2_8 + 8003.0105496027345 z_2_4 + 8003.0105496027345 z_2_7 + 8003.0105496027345 z_2_8 <= 26566.021099205467
 c5620: 120 p_2_4 + 120 p_2_7 + 120 p_2_9 + 7592.6180918372938 z_2_4 + 7592.6180918372938 z_2_7 + 7592.6180918372938 z_2_9 <= 25265.236183674591
 c5621: 120 p_2_10 + 120 p_2_4 + 120 p_2_7 + 7849.8969951889967 z_2_10 + 7849.8969951889967 z_2_4 + 7849.8969951889967 z_2_7 <= 26499.793990377995
 c5622: 120 p_2_4 + 120 p_2_8 + 120 p_2_9 + 8289.4946027441583 z_2_4 + 8289.4946027441583 z_2_8 + 8289.4946027441583 z_2_9 <= 27138.989205488317
 c5623: 120 p_2_10 + 120 p_2_4 + 120 p_2_8 + 8704.9049968152212 z_2_10 + 8704.9049968152212 z_2_4 + 8704.9049968152212 z_2_8 <= 28689.809993630442
 c5624: 120 p_2_10 + 120 p_2_4 + 120 p_2_9 + 8262.4139715546316 z_2_10 + 8262.4139715546316 z_2_4 + 8262.4139715546316 z_2_9 <= 27324.82794310926
 c5625: 120 p_2_5 + 120 p_2_6 + 120 p_2_7 + 8956.9869133677184 z_2_5 + 8956.9869133677184 z_2_6 + 8956.9869133677184 z_2_7 <= 29073.973826735433
 c5626: 120 p_2_5 + 120 p_2_6 + 120 p_2_8 + 9003.0322435391317 z_2_5 + 9003.0322435391317 z_2_6 + 9003.0322435391317 z_2_8 <= 29646.064487078263
 c5627: 120 p_2_5 + 120 p_2_6 + 120 p_2_9 + 8438.5334515360191 z_2_5 + 8438.5334515360191 z_2_6 + 8438.5334515360191 z_2_9 <= 28037.066903072038
 c5628: 120 p_2_10 + 120 p_2_5 + 120 p_2_6 + 9633.0211020929637 z_2_10 + 9633.0211020929637 z_2_5 + 9633.0211020929637 z_2_6 <= 31146.042204185927
 c5629: 120 p_2_5 + 120 p_2_7 + 120 p_2_8 + 7884.9412645448037 z_2_5 + 7884.9412645448037 z_2_7 + 7884.9412645448037 z_2_8 <= 26209.882529089609
 c5630: 120 p_2_5 + 120 p_2_7 + 120 p_2_9 + 7738.4722856756362 z_2_5 + 7738.4722856756362 z_2_7 + 7738.4722856756362 z_2_9 <= 25436.944571351272
 c5631: 120 p_2_10 + 120 p_2_5 + 120 p_2_7 + 8052.3566052214792 z_2_10 + 8052.3566052214792 z_2_5 + 8052.3566052214792 z_2_7 <= 26784.713210442955
 c5632: 120 p_2_5 + 120 p_2_8 + 120 p_2_9 + 7783.8934915025102 z_2_5 + 7783.8934915025102 z_2_8 + 7783.8934915025102 z_2_9 <= 26007.786983005022
 c5633: 120 p_2_10 + 120 p_2_5 + 120 p_2_8 + 8586.0085416438269 z_2_10 + 8586.0085416438269 z_2_5 + 8586.0085416438269 z_2_8 <= 28332.017083287654
 c5634: 120 p_2_10 + 120 p_2_5 + 120 p_2_9 + 8434.878204936289 z_2_10 + 8434.878204936289 z_2_5 + 8434.878204936289 z_2_9 <= 27549.756409872578
 c5635: 120 p_2_6 + 120 p_2_7 + 120 p_2_8 + 8209.1864728306118 z_2_6 + 8209.1864728306118 z_2_7 + 8209.1864728306118 z_2_8 <= 26738.372945661227
 c5636: 120 p_2_6 + 120 p_2_7 + 120 p_2_9 + 7379.4867608604327 z_2_6 + 7379.4867608604327 z_2_7 + 7379.4867608604327 z_2_9 <= 24598.973521720865
 c5637: 120 p_2_10 + 120 p_2_6 + 120 p_2_7 + 8041.8150454964089 z_2_10 + 8041.8150454964089 z_2_6 + 8041.8150454964089 z_2_7 <= 26643.630090992818
 c5638: 120 p_2_6 + 120 p_2_8 + 120 p_2_9 + 7714.7756247189782 z_2_6 + 7714.7756247189782 z_2_8 + 7714.7756247189782 z_2_9 <= 25749.551249437955
 c5639: 120 p_2_10 + 120 p_2_6 + 120 p_2_8 + 8895.9958770091689 z_2_10 + 8895.9958770091689 z_2_6 + 8895.9958770091689 z_2_8 <= 28831.991754018338
 c5640: 120 p_2_10 + 120 p_2_6 + 120 p_2_9 + 8045.5671189648683 z_2_10 + 8045.5671189648683 z_2_6 + 8045.5671189648683 z_2_9 <= 26651.134237929738
 c5641: 120 p_2_7 + 120 p_2_8 + 120 p_2_9 + 6989.1547980339164 z_2_7 + 6989.1547980339164 z_2_8 + 6989.1547980339164 z_2_9 <= 23098.309596067833
 c5642: 120 p_2_10 + 120 p_2_7 + 120 p_2_8 + 7303.6632419242997 z_2_10 + 7303.6632419242997 z_2_7 + 7303.6632419242997 z_2_8 <= 24447.326483848599
 c5643: 120 p_2_10 + 120 p_2_7 + 120 p_2_9 + 6881.5762964399592 z_2_10 + 6881.5762964399592 z_2_7 + 6881.5762964399592 z_2_9 <= 23123.15259287992
 c5644: 120 p_2_10 + 120 p_2_8 + 120 p_2_9 + 7690.2220751329387 z_2_10 + 7690.2220751329387 z_2_8 + 7690.2220751329387 z_2_9 <= 25220.444150265881
 c5645: z_0_1 + z_0_10 + z_0_2 + z_0_3 + z_0_4 + z_0_5 + z_0_6 + z_0_7 + z_0_8 + z_0_9 - z_1_1 - z_1_10 - z_1_2 - z_1_3 - z_1_4 - z_1_5 - z_1_6 - z_1_7 - z_1_8 - z_1_9 >= 0
 c5646: z_1_1 + z_1_10 + z_1_2 + z_1_3 + z_1_4 + z_1_5 + z_1_6 + z_1_7 + z_1_8 + z_1_9 - z_2_1 - z_2_10 - z_2_2 - z_2_3 - z_2_4 - z_2_5 - z_2_6 - z_2_7 - z_2_8 - z_2_9 >= 0
 c5647: Y_1 - d_0_1 - d_1_1 - d_2_1 + p_0_1 + p_1_1 + p_2_1 = 20
 c5648: - 0.20000000000000001 Y_1 + r_1 = 0
 c5649: e_1 - r_1 >= -1
 c5650: e_1 + r_1 >= 1
 c5651: Y_2 - d_0_2 - d_1_2 - d_2_2 + p_0_2 + p_1_2 + p_2_2 = 1
 c5652: - 0.1111111111111111 Y_2 + r_2 = 0
 c5653: e_2 - r_2 >= -1
 c5654: e_2 + r_2 >= 1
 c5655: Y_3 - d_0_3 - d_1_3 - d_2_3 + p_0_3 + p_1_3 + p_2_3 = 3
 c5656: - 0.050000000000000003 Y_3 + r_3 = 0
 c5657: e_3 - r_3 >= -1
 c5658: e_3 + r_3 >= 1
 c5659: Y_4 - d_0_4 - d_1_4 - d_2_4 + p_0_4 + p_1_4 + p_2_4 = 16
 c5660: - 0.028571428571428571 Y_4 + r_4 = 0
 c5661: e_4 - r_4 >= -1
 c5662: e_4 + r_4 >= 1
 c5663: Y_5 - d_0_5 - d_1_5 - d_2_5 + p_0_5 + p_1_5 + p_2_5 = 15
 c5664: - 0.058823529411764705 Y_5 + r_5 = 0
 c5665: e_5 - r_5 >= -1
 c5666: e_5 + r_5 >= 1
 c5667: Y_6 - d_0_6 - d_1_6 - d_2_6 + p_0_6 + p_1_6 + p_2_6 = 14
 c5668: - Y_6 + r_6 = 0
 c5669: e_6 - r_6 >= -1
 c5670: e_6 + r_6 >= 1
 c5671: Y_7 - d_0_7 - d_1_7 - d_2_7 + p_0_7 + p_1_7 + p_2_7 = 4
 c5672: - 0.052631578947368418 Y_7 + r_7 = 0
 c5673: e_7 - r_7 >= -1
 c5674: e_7 + r_7 >= 1
 c5675: Y_8 - d_0_8 - d_1_8 - d_2_8 + p_0_8 + p_1_8 + p_2_8 = 8
 c5676: - 0.052631578947368418 Y_8 + r_8 = 0
 c5677: e_8 - r_8 >= -1
 c5678: e_8 + r_8 >= 1
 c5679: Y_9 - d_0_9 - d_1_9 - d_2_9 + p_0_9 + p_1_9 + p_2_9 = 4
 c5680: - 0.045454545454545456 Y_9 + r_9 = 0
 c5681: e_9 - r_9 >= -1
 c5682: e_9 + r_9 >= 1
 c5683: Y_10 - d_0_10 - d_1_10 - d_2_10 + p_0_10 + p_1_10 + p_2_10 = 10
 c5684: - 0.035714285714285712 Y_10 + r_10 = 0
 c5685: e_10 - r_10 >= -1
 c5686: e_10 + r_10 >= 1
 c5687: Y_1 - 9 z_0_1 - 9 z_1_1 - 9 z_2_1 <= 20
 c5688: - Y_1 - 20 z_0_1 - 20 z_1_1 - 20 z_2_1 <= -20
 c5689: Y_2 - 25 z_0_2 - 25 z_1_2 - 25 z_2_2 <= 1
 c5690: - Y_2 - z_0_2 - z_1_2 - z_2_2 <= -1
 c5691: Y_3 - 27 z_0_3 - 27 z_1_3 - 27 z_2_3 <= 3
 c5692: - Y_3 - 3 z_0_3 - 3 z_1_3 - 3 z_2_3 <= -3
 c5693: Y_4 - 34 z_0_4 - 34 z_1_4 - 34 z_2_4 <= 16
 c5694: - Y_4 - 16 z_0_4 - 16 z_1_4 - 16 z_2_4 <= -16
 c5695: Y_5 - 30 z_0_5 - 30 z_1_5 - 30 z_2_5 <= 15
 c5696: - Y_5 - 15 z_0_5 - 15 z_1_5 - 15 z_2_5 <= -15
 c5697: Y_6 - 9 z_0_6 - 9 z_1_6 - 9 z_2_6 <= 14
 c5698: - Y_6 - 14 z_0_6 - 14 z_1_6 - 14 z_2_6 <= -14
 c5699: Y_7 - 18 z_0_7 - 18 z_1_7 - 18 z_2_7 <= 4
 c5700: - Y_7 - 4 z_0_7 - 4 z_1_7 - 4 z_2_7 <= -4
 c5701: Y_8 - 14 z_0_8 - 14 z_1_8 - 14 z_2_8 <= 8
 c5702: - Y_8 - 8 z_0_8 - 8 z_1_8 - 8 z_2_8 <= -8
 c5703: Y_9 - 29 z_0_9 - 29 z_1_9 - 29 z_2_9 <= 4
 c5704: - Y_9 - 4 z_0_9 - 4 z_1_9 - 4 z_2_9 <= -4
 c5705: Y_10 - 22 z_0_10 - 22 z_1_10 - 22 z_2_10 <= 10
 c5706: - Y_10 - 10 z_0_10 - 10 z_1_10 - 10 z_2_10 <= -10
 c5707: 120 p_0_1 + 120 p_0_10 + 120 p_0_2 + 120 p_0_3 + 120 p_0_4 + 120 p_0_5 + 120 p_0_6 + 120 p_0_7 + 120 p_0_8 + 120 p_0_9 + 120 p_1_1 + 120 p_1_10 + 120 p_1_2 + 120 p_1_3 + 120 p_1_4 + 120 p_1_5 + 120 p_1_6 + 120 p_1_7 + 120 p_1_8 + 120 p_1_9 + 120 p_2_1 + 120 p_2_10 + 120 p_2_2 + 120 p_2_3 + 120 p_2_4 + 120 p_2_5 + 120 p_2_6 + 120 p_2_7 + 120 p_2_8 + 120 p_2_9 <= 10800
 c5708: h_1_2 - r_1 + r_2 >= 0
 c5709: h_1_2 + r_1 - r_2 >= 0
 c5710: h_1_3 - r_1 + r_3 >= 0
 c5711: h_1_3 + r_1 - r_3 >= 0
 c5712: h_1_4 - r_1 + r_4 >= 0
 c5713: h_1_4 + r_1 - r_4 >= 0
 c5714: h_1_5 - r_1 + r_5 >= 0
 c5715: h_1_5 + r_1 - r_5 >= 0
 c5716: h_1_6 - r_1 + r_6 >= 0
 c5717: h_1_6 + r_1 - r_6 >= 0
 c5718: h_1_7 - r_1 + r_7 >= 0
 c5719: h_1_7 + r_1 - r_7 >= 0
 c5720: h_1_8 - r_1 + r_8 >= 0
 c5721: h_1_8 + r_1 - r_8 >= 0
 c5722: h_1_9 - r_1 + r_9 >= 0
 c5723: h_1_9 + r_1 - r_9 >= 0
 c5724: h_1_10 - r_1 + r_10 >= 0
 c5725: h_1_10 + r_1 - r_10 >= 0
 c5726: h_2_3 - r_2 + r_3 >= 0
 c5727: h_2_3 + r_2 - r_3 >= 0
 c5728: h_2_4 - r_2 + r_4 >= 0
 c5729: h_2_4 + r_2 - r_4 >= 0
 c5730: h_2_5 - r_2 + r_5 >= 0
 c5731: h_2_5 + r_2 - r_5 >= 0
 c5732: h_2_6 - r_2 + r_6 >= 0
 c5733: h_2_6 + r_2 - r_6 >= 0
 c5734: h_2_7 - r_2 + r_7 >= 0
 c5735: h_2_7 + r_2 - r_7 >= 0
 c5736: h_2_8 - r_2 + r_8 >= 0
 c5737: h_2_8 + r_2 - r_8 >= 0
 c5738: h_2_9 - r_2 + r_9 >= 0
 c5739: h_2_9 + r_2 - r_9 >= 0
 c5740: h_2_10 + r_10 - r_2 >= 0
 c5741: h_2_10 - r_10 + r_2 >= 0
 c5742: h_3_4 - r_3 + r_4 >= 0
 c5743: h_3_4 + r_3 - r_4 >= 0
 c5744: h_3_5 - r_3 + r_5 >= 0
 c5745: h_3_5 + r_3 - r_5 >= 0
 c5746: h_3_6 - r_3 + r_6 >= 0
 c5747: h_3_6 + r_3 - r_6 >= 0
 c5748: h_3_7 - r_3 + r_7 >= 0
 c5749: h_3_7 + r_3 - r_7 >= 0
 c5750: h_3_8 - r_3 + r_8 >= 0
 c5751: h_3_8 + r_3 - r_8 >= 0
 c5752: h_3_9 - r_3 + r_9 >= 0
 c5753: h_3_9 + r_3 - r_9 >= 0
 c5754: h_3_10 + r_10 - r_3 >= 0
 c5755: h_3_10 - r_10 + r_3 >= 0
 c5756: h_4_5 - r_4 + r_5 >= 0
 c5757: h_4_5 + r_4 - r_5 >= 0
 c5758: h_4_6 - r_4 + r_6 >= 0
 c5759: h_4_6 + r_4 - r_6 >= 0
 c5760: h_4_7 - r_4 + r_7 >= 0
 c5761: h_4_7 + r_4 - r_7 >= 0
 c5762: h_4_8 - r_4 + r_8 >= 0
 c5763: h_4_8 + r_4 - r_8 >= 0
 c5764: h_4_9 - r_4 + r_9 >= 0
 c5765: h_4_9 + r_4 - r_9 >= 0
 c5766: h_4_10 + r_10 - r_4 >= 0
 c5767: h_4_10 - r_10 + r_4 >= 0
 c5768: h_5_6 - r_5 + r_6 >= 0
 c5769: h_5_6 + r_5 - r_6 >= 0
 c5770: h_5_7 - r_5 + r_7 >= 0
 c5771: h_5_7 + r_5 - r_7 >= 0
 c5772: h_5_8 - r_5 + r_8 >= 0
 c5773: h_5_8 + r_5 - r_8 >= 0
 c5774: h_5_9 - r_5 + r_9 >= 0
 c5775: h_5_9 + r_5 - r_9 >= 0
 c5776: h_5_10 + r_10 - r_5 >= 0
 c5777: h_5_10 - r_10 + r_5 >= 0
 c5778: h_6_7 - r_6 + r_7 >= 0
 c5779: h_6_7 + r_6 - r_7 >= 0
 c5780: h_6_8 - r_6 + r_8 >= 0
 c5781: h_6_8 + r_6 - r_8 >= 0
 c5782: h_6_9 - r_6 + r_9 >= 0
 c5783: h_6_9 + r_6 - r_9 >= 0
 c5784: h_6_10 + r_10 - r_6 >= 0
 c5785: h_6_10 - r_10 + r_6 >= 0
 c5786: h_7_8 - r_7 + r_8 >= 0
 c5787: h_7_8 + r_7 - r_8 >= 0
 c5788: h_7_9 - r_7 + r_9 >= 0
 c5789: h_7_9 + r_7 - r_9 >= 0
 c5790: h_7_10 + r_10 - r_7 >= 0
 c5791: h_7_10 - r_10 + r_7 >= 0
 c5792: h_8_9 - r_8 + r_9 >= 0
 c5793: h_8_9 + r_8 - r_9 >= 0
 c5794: h_8_10 + r_10 - r_8 >= 0
 c5795: h_8_10 - r_10 + r_8 >= 0
 c5796: h_9_10 + r_10 - r_9 >= 0
 c5797: h_9_10 - r_10 + r_9 >= 0
 c5798: Y_1 - bit_1_0 - 2 bit_1_1 - 4 bit_1_2 - 8 bit_1_3 - 16 bit_1_4 = 0
 c5799: - prod_1_0 - 2 prod_1_1 - 4 prod_1_2 - 8 prod_1_3 - 16 prod_1_4 + zprod_1 = 0
 c5800: - G + prod_1_0 <= 0
 c5801: - bit_1_0 + prod_1_0 <= 0
 c5802: - G - bit_1_0 + prod_1_0 >= -1
 c5803: - G + prod_1_1 <= 0
 c5804: - bit_1_1 + prod_1_1 <= 0
 c5805: - G - bit_1_1 + prod_1_1 >= -1
 c5806: - G + prod_1_2 <= 0
 c5807: - bit_1_2 + prod_1_2 <= 0
 c5808: - G - bit_1_2 + prod_1_2 >= -1
 c5809: - G + prod_1_3 <= 0
 c5810: - bit_1_3 + prod_1_3 <= 0
 c5811: - G - bit_1_3 + prod_1_3 >= -1
 c5812: - G + prod_1_4 <= 0
 c5813: - bit_1_4 + prod_1_4 <= 0
 c5814: - G - bit_1_4 + prod_1_4 >= -1
 c5815: Y_2 - bit_2_0 - 2 bit_2_1 - 4 bit_2_2 - 8 bit_2_3 - 16 bit_2_4 = 0
 c5816: - prod_2_0 - 2 prod_2_1 - 4 prod_2_2 - 8 prod_2_3 - 16 prod_2_4 + zprod_2 = 0
 c5817: - G + prod_2_0 <= 0
 c5818: - bit_2_0 + prod_2_0 <= 0
 c5819: - G - bit_2_0 + prod_2_0 >= -1
 c5820: - G + prod_2_1 <= 0
 c5821: - bit_2_1 + prod_2_1 <= 0
 c5822: - G - bit_2_1 + prod_2_1 >= -1
 c5823: - G + prod_2_2 <= 0
 c5824: - bit_2_2 + prod_2_2 <= 0
 c5825: - G - bit_2_2 + prod_2_2 >= -1
 c5826: - G + prod_2_3 <= 0
 c5827: - bit_2_3 + prod_2_3 <= 0
 c5828: - G - bit_2_3 + prod_2_3 >= -1
 c5829: - G + prod_2_4 <= 0
 c5830: - bit_2_4 + prod_2_4 <= 0
 c5831: - G - bit_2_4 + prod_2_4 >= -1
 c5832: Y_3 - bit_3_0 - 2 bit_3_1 - 4 bit_3_2 - 8 bit_3_3 - 16 bit_3_4 = 0
 c5833: - prod_3_0 - 2 prod_3_1 - 4 prod_3_2 - 8 prod_3_3 - 16 prod_3_4 + zprod_3 = 0
 c5834: - G + prod_3_0 <= 0
 c5835: - bit_3_0 + prod_3_0 <= 0
 c5836: - G - bit_3_0 + prod_3_0 >= -1
 c5837: - G + prod_3_1 <= 0
 c5838: - bit_3_1 + prod_3_1 <= 0
 c5839: - G - bit_3_1 + prod_3_1 >= -1
 c5840: - G + prod_3_2 <= 0
 c5841: - bit_3_2 + prod_3_2 <= 0
 c5842: - G - bit_3_2 + prod_3_2 >= -1
 c5843: - G + prod_3_3 <= 0
 c5844: - bit_3_3 + prod_3_3 <= 0
 c5845: - G - bit_3_3 + prod_3_3 >= -1
 c5846: - G + prod_3_4 <= 0
 c5847: - bit_3_4 + prod_3_4 <= 0
 c5848: - G - bit_3_4 + prod_3_4 >= -1
 c5849: Y_4 - bit_4_0 - 2 bit_4_1 - 4 bit_4_2 - 8 bit_4_3 - 16 bit_4_4 - 32 bit_4_5 = 0
 c5850: - prod_4_0 - 2 prod_4_1 - 4 prod_4_2 - 8 prod_4_3 - 16 prod_4_4 - 32 prod_4_5 + zprod_4 = 0
 c5851: - G + prod_4_0 <= 0
 c5852: - bit_4_0 + prod_4_0 <= 0
 c5853: - G - bit_4_0 + prod_4_0 >= -1
 c5854: - G + prod_4_1 <= 0
 c5855: - bit_4_1 + prod_4_1 <= 0
 c5856: - G - bit_4_1 + prod_4_1 >= -1
 c5857: - G + prod_4_2 <= 0
 c5858: - bit_4_2 + prod_4_2 <= 0
 c5859: - G - bit_4_2 + prod_4_2 >= -1
 c5860: - G + prod_4_3 <= 0
 c5861: - bit_4_3 + prod_4_3 <= 0
 c5862: - G - bit_4_3 + prod_4_3 >= -1
 c5863: - G + prod_4_4 <= 0
 c5864: - bit_4_4 + prod_4_4 <= 0
 c5865: - G - bit_4_4 + prod_4_4 >= -1
 c5866: - G + prod_4_5 <= 0
 c5867: - bit_4_5 + prod_4_5 <= 0
 c5868: - G - bit_4_5 + prod_4_5 >= -1
 c5869: Y_5 - bit_5_0 - 2 bit_5_1 - 4 bit_5_2 - 8 bit_5_3 - 16 bit_5_4 - 32 bit_5_5 = 0
 c5870: - prod_5_0 - 2 prod_5_1 - 4 prod_5_2 - 8 prod_5_3 - 16 prod_5_4 - 32 prod_5_5 + zprod_5 = 0
 c5871: - G + prod_5_0 <= 0
 c5872: - bit_5_0 + prod_5_0 <= 0
 c5873: - G - bit_5_0 + prod_5_0 >= -1
 c5874: - G + prod_5_1 <= 0
 c5875: - bit_5_1 + prod_5_1 <= 0
 c5876: - G - bit_5_1 + prod_5_1 >= -1
 c5877: - G + prod_5_2 <= 0
 c5878: - bit_5_2 + prod_5_2 <= 0
 c5879: - G - bit_5_2 + prod_5_2 >= -1
 c5880: - G + prod_5_3 <= 0
 c5881: - bit_5_3 + prod_5_3 <= 0
 c5882: - G - bit_5_3 + prod_5_3 >= -1
 c5883: - G + prod_5_4 <= 0
 c5884: - bit_5_4 + prod_5_4 <= 0
 c5885: - G - bit_5_4 + prod_5_4 >= -1
 c5886: - G + prod_5_5 <= 0
 c5887: - bit_5_5 + prod_5_5 <= 0
 c5888: - G - bit_5_5 + prod_5_5 >= -1
 c5889: Y_6 - bit_6_0 - 2 bit_6_1 - 4 bit_6_2 - 8 bit_6_3 - 16 bit_6_4 = 0
 c5890: - prod_6_0 - 2 prod_6_1 - 4 prod_6_2 - 8 prod_6_3 - 16 prod_6_4 + zprod_6 = 0
 c5891: - G + prod_6_0 <= 0
 c5892: - bit_6_0 + prod_6_0 <= 0
 c5893: - G - bit_6_0 + prod_6_0 >= -1
 c5894: - G + prod_6_1 <= 0
 c5895: - bit_6_1 + prod_6_1 <= 0
 c5896: - G - bit_6_1 + prod_6_1 >= -1
 c5897: - G + prod_6_2 <= 0
 c5898: - bit_6_2 + prod_6_2 <= 0
 c5899: - G - bit_6_2 + prod_6_2 >= -1
 c5900: - G + prod_6_3 <= 0
 c5901: - bit_6_3 + prod_6_3 <= 0
 c5902: - G - bit_6_3 + prod_6_3 >= -1
 c5903: - G + prod_6_4 <= 0
 c5904: - bit_6_4 + prod_6_4 <= 0
 c5905: - G - bit_6_4 + prod_6_4 >= -1
 c5906: Y_7 - bit_7_0 - 2 bit_7_1 - 4 bit_7_2 - 8 bit_7_3 - 16 bit_7_4 = 0
 c5907: - prod_7_0 - 2 prod_7_1 - 4 prod_7_2 - 8 prod_7_3 - 16 prod_7_4 + zprod_7 = 0
 c5908: - G + prod_7_0 <= 0
 c5909: - bit_7_0 + prod_7_0 <= 0
 c5910: - G - bit_7_0 + prod_7_0 >= -1
 c5911: - G + prod_7_1 <= 0
 c5912: - bit_7_1 + prod_7_1 <= 0
 c5913: - G - bit_7_1 + prod_7_1 >= -1
 c5914: - G + prod_7_2 <= 0
 c5915: - bit_7_2 + prod_7_2 <= 0
 c5916: - G - bit_7_2 + prod_7_2 >= -1
 c5917: - G + prod_7_3 <= 0
 c5918: - bit_7_3 + prod_7_3 <= 0
 c5919: - G - bit_7_3 + prod_7_3 >= -1
 c5920: - G + prod_7_4 <= 0
 c5921: - bit_7_4 + prod_7_4 <= 0
 c5922: - G - bit_7_4 + prod_7_4 >= -1
 c5923: Y_8 - bit_8_0 - 2 bit_8_1 - 4 bit_8_2 - 8 bit_8_3 - 16 bit_8_4 = 0
 c5924: - prod_8_0 - 2 prod_8_1 - 4 prod_8_2 - 8 prod_8_3 - 16 prod_8_4 + zprod_8 = 0
 c5925: - G + prod_8_0 <= 0
 c5926: - bit_8_0 + prod_8_0 <= 0
 c5927: - G - bit_8_0 + prod_8_0 >= -1
 c5928: - G + prod_8_1 <= 0
 c5929: - bit_8_1 + prod_8_1 <= 0
 c5930: - G - bit_8_1 + prod_8_1 >= -1
 c5931: - G + prod_8_2 <= 0
 c5932: - bit_8_2 + prod_8_2 <= 0
 c5933: - G - bit_8_2 + prod_8_2 >= -1
 c5934: - G + prod_8_3 <= 0
 c5935: - bit_8_3 + prod_8_3 <= 0
 c5936: - G - bit_8_3 + prod_8_3 >= -1
 c5937: - G + prod_8_4 <= 0
 c5938: - bit_8_4 + prod_8_4 <= 0
 c5939: - G - bit_8_4 + prod_8_4 >= -1
 c5940: Y_9 - bit_9_0 - 2 bit_9_1 - 4 bit_9_2 - 8 bit_9_3 - 16 bit_9_4 - 32 bit_9_5 = 0
 c5941: - prod_9_0 - 2 prod_9_1 - 4 prod_9_2 - 8 prod_9_3 - 16 prod_9_4 - 32 prod_9_5 + zprod_9 = 0
 c5942: - G + prod_9_0 <= 0
 c5943: - bit_9_0 + prod_9_0 <= 0
 c5944: - G - bit_9_0 + prod_9_0 >= -1
 c5945: - G + prod_9_1 <= 0
 c5946: - bit_9_1 + prod_9_1 <= 0
 c5947: - G - bit_9_1 + prod_9_1 >= -1
 c5948: - G + prod_9_2 <= 0
 c5949: - bit_9_2 + prod_9_2 <= 0
 c5950: - G - bit_9_2 + prod_9_2 >= -1
 c5951: - G + prod_9_3 <= 0
 c5952: - bit_9_3 + prod_9_3 <= 0
 c5953: - G - bit_9_3 + prod_9_3 >= -1
 c5954: - G + prod_9_4 <= 0
 c5955: - bit_9_4 + prod_9_4 <= 0
 c5956: - G - bit_9_4 + prod_9_4 >= -1
 c5957: - G + prod_9_5 <= 0
 c5958: - bit_9_5 + prod_9_5 <= 0
 c5959: - G - bit_9_5 + prod_9_5 >= -1
 c5960: Y_10 - bit_10_0 - 2 bit_10_1 - 4 bit_10_2 - 8 bit_10_3 - 16 bit_10_4 - 32 bit_10_5 = 0
 c5961: - prod_10_0 - 2 prod_10_1 - 4 prod_10_2 - 8 prod_10_3 - 16 prod_10_4 - 32 prod_10_5 + zprod_10 = 0
 c5962: - G + prod_10_0 <= 0
 c5963: - bit_10_0 + prod_10_0 <= 0
 c5964: - G - bit_10_0 + prod_10_0 >= -1
 c5965: - G + prod_10_1 <= 0
 c5966: - bit_10_1 + prod_10_1 <= 0
 c5967: - G - bit_10_1 + prod_10_1 >= -1
 c5968: - G + prod_10_2 <= 0
 c5969: - bit_10_2 + prod_10_2 <= 0
 c5970: - G - bit_10_2 + prod_10_2 >= -1
 c5971: - G + prod_10_3 <= 0
 c5972: - bit_10_3 + prod_10_3 <= 0
 c5973: - G - bit_10_3 + prod_10_3 >= -1
 c5974: - G + prod_10_4 <= 0
 c5975: - bit_10_4 + prod_10_4 <= 0
 c5976: - G - bit_10_4 + prod_10_4 >= -1
 c5977: - G + prod_10_5 <= 0
 c5978: - bit_10_5 + prod_10_5 <= 0
 c5979: - G - bit_10_5 + prod_10_5 >= -1
 c5980: - h_1_10 - h_1_2 - h_1_3 - h_1_4 - h_1_5 - h_1_6 - h_1_7 - h_1_8 - h_1_9 - h_2_10 - h_2_3 - h_2_4 - h_2_5 - h_2_6 - h_2_7 - h_2_8 - h_2_9 - h_3_10 - h_3_4 - h_3_5 - h_3_6 - h_3_7 - h_3_8 - h_3_9 - h_4_10 - h_4_5 - h_4_6 - h_4_7 - h_4_8 - h_4_9 - h_5_10 - h_5_6 - h_5_7 - h_5_8 - h_5_9 - h_6_10 - h_6_7 - h_6_8 - h_6_9 - h_7_10 - h_7_8 - h_7_9 - h_8_10 - h_8_9 - h_9_10 + 2 zprod_1 + 0.35714285714285715 zprod_10 + 1.1111111111111112 zprod_2 + 0.5 zprod_3 + 0.2857142857142857 zprod_4 + 0.58823529411764708 zprod_5 + 10 zprod_6 + 0.52631578947368418 zprod_7 + 0.52631578947368418 zprod_8 + 0.45454545454545453 zprod_9 >= 0
Bounds
 0.057727673252976536 <= G <= 0.067348952128472625
 0 <= W_SP <= 25.328499327552656
 0 <= Y_1 <= 16
 0 <= Y_10 <= 32
 0 <= Y_2 <= 26
 0 <= Y_3 <= 28
 0 <= Y_4 <= 42
 0 <= Y_5 <= 41
 1 <= Y_6 <= 1
 0 <= Y_7 <= 22
 0 <= Y_8 <= 22
 0 <= Y_9 <= 29
 0 <= bit_10_0 <= 1
 0 <= bit_10_1 <= 1
 0 <= bit_10_2 <= 1
 0 <= bit_10_3 <= 1
 0 <= bit_10_4 <= 1
 0 <= bit_10_5 <= 1
 0 <= bit_1_0 <= 1
 0 <= bit_1_1 <= 1
 0 <= bit_1_2 <= 1
 0 <= bit_1_3 <= 1
 0 <= bit_1_4 <= 1
 0 <= bit_2_0 <= 1
 0 <= bit_2_1 <= 1
 0 <= bit_2_2 <= 1
 0 <= bit_2_3 <= 1
 0 <= bit_2_4 <= 1
 0 <= bit_3_0 <= 1
 0 <= bit_3_1 <= 1
 0 <= bit_3_2 <= 1
 0 <= bit_3_3 <= 1
 0 <= bit_3_4 <= 1
 0 <= bit_4_0 <= 1
 0 <= bit_4_1 <= 1
 0 <= bit_4_2 <= 1
 0 <= bit_4_3 <= 1
 0 <= bit_4_4 <= 1
 0 <= bit_4_5 <= 1
 0 <= bit_5_0 <= 1
 0 <= bit_5_1 <= 1
 0 <= bit_5_2 <= 1
 0 <= bit_5_3 <= 1
 0 <= bit_5_4 <= 1
 0 <= bit_5_5 <= 1
 0 <= bit_6_0 <= 1
 0 <= bit_6_1 <= 1
 0 <= bit_6_2 <= 1
 0 <= bit_6_3 <= 1
 0 <= bit_6_4 <= 1
 0 <= bit_7_0 <= 1
 0 <= bit_7_1 <= 1
 0 <= bit_7_2 <= 1
 0 <= bit_7_3 <= 1
 0 <= bit_7_4 <= 1
 0 <= bit_8_0 <= 1
 0 <= bit_8_1 <= 1
 0 <= bit_8_2 <= 1
 0 <= bit_8_3 <= 1
 0 <= bit_8_4 <= 1
 0 <= bit_9_0 <= 1
 0 <= bit_9_1 <= 1
 0 <= bit_9_2 <= 1
 0 <= bit_9_3 <= 1
 0 <= bit_9_4 <= 1
 0 <= bit_9_5 <= 1
 0 <= conn_0_0_1 <= 10
 0 <= conn_0_0_10 <= 10
 0 <= conn_0_0_2 <= 10
 0 <= conn_0_0_3 <= 10
 0 <= conn_0_0_4 <= 10
 0 <= conn_0_0_5 <= 10
 0 <= conn_0_0_6 <= 10
 0 <= conn_0_0_7 <= 10
 0 <= conn_0_0_8 <= 10
 0 <= conn_0_0_9 <= 10
 0 <= conn_0_10_0 <= 10
 0 <= conn_0_10_1 <= 10
 0 <= conn_0_10_2 <= 10
 0 <= conn_0_10_3 <= 10
 0 <= conn_0_10_4 <= 10
 0 <= conn_0_10_5 <= 10
 0 <= conn_0_10_6 <= 10
 0 <= conn_0_10_7 <= 10
 0 <= conn_0_10_8 <= 10
 0 <= conn_0_10_9 <= 10
 0 <= conn_0_1_0 <= 10
 0 <= conn_0_1_10 <= 10
 0 <= conn_0_1_2 <= 10
 0 <= conn_0_1_3 <= 10
 0 <= conn_0_1_4 <= 10
 0 <= conn_0_1_5 <= 10
 0 <= conn_0_1_6 <= 10
 0 <= conn_0_1_7 <= 10
 0 <= conn_0_1_8 <= 10
 0 <= conn_0_1_9 <= 10
 0 <= conn_0_2_0 <= 10
 0 <= conn_0_2_1 <= 10
 0 <= conn_0_2_10 <= 10
 0 <= conn_0_2_3 <= 10
 0 <= conn_0_2_4 <= 10
 0 <= conn_0_2_5 <= 10
 0 <= conn_0_2_6 <= 10
 0 <= conn_0_2_7 <= 10
 0 <= conn_0_2_8 <= 10
 0 <= conn_0_2_9 <= 10
 0 <= conn_0_3_0 <= 10
 0 <= conn_0_3_1 <= 10
 0 <= conn_0_3_10 <= 10
 0 <= conn_0_3_2 <= 10
 0 <= conn_0_3_4 <= 10
 0 <= conn_0_3_5 <= 10
 0 <= conn_0_3_6 <= 10
 0 <= conn_0_3_7 <= 10
 0 <= conn_0_3_8 <= 10
 0 <= conn_0_3_9 <= 10
 0 <= conn_0_4_0 <= 10
 0 <= conn_0_4_1 <= 10
 0 <= conn_0_4_10 <= 10
 0 <= conn_0_4_2 <= 10
 0 <= conn_0_4_3 <= 10
 0 <= conn_0_4_5 <= 10
 0 <= conn_0_4_6 <= 10
 0 <= conn_0_4_7 <= 10
 0 <= conn_0_4_8 <= 10
 0 <= conn_0_4_9 <= 10
 0 <= conn_0_5_0 <= 10
 0 <= conn_0_5_1 <= 10
 0 <= conn_0_5_10 <= 10
 0 <= conn_0_5_2 <= 10
 0 <= conn_0_5_3 <= 10
 0 <= conn_0_5_4 <= 10
 0 <= conn_0_5_6 <= 10
 0 <= conn_0_5_7 <= 10
 0 <= conn_0_5_8 <= 10
 0 <= conn_0_5_9 <= 10
 0 <= conn_0_6_0 <= 10
 0 <= conn_0_6_1 <= 10
 0 <= conn_0_6_10 <= 10
 0 <= conn_0_6_2 <= 10
 0 <= conn_0_6_3 <= 10
 0 <= conn_0_6_4 <= 10
 0 <= conn_0_6_5 <= 10
 0 <= conn_0_6_7 <= 10
 0 <= conn_0_6_8 <= 10
 0 <= conn_0_6_9 <= 10
 0 <= conn_0_7_0 <= 10
 0 <= conn_0_7_1 <= 10
 0 <= conn_0_7_10 <= 10
 0 <= conn_0_7_2 <= 10
 0 <= conn_0_7_3 <= 10
 0 <= conn_0_7_4 <= 10
 0 <= conn_0_7_5 <= 10
 0 <= conn_0_7_6 <= 10
 0 <= conn_0_7_8 <= 10
 0 <= conn_0_7_9 <= 10
 0 <= conn_0_8_0 <= 10
 0 <= conn_0_8_1 <= 10
 0 <= conn_0_8_10 <= 10
 0 <= conn_0_8_2 <= 10
 0 <= conn_0_8_3 <= 10
 0 <= conn_0_8_4 <= 10
 0 <= conn_0_8_5 <= 10
 0 <= conn_0_8_6 <= 10
 0 <= conn_0_8_7 <= 10
 0 <= conn_0_8_9 <= 10
 0 <= conn_0_9_0 <= 10
 0 <= conn_0_9_1 <= 10
 0 <= conn_0_9_10 <= 10
 0 <= conn_0_9_2 <= 10
 0 <= conn_0_9_3 <= 10
 0 <= conn_0_9_4 <= 10
 0 <= conn_0_9_5 <= 10
 0 <= conn_0_9_6 <= 10
 0 <= conn_0_9_7 <= 10
 0 <= conn_0_9_8 <= 10
 0 <= conn_1_0_1 <= 10
 0 <= conn_1_0_10 <= 10
 0 <= conn_1_0_2 <= 10
 0 <= conn_1_0_3 <= 10
 0 <= conn_1_0_4 <= 10
 0 <= conn_1_0_5 <= 10
 0 <= conn_1_0_6 <= 10
 0 <= conn_1_0_7 <= 10
 0 <= conn_1_0_8 <= 10
 0 <= conn_1_0_9 <= 10
 0 <= conn_1_10_0 <= 10
 0 <= conn_1_10_1 <= 10
 0 <= conn_1_10_2 <= 10
 0 <= conn_1_10_3 <= 10
 0 <= conn_1_10_4 <= 10
 0 <= conn_1_10_5 <= 10
 0 <= conn_1_10_6 <= 10
 0 <= conn_1_10_7 <= 10
 0 <= conn_1_10_8 <= 10
 0 <= conn_1_10_9 <= 10
 0 <= conn_1_1_0 <= 10
 0 <= conn_1_1_10 <= 10
 0 <= conn_1_1_2 <= 10
 0 <= conn_1_1_3 <= 10
 0 <= conn_1_1_4 <= 10
 0 <= conn_1_1_5 <= 10
 0 <= conn_1_1_6 <= 10
 0 <= conn_1_1_7 <= 10
 0 <= conn_1_1_8 <= 10
 0 <= conn_1_1_9 <= 10
 0 <= conn_1_2_0 <= 10
 0 <= conn_1_2_1 <= 10
 0 <= conn_1_2_10 <= 10
 0 <= conn_1_2_3 <= 10
 0 <= conn_1_2_4 <= 10
 0 <= conn_1_2_5 <= 10
 0 <= conn_1_2_6 <= 10
 0 <= conn_1_2_7 <= 10
 0 <= conn_1_2_8 <= 10
 0 <= conn_1_2_9 <= 10
 0 <= conn_1_3_0 <= 10
 0 <= conn_1_3_1 <= 10
 0 <= conn_1_3_10 <= 10
 0 <= conn_1_3_2 <= 10
 0 <= conn_1_3_4 <= 10
 0 <= conn_1_3_5 <= 10
 0 <= conn_1_3_6 <= 10
 0 <= conn_1_3_7 <= 10
 0 <= conn_1_3_8 <= 10
 0 <= conn_1_3_9 <= 10
 0 <= conn_1_4_0 <= 10
 0 <= conn_1_4_1 <= 10
 0 <= conn_1_4_10 <= 10
 0 <= conn_1_4_2 <= 10
 0 <= conn_1_4_3 <= 10
 0 <= conn_1_4_5 <= 10
 0 <= conn_1_4_6 <= 10
 0 <= conn_1_4_7 <= 10
 0 <= conn_1_4_8 <= 10
 0 <= conn_1_4_9 <= 10
 0 <= conn_1_5_0 <= 10
 0 <= conn_1_5_1 <= 10
 0 <= conn_1_5_10 <= 10
 0 <= conn_1_5_2 <= 10
 0 <= conn_1_5_3 <= 10
 0 <= conn_1_5_4 <= 10
 0 <= conn_1_5_6 <= 10
 0 <= conn_1_5_7 <= 10
 0 <= conn_1_5_8 <= 10
 0 <= conn_1_5_9 <= 10
 0 <= conn_1_6_0 <= 10
 0 <= conn_1_6_1 <= 10
 0 <= conn_1_6_10 <= 10
 0 <= conn_1_6_2 <= 10
 0 <= conn_1_6_3 <= 10
 0 <= conn_1_6_4 <= 10
 0 <= conn_1_6_5 <= 10
 0 <= conn_1_6_7 <= 10
 0 <= conn_1_6_8 <= 10
 0 <= conn_1_6_9 <= 10
 0 <= conn_1_7_0 <= 10
 0 <= conn_1_7_1 <= 10
 0 <= conn_1_7_10 <= 10
 0 <= conn_1_7_2 <= 10
 0 <= conn_1_7_3 <= 10
 0 <= conn_1_7_4 <= 10
 0 <= conn_1_7_5 <= 10
 0 <= conn_1_7_6 <= 10
 0 <= conn_1_7_8 <= 10
 0 <= conn_1_7_9 <= 10
 0 <= conn_1_8_0 <= 10
 0 <= conn_1_8_1 <= 10
 0 <= conn_1_8_10 <= 10
 0 <= conn_1_8_2 <= 10
 0 <= conn_1_8_3 <= 10
 0 <= conn_1_8_4 <= 10
 0 <= conn_1_8_5 <= 10
 0 <= conn_1_8_6 <= 10
 0 <= conn_1_8_7 <= 10
 0 <= conn_1_8_9 <= 10
 0 <= conn_1_9_0 <= 10
 0 <= conn_1_9_1 <= 10
 0 <= conn_1_9_10 <= 10
 0 <= conn_1_9_2 <= 10
 0 <= conn_1_9_3 <= 10
 0 <= conn_1_9_4 <= 10
 0 <= conn_1_9_5 <= 10
 0 <= conn_1_9_6 <= 10
 0 <= conn_1_9_7 <= 10
 0 <= conn_1_9_8 <= 10
 0 <= conn_2_0_1 <= 10
 0 <= conn_2_0_10 <= 10
 0 <= conn_2_0_2 <= 10
 0 <= conn_2_0_3 <= 10
 0 <= conn_2_0_4 <= 10
 0 <= conn_2_0_5 <= 10
 0 <= conn_2_0_6 <= 10
 0 <= conn_2_0_7 <= 10
 0 <= conn_2_0_8 <= 10
 0 <= conn_2_0_9 <= 10
 0 <= conn_2_10_0 <= 10
 0 <= conn_2_10_1 <= 10
 0 <= conn_2_10_2 <= 10
 0 <= conn_2_10_3 <= 10
 0 <= conn_2_10_4 <= 10
 0 <= conn_2_10_5 <= 10
 0 <= conn_2_10_6 <= 10
 0 <= conn_2_10_7 <= 10
 0 <= conn_2_10_8 <= 10
 0 <= conn_2_10_9 <= 10
 0 <= conn_2_1_0 <= 10
 0 <= conn_2_1_10 <= 10
 0 <= conn_2_1_2 <= 10
 0 <= conn_2_1_3 <= 10
 0 <= conn_2_1_4 <= 10
 0 <= conn_2_1_5 <= 10
 0 <= conn_2_1_6 <= 10
 0 <= conn_2_1_7 <= 10
 0 <= conn_2_1_8 <= 10
 0 <= conn_2_1_9 <= 10
 0 <= conn_2_2_0 <= 10
 0 <= conn_2_2_1 <= 10
 0 <= conn_2_2_10 <= 10
 0 <= conn_2_2_3 <= 10
 0 <= conn_2_2_4 <= 10
 0 <= conn_2_2_5 <= 10
 0 <= conn_2_2_6 <= 10
 0 <= conn_2_2_7 <= 10
 0 <= conn_2_2_8 <= 10
 0 <= conn_2_2_9 <= 10
 0 <= conn_2_3_0 <= 10
 0 <= conn_2_3_1 <= 10
 0 <= conn_2_3_10 <= 10
 0 <= conn_2_3_2 <= 10
 0 <= conn_2_3_4 <= 10
 0 <= conn_2_3_5 <= 10
 0 <= conn_2_3_6 <= 10
 0 <= conn_2_3_7 <= 10
 0 <= conn_2_3_8 <= 10
 0 <= conn_2_3_9 <= 10
 0 <= conn_2_4_0 <= 10
 0 <= conn_2_4_1 <= 10
 0 <= conn_2_4_10 <= 10
 0 <= conn_2_4_2 <= 10
 0 <= conn_2_4_3 <= 10
 0 <= conn_2_4_5 <= 10
 0 <= conn_2_4_6 <= 10
 0 <= conn_2_4_7 <= 10
 0 <= conn_2_4_8 <= 10
 0 <= conn_2_4_9 <= 10
 0 <= conn_2_5_0 <= 10
 0 <= conn_2_5_1 <= 10
 0 <= conn_2_5_10 <= 10
 0 <= conn_2_5_2 <= 10
 0 <= conn_2_5_3 <= 10
 0 <= conn_2_5_4 <= 10
 0 <= conn_2_5_6 <= 10
 0 <= conn_2_5_7 <= 10
 0 <= conn_2_5_8 <= 10
 0 <= conn_2_5_9 <= 10
 0 <= conn_2_6_0 <= 10
 0 <= conn_2_6_1 <= 10
 0 <= conn_2_6_10 <= 10
 0 <= conn_2_6_2 <= 10
 0 <= conn_2_6_3 <= 10
 0 <= conn_2_6_4 <= 10
 0 <= conn_2_6_5 <= 10
 0 <= conn_2_6_7 <= 10
 0 <= conn_2_6_8 <= 10
 0 <= conn_2_6_9 <= 10
 0 <= conn_2_7_0 <= 10
 0 <= conn_2_7_1 <= 10
 0 <= conn_2_7_10 <= 10
 0 <= conn_2_7_2 <= 10
 0 <= conn_2_7_3 <= 10
 0 <= conn_2_7_4 <= 10
 0 <= conn_2_7_5 <= 10
 0 <= conn_2_7_6 <= 10
 0 <= conn_2_7_8 <= 10
 0 <= conn_2_7_9 <= 10
 0 <= conn_2_8_0 <= 10
 0 <= conn_2_8_1 <= 10
 0 <= conn_2_8_10 <= 10
 0 <= conn_2_8_2 <= 10
 0 <= conn_2_8_3 <= 10
 0 <= conn_2_8_4 <= 10
 0 <= conn_2_8_5 <= 10
 0 <= conn_2_8_6 <= 10
 0 <= conn_2_8_7 <= 10
 0 <= conn_2_8_9 <= 10
 0 <= conn_2_9_0 <= 10
 0 <= conn_2_9_1 <= 10
 0 <= conn_2_9_10 <= 10
 0 <= conn_2_9_2 <= 10
 0 <= conn_2_9_3 <= 10
 0 <= conn_2_9_4 <= 10
 0 <= conn_2_9_5 <= 10
 0 <= conn_2_9_6 <= 10
 0 <= conn_2_9_7 <= 10
 0 <= conn_2_9_8 <= 10
 0 <= d_0_1 <= 9
 0 <= d_0_10 <= 22
 0 <= d_0_2 <= 25
 0 <= d_0_3 <= 27
 0 <= d_0_4 <= 30
 0 <= d_0_5 <= 30
 0 <= d_0_6 <= 9
 0 <= d_0_7 <= 18
 0 <= d_0_8 <= 14
 0 <= d_0_9 <= 29
 0 <= d_1_1 <= 9
 0 <= d_1_10 <= 22
 0 <= d_1_2 <= 25
 0 <= d_1_3 <= 27
 0 <= d_1_4 <= 30
 0 <= d_1_5 <= 30
 0 <= d_1_6 <= 9
 0 <= d_1_7 <= 18
 0 <= d_1_8 <= 14
 0 <= d_1_9 <= 29
 0 <= d_2_1 <= 9
 0 <= d_2_10 <= 22
 0 <= d_2_2 <= 25
 0 <= d_2_3 <= 27
 0 <= d_2_4 <= 30
 0 <= d_2_5 <= 30
 0 <= d_2_6 <= 9
 0 <= d_2_7 <= 18
 0 <= d_2_8 <= 14
 0 <= d_2_9 <= 29
 0 <= e_1 <= 4.7999999999999998
 0 <= e_10 <= 1
 0 <= e_2 <= 1.8888888888888888
 0 <= e_3 <= 1
 0 <= e_4 <= 1
 0 <= e_5 <= 1.6470588235294117
 0 <= e_6 <= 22
 0 <= e_7 <= 1
 0 <= e_8 <= 1
 0 <= e_9 <= 1
 0 <= h_1_10 <= 6.9428571428571431
 0 <= h_1_2 <= 8.6888888888888882
 0 <= h_1_3 <= 7.2999999999999998
 0 <= h_1_4 <= 7.2285714285714286
 0 <= h_1_5 <= 8.447058823529412
 0 <= h_1_6 <= 28.800000000000001
 0 <= h_1_7 <= 6.9578947368421051
 0 <= h_1_8 <= 6.9578947368421051
 0 <= h_1_9 <= 7.2999999999999998
 0 <= h_2_10 <= 4.0317460317460316
 0 <= h_2_3 <= 4.3888888888888893
 0 <= h_2_4 <= 4.3174603174603172
 0 <= h_2_5 <= 5.5359477124183005
 0 <= h_2_6 <= 25.888888888888889
 0 <= h_2_7 <= 4.0467836257309937
 0 <= h_2_8 <= 4.0467836257309937
 0 <= h_2_9 <= 4.3888888888888893
 0 <= h_3_10 <= 2.6428571428571428
 0 <= h_3_4 <= 2.9285714285714288
 0 <= h_3_5 <= 4.1470588235294112
 0 <= h_3_6 <= 24.5
 0 <= h_3_7 <= 2.6578947368421053
 0 <= h_3_8 <= 2.6578947368421053
 0 <= h_3_9 <= 3
 0 <= h_4_10 <= 2.5714285714285712
 0 <= h_4_5 <= 4.0756302521008401
 0 <= h_4_6 <= 24.428571428571427
 0 <= h_4_7 <= 2.5864661654135341
 0 <= h_4_8 <= 2.5864661654135341
 0 <= h_4_9 <= 2.9285714285714288
 0 <= h_5_10 <= 3.7899159663865545
 0 <= h_5_6 <= 25.647058823529413
 0 <= h_5_7 <= 3.804953560371517
 0 <= h_5_8 <= 3.804953560371517
 0 <= h_5_9 <= 4.1470588235294112
 0 <= h_6_10 <= 24.142857142857142
 0 <= h_6_7 <= 24.157894736842106
 0 <= h_6_8 <= 24.157894736842106
 0 <= h_6_9 <= 24.5
 0 <= h_7_10 <= 2.3007518796992481
 0 <= h_7_8 <= 2.3157894736842106
 0 <= h_7_9 <= 2.6578947368421053
 0 <= h_8_10 <= 2.3007518796992481
 0 <= h_8_9 <= 2.6578947368421053
 0 <= h_9_10 <= 2.6428571428571428
 0 <= load_0_1 <= 30
 0 <= load_0_10 <= 30
 0 <= load_0_2 <= 30
 0 <= load_0_3 <= 30
 0 <= load_0_4 <= 30
 0 <= load_0_5 <= 30
 0 <= load_0_6 <= 30
 0 <= load_0_7 <= 30
 0 <= load_0_8 <= 30
 0 <= load_0_9 <= 30
 0 <= load_1_1 <= 30
 0 <= load_1_10 <= 30
 0 <= load_1_2 <= 30
 0 <= load_1_3 <= 30
 0 <= load_1_4 <= 30
 0 <= load_1_5 <= 30
 0 <= load_1_6 <= 30
 0 <= load_1_7 <= 30
 0 <= load_1_8 <= 30
 0 <= load_1_9 <= 30
 0 <= load_2_1 <= 30
 0 <= load_2_10 <= 30
 0 <= load_2_2 <= 30
 0 <= load_2_3 <= 30
 0 <= load_2_4 <= 30
 0 <= load_2_5 <= 30
 0 <= load_2_6 <= 30
 0 <= load_2_7 <= 30
 0 <= load_2_8 <= 30
 0 <= load_2_9 <= 30
 0 <= mode_0_1 <= 1
 0 <= mode_0_10 <= 1
 0 <= mode_0_2 <= 1
 0 <= mode_0_3 <= 1
 0 <= mode_0_4 <= 1
 0 <= mode_0_5 <= 1
 0 <= mode_0_6 <= 1
 0 <= mode_0_7 <= 1
 0 <= mode_0_8 <= 1
 0 <= mode_0_9 <= 1
 0 <= mode_1_1 <= 1
 0 <= mode_1_10 <= 1
 0 <= mode_1_2 <= 1
 0 <= mode_1_3 <= 1
 0 <= mode_1_4 <= 1
 0 <= mode_1_5 <= 1
 0 <= mode_1_6 <= 1
 0 <= mode_1_7 <= 1
 0 <= mode_1_8 <= 1
 0 <= mode_1_9 <= 1
 0 <= mode_2_1 <= 1
 0 <= mode_2_10 <= 1
 0 <= mode_2_2 <= 1
 0 <= mode_2_3 <= 1
 0 <= mode_2_4 <= 1
 0 <= mode_2_5 <= 1
 0 <= mode_2_6 <= 1
 0 <= mode_2_7 <= 1
 0 <= mode_2_8 <= 1
 0 <= mode_2_9 <= 1
 0 <= ord_0_1 <= 10
 0 <= ord_0_10 <= 10
 0 <= ord_0_2 <= 10
 0 <= ord_0_3 <= 10
 0 <= ord_0_4 <= 10
 0 <= ord_0_5 <= 10
 0 <= ord_0_6 <= 10
 0 <= ord_0_7 <= 10
 0 <= ord_0_8 <= 10
 0 <= ord_0_9 <= 10
 0 <= ord_1_1 <= 10
 0 <= ord_1_10 <= 10
 0 <= ord_1_2 <= 10
 0 <= ord_1_3 <= 10
 0 <= ord_1_4 <= 10
 0 <= ord_1_5 <= 10
 0 <= ord_1_6 <= 10
 0 <= ord_1_7 <= 10
 0 <= ord_1_8 <= 10
 0 <= ord_1_9 <= 10
 0 <= ord_2_1 <= 10
 0 <= ord_2_10 <= 10
 0 <= ord_2_2 <= 10
 0 <= ord_2_3 <= 10
 0 <= ord_2_4 <= 10
 0 <= ord_2_5 <= 10
 0 <= ord_2_6 <= 10
 0 <= ord_2_7 <= 10
 0 <= ord_2_8 <= 10
 0 <= ord_2_9 <= 10
 0 <= p_0_1 <= 20
 0 <= p_0_10 <= 10
 0 <= p_0_2 <= 1
 0 <= p_0_3 <= 3
 0 <= p_0_4 <= 16
 0 <= p_0_5 <= 15
 0 <= p_0_6 <= 14
 0 <= p_0_7 <= 4
 0 <= p_0_8 <= 8
 0 <= p_0_9 <= 4
 0 <= p_1_1 <= 20
 0 <= p_1_10 <= 10
 0 <= p_1_2 <= 1
 0 <= p_1_3 <= 3
 0 <= p_1_4 <= 16
 0 <= p_1_5 <= 15
 0 <= p_1_6 <= 14
 0 <= p_1_7 <= 4
 0 <= p_1_8 <= 8
 0 <= p_1_9 <= 4
 0 <= p_2_1 <= 20
 0 <= p_2_10 <= 10
 0 <= p_2_2 <= 1
 0 <= p_2_3 <= 3
 0 <= p_2_4 <= 16
 0 <= p_2_5 <= 15
 0 <= p_2_6 <= 14
 0 <= p_2_7 <= 4
 0 <= p_2_8 <= 8
 0 <= p_2_9 <= 4
 0 <= prod_10_0 <= 0.067348952128472625
 0 <= prod_10_1 <= 0.067348952128472625
 0 <= prod_10_2 <= 0.067348952128472625
 0 <= prod_10_3 <= 0.067348952128472625
 0 <= prod_10_4 <= 0.067348952128472625
 0 <= prod_10_5 <= 0.067348952128472625
 0 <= prod_1_0 <= 0.067348952128472625
 0 <= prod_1_1 <= 0.067348952128472625
 0 <= prod_1_2 <= 0.067348952128472625
 0 <= prod_1_3 <= 0.067348952128472625
 0 <= prod_1_4 <= 0.067348952128472625
 0 <= prod_2_0 <= 0.067348952128472625
 0 <= prod_2_1 <= 0.067348952128472625
 0 <= prod_2_2 <= 0.067348952128472625
 0 <= prod_2_3 <= 0.067348952128472625
 0 <= prod_2_4 <= 0.067348952128472625
 0 <= prod_3_0 <= 0.067348952128472625
 0 <= prod_3_1 <= 0.067348952128472625
 0 <= prod_3_2 <= 0.067348952128472625
 0 <= prod_3_3 <= 0.067348952128472625
 0 <= prod_3_4 <= 0.067348952128472625
 0 <= prod_4_0 <= 0.067348952128472625
 0 <= prod_4_1 <= 0.067348952128472625
 0 <= prod_4_2 <= 0.067348952128472625
 0 <= prod_4_3 <= 0.067348952128472625
 0 <= prod_4_4 <= 0.067348952128472625
 0 <= prod_4_5 <= 0.067348952128472625
 0 <= prod_5_0 <= 0.067348952128472625
 0 <= prod_5_1 <= 0.067348952128472625
 0 <= prod_5_2 <= 0.067348952128472625
 0 <= prod_5_3 <= 0.067348952128472625
 0 <= prod_5_4 <= 0.067348952128472625
 0 <= prod_5_5 <= 0.067348952128472625
 0 <= prod_6_0 <= 0.067348952128472625
 0 <= prod_6_1 <= 0.067348952128472625
 0 <= prod_6_2 <= 0.067348952128472625
 0 <= prod_6_3 <= 0.067348952128472625
 0 <= prod_6_4 <= 0.067348952128472625
 0 <= prod_7_0 <= 0.067348952128472625
 0 <= prod_7_1 <= 0.067348952128472625
 0 <= prod_7_2 <= 0.067348952128472625
 0 <= prod_7_3 <= 0.067348952128472625
 0 <= prod_7_4 <= 0.067348952128472625
 0 <= prod_8_0 <= 0.067348952128472625
 0 <= prod_8_1 <= 0.067348952128472625
 0 <= prod_8_2 <= 0.067348952128472625
 0 <= prod_8_3 <= 0.067348952128472625
 0 <= prod_8_4 <= 0.067348952128472625
 0 <= prod_9_0 <= 0.067348952128472625
 0 <= prod_9_1 <= 0.067348952128472625
 0 <= prod_9_2 <= 0.067348952128472625
 0 <= prod_9_3 <= 0.067348952128472625
 0 <= prod_9_4 <= 0.067348952128472625
 0 <= prod_9_5 <= 0.067348952128472625
 0 <= r_1 <= 5.7999999999999998
 0 <= r_10 <= 1.1428571428571428
 0 <= r_2 <= 2.8888888888888888
 0 <= r_3 <= 1.5
 0 <= r_4 <= 1.4285714285714286
 0 <= r_5 <= 2.6470588235294117
 0 <= r_6 <= 23
 0 <= r_7 <= 1.1578947368421053
 0 <= r_8 <= 1.1578947368421053
 0 <= r_9 <= 1.5
 0 <= r_max <= 23
 0 <= r_min <= 23
 0 <= x_0_0_1 <= 1
 0 <= x_0_0_10 <= 1
 0 <= x_0_0_2 <= 1
 0 <= x_0_0_3 <= 1
 0 <= x_0_0_4 <= 1
 0 <= x_0_0_5 <= 1
 0 <= x_0_0_6 <= 1
 0 <= x_0_0_7 <= 1
 0 <= x_0_0_8 <= 1
 0 <= x_0_0_9 <= 1
 0 <= x_0_10_0 <= 1
 0 <= x_0_10_1 <= 1
 0 <= x_0_10_2 <= 1
 0 <= x_0_10_3 <= 1
 0 <= x_0_10_4 <= 1
 0 <= x_0_10_5 <= 1
 0 <= x_0_10_6 <= 1
 0 <= x_0_10_7 <= 1
 0 <= x_0_10_8 <= 1
 0 <= x_0_10_9 <= 1
 0 <= x_0_1_0 <= 1
 0 <= x_0_1_10 <= 1
 0 <= x_0_1_2 <= 1
 0 <= x_0_1_3 <= 1
 0 <= x_0_1_4 <= 1
 0 <= x_0_1_5 <= 1
 0 <= x_0_1_6 <= 1
 0 <= x_0_1_7 <= 1
 0 <= x_0_1_8 <= 1
 0 <= x_0_1_9 <= 1
 0 <= x_0_2_0 <= 1
 0 <= x_0_2_1 <= 1
 0 <= x_0_2_10 <= 1
 0 <= x_0_2_3 <= 1
 0 <= x_0_2_4 <= 1
 0 <= x_0_2_5 <= 1
 0 <= x_0_2_6 <= 1
 0 <= x_0_2_7 <= 1
 0 <= x_0_2_8 <= 1
 0 <= x_0_2_9 <= 1
 0 <= x_0_3_0 <= 1
 0 <= x_0_3_1 <= 1
 0 <= x_0_3_10 <= 1
 0 <= x_0_3_2 <= 1
 0 <= x_0_3_4 <= 1
 0 <= x_0_3_5 <= 1
 0 <= x_0_3_6 <= 1
 0 <= x_0_3_7 <= 1
 0 <= x_0_3_8 <= 1
 0 <= x_0_3_9 <= 1
 0 <= x_0_4_0 <= 1
 0 <= x_0_4_1 <= 1
 0 <= x_0_4_10 <= 1
 0 <= x_0_4_2 <= 1
 0 <= x_0_4_3 <= 1
 0 <= x_0_4_5 <= 1
 0 <= x_0_4_6 <= 1
 0 <= x_0_4_7 <= 1
 0 <= x_0_4_8 <= 1
 0 <= x_0_4_9 <= 1
 0 <= x_0_5_0 <= 1
 0 <= x_0_5_1 <= 1
 0 <= x_0_5_10 <= 1
 0 <= x_0_5_2 <= 1
 0 <= x_0_5_3 <= 1
 0 <= x_0_5_4 <= 1
 0 <= x_0_5_6 <= 1
 0 <= x_0_5_7 <= 1
 0 <= x_0_5_8 <= 1
 0 <= x_0_5_9 <= 1
 0 <= x_0_6_0 <= 1
 0 <= x_0_6_1 <= 1
 0 <= x_0_6_10 <= 1
 0 <= x_0_6_2 <= 1
 0 <= x_0_6_3 <= 1
 0 <= x_0_6_4 <= 1
 0 <= x_0_6_5 <= 1
 0 <= x_0_6_7 <= 1
 0 <= x_0_6_8 <= 1
 0 <= x_0_6_9 <= 1
 0 <= x_0_7_0 <= 1
 0 <= x_0_7_1 <= 1
 0 <= x_0_7_10 <= 1
 0 <= x_0_7_2 <= 1
 0 <= x_0_7_3 <= 1
 0 <= x_0_7_4 <= 1
 0 <= x_0_7_5 <= 1
 0 <= x_0_7_6 <= 1
 0 <= x_0_7_8 <= 1
 0 <= x_0_7_9 <= 1
 0 <= x_0_8_0 <= 1
 0 <= x_0_8_1 <= 1
 0 <= x_0_8_10 <= 1
 0 <= x_0_8_2 <= 1
 0 <= x_0_8_3 <= 1
 0 <= x_0_8_4 <= 1
 0 <= x_0_8_5 <= 1
 0 <= x_0_8_6 <= 1
 0 <= x_0_8_7 <= 1
 0 <= x_0_8_9 <= 1
 0 <= x_0_9_0 <= 1
 0 <= x_0_9_1 <= 1
 0 <= x_0_9_10 <= 1
 0 <= x_0_9_2 <= 1
 0 <= x_0_9_3 <= 1
 0 <= x_0_9_4 <= 1
 0 <= x_0_9_5 <= 1
 0 <= x_0_9_6 <= 1
 0 <= x_0_9_7 <= 1
 0 <= x_0_9_8 <= 1
 0 <= x_1_0_1 <= 1
 0 <= x_1_0_10 <= 1
 0 <= x_1_0_2 <= 1
 0 <= x_1_0_3 <= 1
 0 <= x_1_0_4 <= 1
 0 <= x_1_0_5 <= 1
 0 <= x_1_0_6 <= 1
 0 <= x_1_0_7 <= 1
 0 <= x_1_0_8 <= 1
 0 <= x_1_0_9 <= 1
 0 <= x_1_10_0 <= 1
 0 <= x_1_10_1 <= 1
 0 <= x_1_10_2 <= 1
 0 <= x_1_10_3 <= 1
 0 <= x_1_10_4 <= 1
 0 <= x_1_10_5 <= 1
 0 <= x_1_10_6 <= 1
 0 <= x_1_10_7 <= 1
 0 <= x_1_10_8 <= 1
 0 <= x_1_10_9 <= 1
 0 <= x_1_1_0 <= 1
 0 <= x_1_1_10 <= 1
 0 <= x_1_1_2 <= 1
 0 <= x_1_1_3 <= 1
 0 <= x_1_1_4 <= 1
 0 <= x_1_1_5 <= 1
 0 <= x_1_1_6 <= 1
 0 <= x_1_1_7 <= 1
 0 <= x_1_1_8 <= 1
 0 <= x_1_1_9 <= 1
 0 <= x_1_2_0 <= 1
 0 <= x_1_2_1 <= 1
 0 <= x_1_2_10 <= 1
 0 <= x_1_2_3 <= 1
 0 <= x_1_2_4 <= 1
 0 <= x_1_2_5 <= 1
 0 <= x_1_2_6 <= 1
 0 <= x_1_2_7 <= 1
 0 <= x_1_2_8 <= 1
 0 <= x_1_2_9 <= 1
 0 <= x_1_3_0 <= 1
 0 <= x_1_3_1 <= 1
 0 <= x_1_3_10 <= 1
 0 <= x_1_3_2 <= 1
 0 <= x_1_3_4 <= 1
 0 <= x_1_3_5 <= 1
 0 <= x_1_3_6 <= 1
 0 <= x_1_3_7 <= 1
 0 <= x_1_3_8 <= 1
 0 <= x_1_3_9 <= 1
 0 <= x_1_4_0 <= 1
 0 <= x_1_4_1 <= 1
 0 <= x_1_4_10 <= 1
 0 <= x_1_4_2 <= 1
 0 <= x_1_4_3 <= 1
 0 <= x_1_4_5 <= 1
 0 <= x_1_4_6 <= 1
 0 <= x_1_4_7 <= 1
 0 <= x_1_4_8 <= 1
 0 <= x_1_4_9 <= 1
 0 <= x_1_5_0 <= 1
 0 <= x_1_5_1 <= 1
 0 <= x_1_5_10 <= 1
 0 <= x_1_5_2 <= 1
 0 <= x_1_5_3 <= 1
 0 <= x_1_5_4 <= 1
 0 <= x_1_5_6 <= 1
 0 <= x_1_5_7 <= 1
 0 <= x_1_5_8 <= 1
 0 <= x_1_5_9 <= 1
 0 <= x_1_6_0 <= 1
 0 <= x_1_6_1 <= 1
 0 <= x_1_6_10 <= 1
 0 <= x_1_6_2 <= 1
 0 <= x_1_6_3 <= 1
 0 <= x_1_6_4 <= 1
 0 <= x_1_6_5 <= 1
 0 <= x_1_6_7 <= 1
 0 <= x_1_6_8 <= 1
 0 <= x_1_6_9 <= 1
 0 <= x_1_7_0 <= 1
 0 <= x_1_7_1 <= 1
 0 <= x_1_7_10 <= 1
 0 <= x_1_7_2 <= 1
 0 <= x_1_7_3 <= 1
 0 <= x_1_7_4 <= 1
 0 <= x_1_7_5 <= 1
 0 <= x_1_7_6 <= 1
 0 <= x_1_7_8 <= 1
 0 <= x_1_7_9 <= 1
 0 <= x_1_8_0 <= 1
 0 <= x_1_8_1 <= 1
 0 <= x_1_8_10 <= 1
 0 <= x_1_8_2 <= 1
 0 <= x_1_8_3 <= 1
 0 <= x_1_8_4 <= 1
 0 <= x_1_8_5 <= 1
 0 <= x_1_8_6 <= 1
 0 <= x_1_8_7 <= 1
 0 <= x_1_8_9 <= 1
 0 <= x_1_9_0 <= 1
 0 <= x_1_9_1 <= 1
 0 <= x_1_9_10 <= 1
 0 <= x_1_9_2 <= 1
 0 <= x_1_9_3 <= 1
 0 <= x_1_9_4 <= 1
 0 <= x_1_9_5 <= 1
 0 <= x_1_9_6 <= 1
 0 <= x_1_9_7 <= 1
 0 <= x_1_9_8 <= 1
 0 <= x_2_0_1 <= 1
 0 <= x_2_0_10 <= 1
 0 <= x_2_0_2 <= 1
 0 <= x_2_0_3 <= 1
 0 <= x_2_0_4 <= 1
 0 <= x_2_0_5 <= 1
 0 <= x_2_0_6 <= 1
 0 <= x_2_0_7 <= 1
 0 <= x_2_0_8 <= 1
 0 <= x_2_0_9 <= 1
 0 <= x_2_10_0 <= 1
 0 <= x_2_10_1 <= 1
 0 <= x_2_10_2 <= 1
 0 <= x_2_10_3 <= 1
 0 <= x_2_10_4 <= 1
 0 <= x_2_10_5 <= 1
 0 <= x_2_10_6 <= 1
 0 <= x_2_10_7 <= 1
 0 <= x_2_10_8 <= 1
 0 <= x_2_10_9 <= 1
 0 <= x_2_1_0 <= 1
 0 <= x_2_1_10 <= 1
 0 <= x_2_1_2 <= 1
 0 <= x_2_1_3 <= 1
 0 <= x_2_1_4 <= 1
 0 <= x_2_1_5 <= 1
 0 <= x_2_1_6 <= 1
 0 <= x_2_1_7 <= 1
 0 <= x_2_1_8 <= 1
 0 <= x_2_1_9 <= 1
 0 <= x_2_2_0 <= 1
 0 <= x_2_2_1 <= 1
 0 <= x_2_2_10 <= 1
 0 <= x_2_2_3 <= 1
 0 <= x_2_2_4 <= 1
 0 <= x_2_2_5 <= 1
 0 <= x_2_2_6 <= 1
 0 <= x_2_2_7 <= 1
 0 <= x_2_2_8 <= 1
 0 <= x_2_2_9 <= 1
 0 <= x_2_3_0 <= 1
 0 <= x_2_3_1 <= 1
 0 <= x_2_3_10 <= 1
 0 <= x_2_3_2 <= 1
 0 <= x_2_3_4 <= 1
 0 <= x_2_3_5 <= 1
 0 <= x_2_3_6 <= 1
 0 <= x_2_3_7 <= 1
 0 <= x_2_3_8 <= 1
 0 <= x_2_3_9 <= 1
 0 <= x_2_4_0 <= 1
 0 <= x_2_4_1 <= 1
 0 <= x_2_4_10 <= 1
 0 <= x_2_4_2 <= 1
 0 <= x_2_4_3 <= 1
 0 <= x_2_4_5 <= 1
 0 <= x_2_4_6 <= 1
 0 <= x_2_4_7 <= 1
 0 <= x_2_4_8 <= 1
 0 <= x_2_4_9 <= 1
 0 <= x_2_5_0 <= 1
 0 <= x_2_5_1 <= 1
 0 <= x_2_5_10 <= 1
 0 <= x_2_5_2 <= 1
 0 <= x_2_5_3 <= 1
 0 <= x_2_5_4 <= 1
 0 <= x_2_5_6 <= 1
 0 <= x_2_5_7 <= 1
 0 <= x_2_5_8 <= 1
 0 <= x_2_5_9 <= 1
 0 <= x_2_6_0 <= 1
 0 <= x_2_6_1 <= 1
 0 <= x_2_6_10 <= 1
 0 <= x_2_6_2 <= 1
 0 <= x_2_6_3 <= 1
 0 <= x_2_6_4 <= 1
 0 <= x_2_6_5 <= 1
 0 <= x_2_6_7 <= 1
 0 <= x_2_6_8 <= 1
 0 <= x_2_6_9 <= 1
 0 <= x_2_7_0 <= 1
 0 <= x_2_7_1 <= 1
 0 <= x_2_7_10 <= 1
 0 <= x_2_7_2 <= 1
 0 <= x_2_7_3 <= 1
 0 <= x_2_7_4 <= 1
 0 <= x_2_7_5 <= 1
 0 <= x_2_7_6 <= 1
 0 <= x_2_7_8 <= 1
 0 <= x_2_7_9 <= 1
 0 <= x_2_8_0 <= 1
 0 <= x_2_8_1 <= 1
 0 <= x_2_8_10 <= 1
 0 <= x_2_8_2 <= 1
 0 <= x_2_8_3 <= 1
 0 <= x_2_8_4 <= 1
 0 <= x_2_8_5 <= 1
 0 <= x_2_8_6 <= 1
 0 <= x_2_8_7 <= 1
 0 <= x_2_8_9 <= 1
 0 <= x_2_9_0 <= 1
 0 <= x_2_9_1 <= 1
 0 <= x_2_9_10 <= 1
 0 <= x_2_9_2 <= 1
 0 <= x_2_9_3 <= 1
 0 <= x_2_9_4 <= 1
 0 <= x_2_9_5 <= 1
 0 <= x_2_9_6 <= 1
 0 <= x_2_9_7 <= 1
 0 <= x_2_9_8 <= 1
 0 <= z_0_1 <= 1
 0 <= z_0_10 <= 1
 0 <= z_0_2 <= 1
 0 <= z_0_3 <= 1
 0 <= z_0_4 <= 1
 0 <= z_0_5 <= 1
 0 <= z_0_6 <= 1
 0 <= z_0_7 <= 1
 0 <= z_0_8 <= 1
 0 <= z_0_9 <= 1
 0 <= z_1_1 <= 1
 0 <= z_1_10 <= 1
 0 <= z_1_2 <= 1
 0 <= z_1_3 <= 1
 0 <= z_1_4 <= 1
 0 <= z_1_5 <= 1
 0 <= z_1_6 <= 1
 0 <= z_1_7 <= 1
 0 <= z_1_8 <= 1
 0 <= z_1_9 <= 1
 0 <= z_2_1 <= 1
 0 <= z_2_10 <= 1
 0 <= z_2_2 <= 1
 0 <= z_2_3 <= 1
 0 <= z_2_4 <= 1
 0 <= z_2_5 <= 1
 0 <= z_2_6 <= 1
 0 <= z_2_7 <= 1
 0 <= z_2_8 <= 1
 0 <= z_2_9 <= 1
 0 <= zprod_1 <= 29
 0 <= zprod_10 <= 32
 0 <= zprod_2 <= 26
 0 <= zprod_3 <= 30
 0 <= zprod_4 <= 50
 0 <= zprod_5 <= 45
 0 <= zprod_6 <= 23
 0 <= zprod_7 <= 22
 0 <= zprod_8 <= 22
 0 <= zprod_9 <= 33
Generals
 Y_1
 Y_10
 Y_2
 Y_3
 Y_4
 Y_5
 Y_6
 Y_7
 Y_8
 Y_9
 d_0_1
 d_0_10
 d_0_2
 d_0_3
 d_0_4
 d_0_5
 d_0_6
 d_0_7
 d_0_8
 d_0_9
 d_1_1
 d_1_10
 d_1_2
 d_1_3
 d_1_4
 d_1_5
 d_1_6
 d_1_7
 d_1_8
 d_1_9
 d_2_1
 d_2_10
 d_2_2
 d_2_3
 d_2_4
 d_2_5
 d_2_6
 d_2_7
 d_2_8
 d_2_9
 load_0_1
 load_0_10
 load_0_2
 load_0_3
 load_0_4
 load_0_5
 load_0_6
 load_0_7
 load_0_8
 load_0_9
 load_1_1
 load_1_10
 load_1_2
 load_1_3
 load_1_4
 load_1_5
 load_1_6
 load_1_7
 load_1_8
 load_1_9
 load_2_1
 load_2_10
 load_2_2
 load_2_3
 load_2_4
 load_2_5
 load_2_6
 load_2_7
 load_2_8
 load_2_9
 p_0_1
 p_0_10
 p_0_2
 p_0_3
 p_0_4
 p_0_5
 p_0_6
 p_0_7
 p_0_8
 p_0_9
 p_1_1
 p_1_10
 p_1_2
 p_1_3
 p_1_4
 p_1_5
 p_1_6
 p_1_7
 p_1_8
 p_1_9
 p_2_1
 p_2_10
 p_2_2
 p_2_3
 p_2_4
 p_2_5
 p_2_6
 p_2_7
 p_2_8
 p_2_9
Binaries
 bit_10_0
 bit_10_1
 bit_10_2
 bit_10_3
 bit_10_4
 bit_10_5
 bit_1_0
 bit_1_1
 bit_1_2
 bit_1_3
 bit_1_4
 bit_2_0
 bit_2_1
 bit_2_2
 bit_2_3
 bit_2_4
 bit_3_0
 bit_3_1
 bit_3_2
 bit_3_3
 bit_3_4
 bit_4_0
 bit_4_1
 bit_4_2
 bit_4_3
 bit_4_4
 bit_4_5
 bit_5_0
 bit_5_1
 bit_5_2
 bit_5_3
 bit_5_4
 bit_5_5
 bit_6_0
 bit_6_1
 bit_6_2
 bit_6_3
 bit_6_4
 bit_7_0
 bit_7_1
 bit_7_2
 bit_7_3
 bit_7_4
 bit_8_0
 bit_8_1
 bit_8_2
 bit_8_3
 bit_8_4
 bit_9_0
 bit_9_1
 bit_9_2
 bit_9_3
 bit_9_4
 bit_9_5
 mode_0_1
 mode_0_10
 mode_0_2
 mode_0_3
 mode_0_4
 mode_0_5
 mode_0_6
 mode_0_7
 mode_0_8
 mode_0_9
 mode_1_1
 mode_1_10
 mode_1_2
 mode_1_3
 mode_1_4
 mode_1_5
 mode_1_6
 mode_1_7
 mode_1_8
 mode_1_9
 mode_2_1
 mode_2_10
 mode_2_2
 mode_2_3
 mode_2_4
 mode_2_5
 mode_2_6
 mode_2_7
 mode_2_8
 mode_2_9
 x_0_0_1
 x_0_0_10
 x_0_0_2
 x_0_0_3
 x_0_0_4
 x_0_0_5
 x_0_0_6
 x_0_0_7
 x_0_0_8
 x_0_0_9
 x_0_10_0
 x_0_10_1
 x_0_10_2
 x_0_10_3
 x_0_10_4
 x_0_10_5
 x_0_10_6
 x_0_10_7
 x_0_10_8
 x_0_10_9
 x_0_1_0
 x_0_1_10
 x_0_1_2
 x_0_1_3
 x_0_1_4
 x_0_1_5
 x_0_1_6
 x_0_1_7
 x_0_1_8
 x_0_1_9
 x_0_2_0
 x_0_2_1
 x_0_2_10
 x_0_2_3
 x_0_2_4
 x_0_2_5
 x_0_2_6
 x_0_2_7
 x_0_2_8
 x_0_2_9
 x_0_3_0
 x_0_3_1
 x_0_3_10
 x_0_3_2
 x_0_3_4
 x_0_3_5
 x_0_3_6
 x_0_3_7
 x_0_3_8
 x_0_3_9
 x_0_4_0
 x_0_4_1
 x_0_4_10
 x_0_4_2
 x_0_4_3
 x_0_4_5
 x_0_4_6
 x_0_4_7
 x_0_4_8
 x_0_4_9
 x_0_5_0
 x_0_5_1
 x_0_5_10
 x_0_5_2
 x_0_5_3
 x_0_5_4
 x_0_5_6
 x_0_5_7
 x_0_5_8
 x_0_5_9
 x_0_6_0
 x_0_6_1
 x_0_6_10
 x_0_6_2
 x_0_6_3
 x_0_6_4
 x_0_6_5
 x_0_6_7
 x_0_6_8
 x_0_6_9
 x_0_7_0
 x_0_7_1
 x_0_7_10
 x_0_7_2
 x_0_7_3
 x_0_7_4
 x_0_7_5
 x_0_7_6
 x_0_7_8
 x_0_7_9
 x_0_8_0
 x_0_8_1
 x_0_8_10
 x_0_8_2
 x_0_8_3
 x_0_8_4
 x_0_8_5
 x_0_8_6
 x_0_8_7
 x_0_8_9
 x_0_9_0
 x_0_9_1
 x_0_9_10
 x_0_9_2
 x_0_9_3
 x_0_9_4
 x_0_9_5
 x_0_9_6
 x_0_9_7
 x_0_9_8
 x_1_0_1
 x_1_0_10
 x_1_0_2
 x_1_0_3
 x_1_0_4
 x_1_0_5
 x_1_0_6
 x_1_0_7
 x_1_0_8
 x_1_0_9
 x_1_10_0
 x_1_10_1
 x_1_10_2
 x_1_10_3
 x_1_10_4
 x_1_10_5
 x_1_10_6
 x_1_10_7
 x_1_10_8
 x_1_10_9
 x_1_1_0
 x_1_1_10
 x_1_1_2
 x_1_1_3
 x_1_1_4
 x_1_1_5
 x_1_1_6
 x_1_1_7
 x_1_1_8
 x_1_1_9
 x_1_2_0
 x_1_2_1
 x_1_2_10
 x_1_2_3
 x_1_2_4
 x_1_2_5
 x_1_2_6
 x_1_2_7
 x_1_2_8
 x_1_2_9
 x_1_3_0
 x_1_3_1
 x_1_3_10
 x_1_3_2
 x_1_3_4
 x_1_3_5
 x_1_3_6
 x_1_3_7
 x_1_3_8
 x_1_3_9
 x_1_4_0
 x_1_4_1
 x_1_4_10
 x_1_4_2
 x_1_4_3
 x_1_4_5
 x_1_4_6
 x_1_4_7
 x_1_4_8
 x_1_4_9
 x_1_5_0
 x_1_5_1
 x_1_5_10
 x_1_5_2
 x_1_5_3
 x_1_5_4
 x_1_5_6
 x_1_5_7
 x_1_5_8
 x_1_5_9
 x_1_6_0
 x_1_6_1
 x_1_6_10
 x_1_6_2
 x_1_6_3
 x_1_6_4
 x_1_6_5
 x_1_6_7
 x_1_6_8
 x_1_6_9
 x_1_7_0
 x_1_7_1
 x_1_7_10
 x_1_7_2
 x_1_7_3
 x_1_7_4
 x_1_7_5
 x_1_7_6
 x_1_7_8
 x_1_7_9
 x_1_8_0
 x_1_8_1
 x_1_8_10
 x_1_8_2
 x_1_8_3
 x_1_8_4
 x_1_8_5
 x_1_8_6
 x_1_8_7
 x_1_8_9
 x_1_9_0
 x_1_9_1
 x_1_9_10
 x_1_9_2
 x_1_9_3
 x_1_9_4
 x_1_9_5
 x_1_9_6
 x_1_9_7
 x_1_9_8
 x_2_0_1
 x_2_0_10
 x_2_0_2
 x_2_0_3
 x_2_0_4
 x_2_0_5
 x_2_0_6
 x_2_0_7
 x_2_0_8
 x_2_0_9
 x_2_10_0
 x_2_10_1
 x_2_10_2
 x_2_10_3
 x_2_10_4
 x_2_10_5
 x_2_10_6
 x_2_10_7
 x_2_10_8
 x_2_10_9
 x_2_1_0
 x_2_1_10
 x_2_1_2
 x_2_1_3
 x_2_1_4
 x_2_1_5
 x_2_1_6
 x_2_1_7
 x_2_1_8
 x_2_1_9
 x_2_2_0
 x_2_2_1
 x_2_2_10
 x_2_2_3
 x_2_2_4
 x_2_2_5
 x_2_2_6
 x_2_2_7
 x_2_2_8
 x_2_2_9
 x_2_3_0
 x_2_3_1
 x_2_3_10
 x_2_3_2
 x_2_3_4
 x_2_3_5
 x_2_3_6
 x_2_3_7
 x_2_3_8
 x_2_3_9
 x_2_4_0
 x_2_4_1
 x_2_4_10
 x_2_4_2
 x_2_4_3
 x_2_4_5
 x_2_4_6
 x_2_4_7
 x_2_4_8
 x_2_4_9
 x_2_5_0
 x_2_5_1
 x_2_5_10
 x_2_5_2
 x_2_5_3
 x_2_5_4
 x_2_5_6
 x_2_5_7
 x_2_5_8
 x_2_5_9
 x_2_6_0
 x_2_6_1
 x_2_6_10
 x_2_6_2
 x_2_6_3
 x_2_6_4
 x_2_6_5
 x_2_6_7
 x_2_6_8
 x_2_6_9
 x_2_7_0
 x_2_7_1
 x_2_7_10
 x_2_7_2
 x_2_7_3
 x_2_7_4
 x_2_7_5
 x_2_7_6
 x_2_7_8
 x_2_7_9
 x_2_8_0
 x_2_8_1
 x_2_8_10
 x_2_8_2
 x_2_8_3
 x_2_8_4
 x_2_8_5
 x_2_8_6
 x_2_8_7
 x_2_8_9
 x_2_9_0
 x_2_9_1
 x_2_9_10
 x_2_9_2
 x_2_9_3
 x_2_9_4
 x_2_9_5
 x_2_9_6
 x_2_9_7
 x_2_9_8
 z_0_1
 z_0_10
 z_0_2
 z_0_3
 z_0_4
 z_0_5
 z_0_6
 z_0_7
 z_0_8
 z_0_9
 z_1_1
 z_1_10
 z_1_2
 z_1_3
 z_1_4
 z_1_5
 z_1_6
 z_1_7
 z_1_8
 z_1_9
 z_2_1
 z_2_10
 z_2_2
 z_2_3
 z_2_4
 z_2_5
 z_2_6
 z_2_7
 z_2_8
 z_2_9
End
