\ ExactEBRP compact MILP generated from C++ command-line runner
Minimize
 obj: G + 0.066666599999999993 e_1 + 0.053999999999999999 e_2 + 0.096000000000000002 e_3 + 0.080666699999999994 e_4 + 0.096000000000000002 e_5 + 0.096000000000000002 e_6 + 0.080666699999999994 e_7 + 0.080666699999999994 e_8 + 0.066666599999999993 e_9 + 0.14999999999999999 e_10 + 0.066666599999999993 e_11 + 0.13066665 e_12 + 0.053999999999999999 e_13 + 0.096000000000000002 e_14 + 0.042666599999999992 e_15 + 0.080666699999999994 e_16 + 0.080666699999999994 e_17 + 0.080666699999999994 e_18 + 0.080666699999999994 e_19 + 0.080666699999999994 e_20
Subject To
 c1: x_0_0_1 + x_0_0_10 + x_0_0_11 + x_0_0_12 + x_0_0_13 + x_0_0_14 + x_0_0_15 + x_0_0_16 + x_0_0_17 + x_0_0_18 + x_0_0_19 + x_0_0_2 + x_0_0_20 + x_0_0_3 + x_0_0_4 + x_0_0_5 + x_0_0_6 + x_0_0_7 + x_0_0_8 + x_0_0_9 - x_0_10_0 - x_0_11_0 - x_0_12_0 - x_0_13_0 - x_0_14_0 - x_0_15_0 - x_0_16_0 - x_0_17_0 - x_0_18_0 - x_0_19_0 - x_0_1_0 - x_0_20_0 - x_0_2_0 - x_0_3_0 - x_0_4_0 - x_0_5_0 - x_0_6_0 - x_0_7_0 - x_0_8_0 - x_0_9_0 = 0
 c2: x_0_0_1 + x_0_0_10 + x_0_0_11 + x_0_0_12 + x_0_0_13 + x_0_0_14 + x_0_0_15 + x_0_0_16 + x_0_0_17 + x_0_0_18 + x_0_0_19 + x_0_0_2 + x_0_0_20 + x_0_0_3 + x_0_0_4 + x_0_0_5 + x_0_0_6 + x_0_0_7 + x_0_0_8 + x_0_0_9 <= 1
 c3: x_0_0_1 + x_0_10_1 + x_0_11_1 + x_0_12_1 + x_0_13_1 + x_0_14_1 + x_0_15_1 + x_0_16_1 + x_0_17_1 + x_0_18_1 + x_0_19_1 + x_0_20_1 + x_0_2_1 + x_0_3_1 + x_0_4_1 + x_0_5_1 + x_0_6_1 + x_0_7_1 + x_0_8_1 + x_0_9_1 - z_0_1 = 0
 c4: x_0_1_0 + x_0_1_10 + x_0_1_11 + x_0_1_12 + x_0_1_13 + x_0_1_14 + x_0_1_15 + x_0_1_16 + x_0_1_17 + x_0_1_18 + x_0_1_19 + x_0_1_2 + x_0_1_20 + x_0_1_3 + x_0_1_4 + x_0_1_5 + x_0_1_6 + x_0_1_7 + x_0_1_8 + x_0_1_9 - z_0_1 = 0
 c5: x_0_0_2 + x_0_10_2 + x_0_11_2 + x_0_12_2 + x_0_13_2 + x_0_14_2 + x_0_15_2 + x_0_16_2 + x_0_17_2 + x_0_18_2 + x_0_19_2 + x_0_1_2 + x_0_20_2 + x_0_3_2 + x_0_4_2 + x_0_5_2 + x_0_6_2 + x_0_7_2 + x_0_8_2 + x_0_9_2 - z_0_2 = 0
 c6: x_0_2_0 + x_0_2_1 + x_0_2_10 + x_0_2_11 + x_0_2_12 + x_0_2_13 + x_0_2_14 + x_0_2_15 + x_0_2_16 + x_0_2_17 + x_0_2_18 + x_0_2_19 + x_0_2_20 + x_0_2_3 + x_0_2_4 + x_0_2_5 + x_0_2_6 + x_0_2_7 + x_0_2_8 + x_0_2_9 - z_0_2 = 0
 c7: x_0_0_3 + x_0_10_3 + x_0_11_3 + x_0_12_3 + x_0_13_3 + x_0_14_3 + x_0_15_3 + x_0_16_3 + x_0_17_3 + x_0_18_3 + x_0_19_3 + x_0_1_3 + x_0_20_3 + x_0_2_3 + x_0_4_3 + x_0_5_3 + x_0_6_3 + x_0_7_3 + x_0_8_3 + x_0_9_3 - z_0_3 = 0
 c8: x_0_3_0 + x_0_3_1 + x_0_3_10 + x_0_3_11 + x_0_3_12 + x_0_3_13 + x_0_3_14 + x_0_3_15 + x_0_3_16 + x_0_3_17 + x_0_3_18 + x_0_3_19 + x_0_3_2 + x_0_3_20 + x_0_3_4 + x_0_3_5 + x_0_3_6 + x_0_3_7 + x_0_3_8 + x_0_3_9 - z_0_3 = 0
 c9: x_0_0_4 + x_0_10_4 + x_0_11_4 + x_0_12_4 + x_0_13_4 + x_0_14_4 + x_0_15_4 + x_0_16_4 + x_0_17_4 + x_0_18_4 + x_0_19_4 + x_0_1_4 + x_0_20_4 + x_0_2_4 + x_0_3_4 + x_0_5_4 + x_0_6_4 + x_0_7_4 + x_0_8_4 + x_0_9_4 - z_0_4 = 0
 c10: x_0_4_0 + x_0_4_1 + x_0_4_10 + x_0_4_11 + x_0_4_12 + x_0_4_13 + x_0_4_14 + x_0_4_15 + x_0_4_16 + x_0_4_17 + x_0_4_18 + x_0_4_19 + x_0_4_2 + x_0_4_20 + x_0_4_3 + x_0_4_5 + x_0_4_6 + x_0_4_7 + x_0_4_8 + x_0_4_9 - z_0_4 = 0
 c11: x_0_0_5 + x_0_10_5 + x_0_11_5 + x_0_12_5 + x_0_13_5 + x_0_14_5 + x_0_15_5 + x_0_16_5 + x_0_17_5 + x_0_18_5 + x_0_19_5 + x_0_1_5 + x_0_20_5 + x_0_2_5 + x_0_3_5 + x_0_4_5 + x_0_6_5 + x_0_7_5 + x_0_8_5 + x_0_9_5 - z_0_5 = 0
 c12: x_0_5_0 + x_0_5_1 + x_0_5_10 + x_0_5_11 + x_0_5_12 + x_0_5_13 + x_0_5_14 + x_0_5_15 + x_0_5_16 + x_0_5_17 + x_0_5_18 + x_0_5_19 + x_0_5_2 + x_0_5_20 + x_0_5_3 + x_0_5_4 + x_0_5_6 + x_0_5_7 + x_0_5_8 + x_0_5_9 - z_0_5 = 0
 c13: x_0_0_6 + x_0_10_6 + x_0_11_6 + x_0_12_6 + x_0_13_6 + x_0_14_6 + x_0_15_6 + x_0_16_6 + x_0_17_6 + x_0_18_6 + x_0_19_6 + x_0_1_6 + x_0_20_6 + x_0_2_6 + x_0_3_6 + x_0_4_6 + x_0_5_6 + x_0_7_6 + x_0_8_6 + x_0_9_6 - z_0_6 = 0
 c14: x_0_6_0 + x_0_6_1 + x_0_6_10 + x_0_6_11 + x_0_6_12 + x_0_6_13 + x_0_6_14 + x_0_6_15 + x_0_6_16 + x_0_6_17 + x_0_6_18 + x_0_6_19 + x_0_6_2 + x_0_6_20 + x_0_6_3 + x_0_6_4 + x_0_6_5 + x_0_6_7 + x_0_6_8 + x_0_6_9 - z_0_6 = 0
 c15: x_0_0_7 + x_0_10_7 + x_0_11_7 + x_0_12_7 + x_0_13_7 + x_0_14_7 + x_0_15_7 + x_0_16_7 + x_0_17_7 + x_0_18_7 + x_0_19_7 + x_0_1_7 + x_0_20_7 + x_0_2_7 + x_0_3_7 + x_0_4_7 + x_0_5_7 + x_0_6_7 + x_0_8_7 + x_0_9_7 - z_0_7 = 0
 c16: x_0_7_0 + x_0_7_1 + x_0_7_10 + x_0_7_11 + x_0_7_12 + x_0_7_13 + x_0_7_14 + x_0_7_15 + x_0_7_16 + x_0_7_17 + x_0_7_18 + x_0_7_19 + x_0_7_2 + x_0_7_20 + x_0_7_3 + x_0_7_4 + x_0_7_5 + x_0_7_6 + x_0_7_8 + x_0_7_9 - z_0_7 = 0
 c17: x_0_0_8 + x_0_10_8 + x_0_11_8 + x_0_12_8 + x_0_13_8 + x_0_14_8 + x_0_15_8 + x_0_16_8 + x_0_17_8 + x_0_18_8 + x_0_19_8 + x_0_1_8 + x_0_20_8 + x_0_2_8 + x_0_3_8 + x_0_4_8 + x_0_5_8 + x_0_6_8 + x_0_7_8 + x_0_9_8 - z_0_8 = 0
 c18: x_0_8_0 + x_0_8_1 + x_0_8_10 + x_0_8_11 + x_0_8_12 + x_0_8_13 + x_0_8_14 + x_0_8_15 + x_0_8_16 + x_0_8_17 + x_0_8_18 + x_0_8_19 + x_0_8_2 + x_0_8_20 + x_0_8_3 + x_0_8_4 + x_0_8_5 + x_0_8_6 + x_0_8_7 + x_0_8_9 - z_0_8 = 0
 c19: x_0_0_9 + x_0_10_9 + x_0_11_9 + x_0_12_9 + x_0_13_9 + x_0_14_9 + x_0_15_9 + x_0_16_9 + x_0_17_9 + x_0_18_9 + x_0_19_9 + x_0_1_9 + x_0_20_9 + x_0_2_9 + x_0_3_9 + x_0_4_9 + x_0_5_9 + x_0_6_9 + x_0_7_9 + x_0_8_9 - z_0_9 = 0
 c20: x_0_9_0 + x_0_9_1 + x_0_9_10 + x_0_9_11 + x_0_9_12 + x_0_9_13 + x_0_9_14 + x_0_9_15 + x_0_9_16 + x_0_9_17 + x_0_9_18 + x_0_9_19 + x_0_9_2 + x_0_9_20 + x_0_9_3 + x_0_9_4 + x_0_9_5 + x_0_9_6 + x_0_9_7 + x_0_9_8 - z_0_9 = 0
 c21: x_0_0_10 + x_0_11_10 + x_0_12_10 + x_0_13_10 + x_0_14_10 + x_0_15_10 + x_0_16_10 + x_0_17_10 + x_0_18_10 + x_0_19_10 + x_0_1_10 + x_0_20_10 + x_0_2_10 + x_0_3_10 + x_0_4_10 + x_0_5_10 + x_0_6_10 + x_0_7_10 + x_0_8_10 + x_0_9_10 - z_0_10 = 0
 c22: x_0_10_0 + x_0_10_1 + x_0_10_11 + x_0_10_12 + x_0_10_13 + x_0_10_14 + x_0_10_15 + x_0_10_16 + x_0_10_17 + x_0_10_18 + x_0_10_19 + x_0_10_2 + x_0_10_20 + x_0_10_3 + x_0_10_4 + x_0_10_5 + x_0_10_6 + x_0_10_7 + x_0_10_8 + x_0_10_9 - z_0_10 = 0
 c23: x_0_0_11 + x_0_10_11 + x_0_12_11 + x_0_13_11 + x_0_14_11 + x_0_15_11 + x_0_16_11 + x_0_17_11 + x_0_18_11 + x_0_19_11 + x_0_1_11 + x_0_20_11 + x_0_2_11 + x_0_3_11 + x_0_4_11 + x_0_5_11 + x_0_6_11 + x_0_7_11 + x_0_8_11 + x_0_9_11 - z_0_11 = 0
 c24: x_0_11_0 + x_0_11_1 + x_0_11_10 + x_0_11_12 + x_0_11_13 + x_0_11_14 + x_0_11_15 + x_0_11_16 + x_0_11_17 + x_0_11_18 + x_0_11_19 + x_0_11_2 + x_0_11_20 + x_0_11_3 + x_0_11_4 + x_0_11_5 + x_0_11_6 + x_0_11_7 + x_0_11_8 + x_0_11_9 - z_0_11 = 0
 c25: x_0_0_12 + x_0_10_12 + x_0_11_12 + x_0_13_12 + x_0_14_12 + x_0_15_12 + x_0_16_12 + x_0_17_12 + x_0_18_12 + x_0_19_12 + x_0_1_12 + x_0_20_12 + x_0_2_12 + x_0_3_12 + x_0_4_12 + x_0_5_12 + x_0_6_12 + x_0_7_12 + x_0_8_12 + x_0_9_12 - z_0_12 = 0
 c26: x_0_12_0 + x_0_12_1 + x_0_12_10 + x_0_12_11 + x_0_12_13 + x_0_12_14 + x_0_12_15 + x_0_12_16 + x_0_12_17 + x_0_12_18 + x_0_12_19 + x_0_12_2 + x_0_12_20 + x_0_12_3 + x_0_12_4 + x_0_12_5 + x_0_12_6 + x_0_12_7 + x_0_12_8 + x_0_12_9 - z_0_12 = 0
 c27: x_0_0_13 + x_0_10_13 + x_0_11_13 + x_0_12_13 + x_0_14_13 + x_0_15_13 + x_0_16_13 + x_0_17_13 + x_0_18_13 + x_0_19_13 + x_0_1_13 + x_0_20_13 + x_0_2_13 + x_0_3_13 + x_0_4_13 + x_0_5_13 + x_0_6_13 + x_0_7_13 + x_0_8_13 + x_0_9_13 - z_0_13 = 0
 c28: x_0_13_0 + x_0_13_1 + x_0_13_10 + x_0_13_11 + x_0_13_12 + x_0_13_14 + x_0_13_15 + x_0_13_16 + x_0_13_17 + x_0_13_18 + x_0_13_19 + x_0_13_2 + x_0_13_20 + x_0_13_3 + x_0_13_4 + x_0_13_5 + x_0_13_6 + x_0_13_7 + x_0_13_8 + x_0_13_9 - z_0_13 = 0
 c29: x_0_0_14 + x_0_10_14 + x_0_11_14 + x_0_12_14 + x_0_13_14 + x_0_15_14 + x_0_16_14 + x_0_17_14 + x_0_18_14 + x_0_19_14 + x_0_1_14 + x_0_20_14 + x_0_2_14 + x_0_3_14 + x_0_4_14 + x_0_5_14 + x_0_6_14 + x_0_7_14 + x_0_8_14 + x_0_9_14 - z_0_14 = 0
 c30: x_0_14_0 + x_0_14_1 + x_0_14_10 + x_0_14_11 + x_0_14_12 + x_0_14_13 + x_0_14_15 + x_0_14_16 + x_0_14_17 + x_0_14_18 + x_0_14_19 + x_0_14_2 + x_0_14_20 + x_0_14_3 + x_0_14_4 + x_0_14_5 + x_0_14_6 + x_0_14_7 + x_0_14_8 + x_0_14_9 - z_0_14 = 0
 c31: x_0_0_15 + x_0_10_15 + x_0_11_15 + x_0_12_15 + x_0_13_15 + x_0_14_15 + x_0_16_15 + x_0_17_15 + x_0_18_15 + x_0_19_15 + x_0_1_15 + x_0_20_15 + x_0_2_15 + x_0_3_15 + x_0_4_15 + x_0_5_15 + x_0_6_15 + x_0_7_15 + x_0_8_15 + x_0_9_15 - z_0_15 = 0
 c32: x_0_15_0 + x_0_15_1 + x_0_15_10 + x_0_15_11 + x_0_15_12 + x_0_15_13 + x_0_15_14 + x_0_15_16 + x_0_15_17 + x_0_15_18 + x_0_15_19 + x_0_15_2 + x_0_15_20 + x_0_15_3 + x_0_15_4 + x_0_15_5 + x_0_15_6 + x_0_15_7 + x_0_15_8 + x_0_15_9 - z_0_15 = 0
 c33: x_0_0_16 + x_0_10_16 + x_0_11_16 + x_0_12_16 + x_0_13_16 + x_0_14_16 + x_0_15_16 + x_0_17_16 + x_0_18_16 + x_0_19_16 + x_0_1_16 + x_0_20_16 + x_0_2_16 + x_0_3_16 + x_0_4_16 + x_0_5_16 + x_0_6_16 + x_0_7_16 + x_0_8_16 + x_0_9_16 - z_0_16 = 0
 c34: x_0_16_0 + x_0_16_1 + x_0_16_10 + x_0_16_11 + x_0_16_12 + x_0_16_13 + x_0_16_14 + x_0_16_15 + x_0_16_17 + x_0_16_18 + x_0_16_19 + x_0_16_2 + x_0_16_20 + x_0_16_3 + x_0_16_4 + x_0_16_5 + x_0_16_6 + x_0_16_7 + x_0_16_8 + x_0_16_9 - z_0_16 = 0
 c35: x_0_0_17 + x_0_10_17 + x_0_11_17 + x_0_12_17 + x_0_13_17 + x_0_14_17 + x_0_15_17 + x_0_16_17 + x_0_18_17 + x_0_19_17 + x_0_1_17 + x_0_20_17 + x_0_2_17 + x_0_3_17 + x_0_4_17 + x_0_5_17 + x_0_6_17 + x_0_7_17 + x_0_8_17 + x_0_9_17 - z_0_17 = 0
 c36: x_0_17_0 + x_0_17_1 + x_0_17_10 + x_0_17_11 + x_0_17_12 + x_0_17_13 + x_0_17_14 + x_0_17_15 + x_0_17_16 + x_0_17_18 + x_0_17_19 + x_0_17_2 + x_0_17_20 + x_0_17_3 + x_0_17_4 + x_0_17_5 + x_0_17_6 + x_0_17_7 + x_0_17_8 + x_0_17_9 - z_0_17 = 0
 c37: x_0_0_18 + x_0_10_18 + x_0_11_18 + x_0_12_18 + x_0_13_18 + x_0_14_18 + x_0_15_18 + x_0_16_18 + x_0_17_18 + x_0_19_18 + x_0_1_18 + x_0_20_18 + x_0_2_18 + x_0_3_18 + x_0_4_18 + x_0_5_18 + x_0_6_18 + x_0_7_18 + x_0_8_18 + x_0_9_18 - z_0_18 = 0
 c38: x_0_18_0 + x_0_18_1 + x_0_18_10 + x_0_18_11 + x_0_18_12 + x_0_18_13 + x_0_18_14 + x_0_18_15 + x_0_18_16 + x_0_18_17 + x_0_18_19 + x_0_18_2 + x_0_18_20 + x_0_18_3 + x_0_18_4 + x_0_18_5 + x_0_18_6 + x_0_18_7 + x_0_18_8 + x_0_18_9 - z_0_18 = 0
 c39: x_0_0_19 + x_0_10_19 + x_0_11_19 + x_0_12_19 + x_0_13_19 + x_0_14_19 + x_0_15_19 + x_0_16_19 + x_0_17_19 + x_0_18_19 + x_0_1_19 + x_0_20_19 + x_0_2_19 + x_0_3_19 + x_0_4_19 + x_0_5_19 + x_0_6_19 + x_0_7_19 + x_0_8_19 + x_0_9_19 - z_0_19 = 0
 c40: x_0_19_0 + x_0_19_1 + x_0_19_10 + x_0_19_11 + x_0_19_12 + x_0_19_13 + x_0_19_14 + x_0_19_15 + x_0_19_16 + x_0_19_17 + x_0_19_18 + x_0_19_2 + x_0_19_20 + x_0_19_3 + x_0_19_4 + x_0_19_5 + x_0_19_6 + x_0_19_7 + x_0_19_8 + x_0_19_9 - z_0_19 = 0
 c41: x_0_0_20 + x_0_10_20 + x_0_11_20 + x_0_12_20 + x_0_13_20 + x_0_14_20 + x_0_15_20 + x_0_16_20 + x_0_17_20 + x_0_18_20 + x_0_19_20 + x_0_1_20 + x_0_2_20 + x_0_3_20 + x_0_4_20 + x_0_5_20 + x_0_6_20 + x_0_7_20 + x_0_8_20 + x_0_9_20 - z_0_20 = 0
 c42: x_0_20_0 + x_0_20_1 + x_0_20_10 + x_0_20_11 + x_0_20_12 + x_0_20_13 + x_0_20_14 + x_0_20_15 + x_0_20_16 + x_0_20_17 + x_0_20_18 + x_0_20_19 + x_0_20_2 + x_0_20_3 + x_0_20_4 + x_0_20_5 + x_0_20_6 + x_0_20_7 + x_0_20_8 + x_0_20_9 - z_0_20 = 0
 c43: x_1_0_1 + x_1_0_10 + x_1_0_11 + x_1_0_12 + x_1_0_13 + x_1_0_14 + x_1_0_15 + x_1_0_16 + x_1_0_17 + x_1_0_18 + x_1_0_19 + x_1_0_2 + x_1_0_20 + x_1_0_3 + x_1_0_4 + x_1_0_5 + x_1_0_6 + x_1_0_7 + x_1_0_8 + x_1_0_9 - x_1_10_0 - x_1_11_0 - x_1_12_0 - x_1_13_0 - x_1_14_0 - x_1_15_0 - x_1_16_0 - x_1_17_0 - x_1_18_0 - x_1_19_0 - x_1_1_0 - x_1_20_0 - x_1_2_0 - x_1_3_0 - x_1_4_0 - x_1_5_0 - x_1_6_0 - x_1_7_0 - x_1_8_0 - x_1_9_0 = 0
 c44: x_1_0_1 + x_1_0_10 + x_1_0_11 + x_1_0_12 + x_1_0_13 + x_1_0_14 + x_1_0_15 + x_1_0_16 + x_1_0_17 + x_1_0_18 + x_1_0_19 + x_1_0_2 + x_1_0_20 + x_1_0_3 + x_1_0_4 + x_1_0_5 + x_1_0_6 + x_1_0_7 + x_1_0_8 + x_1_0_9 <= 1
 c45: x_1_0_1 + x_1_10_1 + x_1_11_1 + x_1_12_1 + x_1_13_1 + x_1_14_1 + x_1_15_1 + x_1_16_1 + x_1_17_1 + x_1_18_1 + x_1_19_1 + x_1_20_1 + x_1_2_1 + x_1_3_1 + x_1_4_1 + x_1_5_1 + x_1_6_1 + x_1_7_1 + x_1_8_1 + x_1_9_1 - z_1_1 = 0
 c46: x_1_1_0 + x_1_1_10 + x_1_1_11 + x_1_1_12 + x_1_1_13 + x_1_1_14 + x_1_1_15 + x_1_1_16 + x_1_1_17 + x_1_1_18 + x_1_1_19 + x_1_1_2 + x_1_1_20 + x_1_1_3 + x_1_1_4 + x_1_1_5 + x_1_1_6 + x_1_1_7 + x_1_1_8 + x_1_1_9 - z_1_1 = 0
 c47: x_1_0_2 + x_1_10_2 + x_1_11_2 + x_1_12_2 + x_1_13_2 + x_1_14_2 + x_1_15_2 + x_1_16_2 + x_1_17_2 + x_1_18_2 + x_1_19_2 + x_1_1_2 + x_1_20_2 + x_1_3_2 + x_1_4_2 + x_1_5_2 + x_1_6_2 + x_1_7_2 + x_1_8_2 + x_1_9_2 - z_1_2 = 0
 c48: x_1_2_0 + x_1_2_1 + x_1_2_10 + x_1_2_11 + x_1_2_12 + x_1_2_13 + x_1_2_14 + x_1_2_15 + x_1_2_16 + x_1_2_17 + x_1_2_18 + x_1_2_19 + x_1_2_20 + x_1_2_3 + x_1_2_4 + x_1_2_5 + x_1_2_6 + x_1_2_7 + x_1_2_8 + x_1_2_9 - z_1_2 = 0
 c49: x_1_0_3 + x_1_10_3 + x_1_11_3 + x_1_12_3 + x_1_13_3 + x_1_14_3 + x_1_15_3 + x_1_16_3 + x_1_17_3 + x_1_18_3 + x_1_19_3 + x_1_1_3 + x_1_20_3 + x_1_2_3 + x_1_4_3 + x_1_5_3 + x_1_6_3 + x_1_7_3 + x_1_8_3 + x_1_9_3 - z_1_3 = 0
 c50: x_1_3_0 + x_1_3_1 + x_1_3_10 + x_1_3_11 + x_1_3_12 + x_1_3_13 + x_1_3_14 + x_1_3_15 + x_1_3_16 + x_1_3_17 + x_1_3_18 + x_1_3_19 + x_1_3_2 + x_1_3_20 + x_1_3_4 + x_1_3_5 + x_1_3_6 + x_1_3_7 + x_1_3_8 + x_1_3_9 - z_1_3 = 0
 c51: x_1_0_4 + x_1_10_4 + x_1_11_4 + x_1_12_4 + x_1_13_4 + x_1_14_4 + x_1_15_4 + x_1_16_4 + x_1_17_4 + x_1_18_4 + x_1_19_4 + x_1_1_4 + x_1_20_4 + x_1_2_4 + x_1_3_4 + x_1_5_4 + x_1_6_4 + x_1_7_4 + x_1_8_4 + x_1_9_4 - z_1_4 = 0
 c52: x_1_4_0 + x_1_4_1 + x_1_4_10 + x_1_4_11 + x_1_4_12 + x_1_4_13 + x_1_4_14 + x_1_4_15 + x_1_4_16 + x_1_4_17 + x_1_4_18 + x_1_4_19 + x_1_4_2 + x_1_4_20 + x_1_4_3 + x_1_4_5 + x_1_4_6 + x_1_4_7 + x_1_4_8 + x_1_4_9 - z_1_4 = 0
 c53: x_1_0_5 + x_1_10_5 + x_1_11_5 + x_1_12_5 + x_1_13_5 + x_1_14_5 + x_1_15_5 + x_1_16_5 + x_1_17_5 + x_1_18_5 + x_1_19_5 + x_1_1_5 + x_1_20_5 + x_1_2_5 + x_1_3_5 + x_1_4_5 + x_1_6_5 + x_1_7_5 + x_1_8_5 + x_1_9_5 - z_1_5 = 0
 c54: x_1_5_0 + x_1_5_1 + x_1_5_10 + x_1_5_11 + x_1_5_12 + x_1_5_13 + x_1_5_14 + x_1_5_15 + x_1_5_16 + x_1_5_17 + x_1_5_18 + x_1_5_19 + x_1_5_2 + x_1_5_20 + x_1_5_3 + x_1_5_4 + x_1_5_6 + x_1_5_7 + x_1_5_8 + x_1_5_9 - z_1_5 = 0
 c55: x_1_0_6 + x_1_10_6 + x_1_11_6 + x_1_12_6 + x_1_13_6 + x_1_14_6 + x_1_15_6 + x_1_16_6 + x_1_17_6 + x_1_18_6 + x_1_19_6 + x_1_1_6 + x_1_20_6 + x_1_2_6 + x_1_3_6 + x_1_4_6 + x_1_5_6 + x_1_7_6 + x_1_8_6 + x_1_9_6 - z_1_6 = 0
 c56: x_1_6_0 + x_1_6_1 + x_1_6_10 + x_1_6_11 + x_1_6_12 + x_1_6_13 + x_1_6_14 + x_1_6_15 + x_1_6_16 + x_1_6_17 + x_1_6_18 + x_1_6_19 + x_1_6_2 + x_1_6_20 + x_1_6_3 + x_1_6_4 + x_1_6_5 + x_1_6_7 + x_1_6_8 + x_1_6_9 - z_1_6 = 0
 c57: x_1_0_7 + x_1_10_7 + x_1_11_7 + x_1_12_7 + x_1_13_7 + x_1_14_7 + x_1_15_7 + x_1_16_7 + x_1_17_7 + x_1_18_7 + x_1_19_7 + x_1_1_7 + x_1_20_7 + x_1_2_7 + x_1_3_7 + x_1_4_7 + x_1_5_7 + x_1_6_7 + x_1_8_7 + x_1_9_7 - z_1_7 = 0
 c58: x_1_7_0 + x_1_7_1 + x_1_7_10 + x_1_7_11 + x_1_7_12 + x_1_7_13 + x_1_7_14 + x_1_7_15 + x_1_7_16 + x_1_7_17 + x_1_7_18 + x_1_7_19 + x_1_7_2 + x_1_7_20 + x_1_7_3 + x_1_7_4 + x_1_7_5 + x_1_7_6 + x_1_7_8 + x_1_7_9 - z_1_7 = 0
 c59: x_1_0_8 + x_1_10_8 + x_1_11_8 + x_1_12_8 + x_1_13_8 + x_1_14_8 + x_1_15_8 + x_1_16_8 + x_1_17_8 + x_1_18_8 + x_1_19_8 + x_1_1_8 + x_1_20_8 + x_1_2_8 + x_1_3_8 + x_1_4_8 + x_1_5_8 + x_1_6_8 + x_1_7_8 + x_1_9_8 - z_1_8 = 0
 c60: x_1_8_0 + x_1_8_1 + x_1_8_10 + x_1_8_11 + x_1_8_12 + x_1_8_13 + x_1_8_14 + x_1_8_15 + x_1_8_16 + x_1_8_17 + x_1_8_18 + x_1_8_19 + x_1_8_2 + x_1_8_20 + x_1_8_3 + x_1_8_4 + x_1_8_5 + x_1_8_6 + x_1_8_7 + x_1_8_9 - z_1_8 = 0
 c61: x_1_0_9 + x_1_10_9 + x_1_11_9 + x_1_12_9 + x_1_13_9 + x_1_14_9 + x_1_15_9 + x_1_16_9 + x_1_17_9 + x_1_18_9 + x_1_19_9 + x_1_1_9 + x_1_20_9 + x_1_2_9 + x_1_3_9 + x_1_4_9 + x_1_5_9 + x_1_6_9 + x_1_7_9 + x_1_8_9 - z_1_9 = 0
 c62: x_1_9_0 + x_1_9_1 + x_1_9_10 + x_1_9_11 + x_1_9_12 + x_1_9_13 + x_1_9_14 + x_1_9_15 + x_1_9_16 + x_1_9_17 + x_1_9_18 + x_1_9_19 + x_1_9_2 + x_1_9_20 + x_1_9_3 + x_1_9_4 + x_1_9_5 + x_1_9_6 + x_1_9_7 + x_1_9_8 - z_1_9 = 0
 c63: x_1_0_10 + x_1_11_10 + x_1_12_10 + x_1_13_10 + x_1_14_10 + x_1_15_10 + x_1_16_10 + x_1_17_10 + x_1_18_10 + x_1_19_10 + x_1_1_10 + x_1_20_10 + x_1_2_10 + x_1_3_10 + x_1_4_10 + x_1_5_10 + x_1_6_10 + x_1_7_10 + x_1_8_10 + x_1_9_10 - z_1_10 = 0
 c64: x_1_10_0 + x_1_10_1 + x_1_10_11 + x_1_10_12 + x_1_10_13 + x_1_10_14 + x_1_10_15 + x_1_10_16 + x_1_10_17 + x_1_10_18 + x_1_10_19 + x_1_10_2 + x_1_10_20 + x_1_10_3 + x_1_10_4 + x_1_10_5 + x_1_10_6 + x_1_10_7 + x_1_10_8 + x_1_10_9 - z_1_10 = 0
 c65: x_1_0_11 + x_1_10_11 + x_1_12_11 + x_1_13_11 + x_1_14_11 + x_1_15_11 + x_1_16_11 + x_1_17_11 + x_1_18_11 + x_1_19_11 + x_1_1_11 + x_1_20_11 + x_1_2_11 + x_1_3_11 + x_1_4_11 + x_1_5_11 + x_1_6_11 + x_1_7_11 + x_1_8_11 + x_1_9_11 - z_1_11 = 0
 c66: x_1_11_0 + x_1_11_1 + x_1_11_10 + x_1_11_12 + x_1_11_13 + x_1_11_14 + x_1_11_15 + x_1_11_16 + x_1_11_17 + x_1_11_18 + x_1_11_19 + x_1_11_2 + x_1_11_20 + x_1_11_3 + x_1_11_4 + x_1_11_5 + x_1_11_6 + x_1_11_7 + x_1_11_8 + x_1_11_9 - z_1_11 = 0
 c67: x_1_0_12 + x_1_10_12 + x_1_11_12 + x_1_13_12 + x_1_14_12 + x_1_15_12 + x_1_16_12 + x_1_17_12 + x_1_18_12 + x_1_19_12 + x_1_1_12 + x_1_20_12 + x_1_2_12 + x_1_3_12 + x_1_4_12 + x_1_5_12 + x_1_6_12 + x_1_7_12 + x_1_8_12 + x_1_9_12 - z_1_12 = 0
 c68: x_1_12_0 + x_1_12_1 + x_1_12_10 + x_1_12_11 + x_1_12_13 + x_1_12_14 + x_1_12_15 + x_1_12_16 + x_1_12_17 + x_1_12_18 + x_1_12_19 + x_1_12_2 + x_1_12_20 + x_1_12_3 + x_1_12_4 + x_1_12_5 + x_1_12_6 + x_1_12_7 + x_1_12_8 + x_1_12_9 - z_1_12 = 0
 c69: x_1_0_13 + x_1_10_13 + x_1_11_13 + x_1_12_13 + x_1_14_13 + x_1_15_13 + x_1_16_13 + x_1_17_13 + x_1_18_13 + x_1_19_13 + x_1_1_13 + x_1_20_13 + x_1_2_13 + x_1_3_13 + x_1_4_13 + x_1_5_13 + x_1_6_13 + x_1_7_13 + x_1_8_13 + x_1_9_13 - z_1_13 = 0
 c70: x_1_13_0 + x_1_13_1 + x_1_13_10 + x_1_13_11 + x_1_13_12 + x_1_13_14 + x_1_13_15 + x_1_13_16 + x_1_13_17 + x_1_13_18 + x_1_13_19 + x_1_13_2 + x_1_13_20 + x_1_13_3 + x_1_13_4 + x_1_13_5 + x_1_13_6 + x_1_13_7 + x_1_13_8 + x_1_13_9 - z_1_13 = 0
 c71: x_1_0_14 + x_1_10_14 + x_1_11_14 + x_1_12_14 + x_1_13_14 + x_1_15_14 + x_1_16_14 + x_1_17_14 + x_1_18_14 + x_1_19_14 + x_1_1_14 + x_1_20_14 + x_1_2_14 + x_1_3_14 + x_1_4_14 + x_1_5_14 + x_1_6_14 + x_1_7_14 + x_1_8_14 + x_1_9_14 - z_1_14 = 0
 c72: x_1_14_0 + x_1_14_1 + x_1_14_10 + x_1_14_11 + x_1_14_12 + x_1_14_13 + x_1_14_15 + x_1_14_16 + x_1_14_17 + x_1_14_18 + x_1_14_19 + x_1_14_2 + x_1_14_20 + x_1_14_3 + x_1_14_4 + x_1_14_5 + x_1_14_6 + x_1_14_7 + x_1_14_8 + x_1_14_9 - z_1_14 = 0
 c73: x_1_0_15 + x_1_10_15 + x_1_11_15 + x_1_12_15 + x_1_13_15 + x_1_14_15 + x_1_16_15 + x_1_17_15 + x_1_18_15 + x_1_19_15 + x_1_1_15 + x_1_20_15 + x_1_2_15 + x_1_3_15 + x_1_4_15 + x_1_5_15 + x_1_6_15 + x_1_7_15 + x_1_8_15 + x_1_9_15 - z_1_15 = 0
 c74: x_1_15_0 + x_1_15_1 + x_1_15_10 + x_1_15_11 + x_1_15_12 + x_1_15_13 + x_1_15_14 + x_1_15_16 + x_1_15_17 + x_1_15_18 + x_1_15_19 + x_1_15_2 + x_1_15_20 + x_1_15_3 + x_1_15_4 + x_1_15_5 + x_1_15_6 + x_1_15_7 + x_1_15_8 + x_1_15_9 - z_1_15 = 0
 c75: x_1_0_16 + x_1_10_16 + x_1_11_16 + x_1_12_16 + x_1_13_16 + x_1_14_16 + x_1_15_16 + x_1_17_16 + x_1_18_16 + x_1_19_16 + x_1_1_16 + x_1_20_16 + x_1_2_16 + x_1_3_16 + x_1_4_16 + x_1_5_16 + x_1_6_16 + x_1_7_16 + x_1_8_16 + x_1_9_16 - z_1_16 = 0
 c76: x_1_16_0 + x_1_16_1 + x_1_16_10 + x_1_16_11 + x_1_16_12 + x_1_16_13 + x_1_16_14 + x_1_16_15 + x_1_16_17 + x_1_16_18 + x_1_16_19 + x_1_16_2 + x_1_16_20 + x_1_16_3 + x_1_16_4 + x_1_16_5 + x_1_16_6 + x_1_16_7 + x_1_16_8 + x_1_16_9 - z_1_16 = 0
 c77: x_1_0_17 + x_1_10_17 + x_1_11_17 + x_1_12_17 + x_1_13_17 + x_1_14_17 + x_1_15_17 + x_1_16_17 + x_1_18_17 + x_1_19_17 + x_1_1_17 + x_1_20_17 + x_1_2_17 + x_1_3_17 + x_1_4_17 + x_1_5_17 + x_1_6_17 + x_1_7_17 + x_1_8_17 + x_1_9_17 - z_1_17 = 0
 c78: x_1_17_0 + x_1_17_1 + x_1_17_10 + x_1_17_11 + x_1_17_12 + x_1_17_13 + x_1_17_14 + x_1_17_15 + x_1_17_16 + x_1_17_18 + x_1_17_19 + x_1_17_2 + x_1_17_20 + x_1_17_3 + x_1_17_4 + x_1_17_5 + x_1_17_6 + x_1_17_7 + x_1_17_8 + x_1_17_9 - z_1_17 = 0
 c79: x_1_0_18 + x_1_10_18 + x_1_11_18 + x_1_12_18 + x_1_13_18 + x_1_14_18 + x_1_15_18 + x_1_16_18 + x_1_17_18 + x_1_19_18 + x_1_1_18 + x_1_20_18 + x_1_2_18 + x_1_3_18 + x_1_4_18 + x_1_5_18 + x_1_6_18 + x_1_7_18 + x_1_8_18 + x_1_9_18 - z_1_18 = 0
 c80: x_1_18_0 + x_1_18_1 + x_1_18_10 + x_1_18_11 + x_1_18_12 + x_1_18_13 + x_1_18_14 + x_1_18_15 + x_1_18_16 + x_1_18_17 + x_1_18_19 + x_1_18_2 + x_1_18_20 + x_1_18_3 + x_1_18_4 + x_1_18_5 + x_1_18_6 + x_1_18_7 + x_1_18_8 + x_1_18_9 - z_1_18 = 0
 c81: x_1_0_19 + x_1_10_19 + x_1_11_19 + x_1_12_19 + x_1_13_19 + x_1_14_19 + x_1_15_19 + x_1_16_19 + x_1_17_19 + x_1_18_19 + x_1_1_19 + x_1_20_19 + x_1_2_19 + x_1_3_19 + x_1_4_19 + x_1_5_19 + x_1_6_19 + x_1_7_19 + x_1_8_19 + x_1_9_19 - z_1_19 = 0
 c82: x_1_19_0 + x_1_19_1 + x_1_19_10 + x_1_19_11 + x_1_19_12 + x_1_19_13 + x_1_19_14 + x_1_19_15 + x_1_19_16 + x_1_19_17 + x_1_19_18 + x_1_19_2 + x_1_19_20 + x_1_19_3 + x_1_19_4 + x_1_19_5 + x_1_19_6 + x_1_19_7 + x_1_19_8 + x_1_19_9 - z_1_19 = 0
 c83: x_1_0_20 + x_1_10_20 + x_1_11_20 + x_1_12_20 + x_1_13_20 + x_1_14_20 + x_1_15_20 + x_1_16_20 + x_1_17_20 + x_1_18_20 + x_1_19_20 + x_1_1_20 + x_1_2_20 + x_1_3_20 + x_1_4_20 + x_1_5_20 + x_1_6_20 + x_1_7_20 + x_1_8_20 + x_1_9_20 - z_1_20 = 0
 c84: x_1_20_0 + x_1_20_1 + x_1_20_10 + x_1_20_11 + x_1_20_12 + x_1_20_13 + x_1_20_14 + x_1_20_15 + x_1_20_16 + x_1_20_17 + x_1_20_18 + x_1_20_19 + x_1_20_2 + x_1_20_3 + x_1_20_4 + x_1_20_5 + x_1_20_6 + x_1_20_7 + x_1_20_8 + x_1_20_9 - z_1_20 = 0
 c85: z_0_1 + z_1_1 <= 1
 c86: z_0_2 + z_1_2 <= 1
 c87: z_0_3 + z_1_3 <= 1
 c88: z_0_4 + z_1_4 <= 1
 c89: z_0_5 + z_1_5 <= 1
 c90: z_0_6 + z_1_6 <= 1
 c91: z_0_7 + z_1_7 <= 1
 c92: z_0_8 + z_1_8 <= 1
 c93: z_0_9 + z_1_9 <= 1
 c94: z_0_10 + z_1_10 <= 1
 c95: z_0_11 + z_1_11 <= 1
 c96: z_0_12 + z_1_12 <= 1
 c97: z_0_13 + z_1_13 <= 1
 c98: z_0_14 + z_1_14 <= 1
 c99: z_0_15 + z_1_15 <= 1
 c100: z_0_16 + z_1_16 <= 1
 c101: z_0_17 + z_1_17 <= 1
 c102: z_0_18 + z_1_18 <= 1
 c103: z_0_19 + z_1_19 <= 1
 c104: z_0_20 + z_1_20 <= 1
 c105: ord_0_1 - z_0_1 >= 0
 c106: ord_0_1 - 20 z_0_1 <= 0
 c107: ord_0_2 - z_0_2 >= 0
 c108: ord_0_2 - 20 z_0_2 <= 0
 c109: ord_0_3 - z_0_3 >= 0
 c110: ord_0_3 - 20 z_0_3 <= 0
 c111: ord_0_4 - z_0_4 >= 0
 c112: ord_0_4 - 20 z_0_4 <= 0
 c113: ord_0_5 - z_0_5 >= 0
 c114: ord_0_5 - 20 z_0_5 <= 0
 c115: ord_0_6 - z_0_6 >= 0
 c116: ord_0_6 - 20 z_0_6 <= 0
 c117: ord_0_7 - z_0_7 >= 0
 c118: ord_0_7 - 20 z_0_7 <= 0
 c119: ord_0_8 - z_0_8 >= 0
 c120: ord_0_8 - 20 z_0_8 <= 0
 c121: ord_0_9 - z_0_9 >= 0
 c122: ord_0_9 - 20 z_0_9 <= 0
 c123: ord_0_10 - z_0_10 >= 0
 c124: ord_0_10 - 20 z_0_10 <= 0
 c125: ord_0_11 - z_0_11 >= 0
 c126: ord_0_11 - 20 z_0_11 <= 0
 c127: ord_0_12 - z_0_12 >= 0
 c128: ord_0_12 - 20 z_0_12 <= 0
 c129: ord_0_13 - z_0_13 >= 0
 c130: ord_0_13 - 20 z_0_13 <= 0
 c131: ord_0_14 - z_0_14 >= 0
 c132: ord_0_14 - 20 z_0_14 <= 0
 c133: ord_0_15 - z_0_15 >= 0
 c134: ord_0_15 - 20 z_0_15 <= 0
 c135: ord_0_16 - z_0_16 >= 0
 c136: ord_0_16 - 20 z_0_16 <= 0
 c137: ord_0_17 - z_0_17 >= 0
 c138: ord_0_17 - 20 z_0_17 <= 0
 c139: ord_0_18 - z_0_18 >= 0
 c140: ord_0_18 - 20 z_0_18 <= 0
 c141: ord_0_19 - z_0_19 >= 0
 c142: ord_0_19 - 20 z_0_19 <= 0
 c143: ord_0_20 - z_0_20 >= 0
 c144: ord_0_20 - 20 z_0_20 <= 0
 c145: ord_0_1 - ord_0_2 + 20 x_0_1_2 <= 19
 c146: ord_0_1 - ord_0_3 + 20 x_0_1_3 <= 19
 c147: ord_0_1 - ord_0_4 + 20 x_0_1_4 <= 19
 c148: ord_0_1 - ord_0_5 + 20 x_0_1_5 <= 19
 c149: ord_0_1 - ord_0_6 + 20 x_0_1_6 <= 19
 c150: ord_0_1 - ord_0_7 + 20 x_0_1_7 <= 19
 c151: ord_0_1 - ord_0_8 + 20 x_0_1_8 <= 19
 c152: ord_0_1 - ord_0_9 + 20 x_0_1_9 <= 19
 c153: ord_0_1 - ord_0_10 + 20 x_0_1_10 <= 19
 c154: ord_0_1 - ord_0_11 + 20 x_0_1_11 <= 19
 c155: ord_0_1 - ord_0_12 + 20 x_0_1_12 <= 19
 c156: ord_0_1 - ord_0_13 + 20 x_0_1_13 <= 19
 c157: ord_0_1 - ord_0_14 + 20 x_0_1_14 <= 19
 c158: ord_0_1 - ord_0_15 + 20 x_0_1_15 <= 19
 c159: ord_0_1 - ord_0_16 + 20 x_0_1_16 <= 19
 c160: ord_0_1 - ord_0_17 + 20 x_0_1_17 <= 19
 c161: ord_0_1 - ord_0_18 + 20 x_0_1_18 <= 19
 c162: ord_0_1 - ord_0_19 + 20 x_0_1_19 <= 19
 c163: ord_0_1 - ord_0_20 + 20 x_0_1_20 <= 19
 c164: - ord_0_1 + ord_0_2 + 20 x_0_2_1 <= 19
 c165: ord_0_2 - ord_0_3 + 20 x_0_2_3 <= 19
 c166: ord_0_2 - ord_0_4 + 20 x_0_2_4 <= 19
 c167: ord_0_2 - ord_0_5 + 20 x_0_2_5 <= 19
 c168: ord_0_2 - ord_0_6 + 20 x_0_2_6 <= 19
 c169: ord_0_2 - ord_0_7 + 20 x_0_2_7 <= 19
 c170: ord_0_2 - ord_0_8 + 20 x_0_2_8 <= 19
 c171: ord_0_2 - ord_0_9 + 20 x_0_2_9 <= 19
 c172: - ord_0_10 + ord_0_2 + 20 x_0_2_10 <= 19
 c173: - ord_0_11 + ord_0_2 + 20 x_0_2_11 <= 19
 c174: - ord_0_12 + ord_0_2 + 20 x_0_2_12 <= 19
 c175: - ord_0_13 + ord_0_2 + 20 x_0_2_13 <= 19
 c176: - ord_0_14 + ord_0_2 + 20 x_0_2_14 <= 19
 c177: - ord_0_15 + ord_0_2 + 20 x_0_2_15 <= 19
 c178: - ord_0_16 + ord_0_2 + 20 x_0_2_16 <= 19
 c179: - ord_0_17 + ord_0_2 + 20 x_0_2_17 <= 19
 c180: - ord_0_18 + ord_0_2 + 20 x_0_2_18 <= 19
 c181: - ord_0_19 + ord_0_2 + 20 x_0_2_19 <= 19
 c182: ord_0_2 - ord_0_20 + 20 x_0_2_20 <= 19
 c183: - ord_0_1 + ord_0_3 + 20 x_0_3_1 <= 19
 c184: - ord_0_2 + ord_0_3 + 20 x_0_3_2 <= 19
 c185: ord_0_3 - ord_0_4 + 20 x_0_3_4 <= 19
 c186: ord_0_3 - ord_0_5 + 20 x_0_3_5 <= 19
 c187: ord_0_3 - ord_0_6 + 20 x_0_3_6 <= 19
 c188: ord_0_3 - ord_0_7 + 20 x_0_3_7 <= 19
 c189: ord_0_3 - ord_0_8 + 20 x_0_3_8 <= 19
 c190: ord_0_3 - ord_0_9 + 20 x_0_3_9 <= 19
 c191: - ord_0_10 + ord_0_3 + 20 x_0_3_10 <= 19
 c192: - ord_0_11 + ord_0_3 + 20 x_0_3_11 <= 19
 c193: - ord_0_12 + ord_0_3 + 20 x_0_3_12 <= 19
 c194: - ord_0_13 + ord_0_3 + 20 x_0_3_13 <= 19
 c195: - ord_0_14 + ord_0_3 + 20 x_0_3_14 <= 19
 c196: - ord_0_15 + ord_0_3 + 20 x_0_3_15 <= 19
 c197: - ord_0_16 + ord_0_3 + 20 x_0_3_16 <= 19
 c198: - ord_0_17 + ord_0_3 + 20 x_0_3_17 <= 19
 c199: - ord_0_18 + ord_0_3 + 20 x_0_3_18 <= 19
 c200: - ord_0_19 + ord_0_3 + 20 x_0_3_19 <= 19
 c201: - ord_0_20 + ord_0_3 + 20 x_0_3_20 <= 19
 c202: - ord_0_1 + ord_0_4 + 20 x_0_4_1 <= 19
 c203: - ord_0_2 + ord_0_4 + 20 x_0_4_2 <= 19
 c204: - ord_0_3 + ord_0_4 + 20 x_0_4_3 <= 19
 c205: ord_0_4 - ord_0_5 + 20 x_0_4_5 <= 19
 c206: ord_0_4 - ord_0_6 + 20 x_0_4_6 <= 19
 c207: ord_0_4 - ord_0_7 + 20 x_0_4_7 <= 19
 c208: ord_0_4 - ord_0_8 + 20 x_0_4_8 <= 19
 c209: ord_0_4 - ord_0_9 + 20 x_0_4_9 <= 19
 c210: - ord_0_10 + ord_0_4 + 20 x_0_4_10 <= 19
 c211: - ord_0_11 + ord_0_4 + 20 x_0_4_11 <= 19
 c212: - ord_0_12 + ord_0_4 + 20 x_0_4_12 <= 19
 c213: - ord_0_13 + ord_0_4 + 20 x_0_4_13 <= 19
 c214: - ord_0_14 + ord_0_4 + 20 x_0_4_14 <= 19
 c215: - ord_0_15 + ord_0_4 + 20 x_0_4_15 <= 19
 c216: - ord_0_16 + ord_0_4 + 20 x_0_4_16 <= 19
 c217: - ord_0_17 + ord_0_4 + 20 x_0_4_17 <= 19
 c218: - ord_0_18 + ord_0_4 + 20 x_0_4_18 <= 19
 c219: - ord_0_19 + ord_0_4 + 20 x_0_4_19 <= 19
 c220: - ord_0_20 + ord_0_4 + 20 x_0_4_20 <= 19
 c221: - ord_0_1 + ord_0_5 + 20 x_0_5_1 <= 19
 c222: - ord_0_2 + ord_0_5 + 20 x_0_5_2 <= 19
 c223: - ord_0_3 + ord_0_5 + 20 x_0_5_3 <= 19
 c224: - ord_0_4 + ord_0_5 + 20 x_0_5_4 <= 19
 c225: ord_0_5 - ord_0_6 + 20 x_0_5_6 <= 19
 c226: ord_0_5 - ord_0_7 + 20 x_0_5_7 <= 19
 c227: ord_0_5 - ord_0_8 + 20 x_0_5_8 <= 19
 c228: ord_0_5 - ord_0_9 + 20 x_0_5_9 <= 19
 c229: - ord_0_10 + ord_0_5 + 20 x_0_5_10 <= 19
 c230: - ord_0_11 + ord_0_5 + 20 x_0_5_11 <= 19
 c231: - ord_0_12 + ord_0_5 + 20 x_0_5_12 <= 19
 c232: - ord_0_13 + ord_0_5 + 20 x_0_5_13 <= 19
 c233: - ord_0_14 + ord_0_5 + 20 x_0_5_14 <= 19
 c234: - ord_0_15 + ord_0_5 + 20 x_0_5_15 <= 19
 c235: - ord_0_16 + ord_0_5 + 20 x_0_5_16 <= 19
 c236: - ord_0_17 + ord_0_5 + 20 x_0_5_17 <= 19
 c237: - ord_0_18 + ord_0_5 + 20 x_0_5_18 <= 19
 c238: - ord_0_19 + ord_0_5 + 20 x_0_5_19 <= 19
 c239: - ord_0_20 + ord_0_5 + 20 x_0_5_20 <= 19
 c240: - ord_0_1 + ord_0_6 + 20 x_0_6_1 <= 19
 c241: - ord_0_2 + ord_0_6 + 20 x_0_6_2 <= 19
 c242: - ord_0_3 + ord_0_6 + 20 x_0_6_3 <= 19
 c243: - ord_0_4 + ord_0_6 + 20 x_0_6_4 <= 19
 c244: - ord_0_5 + ord_0_6 + 20 x_0_6_5 <= 19
 c245: ord_0_6 - ord_0_7 + 20 x_0_6_7 <= 19
 c246: ord_0_6 - ord_0_8 + 20 x_0_6_8 <= 19
 c247: ord_0_6 - ord_0_9 + 20 x_0_6_9 <= 19
 c248: - ord_0_10 + ord_0_6 + 20 x_0_6_10 <= 19
 c249: - ord_0_11 + ord_0_6 + 20 x_0_6_11 <= 19
 c250: - ord_0_12 + ord_0_6 + 20 x_0_6_12 <= 19
 c251: - ord_0_13 + ord_0_6 + 20 x_0_6_13 <= 19
 c252: - ord_0_14 + ord_0_6 + 20 x_0_6_14 <= 19
 c253: - ord_0_15 + ord_0_6 + 20 x_0_6_15 <= 19
 c254: - ord_0_16 + ord_0_6 + 20 x_0_6_16 <= 19
 c255: - ord_0_17 + ord_0_6 + 20 x_0_6_17 <= 19
 c256: - ord_0_18 + ord_0_6 + 20 x_0_6_18 <= 19
 c257: - ord_0_19 + ord_0_6 + 20 x_0_6_19 <= 19
 c258: - ord_0_20 + ord_0_6 + 20 x_0_6_20 <= 19
 c259: - ord_0_1 + ord_0_7 + 20 x_0_7_1 <= 19
 c260: - ord_0_2 + ord_0_7 + 20 x_0_7_2 <= 19
 c261: - ord_0_3 + ord_0_7 + 20 x_0_7_3 <= 19
 c262: - ord_0_4 + ord_0_7 + 20 x_0_7_4 <= 19
 c263: - ord_0_5 + ord_0_7 + 20 x_0_7_5 <= 19
 c264: - ord_0_6 + ord_0_7 + 20 x_0_7_6 <= 19
 c265: ord_0_7 - ord_0_8 + 20 x_0_7_8 <= 19
 c266: ord_0_7 - ord_0_9 + 20 x_0_7_9 <= 19
 c267: - ord_0_10 + ord_0_7 + 20 x_0_7_10 <= 19
 c268: - ord_0_11 + ord_0_7 + 20 x_0_7_11 <= 19
 c269: - ord_0_12 + ord_0_7 + 20 x_0_7_12 <= 19
 c270: - ord_0_13 + ord_0_7 + 20 x_0_7_13 <= 19
 c271: - ord_0_14 + ord_0_7 + 20 x_0_7_14 <= 19
 c272: - ord_0_15 + ord_0_7 + 20 x_0_7_15 <= 19
 c273: - ord_0_16 + ord_0_7 + 20 x_0_7_16 <= 19
 c274: - ord_0_17 + ord_0_7 + 20 x_0_7_17 <= 19
 c275: - ord_0_18 + ord_0_7 + 20 x_0_7_18 <= 19
 c276: - ord_0_19 + ord_0_7 + 20 x_0_7_19 <= 19
 c277: - ord_0_20 + ord_0_7 + 20 x_0_7_20 <= 19
 c278: - ord_0_1 + ord_0_8 + 20 x_0_8_1 <= 19
 c279: - ord_0_2 + ord_0_8 + 20 x_0_8_2 <= 19
 c280: - ord_0_3 + ord_0_8 + 20 x_0_8_3 <= 19
 c281: - ord_0_4 + ord_0_8 + 20 x_0_8_4 <= 19
 c282: - ord_0_5 + ord_0_8 + 20 x_0_8_5 <= 19
 c283: - ord_0_6 + ord_0_8 + 20 x_0_8_6 <= 19
 c284: - ord_0_7 + ord_0_8 + 20 x_0_8_7 <= 19
 c285: ord_0_8 - ord_0_9 + 20 x_0_8_9 <= 19
 c286: - ord_0_10 + ord_0_8 + 20 x_0_8_10 <= 19
 c287: - ord_0_11 + ord_0_8 + 20 x_0_8_11 <= 19
 c288: - ord_0_12 + ord_0_8 + 20 x_0_8_12 <= 19
 c289: - ord_0_13 + ord_0_8 + 20 x_0_8_13 <= 19
 c290: - ord_0_14 + ord_0_8 + 20 x_0_8_14 <= 19
 c291: - ord_0_15 + ord_0_8 + 20 x_0_8_15 <= 19
 c292: - ord_0_16 + ord_0_8 + 20 x_0_8_16 <= 19
 c293: - ord_0_17 + ord_0_8 + 20 x_0_8_17 <= 19
 c294: - ord_0_18 + ord_0_8 + 20 x_0_8_18 <= 19
 c295: - ord_0_19 + ord_0_8 + 20 x_0_8_19 <= 19
 c296: - ord_0_20 + ord_0_8 + 20 x_0_8_20 <= 19
 c297: - ord_0_1 + ord_0_9 + 20 x_0_9_1 <= 19
 c298: - ord_0_2 + ord_0_9 + 20 x_0_9_2 <= 19
 c299: - ord_0_3 + ord_0_9 + 20 x_0_9_3 <= 19
 c300: - ord_0_4 + ord_0_9 + 20 x_0_9_4 <= 19
 c301: - ord_0_5 + ord_0_9 + 20 x_0_9_5 <= 19
 c302: - ord_0_6 + ord_0_9 + 20 x_0_9_6 <= 19
 c303: - ord_0_7 + ord_0_9 + 20 x_0_9_7 <= 19
 c304: - ord_0_8 + ord_0_9 + 20 x_0_9_8 <= 19
 c305: - ord_0_10 + ord_0_9 + 20 x_0_9_10 <= 19
 c306: - ord_0_11 + ord_0_9 + 20 x_0_9_11 <= 19
 c307: - ord_0_12 + ord_0_9 + 20 x_0_9_12 <= 19
 c308: - ord_0_13 + ord_0_9 + 20 x_0_9_13 <= 19
 c309: - ord_0_14 + ord_0_9 + 20 x_0_9_14 <= 19
 c310: - ord_0_15 + ord_0_9 + 20 x_0_9_15 <= 19
 c311: - ord_0_16 + ord_0_9 + 20 x_0_9_16 <= 19
 c312: - ord_0_17 + ord_0_9 + 20 x_0_9_17 <= 19
 c313: - ord_0_18 + ord_0_9 + 20 x_0_9_18 <= 19
 c314: - ord_0_19 + ord_0_9 + 20 x_0_9_19 <= 19
 c315: - ord_0_20 + ord_0_9 + 20 x_0_9_20 <= 19
 c316: - ord_0_1 + ord_0_10 + 20 x_0_10_1 <= 19
 c317: ord_0_10 - ord_0_2 + 20 x_0_10_2 <= 19
 c318: ord_0_10 - ord_0_3 + 20 x_0_10_3 <= 19
 c319: ord_0_10 - ord_0_4 + 20 x_0_10_4 <= 19
 c320: ord_0_10 - ord_0_5 + 20 x_0_10_5 <= 19
 c321: ord_0_10 - ord_0_6 + 20 x_0_10_6 <= 19
 c322: ord_0_10 - ord_0_7 + 20 x_0_10_7 <= 19
 c323: ord_0_10 - ord_0_8 + 20 x_0_10_8 <= 19
 c324: ord_0_10 - ord_0_9 + 20 x_0_10_9 <= 19
 c325: ord_0_10 - ord_0_11 + 20 x_0_10_11 <= 19
 c326: ord_0_10 - ord_0_12 + 20 x_0_10_12 <= 19
 c327: ord_0_10 - ord_0_13 + 20 x_0_10_13 <= 19
 c328: ord_0_10 - ord_0_14 + 20 x_0_10_14 <= 19
 c329: ord_0_10 - ord_0_15 + 20 x_0_10_15 <= 19
 c330: ord_0_10 - ord_0_16 + 20 x_0_10_16 <= 19
 c331: ord_0_10 - ord_0_17 + 20 x_0_10_17 <= 19
 c332: ord_0_10 - ord_0_18 + 20 x_0_10_18 <= 19
 c333: ord_0_10 - ord_0_19 + 20 x_0_10_19 <= 19
 c334: ord_0_10 - ord_0_20 + 20 x_0_10_20 <= 19
 c335: - ord_0_1 + ord_0_11 + 20 x_0_11_1 <= 19
 c336: ord_0_11 - ord_0_2 + 20 x_0_11_2 <= 19
 c337: ord_0_11 - ord_0_3 + 20 x_0_11_3 <= 19
 c338: ord_0_11 - ord_0_4 + 20 x_0_11_4 <= 19
 c339: ord_0_11 - ord_0_5 + 20 x_0_11_5 <= 19
 c340: ord_0_11 - ord_0_6 + 20 x_0_11_6 <= 19
 c341: ord_0_11 - ord_0_7 + 20 x_0_11_7 <= 19
 c342: ord_0_11 - ord_0_8 + 20 x_0_11_8 <= 19
 c343: ord_0_11 - ord_0_9 + 20 x_0_11_9 <= 19
 c344: - ord_0_10 + ord_0_11 + 20 x_0_11_10 <= 19
 c345: ord_0_11 - ord_0_12 + 20 x_0_11_12 <= 19
 c346: ord_0_11 - ord_0_13 + 20 x_0_11_13 <= 19
 c347: ord_0_11 - ord_0_14 + 20 x_0_11_14 <= 19
 c348: ord_0_11 - ord_0_15 + 20 x_0_11_15 <= 19
 c349: ord_0_11 - ord_0_16 + 20 x_0_11_16 <= 19
 c350: ord_0_11 - ord_0_17 + 20 x_0_11_17 <= 19
 c351: ord_0_11 - ord_0_18 + 20 x_0_11_18 <= 19
 c352: ord_0_11 - ord_0_19 + 20 x_0_11_19 <= 19
 c353: ord_0_11 - ord_0_20 + 20 x_0_11_20 <= 19
 c354: - ord_0_1 + ord_0_12 + 20 x_0_12_1 <= 19
 c355: ord_0_12 - ord_0_2 + 20 x_0_12_2 <= 19
 c356: ord_0_12 - ord_0_3 + 20 x_0_12_3 <= 19
 c357: ord_0_12 - ord_0_4 + 20 x_0_12_4 <= 19
 c358: ord_0_12 - ord_0_5 + 20 x_0_12_5 <= 19
 c359: ord_0_12 - ord_0_6 + 20 x_0_12_6 <= 19
 c360: ord_0_12 - ord_0_7 + 20 x_0_12_7 <= 19
 c361: ord_0_12 - ord_0_8 + 20 x_0_12_8 <= 19
 c362: ord_0_12 - ord_0_9 + 20 x_0_12_9 <= 19
 c363: - ord_0_10 + ord_0_12 + 20 x_0_12_10 <= 19
 c364: - ord_0_11 + ord_0_12 + 20 x_0_12_11 <= 19
 c365: ord_0_12 - ord_0_13 + 20 x_0_12_13 <= 19
 c366: ord_0_12 - ord_0_14 + 20 x_0_12_14 <= 19
 c367: ord_0_12 - ord_0_15 + 20 x_0_12_15 <= 19
 c368: ord_0_12 - ord_0_16 + 20 x_0_12_16 <= 19
 c369: ord_0_12 - ord_0_17 + 20 x_0_12_17 <= 19
 c370: ord_0_12 - ord_0_18 + 20 x_0_12_18 <= 19
 c371: ord_0_12 - ord_0_19 + 20 x_0_12_19 <= 19
 c372: ord_0_12 - ord_0_20 + 20 x_0_12_20 <= 19
 c373: - ord_0_1 + ord_0_13 + 20 x_0_13_1 <= 19
 c374: ord_0_13 - ord_0_2 + 20 x_0_13_2 <= 19
 c375: ord_0_13 - ord_0_3 + 20 x_0_13_3 <= 19
 c376: ord_0_13 - ord_0_4 + 20 x_0_13_4 <= 19
 c377: ord_0_13 - ord_0_5 + 20 x_0_13_5 <= 19
 c378: ord_0_13 - ord_0_6 + 20 x_0_13_6 <= 19
 c379: ord_0_13 - ord_0_7 + 20 x_0_13_7 <= 19
 c380: ord_0_13 - ord_0_8 + 20 x_0_13_8 <= 19
 c381: ord_0_13 - ord_0_9 + 20 x_0_13_9 <= 19
 c382: - ord_0_10 + ord_0_13 + 20 x_0_13_10 <= 19
 c383: - ord_0_11 + ord_0_13 + 20 x_0_13_11 <= 19
 c384: - ord_0_12 + ord_0_13 + 20 x_0_13_12 <= 19
 c385: ord_0_13 - ord_0_14 + 20 x_0_13_14 <= 19
 c386: ord_0_13 - ord_0_15 + 20 x_0_13_15 <= 19
 c387: ord_0_13 - ord_0_16 + 20 x_0_13_16 <= 19
 c388: ord_0_13 - ord_0_17 + 20 x_0_13_17 <= 19
 c389: ord_0_13 - ord_0_18 + 20 x_0_13_18 <= 19
 c390: ord_0_13 - ord_0_19 + 20 x_0_13_19 <= 19
 c391: ord_0_13 - ord_0_20 + 20 x_0_13_20 <= 19
 c392: - ord_0_1 + ord_0_14 + 20 x_0_14_1 <= 19
 c393: ord_0_14 - ord_0_2 + 20 x_0_14_2 <= 19
 c394: ord_0_14 - ord_0_3 + 20 x_0_14_3 <= 19
 c395: ord_0_14 - ord_0_4 + 20 x_0_14_4 <= 19
 c396: ord_0_14 - ord_0_5 + 20 x_0_14_5 <= 19
 c397: ord_0_14 - ord_0_6 + 20 x_0_14_6 <= 19
 c398: ord_0_14 - ord_0_7 + 20 x_0_14_7 <= 19
 c399: ord_0_14 - ord_0_8 + 20 x_0_14_8 <= 19
 c400: ord_0_14 - ord_0_9 + 20 x_0_14_9 <= 19
 c401: - ord_0_10 + ord_0_14 + 20 x_0_14_10 <= 19
 c402: - ord_0_11 + ord_0_14 + 20 x_0_14_11 <= 19
 c403: - ord_0_12 + ord_0_14 + 20 x_0_14_12 <= 19
 c404: - ord_0_13 + ord_0_14 + 20 x_0_14_13 <= 19
 c405: ord_0_14 - ord_0_15 + 20 x_0_14_15 <= 19
 c406: ord_0_14 - ord_0_16 + 20 x_0_14_16 <= 19
 c407: ord_0_14 - ord_0_17 + 20 x_0_14_17 <= 19
 c408: ord_0_14 - ord_0_18 + 20 x_0_14_18 <= 19
 c409: ord_0_14 - ord_0_19 + 20 x_0_14_19 <= 19
 c410: ord_0_14 - ord_0_20 + 20 x_0_14_20 <= 19
 c411: - ord_0_1 + ord_0_15 + 20 x_0_15_1 <= 19
 c412: ord_0_15 - ord_0_2 + 20 x_0_15_2 <= 19
 c413: ord_0_15 - ord_0_3 + 20 x_0_15_3 <= 19
 c414: ord_0_15 - ord_0_4 + 20 x_0_15_4 <= 19
 c415: ord_0_15 - ord_0_5 + 20 x_0_15_5 <= 19
 c416: ord_0_15 - ord_0_6 + 20 x_0_15_6 <= 19
 c417: ord_0_15 - ord_0_7 + 20 x_0_15_7 <= 19
 c418: ord_0_15 - ord_0_8 + 20 x_0_15_8 <= 19
 c419: ord_0_15 - ord_0_9 + 20 x_0_15_9 <= 19
 c420: - ord_0_10 + ord_0_15 + 20 x_0_15_10 <= 19
 c421: - ord_0_11 + ord_0_15 + 20 x_0_15_11 <= 19
 c422: - ord_0_12 + ord_0_15 + 20 x_0_15_12 <= 19
 c423: - ord_0_13 + ord_0_15 + 20 x_0_15_13 <= 19
 c424: - ord_0_14 + ord_0_15 + 20 x_0_15_14 <= 19
 c425: ord_0_15 - ord_0_16 + 20 x_0_15_16 <= 19
 c426: ord_0_15 - ord_0_17 + 20 x_0_15_17 <= 19
 c427: ord_0_15 - ord_0_18 + 20 x_0_15_18 <= 19
 c428: ord_0_15 - ord_0_19 + 20 x_0_15_19 <= 19
 c429: ord_0_15 - ord_0_20 + 20 x_0_15_20 <= 19
 c430: - ord_0_1 + ord_0_16 + 20 x_0_16_1 <= 19
 c431: ord_0_16 - ord_0_2 + 20 x_0_16_2 <= 19
 c432: ord_0_16 - ord_0_3 + 20 x_0_16_3 <= 19
 c433: ord_0_16 - ord_0_4 + 20 x_0_16_4 <= 19
 c434: ord_0_16 - ord_0_5 + 20 x_0_16_5 <= 19
 c435: ord_0_16 - ord_0_6 + 20 x_0_16_6 <= 19
 c436: ord_0_16 - ord_0_7 + 20 x_0_16_7 <= 19
 c437: ord_0_16 - ord_0_8 + 20 x_0_16_8 <= 19
 c438: ord_0_16 - ord_0_9 + 20 x_0_16_9 <= 19
 c439: - ord_0_10 + ord_0_16 + 20 x_0_16_10 <= 19
 c440: - ord_0_11 + ord_0_16 + 20 x_0_16_11 <= 19
 c441: - ord_0_12 + ord_0_16 + 20 x_0_16_12 <= 19
 c442: - ord_0_13 + ord_0_16 + 20 x_0_16_13 <= 19
 c443: - ord_0_14 + ord_0_16 + 20 x_0_16_14 <= 19
 c444: - ord_0_15 + ord_0_16 + 20 x_0_16_15 <= 19
 c445: ord_0_16 - ord_0_17 + 20 x_0_16_17 <= 19
 c446: ord_0_16 - ord_0_18 + 20 x_0_16_18 <= 19
 c447: ord_0_16 - ord_0_19 + 20 x_0_16_19 <= 19
 c448: ord_0_16 - ord_0_20 + 20 x_0_16_20 <= 19
 c449: - ord_0_1 + ord_0_17 + 20 x_0_17_1 <= 19
 c450: ord_0_17 - ord_0_2 + 20 x_0_17_2 <= 19
 c451: ord_0_17 - ord_0_3 + 20 x_0_17_3 <= 19
 c452: ord_0_17 - ord_0_4 + 20 x_0_17_4 <= 19
 c453: ord_0_17 - ord_0_5 + 20 x_0_17_5 <= 19
 c454: ord_0_17 - ord_0_6 + 20 x_0_17_6 <= 19
 c455: ord_0_17 - ord_0_7 + 20 x_0_17_7 <= 19
 c456: ord_0_17 - ord_0_8 + 20 x_0_17_8 <= 19
 c457: ord_0_17 - ord_0_9 + 20 x_0_17_9 <= 19
 c458: - ord_0_10 + ord_0_17 + 20 x_0_17_10 <= 19
 c459: - ord_0_11 + ord_0_17 + 20 x_0_17_11 <= 19
 c460: - ord_0_12 + ord_0_17 + 20 x_0_17_12 <= 19
 c461: - ord_0_13 + ord_0_17 + 20 x_0_17_13 <= 19
 c462: - ord_0_14 + ord_0_17 + 20 x_0_17_14 <= 19
 c463: - ord_0_15 + ord_0_17 + 20 x_0_17_15 <= 19
 c464: - ord_0_16 + ord_0_17 + 20 x_0_17_16 <= 19
 c465: ord_0_17 - ord_0_18 + 20 x_0_17_18 <= 19
 c466: ord_0_17 - ord_0_19 + 20 x_0_17_19 <= 19
 c467: ord_0_17 - ord_0_20 + 20 x_0_17_20 <= 19
 c468: - ord_0_1 + ord_0_18 + 20 x_0_18_1 <= 19
 c469: ord_0_18 - ord_0_2 + 20 x_0_18_2 <= 19
 c470: ord_0_18 - ord_0_3 + 20 x_0_18_3 <= 19
 c471: ord_0_18 - ord_0_4 + 20 x_0_18_4 <= 19
 c472: ord_0_18 - ord_0_5 + 20 x_0_18_5 <= 19
 c473: ord_0_18 - ord_0_6 + 20 x_0_18_6 <= 19
 c474: ord_0_18 - ord_0_7 + 20 x_0_18_7 <= 19
 c475: ord_0_18 - ord_0_8 + 20 x_0_18_8 <= 19
 c476: ord_0_18 - ord_0_9 + 20 x_0_18_9 <= 19
 c477: - ord_0_10 + ord_0_18 + 20 x_0_18_10 <= 19
 c478: - ord_0_11 + ord_0_18 + 20 x_0_18_11 <= 19
 c479: - ord_0_12 + ord_0_18 + 20 x_0_18_12 <= 19
 c480: - ord_0_13 + ord_0_18 + 20 x_0_18_13 <= 19
 c481: - ord_0_14 + ord_0_18 + 20 x_0_18_14 <= 19
 c482: - ord_0_15 + ord_0_18 + 20 x_0_18_15 <= 19
 c483: - ord_0_16 + ord_0_18 + 20 x_0_18_16 <= 19
 c484: - ord_0_17 + ord_0_18 + 20 x_0_18_17 <= 19
 c485: ord_0_18 - ord_0_19 + 20 x_0_18_19 <= 19
 c486: ord_0_18 - ord_0_20 + 20 x_0_18_20 <= 19
 c487: - ord_0_1 + ord_0_19 + 20 x_0_19_1 <= 19
 c488: ord_0_19 - ord_0_2 + 20 x_0_19_2 <= 19
 c489: ord_0_19 - ord_0_3 + 20 x_0_19_3 <= 19
 c490: ord_0_19 - ord_0_4 + 20 x_0_19_4 <= 19
 c491: ord_0_19 - ord_0_5 + 20 x_0_19_5 <= 19
 c492: ord_0_19 - ord_0_6 + 20 x_0_19_6 <= 19
 c493: ord_0_19 - ord_0_7 + 20 x_0_19_7 <= 19
 c494: ord_0_19 - ord_0_8 + 20 x_0_19_8 <= 19
 c495: ord_0_19 - ord_0_9 + 20 x_0_19_9 <= 19
 c496: - ord_0_10 + ord_0_19 + 20 x_0_19_10 <= 19
 c497: - ord_0_11 + ord_0_19 + 20 x_0_19_11 <= 19
 c498: - ord_0_12 + ord_0_19 + 20 x_0_19_12 <= 19
 c499: - ord_0_13 + ord_0_19 + 20 x_0_19_13 <= 19
 c500: - ord_0_14 + ord_0_19 + 20 x_0_19_14 <= 19
 c501: - ord_0_15 + ord_0_19 + 20 x_0_19_15 <= 19
 c502: - ord_0_16 + ord_0_19 + 20 x_0_19_16 <= 19
 c503: - ord_0_17 + ord_0_19 + 20 x_0_19_17 <= 19
 c504: - ord_0_18 + ord_0_19 + 20 x_0_19_18 <= 19
 c505: ord_0_19 - ord_0_20 + 20 x_0_19_20 <= 19
 c506: - ord_0_1 + ord_0_20 + 20 x_0_20_1 <= 19
 c507: - ord_0_2 + ord_0_20 + 20 x_0_20_2 <= 19
 c508: ord_0_20 - ord_0_3 + 20 x_0_20_3 <= 19
 c509: ord_0_20 - ord_0_4 + 20 x_0_20_4 <= 19
 c510: ord_0_20 - ord_0_5 + 20 x_0_20_5 <= 19
 c511: ord_0_20 - ord_0_6 + 20 x_0_20_6 <= 19
 c512: ord_0_20 - ord_0_7 + 20 x_0_20_7 <= 19
 c513: ord_0_20 - ord_0_8 + 20 x_0_20_8 <= 19
 c514: ord_0_20 - ord_0_9 + 20 x_0_20_9 <= 19
 c515: - ord_0_10 + ord_0_20 + 20 x_0_20_10 <= 19
 c516: - ord_0_11 + ord_0_20 + 20 x_0_20_11 <= 19
 c517: - ord_0_12 + ord_0_20 + 20 x_0_20_12 <= 19
 c518: - ord_0_13 + ord_0_20 + 20 x_0_20_13 <= 19
 c519: - ord_0_14 + ord_0_20 + 20 x_0_20_14 <= 19
 c520: - ord_0_15 + ord_0_20 + 20 x_0_20_15 <= 19
 c521: - ord_0_16 + ord_0_20 + 20 x_0_20_16 <= 19
 c522: - ord_0_17 + ord_0_20 + 20 x_0_20_17 <= 19
 c523: - ord_0_18 + ord_0_20 + 20 x_0_20_18 <= 19
 c524: - ord_0_19 + ord_0_20 + 20 x_0_20_19 <= 19
 c525: ord_1_1 - z_1_1 >= 0
 c526: ord_1_1 - 20 z_1_1 <= 0
 c527: ord_1_2 - z_1_2 >= 0
 c528: ord_1_2 - 20 z_1_2 <= 0
 c529: ord_1_3 - z_1_3 >= 0
 c530: ord_1_3 - 20 z_1_3 <= 0
 c531: ord_1_4 - z_1_4 >= 0
 c532: ord_1_4 - 20 z_1_4 <= 0
 c533: ord_1_5 - z_1_5 >= 0
 c534: ord_1_5 - 20 z_1_5 <= 0
 c535: ord_1_6 - z_1_6 >= 0
 c536: ord_1_6 - 20 z_1_6 <= 0
 c537: ord_1_7 - z_1_7 >= 0
 c538: ord_1_7 - 20 z_1_7 <= 0
 c539: ord_1_8 - z_1_8 >= 0
 c540: ord_1_8 - 20 z_1_8 <= 0
 c541: ord_1_9 - z_1_9 >= 0
 c542: ord_1_9 - 20 z_1_9 <= 0
 c543: ord_1_10 - z_1_10 >= 0
 c544: ord_1_10 - 20 z_1_10 <= 0
 c545: ord_1_11 - z_1_11 >= 0
 c546: ord_1_11 - 20 z_1_11 <= 0
 c547: ord_1_12 - z_1_12 >= 0
 c548: ord_1_12 - 20 z_1_12 <= 0
 c549: ord_1_13 - z_1_13 >= 0
 c550: ord_1_13 - 20 z_1_13 <= 0
 c551: ord_1_14 - z_1_14 >= 0
 c552: ord_1_14 - 20 z_1_14 <= 0
 c553: ord_1_15 - z_1_15 >= 0
 c554: ord_1_15 - 20 z_1_15 <= 0
 c555: ord_1_16 - z_1_16 >= 0
 c556: ord_1_16 - 20 z_1_16 <= 0
 c557: ord_1_17 - z_1_17 >= 0
 c558: ord_1_17 - 20 z_1_17 <= 0
 c559: ord_1_18 - z_1_18 >= 0
 c560: ord_1_18 - 20 z_1_18 <= 0
 c561: ord_1_19 - z_1_19 >= 0
 c562: ord_1_19 - 20 z_1_19 <= 0
 c563: ord_1_20 - z_1_20 >= 0
 c564: ord_1_20 - 20 z_1_20 <= 0
 c565: ord_1_1 - ord_1_2 + 20 x_1_1_2 <= 19
 c566: ord_1_1 - ord_1_3 + 20 x_1_1_3 <= 19
 c567: ord_1_1 - ord_1_4 + 20 x_1_1_4 <= 19
 c568: ord_1_1 - ord_1_5 + 20 x_1_1_5 <= 19
 c569: ord_1_1 - ord_1_6 + 20 x_1_1_6 <= 19
 c570: ord_1_1 - ord_1_7 + 20 x_1_1_7 <= 19
 c571: ord_1_1 - ord_1_8 + 20 x_1_1_8 <= 19
 c572: ord_1_1 - ord_1_9 + 20 x_1_1_9 <= 19
 c573: ord_1_1 - ord_1_10 + 20 x_1_1_10 <= 19
 c574: ord_1_1 - ord_1_11 + 20 x_1_1_11 <= 19
 c575: ord_1_1 - ord_1_12 + 20 x_1_1_12 <= 19
 c576: ord_1_1 - ord_1_13 + 20 x_1_1_13 <= 19
 c577: ord_1_1 - ord_1_14 + 20 x_1_1_14 <= 19
 c578: ord_1_1 - ord_1_15 + 20 x_1_1_15 <= 19
 c579: ord_1_1 - ord_1_16 + 20 x_1_1_16 <= 19
 c580: ord_1_1 - ord_1_17 + 20 x_1_1_17 <= 19
 c581: ord_1_1 - ord_1_18 + 20 x_1_1_18 <= 19
 c582: ord_1_1 - ord_1_19 + 20 x_1_1_19 <= 19
 c583: ord_1_1 - ord_1_20 + 20 x_1_1_20 <= 19
 c584: - ord_1_1 + ord_1_2 + 20 x_1_2_1 <= 19
 c585: ord_1_2 - ord_1_3 + 20 x_1_2_3 <= 19
 c586: ord_1_2 - ord_1_4 + 20 x_1_2_4 <= 19
 c587: ord_1_2 - ord_1_5 + 20 x_1_2_5 <= 19
 c588: ord_1_2 - ord_1_6 + 20 x_1_2_6 <= 19
 c589: ord_1_2 - ord_1_7 + 20 x_1_2_7 <= 19
 c590: ord_1_2 - ord_1_8 + 20 x_1_2_8 <= 19
 c591: ord_1_2 - ord_1_9 + 20 x_1_2_9 <= 19
 c592: - ord_1_10 + ord_1_2 + 20 x_1_2_10 <= 19
 c593: - ord_1_11 + ord_1_2 + 20 x_1_2_11 <= 19
 c594: - ord_1_12 + ord_1_2 + 20 x_1_2_12 <= 19
 c595: - ord_1_13 + ord_1_2 + 20 x_1_2_13 <= 19
 c596: - ord_1_14 + ord_1_2 + 20 x_1_2_14 <= 19
 c597: - ord_1_15 + ord_1_2 + 20 x_1_2_15 <= 19
 c598: - ord_1_16 + ord_1_2 + 20 x_1_2_16 <= 19
 c599: - ord_1_17 + ord_1_2 + 20 x_1_2_17 <= 19
 c600: - ord_1_18 + ord_1_2 + 20 x_1_2_18 <= 19
 c601: - ord_1_19 + ord_1_2 + 20 x_1_2_19 <= 19
 c602: ord_1_2 - ord_1_20 + 20 x_1_2_20 <= 19
 c603: - ord_1_1 + ord_1_3 + 20 x_1_3_1 <= 19
 c604: - ord_1_2 + ord_1_3 + 20 x_1_3_2 <= 19
 c605: ord_1_3 - ord_1_4 + 20 x_1_3_4 <= 19
 c606: ord_1_3 - ord_1_5 + 20 x_1_3_5 <= 19
 c607: ord_1_3 - ord_1_6 + 20 x_1_3_6 <= 19
 c608: ord_1_3 - ord_1_7 + 20 x_1_3_7 <= 19
 c609: ord_1_3 - ord_1_8 + 20 x_1_3_8 <= 19
 c610: ord_1_3 - ord_1_9 + 20 x_1_3_9 <= 19
 c611: - ord_1_10 + ord_1_3 + 20 x_1_3_10 <= 19
 c612: - ord_1_11 + ord_1_3 + 20 x_1_3_11 <= 19
 c613: - ord_1_12 + ord_1_3 + 20 x_1_3_12 <= 19
 c614: - ord_1_13 + ord_1_3 + 20 x_1_3_13 <= 19
 c615: - ord_1_14 + ord_1_3 + 20 x_1_3_14 <= 19
 c616: - ord_1_15 + ord_1_3 + 20 x_1_3_15 <= 19
 c617: - ord_1_16 + ord_1_3 + 20 x_1_3_16 <= 19
 c618: - ord_1_17 + ord_1_3 + 20 x_1_3_17 <= 19
 c619: - ord_1_18 + ord_1_3 + 20 x_1_3_18 <= 19
 c620: - ord_1_19 + ord_1_3 + 20 x_1_3_19 <= 19
 c621: - ord_1_20 + ord_1_3 + 20 x_1_3_20 <= 19
 c622: - ord_1_1 + ord_1_4 + 20 x_1_4_1 <= 19
 c623: - ord_1_2 + ord_1_4 + 20 x_1_4_2 <= 19
 c624: - ord_1_3 + ord_1_4 + 20 x_1_4_3 <= 19
 c625: ord_1_4 - ord_1_5 + 20 x_1_4_5 <= 19
 c626: ord_1_4 - ord_1_6 + 20 x_1_4_6 <= 19
 c627: ord_1_4 - ord_1_7 + 20 x_1_4_7 <= 19
 c628: ord_1_4 - ord_1_8 + 20 x_1_4_8 <= 19
 c629: ord_1_4 - ord_1_9 + 20 x_1_4_9 <= 19
 c630: - ord_1_10 + ord_1_4 + 20 x_1_4_10 <= 19
 c631: - ord_1_11 + ord_1_4 + 20 x_1_4_11 <= 19
 c632: - ord_1_12 + ord_1_4 + 20 x_1_4_12 <= 19
 c633: - ord_1_13 + ord_1_4 + 20 x_1_4_13 <= 19
 c634: - ord_1_14 + ord_1_4 + 20 x_1_4_14 <= 19
 c635: - ord_1_15 + ord_1_4 + 20 x_1_4_15 <= 19
 c636: - ord_1_16 + ord_1_4 + 20 x_1_4_16 <= 19
 c637: - ord_1_17 + ord_1_4 + 20 x_1_4_17 <= 19
 c638: - ord_1_18 + ord_1_4 + 20 x_1_4_18 <= 19
 c639: - ord_1_19 + ord_1_4 + 20 x_1_4_19 <= 19
 c640: - ord_1_20 + ord_1_4 + 20 x_1_4_20 <= 19
 c641: - ord_1_1 + ord_1_5 + 20 x_1_5_1 <= 19
 c642: - ord_1_2 + ord_1_5 + 20 x_1_5_2 <= 19
 c643: - ord_1_3 + ord_1_5 + 20 x_1_5_3 <= 19
 c644: - ord_1_4 + ord_1_5 + 20 x_1_5_4 <= 19
 c645: ord_1_5 - ord_1_6 + 20 x_1_5_6 <= 19
 c646: ord_1_5 - ord_1_7 + 20 x_1_5_7 <= 19
 c647: ord_1_5 - ord_1_8 + 20 x_1_5_8 <= 19
 c648: ord_1_5 - ord_1_9 + 20 x_1_5_9 <= 19
 c649: - ord_1_10 + ord_1_5 + 20 x_1_5_10 <= 19
 c650: - ord_1_11 + ord_1_5 + 20 x_1_5_11 <= 19
 c651: - ord_1_12 + ord_1_5 + 20 x_1_5_12 <= 19
 c652: - ord_1_13 + ord_1_5 + 20 x_1_5_13 <= 19
 c653: - ord_1_14 + ord_1_5 + 20 x_1_5_14 <= 19
 c654: - ord_1_15 + ord_1_5 + 20 x_1_5_15 <= 19
 c655: - ord_1_16 + ord_1_5 + 20 x_1_5_16 <= 19
 c656: - ord_1_17 + ord_1_5 + 20 x_1_5_17 <= 19
 c657: - ord_1_18 + ord_1_5 + 20 x_1_5_18 <= 19
 c658: - ord_1_19 + ord_1_5 + 20 x_1_5_19 <= 19
 c659: - ord_1_20 + ord_1_5 + 20 x_1_5_20 <= 19
 c660: - ord_1_1 + ord_1_6 + 20 x_1_6_1 <= 19
 c661: - ord_1_2 + ord_1_6 + 20 x_1_6_2 <= 19
 c662: - ord_1_3 + ord_1_6 + 20 x_1_6_3 <= 19
 c663: - ord_1_4 + ord_1_6 + 20 x_1_6_4 <= 19
 c664: - ord_1_5 + ord_1_6 + 20 x_1_6_5 <= 19
 c665: ord_1_6 - ord_1_7 + 20 x_1_6_7 <= 19
 c666: ord_1_6 - ord_1_8 + 20 x_1_6_8 <= 19
 c667: ord_1_6 - ord_1_9 + 20 x_1_6_9 <= 19
 c668: - ord_1_10 + ord_1_6 + 20 x_1_6_10 <= 19
 c669: - ord_1_11 + ord_1_6 + 20 x_1_6_11 <= 19
 c670: - ord_1_12 + ord_1_6 + 20 x_1_6_12 <= 19
 c671: - ord_1_13 + ord_1_6 + 20 x_1_6_13 <= 19
 c672: - ord_1_14 + ord_1_6 + 20 x_1_6_14 <= 19
 c673: - ord_1_15 + ord_1_6 + 20 x_1_6_15 <= 19
 c674: - ord_1_16 + ord_1_6 + 20 x_1_6_16 <= 19
 c675: - ord_1_17 + ord_1_6 + 20 x_1_6_17 <= 19
 c676: - ord_1_18 + ord_1_6 + 20 x_1_6_18 <= 19
 c677: - ord_1_19 + ord_1_6 + 20 x_1_6_19 <= 19
 c678: - ord_1_20 + ord_1_6 + 20 x_1_6_20 <= 19
 c679: - ord_1_1 + ord_1_7 + 20 x_1_7_1 <= 19
 c680: - ord_1_2 + ord_1_7 + 20 x_1_7_2 <= 19
 c681: - ord_1_3 + ord_1_7 + 20 x_1_7_3 <= 19
 c682: - ord_1_4 + ord_1_7 + 20 x_1_7_4 <= 19
 c683: - ord_1_5 + ord_1_7 + 20 x_1_7_5 <= 19
 c684: - ord_1_6 + ord_1_7 + 20 x_1_7_6 <= 19
 c685: ord_1_7 - ord_1_8 + 20 x_1_7_8 <= 19
 c686: ord_1_7 - ord_1_9 + 20 x_1_7_9 <= 19
 c687: - ord_1_10 + ord_1_7 + 20 x_1_7_10 <= 19
 c688: - ord_1_11 + ord_1_7 + 20 x_1_7_11 <= 19
 c689: - ord_1_12 + ord_1_7 + 20 x_1_7_12 <= 19
 c690: - ord_1_13 + ord_1_7 + 20 x_1_7_13 <= 19
 c691: - ord_1_14 + ord_1_7 + 20 x_1_7_14 <= 19
 c692: - ord_1_15 + ord_1_7 + 20 x_1_7_15 <= 19
 c693: - ord_1_16 + ord_1_7 + 20 x_1_7_16 <= 19
 c694: - ord_1_17 + ord_1_7 + 20 x_1_7_17 <= 19
 c695: - ord_1_18 + ord_1_7 + 20 x_1_7_18 <= 19
 c696: - ord_1_19 + ord_1_7 + 20 x_1_7_19 <= 19
 c697: - ord_1_20 + ord_1_7 + 20 x_1_7_20 <= 19
 c698: - ord_1_1 + ord_1_8 + 20 x_1_8_1 <= 19
 c699: - ord_1_2 + ord_1_8 + 20 x_1_8_2 <= 19
 c700: - ord_1_3 + ord_1_8 + 20 x_1_8_3 <= 19
 c701: - ord_1_4 + ord_1_8 + 20 x_1_8_4 <= 19
 c702: - ord_1_5 + ord_1_8 + 20 x_1_8_5 <= 19
 c703: - ord_1_6 + ord_1_8 + 20 x_1_8_6 <= 19
 c704: - ord_1_7 + ord_1_8 + 20 x_1_8_7 <= 19
 c705: ord_1_8 - ord_1_9 + 20 x_1_8_9 <= 19
 c706: - ord_1_10 + ord_1_8 + 20 x_1_8_10 <= 19
 c707: - ord_1_11 + ord_1_8 + 20 x_1_8_11 <= 19
 c708: - ord_1_12 + ord_1_8 + 20 x_1_8_12 <= 19
 c709: - ord_1_13 + ord_1_8 + 20 x_1_8_13 <= 19
 c710: - ord_1_14 + ord_1_8 + 20 x_1_8_14 <= 19
 c711: - ord_1_15 + ord_1_8 + 20 x_1_8_15 <= 19
 c712: - ord_1_16 + ord_1_8 + 20 x_1_8_16 <= 19
 c713: - ord_1_17 + ord_1_8 + 20 x_1_8_17 <= 19
 c714: - ord_1_18 + ord_1_8 + 20 x_1_8_18 <= 19
 c715: - ord_1_19 + ord_1_8 + 20 x_1_8_19 <= 19
 c716: - ord_1_20 + ord_1_8 + 20 x_1_8_20 <= 19
 c717: - ord_1_1 + ord_1_9 + 20 x_1_9_1 <= 19
 c718: - ord_1_2 + ord_1_9 + 20 x_1_9_2 <= 19
 c719: - ord_1_3 + ord_1_9 + 20 x_1_9_3 <= 19
 c720: - ord_1_4 + ord_1_9 + 20 x_1_9_4 <= 19
 c721: - ord_1_5 + ord_1_9 + 20 x_1_9_5 <= 19
 c722: - ord_1_6 + ord_1_9 + 20 x_1_9_6 <= 19
 c723: - ord_1_7 + ord_1_9 + 20 x_1_9_7 <= 19
 c724: - ord_1_8 + ord_1_9 + 20 x_1_9_8 <= 19
 c725: - ord_1_10 + ord_1_9 + 20 x_1_9_10 <= 19
 c726: - ord_1_11 + ord_1_9 + 20 x_1_9_11 <= 19
 c727: - ord_1_12 + ord_1_9 + 20 x_1_9_12 <= 19
 c728: - ord_1_13 + ord_1_9 + 20 x_1_9_13 <= 19
 c729: - ord_1_14 + ord_1_9 + 20 x_1_9_14 <= 19
 c730: - ord_1_15 + ord_1_9 + 20 x_1_9_15 <= 19
 c731: - ord_1_16 + ord_1_9 + 20 x_1_9_16 <= 19
 c732: - ord_1_17 + ord_1_9 + 20 x_1_9_17 <= 19
 c733: - ord_1_18 + ord_1_9 + 20 x_1_9_18 <= 19
 c734: - ord_1_19 + ord_1_9 + 20 x_1_9_19 <= 19
 c735: - ord_1_20 + ord_1_9 + 20 x_1_9_20 <= 19
 c736: - ord_1_1 + ord_1_10 + 20 x_1_10_1 <= 19
 c737: ord_1_10 - ord_1_2 + 20 x_1_10_2 <= 19
 c738: ord_1_10 - ord_1_3 + 20 x_1_10_3 <= 19
 c739: ord_1_10 - ord_1_4 + 20 x_1_10_4 <= 19
 c740: ord_1_10 - ord_1_5 + 20 x_1_10_5 <= 19
 c741: ord_1_10 - ord_1_6 + 20 x_1_10_6 <= 19
 c742: ord_1_10 - ord_1_7 + 20 x_1_10_7 <= 19
 c743: ord_1_10 - ord_1_8 + 20 x_1_10_8 <= 19
 c744: ord_1_10 - ord_1_9 + 20 x_1_10_9 <= 19
 c745: ord_1_10 - ord_1_11 + 20 x_1_10_11 <= 19
 c746: ord_1_10 - ord_1_12 + 20 x_1_10_12 <= 19
 c747: ord_1_10 - ord_1_13 + 20 x_1_10_13 <= 19
 c748: ord_1_10 - ord_1_14 + 20 x_1_10_14 <= 19
 c749: ord_1_10 - ord_1_15 + 20 x_1_10_15 <= 19
 c750: ord_1_10 - ord_1_16 + 20 x_1_10_16 <= 19
 c751: ord_1_10 - ord_1_17 + 20 x_1_10_17 <= 19
 c752: ord_1_10 - ord_1_18 + 20 x_1_10_18 <= 19
 c753: ord_1_10 - ord_1_19 + 20 x_1_10_19 <= 19
 c754: ord_1_10 - ord_1_20 + 20 x_1_10_20 <= 19
 c755: - ord_1_1 + ord_1_11 + 20 x_1_11_1 <= 19
 c756: ord_1_11 - ord_1_2 + 20 x_1_11_2 <= 19
 c757: ord_1_11 - ord_1_3 + 20 x_1_11_3 <= 19
 c758: ord_1_11 - ord_1_4 + 20 x_1_11_4 <= 19
 c759: ord_1_11 - ord_1_5 + 20 x_1_11_5 <= 19
 c760: ord_1_11 - ord_1_6 + 20 x_1_11_6 <= 19
 c761: ord_1_11 - ord_1_7 + 20 x_1_11_7 <= 19
 c762: ord_1_11 - ord_1_8 + 20 x_1_11_8 <= 19
 c763: ord_1_11 - ord_1_9 + 20 x_1_11_9 <= 19
 c764: - ord_1_10 + ord_1_11 + 20 x_1_11_10 <= 19
 c765: ord_1_11 - ord_1_12 + 20 x_1_11_12 <= 19
 c766: ord_1_11 - ord_1_13 + 20 x_1_11_13 <= 19
 c767: ord_1_11 - ord_1_14 + 20 x_1_11_14 <= 19
 c768: ord_1_11 - ord_1_15 + 20 x_1_11_15 <= 19
 c769: ord_1_11 - ord_1_16 + 20 x_1_11_16 <= 19
 c770: ord_1_11 - ord_1_17 + 20 x_1_11_17 <= 19
 c771: ord_1_11 - ord_1_18 + 20 x_1_11_18 <= 19
 c772: ord_1_11 - ord_1_19 + 20 x_1_11_19 <= 19
 c773: ord_1_11 - ord_1_20 + 20 x_1_11_20 <= 19
 c774: - ord_1_1 + ord_1_12 + 20 x_1_12_1 <= 19
 c775: ord_1_12 - ord_1_2 + 20 x_1_12_2 <= 19
 c776: ord_1_12 - ord_1_3 + 20 x_1_12_3 <= 19
 c777: ord_1_12 - ord_1_4 + 20 x_1_12_4 <= 19
 c778: ord_1_12 - ord_1_5 + 20 x_1_12_5 <= 19
 c779: ord_1_12 - ord_1_6 + 20 x_1_12_6 <= 19
 c780: ord_1_12 - ord_1_7 + 20 x_1_12_7 <= 19
 c781: ord_1_12 - ord_1_8 + 20 x_1_12_8 <= 19
 c782: ord_1_12 - ord_1_9 + 20 x_1_12_9 <= 19
 c783: - ord_1_10 + ord_1_12 + 20 x_1_12_10 <= 19
 c784: - ord_1_11 + ord_1_12 + 20 x_1_12_11 <= 19
 c785: ord_1_12 - ord_1_13 + 20 x_1_12_13 <= 19
 c786: ord_1_12 - ord_1_14 + 20 x_1_12_14 <= 19
 c787: ord_1_12 - ord_1_15 + 20 x_1_12_15 <= 19
 c788: ord_1_12 - ord_1_16 + 20 x_1_12_16 <= 19
 c789: ord_1_12 - ord_1_17 + 20 x_1_12_17 <= 19
 c790: ord_1_12 - ord_1_18 + 20 x_1_12_18 <= 19
 c791: ord_1_12 - ord_1_19 + 20 x_1_12_19 <= 19
 c792: ord_1_12 - ord_1_20 + 20 x_1_12_20 <= 19
 c793: - ord_1_1 + ord_1_13 + 20 x_1_13_1 <= 19
 c794: ord_1_13 - ord_1_2 + 20 x_1_13_2 <= 19
 c795: ord_1_13 - ord_1_3 + 20 x_1_13_3 <= 19
 c796: ord_1_13 - ord_1_4 + 20 x_1_13_4 <= 19
 c797: ord_1_13 - ord_1_5 + 20 x_1_13_5 <= 19
 c798: ord_1_13 - ord_1_6 + 20 x_1_13_6 <= 19
 c799: ord_1_13 - ord_1_7 + 20 x_1_13_7 <= 19
 c800: ord_1_13 - ord_1_8 + 20 x_1_13_8 <= 19
 c801: ord_1_13 - ord_1_9 + 20 x_1_13_9 <= 19
 c802: - ord_1_10 + ord_1_13 + 20 x_1_13_10 <= 19
 c803: - ord_1_11 + ord_1_13 + 20 x_1_13_11 <= 19
 c804: - ord_1_12 + ord_1_13 + 20 x_1_13_12 <= 19
 c805: ord_1_13 - ord_1_14 + 20 x_1_13_14 <= 19
 c806: ord_1_13 - ord_1_15 + 20 x_1_13_15 <= 19
 c807: ord_1_13 - ord_1_16 + 20 x_1_13_16 <= 19
 c808: ord_1_13 - ord_1_17 + 20 x_1_13_17 <= 19
 c809: ord_1_13 - ord_1_18 + 20 x_1_13_18 <= 19
 c810: ord_1_13 - ord_1_19 + 20 x_1_13_19 <= 19
 c811: ord_1_13 - ord_1_20 + 20 x_1_13_20 <= 19
 c812: - ord_1_1 + ord_1_14 + 20 x_1_14_1 <= 19
 c813: ord_1_14 - ord_1_2 + 20 x_1_14_2 <= 19
 c814: ord_1_14 - ord_1_3 + 20 x_1_14_3 <= 19
 c815: ord_1_14 - ord_1_4 + 20 x_1_14_4 <= 19
 c816: ord_1_14 - ord_1_5 + 20 x_1_14_5 <= 19
 c817: ord_1_14 - ord_1_6 + 20 x_1_14_6 <= 19
 c818: ord_1_14 - ord_1_7 + 20 x_1_14_7 <= 19
 c819: ord_1_14 - ord_1_8 + 20 x_1_14_8 <= 19
 c820: ord_1_14 - ord_1_9 + 20 x_1_14_9 <= 19
 c821: - ord_1_10 + ord_1_14 + 20 x_1_14_10 <= 19
 c822: - ord_1_11 + ord_1_14 + 20 x_1_14_11 <= 19
 c823: - ord_1_12 + ord_1_14 + 20 x_1_14_12 <= 19
 c824: - ord_1_13 + ord_1_14 + 20 x_1_14_13 <= 19
 c825: ord_1_14 - ord_1_15 + 20 x_1_14_15 <= 19
 c826: ord_1_14 - ord_1_16 + 20 x_1_14_16 <= 19
 c827: ord_1_14 - ord_1_17 + 20 x_1_14_17 <= 19
 c828: ord_1_14 - ord_1_18 + 20 x_1_14_18 <= 19
 c829: ord_1_14 - ord_1_19 + 20 x_1_14_19 <= 19
 c830: ord_1_14 - ord_1_20 + 20 x_1_14_20 <= 19
 c831: - ord_1_1 + ord_1_15 + 20 x_1_15_1 <= 19
 c832: ord_1_15 - ord_1_2 + 20 x_1_15_2 <= 19
 c833: ord_1_15 - ord_1_3 + 20 x_1_15_3 <= 19
 c834: ord_1_15 - ord_1_4 + 20 x_1_15_4 <= 19
 c835: ord_1_15 - ord_1_5 + 20 x_1_15_5 <= 19
 c836: ord_1_15 - ord_1_6 + 20 x_1_15_6 <= 19
 c837: ord_1_15 - ord_1_7 + 20 x_1_15_7 <= 19
 c838: ord_1_15 - ord_1_8 + 20 x_1_15_8 <= 19
 c839: ord_1_15 - ord_1_9 + 20 x_1_15_9 <= 19
 c840: - ord_1_10 + ord_1_15 + 20 x_1_15_10 <= 19
 c841: - ord_1_11 + ord_1_15 + 20 x_1_15_11 <= 19
 c842: - ord_1_12 + ord_1_15 + 20 x_1_15_12 <= 19
 c843: - ord_1_13 + ord_1_15 + 20 x_1_15_13 <= 19
 c844: - ord_1_14 + ord_1_15 + 20 x_1_15_14 <= 19
 c845: ord_1_15 - ord_1_16 + 20 x_1_15_16 <= 19
 c846: ord_1_15 - ord_1_17 + 20 x_1_15_17 <= 19
 c847: ord_1_15 - ord_1_18 + 20 x_1_15_18 <= 19
 c848: ord_1_15 - ord_1_19 + 20 x_1_15_19 <= 19
 c849: ord_1_15 - ord_1_20 + 20 x_1_15_20 <= 19
 c850: - ord_1_1 + ord_1_16 + 20 x_1_16_1 <= 19
 c851: ord_1_16 - ord_1_2 + 20 x_1_16_2 <= 19
 c852: ord_1_16 - ord_1_3 + 20 x_1_16_3 <= 19
 c853: ord_1_16 - ord_1_4 + 20 x_1_16_4 <= 19
 c854: ord_1_16 - ord_1_5 + 20 x_1_16_5 <= 19
 c855: ord_1_16 - ord_1_6 + 20 x_1_16_6 <= 19
 c856: ord_1_16 - ord_1_7 + 20 x_1_16_7 <= 19
 c857: ord_1_16 - ord_1_8 + 20 x_1_16_8 <= 19
 c858: ord_1_16 - ord_1_9 + 20 x_1_16_9 <= 19
 c859: - ord_1_10 + ord_1_16 + 20 x_1_16_10 <= 19
 c860: - ord_1_11 + ord_1_16 + 20 x_1_16_11 <= 19
 c861: - ord_1_12 + ord_1_16 + 20 x_1_16_12 <= 19
 c862: - ord_1_13 + ord_1_16 + 20 x_1_16_13 <= 19
 c863: - ord_1_14 + ord_1_16 + 20 x_1_16_14 <= 19
 c864: - ord_1_15 + ord_1_16 + 20 x_1_16_15 <= 19
 c865: ord_1_16 - ord_1_17 + 20 x_1_16_17 <= 19
 c866: ord_1_16 - ord_1_18 + 20 x_1_16_18 <= 19
 c867: ord_1_16 - ord_1_19 + 20 x_1_16_19 <= 19
 c868: ord_1_16 - ord_1_20 + 20 x_1_16_20 <= 19
 c869: - ord_1_1 + ord_1_17 + 20 x_1_17_1 <= 19
 c870: ord_1_17 - ord_1_2 + 20 x_1_17_2 <= 19
 c871: ord_1_17 - ord_1_3 + 20 x_1_17_3 <= 19
 c872: ord_1_17 - ord_1_4 + 20 x_1_17_4 <= 19
 c873: ord_1_17 - ord_1_5 + 20 x_1_17_5 <= 19
 c874: ord_1_17 - ord_1_6 + 20 x_1_17_6 <= 19
 c875: ord_1_17 - ord_1_7 + 20 x_1_17_7 <= 19
 c876: ord_1_17 - ord_1_8 + 20 x_1_17_8 <= 19
 c877: ord_1_17 - ord_1_9 + 20 x_1_17_9 <= 19
 c878: - ord_1_10 + ord_1_17 + 20 x_1_17_10 <= 19
 c879: - ord_1_11 + ord_1_17 + 20 x_1_17_11 <= 19
 c880: - ord_1_12 + ord_1_17 + 20 x_1_17_12 <= 19
 c881: - ord_1_13 + ord_1_17 + 20 x_1_17_13 <= 19
 c882: - ord_1_14 + ord_1_17 + 20 x_1_17_14 <= 19
 c883: - ord_1_15 + ord_1_17 + 20 x_1_17_15 <= 19
 c884: - ord_1_16 + ord_1_17 + 20 x_1_17_16 <= 19
 c885: ord_1_17 - ord_1_18 + 20 x_1_17_18 <= 19
 c886: ord_1_17 - ord_1_19 + 20 x_1_17_19 <= 19
 c887: ord_1_17 - ord_1_20 + 20 x_1_17_20 <= 19
 c888: - ord_1_1 + ord_1_18 + 20 x_1_18_1 <= 19
 c889: ord_1_18 - ord_1_2 + 20 x_1_18_2 <= 19
 c890: ord_1_18 - ord_1_3 + 20 x_1_18_3 <= 19
 c891: ord_1_18 - ord_1_4 + 20 x_1_18_4 <= 19
 c892: ord_1_18 - ord_1_5 + 20 x_1_18_5 <= 19
 c893: ord_1_18 - ord_1_6 + 20 x_1_18_6 <= 19
 c894: ord_1_18 - ord_1_7 + 20 x_1_18_7 <= 19
 c895: ord_1_18 - ord_1_8 + 20 x_1_18_8 <= 19
 c896: ord_1_18 - ord_1_9 + 20 x_1_18_9 <= 19
 c897: - ord_1_10 + ord_1_18 + 20 x_1_18_10 <= 19
 c898: - ord_1_11 + ord_1_18 + 20 x_1_18_11 <= 19
 c899: - ord_1_12 + ord_1_18 + 20 x_1_18_12 <= 19
 c900: - ord_1_13 + ord_1_18 + 20 x_1_18_13 <= 19
 c901: - ord_1_14 + ord_1_18 + 20 x_1_18_14 <= 19
 c902: - ord_1_15 + ord_1_18 + 20 x_1_18_15 <= 19
 c903: - ord_1_16 + ord_1_18 + 20 x_1_18_16 <= 19
 c904: - ord_1_17 + ord_1_18 + 20 x_1_18_17 <= 19
 c905: ord_1_18 - ord_1_19 + 20 x_1_18_19 <= 19
 c906: ord_1_18 - ord_1_20 + 20 x_1_18_20 <= 19
 c907: - ord_1_1 + ord_1_19 + 20 x_1_19_1 <= 19
 c908: ord_1_19 - ord_1_2 + 20 x_1_19_2 <= 19
 c909: ord_1_19 - ord_1_3 + 20 x_1_19_3 <= 19
 c910: ord_1_19 - ord_1_4 + 20 x_1_19_4 <= 19
 c911: ord_1_19 - ord_1_5 + 20 x_1_19_5 <= 19
 c912: ord_1_19 - ord_1_6 + 20 x_1_19_6 <= 19
 c913: ord_1_19 - ord_1_7 + 20 x_1_19_7 <= 19
 c914: ord_1_19 - ord_1_8 + 20 x_1_19_8 <= 19
 c915: ord_1_19 - ord_1_9 + 20 x_1_19_9 <= 19
 c916: - ord_1_10 + ord_1_19 + 20 x_1_19_10 <= 19
 c917: - ord_1_11 + ord_1_19 + 20 x_1_19_11 <= 19
 c918: - ord_1_12 + ord_1_19 + 20 x_1_19_12 <= 19
 c919: - ord_1_13 + ord_1_19 + 20 x_1_19_13 <= 19
 c920: - ord_1_14 + ord_1_19 + 20 x_1_19_14 <= 19
 c921: - ord_1_15 + ord_1_19 + 20 x_1_19_15 <= 19
 c922: - ord_1_16 + ord_1_19 + 20 x_1_19_16 <= 19
 c923: - ord_1_17 + ord_1_19 + 20 x_1_19_17 <= 19
 c924: - ord_1_18 + ord_1_19 + 20 x_1_19_18 <= 19
 c925: ord_1_19 - ord_1_20 + 20 x_1_19_20 <= 19
 c926: - ord_1_1 + ord_1_20 + 20 x_1_20_1 <= 19
 c927: - ord_1_2 + ord_1_20 + 20 x_1_20_2 <= 19
 c928: ord_1_20 - ord_1_3 + 20 x_1_20_3 <= 19
 c929: ord_1_20 - ord_1_4 + 20 x_1_20_4 <= 19
 c930: ord_1_20 - ord_1_5 + 20 x_1_20_5 <= 19
 c931: ord_1_20 - ord_1_6 + 20 x_1_20_6 <= 19
 c932: ord_1_20 - ord_1_7 + 20 x_1_20_7 <= 19
 c933: ord_1_20 - ord_1_8 + 20 x_1_20_8 <= 19
 c934: ord_1_20 - ord_1_9 + 20 x_1_20_9 <= 19
 c935: - ord_1_10 + ord_1_20 + 20 x_1_20_10 <= 19
 c936: - ord_1_11 + ord_1_20 + 20 x_1_20_11 <= 19
 c937: - ord_1_12 + ord_1_20 + 20 x_1_20_12 <= 19
 c938: - ord_1_13 + ord_1_20 + 20 x_1_20_13 <= 19
 c939: - ord_1_14 + ord_1_20 + 20 x_1_20_14 <= 19
 c940: - ord_1_15 + ord_1_20 + 20 x_1_20_15 <= 19
 c941: - ord_1_16 + ord_1_20 + 20 x_1_20_16 <= 19
 c942: - ord_1_17 + ord_1_20 + 20 x_1_20_17 <= 19
 c943: - ord_1_18 + ord_1_20 + 20 x_1_20_18 <= 19
 c944: - ord_1_19 + ord_1_20 + 20 x_1_20_19 <= 19
 c945: p_0_1 - 2 z_0_1 <= 0
 c946: d_0_1 - 19 z_0_1 <= 0
 c947: mode_0_1 - z_0_1 <= 0
 c948: - 2 mode_0_1 + p_0_1 <= 0
 c949: d_0_1 + 19 mode_0_1 - 19 z_0_1 <= 0
 c950: d_0_1 + p_0_1 - z_0_1 >= 0
 c951: load_0_1 - 20 z_0_1 <= 0
 c952: p_0_2 - 14 z_0_2 <= 0
 c953: d_0_2 - 6 z_0_2 <= 0
 c954: mode_0_2 - z_0_2 <= 0
 c955: - 14 mode_0_2 + p_0_2 <= 0
 c956: d_0_2 + 6 mode_0_2 - 6 z_0_2 <= 0
 c957: d_0_2 + p_0_2 - z_0_2 >= 0
 c958: load_0_2 - 20 z_0_2 <= 0
 c959: p_0_3 - 4 z_0_3 <= 0
 c960: d_0_3 - 19 z_0_3 <= 0
 c961: mode_0_3 - z_0_3 <= 0
 c962: - 4 mode_0_3 + p_0_3 <= 0
 c963: d_0_3 + 19 mode_0_3 - 19 z_0_3 <= 0
 c964: d_0_3 + p_0_3 - z_0_3 >= 0
 c965: load_0_3 - 20 z_0_3 <= 0
 c966: p_0_4 - 16 z_0_4 <= 0
 c967: d_0_4 - 5 z_0_4 <= 0
 c968: mode_0_4 - z_0_4 <= 0
 c969: - 16 mode_0_4 + p_0_4 <= 0
 c970: d_0_4 + 5 mode_0_4 - 5 z_0_4 <= 0
 c971: d_0_4 + p_0_4 - z_0_4 >= 0
 c972: load_0_4 - 20 z_0_4 <= 0
 c973: p_0_5 - 4 z_0_5 <= 0
 c974: d_0_5 - 19 z_0_5 <= 0
 c975: mode_0_5 - z_0_5 <= 0
 c976: - 4 mode_0_5 + p_0_5 <= 0
 c977: d_0_5 + 19 mode_0_5 - 19 z_0_5 <= 0
 c978: d_0_5 + p_0_5 - z_0_5 >= 0
 c979: load_0_5 - 20 z_0_5 <= 0
 c980: p_0_6 - 17 z_0_6 <= 0
 c981: d_0_6 - 4 z_0_6 <= 0
 c982: mode_0_6 - z_0_6 <= 0
 c983: - 17 mode_0_6 + p_0_6 <= 0
 c984: d_0_6 + 4 mode_0_6 - 4 z_0_6 <= 0
 c985: d_0_6 + p_0_6 - z_0_6 >= 0
 c986: load_0_6 - 20 z_0_6 <= 0
 c987: p_0_7 - 16 z_0_7 <= 0
 c988: d_0_7 - 7 z_0_7 <= 0
 c989: mode_0_7 - z_0_7 <= 0
 c990: - 16 mode_0_7 + p_0_7 <= 0
 c991: d_0_7 + 7 mode_0_7 - 7 z_0_7 <= 0
 c992: d_0_7 + p_0_7 - z_0_7 >= 0
 c993: load_0_7 - 20 z_0_7 <= 0
 c994: p_0_8 - 3 z_0_8 <= 0
 c995: d_0_8 - 18 z_0_8 <= 0
 c996: mode_0_8 - z_0_8 <= 0
 c997: - 3 mode_0_8 + p_0_8 <= 0
 c998: d_0_8 + 18 mode_0_8 - 18 z_0_8 <= 0
 c999: d_0_8 + p_0_8 - z_0_8 >= 0
 c1000: load_0_8 - 20 z_0_8 <= 0
 c1001: p_0_9 - 3 z_0_9 <= 0
 c1002: d_0_9 - 16 z_0_9 <= 0
 c1003: mode_0_9 - z_0_9 <= 0
 c1004: - 3 mode_0_9 + p_0_9 <= 0
 c1005: d_0_9 + 16 mode_0_9 - 16 z_0_9 <= 0
 c1006: d_0_9 + p_0_9 - z_0_9 >= 0
 c1007: load_0_9 - 20 z_0_9 <= 0
 c1008: p_0_10 - 20 z_0_10 <= 0
 c1009: d_0_10 - 8 z_0_10 <= 0
 c1010: mode_0_10 - z_0_10 <= 0
 c1011: - 20 mode_0_10 + p_0_10 <= 0
 c1012: d_0_10 + 8 mode_0_10 - 8 z_0_10 <= 0
 c1013: d_0_10 + p_0_10 - z_0_10 >= 0
 c1014: load_0_10 - 20 z_0_10 <= 0
 c1015: p_0_11 - z_0_11 <= 0
 c1016: d_0_11 - 20 z_0_11 <= 0
 c1017: mode_0_11 - z_0_11 <= 0
 c1018: - mode_0_11 + p_0_11 <= 0
 c1019: d_0_11 + 20 mode_0_11 - 20 z_0_11 <= 0
 c1020: d_0_11 + p_0_11 - z_0_11 >= 0
 c1021: load_0_11 - 20 z_0_11 <= 0
 c1022: p_0_12 - 20 z_0_12 <= 0
 c1023: d_0_12 - 7 z_0_12 <= 0
 c1024: mode_0_12 - z_0_12 <= 0
 c1025: - 20 mode_0_12 + p_0_12 <= 0
 c1026: d_0_12 + 7 mode_0_12 - 7 z_0_12 <= 0
 c1027: d_0_12 + p_0_12 - z_0_12 >= 0
 c1028: load_0_12 - 20 z_0_12 <= 0
 c1029: p_0_13 - 14 z_0_13 <= 0
 c1030: d_0_13 - 7 z_0_13 <= 0
 c1031: mode_0_13 - z_0_13 <= 0
 c1032: - 14 mode_0_13 + p_0_13 <= 0
 c1033: d_0_13 + 7 mode_0_13 - 7 z_0_13 <= 0
 c1034: d_0_13 + p_0_13 - z_0_13 >= 0
 c1035: load_0_13 - 20 z_0_13 <= 0
 c1036: p_0_14 - 4 z_0_14 <= 0
 c1037: d_0_14 - 18 z_0_14 <= 0
 c1038: mode_0_14 - z_0_14 <= 0
 c1039: - 4 mode_0_14 + p_0_14 <= 0
 c1040: d_0_14 + 18 mode_0_14 - 18 z_0_14 <= 0
 c1041: d_0_14 + p_0_14 - z_0_14 >= 0
 c1042: load_0_14 - 20 z_0_14 <= 0
 c1043: p_0_15 - 12 z_0_15 <= 0
 c1044: d_0_15 - 7 z_0_15 <= 0
 c1045: mode_0_15 - z_0_15 <= 0
 c1046: - 12 mode_0_15 + p_0_15 <= 0
 c1047: d_0_15 + 7 mode_0_15 - 7 z_0_15 <= 0
 c1048: d_0_15 + p_0_15 - z_0_15 >= 0
 c1049: load_0_15 - 20 z_0_15 <= 0
 c1050: p_0_16 - 2 z_0_16 <= 0
 c1051: d_0_16 - 20 z_0_16 <= 0
 c1052: mode_0_16 - z_0_16 <= 0
 c1053: - 2 mode_0_16 + p_0_16 <= 0
 c1054: d_0_16 + 20 mode_0_16 - 20 z_0_16 <= 0
 c1055: d_0_16 + p_0_16 - z_0_16 >= 0
 c1056: load_0_16 - 20 z_0_16 <= 0
 c1057: p_0_17 - 16 z_0_17 <= 0
 c1058: d_0_17 - 5 z_0_17 <= 0
 c1059: mode_0_17 - z_0_17 <= 0
 c1060: - 16 mode_0_17 + p_0_17 <= 0
 c1061: d_0_17 + 5 mode_0_17 - 5 z_0_17 <= 0
 c1062: d_0_17 + p_0_17 - z_0_17 >= 0
 c1063: load_0_17 - 20 z_0_17 <= 0
 c1064: p_0_18 - 16 z_0_18 <= 0
 c1065: d_0_18 - 8 z_0_18 <= 0
 c1066: mode_0_18 - z_0_18 <= 0
 c1067: - 16 mode_0_18 + p_0_18 <= 0
 c1068: d_0_18 + 8 mode_0_18 - 8 z_0_18 <= 0
 c1069: d_0_18 + p_0_18 - z_0_18 >= 0
 c1070: load_0_18 - 20 z_0_18 <= 0
 c1071: p_0_19 - 4 z_0_19 <= 0
 c1072: d_0_19 - 16 z_0_19 <= 0
 c1073: mode_0_19 - z_0_19 <= 0
 c1074: - 4 mode_0_19 + p_0_19 <= 0
 c1075: d_0_19 + 16 mode_0_19 - 16 z_0_19 <= 0
 c1076: d_0_19 + p_0_19 - z_0_19 >= 0
 c1077: load_0_19 - 20 z_0_19 <= 0
 c1078: p_0_20 - 4 z_0_20 <= 0
 c1079: d_0_20 - 16 z_0_20 <= 0
 c1080: mode_0_20 - z_0_20 <= 0
 c1081: - 4 mode_0_20 + p_0_20 <= 0
 c1082: d_0_20 + 16 mode_0_20 - 16 z_0_20 <= 0
 c1083: d_0_20 + p_0_20 - z_0_20 >= 0
 c1084: load_0_20 - 20 z_0_20 <= 0
 c1085: d_0_1 + load_0_1 - p_0_1 + 20 x_0_0_1 <= 20
 c1086: d_0_1 + load_0_1 - p_0_1 - 20 x_0_0_1 >= -20
 c1087: d_0_2 + load_0_2 - p_0_2 + 20 x_0_0_2 <= 20
 c1088: d_0_2 + load_0_2 - p_0_2 - 20 x_0_0_2 >= -20
 c1089: d_0_3 + load_0_3 - p_0_3 + 20 x_0_0_3 <= 20
 c1090: d_0_3 + load_0_3 - p_0_3 - 20 x_0_0_3 >= -20
 c1091: d_0_4 + load_0_4 - p_0_4 + 20 x_0_0_4 <= 20
 c1092: d_0_4 + load_0_4 - p_0_4 - 20 x_0_0_4 >= -20
 c1093: d_0_5 + load_0_5 - p_0_5 + 20 x_0_0_5 <= 20
 c1094: d_0_5 + load_0_5 - p_0_5 - 20 x_0_0_5 >= -20
 c1095: d_0_6 + load_0_6 - p_0_6 + 20 x_0_0_6 <= 20
 c1096: d_0_6 + load_0_6 - p_0_6 - 20 x_0_0_6 >= -20
 c1097: d_0_7 + load_0_7 - p_0_7 + 20 x_0_0_7 <= 20
 c1098: d_0_7 + load_0_7 - p_0_7 - 20 x_0_0_7 >= -20
 c1099: d_0_8 + load_0_8 - p_0_8 + 20 x_0_0_8 <= 20
 c1100: d_0_8 + load_0_8 - p_0_8 - 20 x_0_0_8 >= -20
 c1101: d_0_9 + load_0_9 - p_0_9 + 20 x_0_0_9 <= 20
 c1102: d_0_9 + load_0_9 - p_0_9 - 20 x_0_0_9 >= -20
 c1103: d_0_10 + load_0_10 - p_0_10 + 20 x_0_0_10 <= 20
 c1104: d_0_10 + load_0_10 - p_0_10 - 20 x_0_0_10 >= -20
 c1105: d_0_11 + load_0_11 - p_0_11 + 20 x_0_0_11 <= 20
 c1106: d_0_11 + load_0_11 - p_0_11 - 20 x_0_0_11 >= -20
 c1107: d_0_12 + load_0_12 - p_0_12 + 20 x_0_0_12 <= 20
 c1108: d_0_12 + load_0_12 - p_0_12 - 20 x_0_0_12 >= -20
 c1109: d_0_13 + load_0_13 - p_0_13 + 20 x_0_0_13 <= 20
 c1110: d_0_13 + load_0_13 - p_0_13 - 20 x_0_0_13 >= -20
 c1111: d_0_14 + load_0_14 - p_0_14 + 20 x_0_0_14 <= 20
 c1112: d_0_14 + load_0_14 - p_0_14 - 20 x_0_0_14 >= -20
 c1113: d_0_15 + load_0_15 - p_0_15 + 20 x_0_0_15 <= 20
 c1114: d_0_15 + load_0_15 - p_0_15 - 20 x_0_0_15 >= -20
 c1115: d_0_16 + load_0_16 - p_0_16 + 20 x_0_0_16 <= 20
 c1116: d_0_16 + load_0_16 - p_0_16 - 20 x_0_0_16 >= -20
 c1117: d_0_17 + load_0_17 - p_0_17 + 20 x_0_0_17 <= 20
 c1118: d_0_17 + load_0_17 - p_0_17 - 20 x_0_0_17 >= -20
 c1119: d_0_18 + load_0_18 - p_0_18 + 20 x_0_0_18 <= 20
 c1120: d_0_18 + load_0_18 - p_0_18 - 20 x_0_0_18 >= -20
 c1121: d_0_19 + load_0_19 - p_0_19 + 20 x_0_0_19 <= 20
 c1122: d_0_19 + load_0_19 - p_0_19 - 20 x_0_0_19 >= -20
 c1123: d_0_20 + load_0_20 - p_0_20 + 20 x_0_0_20 <= 20
 c1124: d_0_20 + load_0_20 - p_0_20 - 20 x_0_0_20 >= -20
 c1125: d_0_2 - load_0_1 + load_0_2 - p_0_2 + 20 x_0_1_2 <= 20
 c1126: d_0_2 - load_0_1 + load_0_2 - p_0_2 - 20 x_0_1_2 >= -20
 c1127: d_0_3 - load_0_1 + load_0_3 - p_0_3 + 20 x_0_1_3 <= 20
 c1128: d_0_3 - load_0_1 + load_0_3 - p_0_3 - 20 x_0_1_3 >= -20
 c1129: d_0_4 - load_0_1 + load_0_4 - p_0_4 + 20 x_0_1_4 <= 20
 c1130: d_0_4 - load_0_1 + load_0_4 - p_0_4 - 20 x_0_1_4 >= -20
 c1131: d_0_5 - load_0_1 + load_0_5 - p_0_5 + 20 x_0_1_5 <= 20
 c1132: d_0_5 - load_0_1 + load_0_5 - p_0_5 - 20 x_0_1_5 >= -20
 c1133: d_0_6 - load_0_1 + load_0_6 - p_0_6 + 20 x_0_1_6 <= 20
 c1134: d_0_6 - load_0_1 + load_0_6 - p_0_6 - 20 x_0_1_6 >= -20
 c1135: d_0_7 - load_0_1 + load_0_7 - p_0_7 + 20 x_0_1_7 <= 20
 c1136: d_0_7 - load_0_1 + load_0_7 - p_0_7 - 20 x_0_1_7 >= -20
 c1137: d_0_8 - load_0_1 + load_0_8 - p_0_8 + 20 x_0_1_8 <= 20
 c1138: d_0_8 - load_0_1 + load_0_8 - p_0_8 - 20 x_0_1_8 >= -20
 c1139: d_0_9 - load_0_1 + load_0_9 - p_0_9 + 20 x_0_1_9 <= 20
 c1140: d_0_9 - load_0_1 + load_0_9 - p_0_9 - 20 x_0_1_9 >= -20
 c1141: d_0_10 - load_0_1 + load_0_10 - p_0_10 + 20 x_0_1_10 <= 20
 c1142: d_0_10 - load_0_1 + load_0_10 - p_0_10 - 20 x_0_1_10 >= -20
 c1143: d_0_11 - load_0_1 + load_0_11 - p_0_11 + 20 x_0_1_11 <= 20
 c1144: d_0_11 - load_0_1 + load_0_11 - p_0_11 - 20 x_0_1_11 >= -20
 c1145: d_0_12 - load_0_1 + load_0_12 - p_0_12 + 20 x_0_1_12 <= 20
 c1146: d_0_12 - load_0_1 + load_0_12 - p_0_12 - 20 x_0_1_12 >= -20
 c1147: d_0_13 - load_0_1 + load_0_13 - p_0_13 + 20 x_0_1_13 <= 20
 c1148: d_0_13 - load_0_1 + load_0_13 - p_0_13 - 20 x_0_1_13 >= -20
 c1149: d_0_14 - load_0_1 + load_0_14 - p_0_14 + 20 x_0_1_14 <= 20
 c1150: d_0_14 - load_0_1 + load_0_14 - p_0_14 - 20 x_0_1_14 >= -20
 c1151: d_0_15 - load_0_1 + load_0_15 - p_0_15 + 20 x_0_1_15 <= 20
 c1152: d_0_15 - load_0_1 + load_0_15 - p_0_15 - 20 x_0_1_15 >= -20
 c1153: d_0_16 - load_0_1 + load_0_16 - p_0_16 + 20 x_0_1_16 <= 20
 c1154: d_0_16 - load_0_1 + load_0_16 - p_0_16 - 20 x_0_1_16 >= -20
 c1155: d_0_17 - load_0_1 + load_0_17 - p_0_17 + 20 x_0_1_17 <= 20
 c1156: d_0_17 - load_0_1 + load_0_17 - p_0_17 - 20 x_0_1_17 >= -20
 c1157: d_0_18 - load_0_1 + load_0_18 - p_0_18 + 20 x_0_1_18 <= 20
 c1158: d_0_18 - load_0_1 + load_0_18 - p_0_18 - 20 x_0_1_18 >= -20
 c1159: d_0_19 - load_0_1 + load_0_19 - p_0_19 + 20 x_0_1_19 <= 20
 c1160: d_0_19 - load_0_1 + load_0_19 - p_0_19 - 20 x_0_1_19 >= -20
 c1161: d_0_20 - load_0_1 + load_0_20 - p_0_20 + 20 x_0_1_20 <= 20
 c1162: d_0_20 - load_0_1 + load_0_20 - p_0_20 - 20 x_0_1_20 >= -20
 c1163: d_0_1 + load_0_1 - load_0_2 - p_0_1 + 20 x_0_2_1 <= 20
 c1164: d_0_1 + load_0_1 - load_0_2 - p_0_1 - 20 x_0_2_1 >= -20
 c1165: d_0_3 - load_0_2 + load_0_3 - p_0_3 + 20 x_0_2_3 <= 20
 c1166: d_0_3 - load_0_2 + load_0_3 - p_0_3 - 20 x_0_2_3 >= -20
 c1167: d_0_4 - load_0_2 + load_0_4 - p_0_4 + 20 x_0_2_4 <= 20
 c1168: d_0_4 - load_0_2 + load_0_4 - p_0_4 - 20 x_0_2_4 >= -20
 c1169: d_0_5 - load_0_2 + load_0_5 - p_0_5 + 20 x_0_2_5 <= 20
 c1170: d_0_5 - load_0_2 + load_0_5 - p_0_5 - 20 x_0_2_5 >= -20
 c1171: d_0_6 - load_0_2 + load_0_6 - p_0_6 + 20 x_0_2_6 <= 20
 c1172: d_0_6 - load_0_2 + load_0_6 - p_0_6 - 20 x_0_2_6 >= -20
 c1173: d_0_7 - load_0_2 + load_0_7 - p_0_7 + 20 x_0_2_7 <= 20
 c1174: d_0_7 - load_0_2 + load_0_7 - p_0_7 - 20 x_0_2_7 >= -20
 c1175: d_0_8 - load_0_2 + load_0_8 - p_0_8 + 20 x_0_2_8 <= 20
 c1176: d_0_8 - load_0_2 + load_0_8 - p_0_8 - 20 x_0_2_8 >= -20
 c1177: d_0_9 - load_0_2 + load_0_9 - p_0_9 + 20 x_0_2_9 <= 20
 c1178: d_0_9 - load_0_2 + load_0_9 - p_0_9 - 20 x_0_2_9 >= -20
 c1179: d_0_10 + load_0_10 - load_0_2 - p_0_10 + 20 x_0_2_10 <= 20
 c1180: d_0_10 + load_0_10 - load_0_2 - p_0_10 - 20 x_0_2_10 >= -20
 c1181: d_0_11 + load_0_11 - load_0_2 - p_0_11 + 20 x_0_2_11 <= 20
 c1182: d_0_11 + load_0_11 - load_0_2 - p_0_11 - 20 x_0_2_11 >= -20
 c1183: d_0_12 + load_0_12 - load_0_2 - p_0_12 + 20 x_0_2_12 <= 20
 c1184: d_0_12 + load_0_12 - load_0_2 - p_0_12 - 20 x_0_2_12 >= -20
 c1185: d_0_13 + load_0_13 - load_0_2 - p_0_13 + 20 x_0_2_13 <= 20
 c1186: d_0_13 + load_0_13 - load_0_2 - p_0_13 - 20 x_0_2_13 >= -20
 c1187: d_0_14 + load_0_14 - load_0_2 - p_0_14 + 20 x_0_2_14 <= 20
 c1188: d_0_14 + load_0_14 - load_0_2 - p_0_14 - 20 x_0_2_14 >= -20
 c1189: d_0_15 + load_0_15 - load_0_2 - p_0_15 + 20 x_0_2_15 <= 20
 c1190: d_0_15 + load_0_15 - load_0_2 - p_0_15 - 20 x_0_2_15 >= -20
 c1191: d_0_16 + load_0_16 - load_0_2 - p_0_16 + 20 x_0_2_16 <= 20
 c1192: d_0_16 + load_0_16 - load_0_2 - p_0_16 - 20 x_0_2_16 >= -20
 c1193: d_0_17 + load_0_17 - load_0_2 - p_0_17 + 20 x_0_2_17 <= 20
 c1194: d_0_17 + load_0_17 - load_0_2 - p_0_17 - 20 x_0_2_17 >= -20
 c1195: d_0_18 + load_0_18 - load_0_2 - p_0_18 + 20 x_0_2_18 <= 20
 c1196: d_0_18 + load_0_18 - load_0_2 - p_0_18 - 20 x_0_2_18 >= -20
 c1197: d_0_19 + load_0_19 - load_0_2 - p_0_19 + 20 x_0_2_19 <= 20
 c1198: d_0_19 + load_0_19 - load_0_2 - p_0_19 - 20 x_0_2_19 >= -20
 c1199: d_0_20 - load_0_2 + load_0_20 - p_0_20 + 20 x_0_2_20 <= 20
 c1200: d_0_20 - load_0_2 + load_0_20 - p_0_20 - 20 x_0_2_20 >= -20
 c1201: d_0_1 + load_0_1 - load_0_3 - p_0_1 + 20 x_0_3_1 <= 20
 c1202: d_0_1 + load_0_1 - load_0_3 - p_0_1 - 20 x_0_3_1 >= -20
 c1203: d_0_2 + load_0_2 - load_0_3 - p_0_2 + 20 x_0_3_2 <= 20
 c1204: d_0_2 + load_0_2 - load_0_3 - p_0_2 - 20 x_0_3_2 >= -20
 c1205: d_0_4 - load_0_3 + load_0_4 - p_0_4 + 20 x_0_3_4 <= 20
 c1206: d_0_4 - load_0_3 + load_0_4 - p_0_4 - 20 x_0_3_4 >= -20
 c1207: d_0_5 - load_0_3 + load_0_5 - p_0_5 + 20 x_0_3_5 <= 20
 c1208: d_0_5 - load_0_3 + load_0_5 - p_0_5 - 20 x_0_3_5 >= -20
 c1209: d_0_6 - load_0_3 + load_0_6 - p_0_6 + 20 x_0_3_6 <= 20
 c1210: d_0_6 - load_0_3 + load_0_6 - p_0_6 - 20 x_0_3_6 >= -20
 c1211: d_0_7 - load_0_3 + load_0_7 - p_0_7 + 20 x_0_3_7 <= 20
 c1212: d_0_7 - load_0_3 + load_0_7 - p_0_7 - 20 x_0_3_7 >= -20
 c1213: d_0_8 - load_0_3 + load_0_8 - p_0_8 + 20 x_0_3_8 <= 20
 c1214: d_0_8 - load_0_3 + load_0_8 - p_0_8 - 20 x_0_3_8 >= -20
 c1215: d_0_9 - load_0_3 + load_0_9 - p_0_9 + 20 x_0_3_9 <= 20
 c1216: d_0_9 - load_0_3 + load_0_9 - p_0_9 - 20 x_0_3_9 >= -20
 c1217: d_0_10 + load_0_10 - load_0_3 - p_0_10 + 20 x_0_3_10 <= 20
 c1218: d_0_10 + load_0_10 - load_0_3 - p_0_10 - 20 x_0_3_10 >= -20
 c1219: d_0_11 + load_0_11 - load_0_3 - p_0_11 + 20 x_0_3_11 <= 20
 c1220: d_0_11 + load_0_11 - load_0_3 - p_0_11 - 20 x_0_3_11 >= -20
 c1221: d_0_12 + load_0_12 - load_0_3 - p_0_12 + 20 x_0_3_12 <= 20
 c1222: d_0_12 + load_0_12 - load_0_3 - p_0_12 - 20 x_0_3_12 >= -20
 c1223: d_0_13 + load_0_13 - load_0_3 - p_0_13 + 20 x_0_3_13 <= 20
 c1224: d_0_13 + load_0_13 - load_0_3 - p_0_13 - 20 x_0_3_13 >= -20
 c1225: d_0_14 + load_0_14 - load_0_3 - p_0_14 + 20 x_0_3_14 <= 20
 c1226: d_0_14 + load_0_14 - load_0_3 - p_0_14 - 20 x_0_3_14 >= -20
 c1227: d_0_15 + load_0_15 - load_0_3 - p_0_15 + 20 x_0_3_15 <= 20
 c1228: d_0_15 + load_0_15 - load_0_3 - p_0_15 - 20 x_0_3_15 >= -20
 c1229: d_0_16 + load_0_16 - load_0_3 - p_0_16 + 20 x_0_3_16 <= 20
 c1230: d_0_16 + load_0_16 - load_0_3 - p_0_16 - 20 x_0_3_16 >= -20
 c1231: d_0_17 + load_0_17 - load_0_3 - p_0_17 + 20 x_0_3_17 <= 20
 c1232: d_0_17 + load_0_17 - load_0_3 - p_0_17 - 20 x_0_3_17 >= -20
 c1233: d_0_18 + load_0_18 - load_0_3 - p_0_18 + 20 x_0_3_18 <= 20
 c1234: d_0_18 + load_0_18 - load_0_3 - p_0_18 - 20 x_0_3_18 >= -20
 c1235: d_0_19 + load_0_19 - load_0_3 - p_0_19 + 20 x_0_3_19 <= 20
 c1236: d_0_19 + load_0_19 - load_0_3 - p_0_19 - 20 x_0_3_19 >= -20
 c1237: d_0_20 + load_0_20 - load_0_3 - p_0_20 + 20 x_0_3_20 <= 20
 c1238: d_0_20 + load_0_20 - load_0_3 - p_0_20 - 20 x_0_3_20 >= -20
 c1239: d_0_1 + load_0_1 - load_0_4 - p_0_1 + 20 x_0_4_1 <= 20
 c1240: d_0_1 + load_0_1 - load_0_4 - p_0_1 - 20 x_0_4_1 >= -20
 c1241: d_0_2 + load_0_2 - load_0_4 - p_0_2 + 20 x_0_4_2 <= 20
 c1242: d_0_2 + load_0_2 - load_0_4 - p_0_2 - 20 x_0_4_2 >= -20
 c1243: d_0_3 + load_0_3 - load_0_4 - p_0_3 + 20 x_0_4_3 <= 20
 c1244: d_0_3 + load_0_3 - load_0_4 - p_0_3 - 20 x_0_4_3 >= -20
 c1245: d_0_5 - load_0_4 + load_0_5 - p_0_5 + 20 x_0_4_5 <= 20
 c1246: d_0_5 - load_0_4 + load_0_5 - p_0_5 - 20 x_0_4_5 >= -20
 c1247: d_0_6 - load_0_4 + load_0_6 - p_0_6 + 20 x_0_4_6 <= 20
 c1248: d_0_6 - load_0_4 + load_0_6 - p_0_6 - 20 x_0_4_6 >= -20
 c1249: d_0_7 - load_0_4 + load_0_7 - p_0_7 + 20 x_0_4_7 <= 20
 c1250: d_0_7 - load_0_4 + load_0_7 - p_0_7 - 20 x_0_4_7 >= -20
 c1251: d_0_8 - load_0_4 + load_0_8 - p_0_8 + 20 x_0_4_8 <= 20
 c1252: d_0_8 - load_0_4 + load_0_8 - p_0_8 - 20 x_0_4_8 >= -20
 c1253: d_0_9 - load_0_4 + load_0_9 - p_0_9 + 20 x_0_4_9 <= 20
 c1254: d_0_9 - load_0_4 + load_0_9 - p_0_9 - 20 x_0_4_9 >= -20
 c1255: d_0_10 + load_0_10 - load_0_4 - p_0_10 + 20 x_0_4_10 <= 20
 c1256: d_0_10 + load_0_10 - load_0_4 - p_0_10 - 20 x_0_4_10 >= -20
 c1257: d_0_11 + load_0_11 - load_0_4 - p_0_11 + 20 x_0_4_11 <= 20
 c1258: d_0_11 + load_0_11 - load_0_4 - p_0_11 - 20 x_0_4_11 >= -20
 c1259: d_0_12 + load_0_12 - load_0_4 - p_0_12 + 20 x_0_4_12 <= 20
 c1260: d_0_12 + load_0_12 - load_0_4 - p_0_12 - 20 x_0_4_12 >= -20
 c1261: d_0_13 + load_0_13 - load_0_4 - p_0_13 + 20 x_0_4_13 <= 20
 c1262: d_0_13 + load_0_13 - load_0_4 - p_0_13 - 20 x_0_4_13 >= -20
 c1263: d_0_14 + load_0_14 - load_0_4 - p_0_14 + 20 x_0_4_14 <= 20
 c1264: d_0_14 + load_0_14 - load_0_4 - p_0_14 - 20 x_0_4_14 >= -20
 c1265: d_0_15 + load_0_15 - load_0_4 - p_0_15 + 20 x_0_4_15 <= 20
 c1266: d_0_15 + load_0_15 - load_0_4 - p_0_15 - 20 x_0_4_15 >= -20
 c1267: d_0_16 + load_0_16 - load_0_4 - p_0_16 + 20 x_0_4_16 <= 20
 c1268: d_0_16 + load_0_16 - load_0_4 - p_0_16 - 20 x_0_4_16 >= -20
 c1269: d_0_17 + load_0_17 - load_0_4 - p_0_17 + 20 x_0_4_17 <= 20
 c1270: d_0_17 + load_0_17 - load_0_4 - p_0_17 - 20 x_0_4_17 >= -20
 c1271: d_0_18 + load_0_18 - load_0_4 - p_0_18 + 20 x_0_4_18 <= 20
 c1272: d_0_18 + load_0_18 - load_0_4 - p_0_18 - 20 x_0_4_18 >= -20
 c1273: d_0_19 + load_0_19 - load_0_4 - p_0_19 + 20 x_0_4_19 <= 20
 c1274: d_0_19 + load_0_19 - load_0_4 - p_0_19 - 20 x_0_4_19 >= -20
 c1275: d_0_20 + load_0_20 - load_0_4 - p_0_20 + 20 x_0_4_20 <= 20
 c1276: d_0_20 + load_0_20 - load_0_4 - p_0_20 - 20 x_0_4_20 >= -20
 c1277: d_0_1 + load_0_1 - load_0_5 - p_0_1 + 20 x_0_5_1 <= 20
 c1278: d_0_1 + load_0_1 - load_0_5 - p_0_1 - 20 x_0_5_1 >= -20
 c1279: d_0_2 + load_0_2 - load_0_5 - p_0_2 + 20 x_0_5_2 <= 20
 c1280: d_0_2 + load_0_2 - load_0_5 - p_0_2 - 20 x_0_5_2 >= -20
 c1281: d_0_3 + load_0_3 - load_0_5 - p_0_3 + 20 x_0_5_3 <= 20
 c1282: d_0_3 + load_0_3 - load_0_5 - p_0_3 - 20 x_0_5_3 >= -20
 c1283: d_0_4 + load_0_4 - load_0_5 - p_0_4 + 20 x_0_5_4 <= 20
 c1284: d_0_4 + load_0_4 - load_0_5 - p_0_4 - 20 x_0_5_4 >= -20
 c1285: d_0_6 - load_0_5 + load_0_6 - p_0_6 + 20 x_0_5_6 <= 20
 c1286: d_0_6 - load_0_5 + load_0_6 - p_0_6 - 20 x_0_5_6 >= -20
 c1287: d_0_7 - load_0_5 + load_0_7 - p_0_7 + 20 x_0_5_7 <= 20
 c1288: d_0_7 - load_0_5 + load_0_7 - p_0_7 - 20 x_0_5_7 >= -20
 c1289: d_0_8 - load_0_5 + load_0_8 - p_0_8 + 20 x_0_5_8 <= 20
 c1290: d_0_8 - load_0_5 + load_0_8 - p_0_8 - 20 x_0_5_8 >= -20
 c1291: d_0_9 - load_0_5 + load_0_9 - p_0_9 + 20 x_0_5_9 <= 20
 c1292: d_0_9 - load_0_5 + load_0_9 - p_0_9 - 20 x_0_5_9 >= -20
 c1293: d_0_10 + load_0_10 - load_0_5 - p_0_10 + 20 x_0_5_10 <= 20
 c1294: d_0_10 + load_0_10 - load_0_5 - p_0_10 - 20 x_0_5_10 >= -20
 c1295: d_0_11 + load_0_11 - load_0_5 - p_0_11 + 20 x_0_5_11 <= 20
 c1296: d_0_11 + load_0_11 - load_0_5 - p_0_11 - 20 x_0_5_11 >= -20
 c1297: d_0_12 + load_0_12 - load_0_5 - p_0_12 + 20 x_0_5_12 <= 20
 c1298: d_0_12 + load_0_12 - load_0_5 - p_0_12 - 20 x_0_5_12 >= -20
 c1299: d_0_13 + load_0_13 - load_0_5 - p_0_13 + 20 x_0_5_13 <= 20
 c1300: d_0_13 + load_0_13 - load_0_5 - p_0_13 - 20 x_0_5_13 >= -20
 c1301: d_0_14 + load_0_14 - load_0_5 - p_0_14 + 20 x_0_5_14 <= 20
 c1302: d_0_14 + load_0_14 - load_0_5 - p_0_14 - 20 x_0_5_14 >= -20
 c1303: d_0_15 + load_0_15 - load_0_5 - p_0_15 + 20 x_0_5_15 <= 20
 c1304: d_0_15 + load_0_15 - load_0_5 - p_0_15 - 20 x_0_5_15 >= -20
 c1305: d_0_16 + load_0_16 - load_0_5 - p_0_16 + 20 x_0_5_16 <= 20
 c1306: d_0_16 + load_0_16 - load_0_5 - p_0_16 - 20 x_0_5_16 >= -20
 c1307: d_0_17 + load_0_17 - load_0_5 - p_0_17 + 20 x_0_5_17 <= 20
 c1308: d_0_17 + load_0_17 - load_0_5 - p_0_17 - 20 x_0_5_17 >= -20
 c1309: d_0_18 + load_0_18 - load_0_5 - p_0_18 + 20 x_0_5_18 <= 20
 c1310: d_0_18 + load_0_18 - load_0_5 - p_0_18 - 20 x_0_5_18 >= -20
 c1311: d_0_19 + load_0_19 - load_0_5 - p_0_19 + 20 x_0_5_19 <= 20
 c1312: d_0_19 + load_0_19 - load_0_5 - p_0_19 - 20 x_0_5_19 >= -20
 c1313: d_0_20 + load_0_20 - load_0_5 - p_0_20 + 20 x_0_5_20 <= 20
 c1314: d_0_20 + load_0_20 - load_0_5 - p_0_20 - 20 x_0_5_20 >= -20
 c1315: d_0_1 + load_0_1 - load_0_6 - p_0_1 + 20 x_0_6_1 <= 20
 c1316: d_0_1 + load_0_1 - load_0_6 - p_0_1 - 20 x_0_6_1 >= -20
 c1317: d_0_2 + load_0_2 - load_0_6 - p_0_2 + 20 x_0_6_2 <= 20
 c1318: d_0_2 + load_0_2 - load_0_6 - p_0_2 - 20 x_0_6_2 >= -20
 c1319: d_0_3 + load_0_3 - load_0_6 - p_0_3 + 20 x_0_6_3 <= 20
 c1320: d_0_3 + load_0_3 - load_0_6 - p_0_3 - 20 x_0_6_3 >= -20
 c1321: d_0_4 + load_0_4 - load_0_6 - p_0_4 + 20 x_0_6_4 <= 20
 c1322: d_0_4 + load_0_4 - load_0_6 - p_0_4 - 20 x_0_6_4 >= -20
 c1323: d_0_5 + load_0_5 - load_0_6 - p_0_5 + 20 x_0_6_5 <= 20
 c1324: d_0_5 + load_0_5 - load_0_6 - p_0_5 - 20 x_0_6_5 >= -20
 c1325: d_0_7 - load_0_6 + load_0_7 - p_0_7 + 20 x_0_6_7 <= 20
 c1326: d_0_7 - load_0_6 + load_0_7 - p_0_7 - 20 x_0_6_7 >= -20
 c1327: d_0_8 - load_0_6 + load_0_8 - p_0_8 + 20 x_0_6_8 <= 20
 c1328: d_0_8 - load_0_6 + load_0_8 - p_0_8 - 20 x_0_6_8 >= -20
 c1329: d_0_9 - load_0_6 + load_0_9 - p_0_9 + 20 x_0_6_9 <= 20
 c1330: d_0_9 - load_0_6 + load_0_9 - p_0_9 - 20 x_0_6_9 >= -20
 c1331: d_0_10 + load_0_10 - load_0_6 - p_0_10 + 20 x_0_6_10 <= 20
 c1332: d_0_10 + load_0_10 - load_0_6 - p_0_10 - 20 x_0_6_10 >= -20
 c1333: d_0_11 + load_0_11 - load_0_6 - p_0_11 + 20 x_0_6_11 <= 20
 c1334: d_0_11 + load_0_11 - load_0_6 - p_0_11 - 20 x_0_6_11 >= -20
 c1335: d_0_12 + load_0_12 - load_0_6 - p_0_12 + 20 x_0_6_12 <= 20
 c1336: d_0_12 + load_0_12 - load_0_6 - p_0_12 - 20 x_0_6_12 >= -20
 c1337: d_0_13 + load_0_13 - load_0_6 - p_0_13 + 20 x_0_6_13 <= 20
 c1338: d_0_13 + load_0_13 - load_0_6 - p_0_13 - 20 x_0_6_13 >= -20
 c1339: d_0_14 + load_0_14 - load_0_6 - p_0_14 + 20 x_0_6_14 <= 20
 c1340: d_0_14 + load_0_14 - load_0_6 - p_0_14 - 20 x_0_6_14 >= -20
 c1341: d_0_15 + load_0_15 - load_0_6 - p_0_15 + 20 x_0_6_15 <= 20
 c1342: d_0_15 + load_0_15 - load_0_6 - p_0_15 - 20 x_0_6_15 >= -20
 c1343: d_0_16 + load_0_16 - load_0_6 - p_0_16 + 20 x_0_6_16 <= 20
 c1344: d_0_16 + load_0_16 - load_0_6 - p_0_16 - 20 x_0_6_16 >= -20
 c1345: d_0_17 + load_0_17 - load_0_6 - p_0_17 + 20 x_0_6_17 <= 20
 c1346: d_0_17 + load_0_17 - load_0_6 - p_0_17 - 20 x_0_6_17 >= -20
 c1347: d_0_18 + load_0_18 - load_0_6 - p_0_18 + 20 x_0_6_18 <= 20
 c1348: d_0_18 + load_0_18 - load_0_6 - p_0_18 - 20 x_0_6_18 >= -20
 c1349: d_0_19 + load_0_19 - load_0_6 - p_0_19 + 20 x_0_6_19 <= 20
 c1350: d_0_19 + load_0_19 - load_0_6 - p_0_19 - 20 x_0_6_19 >= -20
 c1351: d_0_20 + load_0_20 - load_0_6 - p_0_20 + 20 x_0_6_20 <= 20
 c1352: d_0_20 + load_0_20 - load_0_6 - p_0_20 - 20 x_0_6_20 >= -20
 c1353: d_0_1 + load_0_1 - load_0_7 - p_0_1 + 20 x_0_7_1 <= 20
 c1354: d_0_1 + load_0_1 - load_0_7 - p_0_1 - 20 x_0_7_1 >= -20
 c1355: d_0_2 + load_0_2 - load_0_7 - p_0_2 + 20 x_0_7_2 <= 20
 c1356: d_0_2 + load_0_2 - load_0_7 - p_0_2 - 20 x_0_7_2 >= -20
 c1357: d_0_3 + load_0_3 - load_0_7 - p_0_3 + 20 x_0_7_3 <= 20
 c1358: d_0_3 + load_0_3 - load_0_7 - p_0_3 - 20 x_0_7_3 >= -20
 c1359: d_0_4 + load_0_4 - load_0_7 - p_0_4 + 20 x_0_7_4 <= 20
 c1360: d_0_4 + load_0_4 - load_0_7 - p_0_4 - 20 x_0_7_4 >= -20
 c1361: d_0_5 + load_0_5 - load_0_7 - p_0_5 + 20 x_0_7_5 <= 20
 c1362: d_0_5 + load_0_5 - load_0_7 - p_0_5 - 20 x_0_7_5 >= -20
 c1363: d_0_6 + load_0_6 - load_0_7 - p_0_6 + 20 x_0_7_6 <= 20
 c1364: d_0_6 + load_0_6 - load_0_7 - p_0_6 - 20 x_0_7_6 >= -20
 c1365: d_0_8 - load_0_7 + load_0_8 - p_0_8 + 20 x_0_7_8 <= 20
 c1366: d_0_8 - load_0_7 + load_0_8 - p_0_8 - 20 x_0_7_8 >= -20
 c1367: d_0_9 - load_0_7 + load_0_9 - p_0_9 + 20 x_0_7_9 <= 20
 c1368: d_0_9 - load_0_7 + load_0_9 - p_0_9 - 20 x_0_7_9 >= -20
 c1369: d_0_10 + load_0_10 - load_0_7 - p_0_10 + 20 x_0_7_10 <= 20
 c1370: d_0_10 + load_0_10 - load_0_7 - p_0_10 - 20 x_0_7_10 >= -20
 c1371: d_0_11 + load_0_11 - load_0_7 - p_0_11 + 20 x_0_7_11 <= 20
 c1372: d_0_11 + load_0_11 - load_0_7 - p_0_11 - 20 x_0_7_11 >= -20
 c1373: d_0_12 + load_0_12 - load_0_7 - p_0_12 + 20 x_0_7_12 <= 20
 c1374: d_0_12 + load_0_12 - load_0_7 - p_0_12 - 20 x_0_7_12 >= -20
 c1375: d_0_13 + load_0_13 - load_0_7 - p_0_13 + 20 x_0_7_13 <= 20
 c1376: d_0_13 + load_0_13 - load_0_7 - p_0_13 - 20 x_0_7_13 >= -20
 c1377: d_0_14 + load_0_14 - load_0_7 - p_0_14 + 20 x_0_7_14 <= 20
 c1378: d_0_14 + load_0_14 - load_0_7 - p_0_14 - 20 x_0_7_14 >= -20
 c1379: d_0_15 + load_0_15 - load_0_7 - p_0_15 + 20 x_0_7_15 <= 20
 c1380: d_0_15 + load_0_15 - load_0_7 - p_0_15 - 20 x_0_7_15 >= -20
 c1381: d_0_16 + load_0_16 - load_0_7 - p_0_16 + 20 x_0_7_16 <= 20
 c1382: d_0_16 + load_0_16 - load_0_7 - p_0_16 - 20 x_0_7_16 >= -20
 c1383: d_0_17 + load_0_17 - load_0_7 - p_0_17 + 20 x_0_7_17 <= 20
 c1384: d_0_17 + load_0_17 - load_0_7 - p_0_17 - 20 x_0_7_17 >= -20
 c1385: d_0_18 + load_0_18 - load_0_7 - p_0_18 + 20 x_0_7_18 <= 20
 c1386: d_0_18 + load_0_18 - load_0_7 - p_0_18 - 20 x_0_7_18 >= -20
 c1387: d_0_19 + load_0_19 - load_0_7 - p_0_19 + 20 x_0_7_19 <= 20
 c1388: d_0_19 + load_0_19 - load_0_7 - p_0_19 - 20 x_0_7_19 >= -20
 c1389: d_0_20 + load_0_20 - load_0_7 - p_0_20 + 20 x_0_7_20 <= 20
 c1390: d_0_20 + load_0_20 - load_0_7 - p_0_20 - 20 x_0_7_20 >= -20
 c1391: d_0_1 + load_0_1 - load_0_8 - p_0_1 + 20 x_0_8_1 <= 20
 c1392: d_0_1 + load_0_1 - load_0_8 - p_0_1 - 20 x_0_8_1 >= -20
 c1393: d_0_2 + load_0_2 - load_0_8 - p_0_2 + 20 x_0_8_2 <= 20
 c1394: d_0_2 + load_0_2 - load_0_8 - p_0_2 - 20 x_0_8_2 >= -20
 c1395: d_0_3 + load_0_3 - load_0_8 - p_0_3 + 20 x_0_8_3 <= 20
 c1396: d_0_3 + load_0_3 - load_0_8 - p_0_3 - 20 x_0_8_3 >= -20
 c1397: d_0_4 + load_0_4 - load_0_8 - p_0_4 + 20 x_0_8_4 <= 20
 c1398: d_0_4 + load_0_4 - load_0_8 - p_0_4 - 20 x_0_8_4 >= -20
 c1399: d_0_5 + load_0_5 - load_0_8 - p_0_5 + 20 x_0_8_5 <= 20
 c1400: d_0_5 + load_0_5 - load_0_8 - p_0_5 - 20 x_0_8_5 >= -20
 c1401: d_0_6 + load_0_6 - load_0_8 - p_0_6 + 20 x_0_8_6 <= 20
 c1402: d_0_6 + load_0_6 - load_0_8 - p_0_6 - 20 x_0_8_6 >= -20
 c1403: d_0_7 + load_0_7 - load_0_8 - p_0_7 + 20 x_0_8_7 <= 20
 c1404: d_0_7 + load_0_7 - load_0_8 - p_0_7 - 20 x_0_8_7 >= -20
 c1405: d_0_9 - load_0_8 + load_0_9 - p_0_9 + 20 x_0_8_9 <= 20
 c1406: d_0_9 - load_0_8 + load_0_9 - p_0_9 - 20 x_0_8_9 >= -20
 c1407: d_0_10 + load_0_10 - load_0_8 - p_0_10 + 20 x_0_8_10 <= 20
 c1408: d_0_10 + load_0_10 - load_0_8 - p_0_10 - 20 x_0_8_10 >= -20
 c1409: d_0_11 + load_0_11 - load_0_8 - p_0_11 + 20 x_0_8_11 <= 20
 c1410: d_0_11 + load_0_11 - load_0_8 - p_0_11 - 20 x_0_8_11 >= -20
 c1411: d_0_12 + load_0_12 - load_0_8 - p_0_12 + 20 x_0_8_12 <= 20
 c1412: d_0_12 + load_0_12 - load_0_8 - p_0_12 - 20 x_0_8_12 >= -20
 c1413: d_0_13 + load_0_13 - load_0_8 - p_0_13 + 20 x_0_8_13 <= 20
 c1414: d_0_13 + load_0_13 - load_0_8 - p_0_13 - 20 x_0_8_13 >= -20
 c1415: d_0_14 + load_0_14 - load_0_8 - p_0_14 + 20 x_0_8_14 <= 20
 c1416: d_0_14 + load_0_14 - load_0_8 - p_0_14 - 20 x_0_8_14 >= -20
 c1417: d_0_15 + load_0_15 - load_0_8 - p_0_15 + 20 x_0_8_15 <= 20
 c1418: d_0_15 + load_0_15 - load_0_8 - p_0_15 - 20 x_0_8_15 >= -20
 c1419: d_0_16 + load_0_16 - load_0_8 - p_0_16 + 20 x_0_8_16 <= 20
 c1420: d_0_16 + load_0_16 - load_0_8 - p_0_16 - 20 x_0_8_16 >= -20
 c1421: d_0_17 + load_0_17 - load_0_8 - p_0_17 + 20 x_0_8_17 <= 20
 c1422: d_0_17 + load_0_17 - load_0_8 - p_0_17 - 20 x_0_8_17 >= -20
 c1423: d_0_18 + load_0_18 - load_0_8 - p_0_18 + 20 x_0_8_18 <= 20
 c1424: d_0_18 + load_0_18 - load_0_8 - p_0_18 - 20 x_0_8_18 >= -20
 c1425: d_0_19 + load_0_19 - load_0_8 - p_0_19 + 20 x_0_8_19 <= 20
 c1426: d_0_19 + load_0_19 - load_0_8 - p_0_19 - 20 x_0_8_19 >= -20
 c1427: d_0_20 + load_0_20 - load_0_8 - p_0_20 + 20 x_0_8_20 <= 20
 c1428: d_0_20 + load_0_20 - load_0_8 - p_0_20 - 20 x_0_8_20 >= -20
 c1429: d_0_1 + load_0_1 - load_0_9 - p_0_1 + 20 x_0_9_1 <= 20
 c1430: d_0_1 + load_0_1 - load_0_9 - p_0_1 - 20 x_0_9_1 >= -20
 c1431: d_0_2 + load_0_2 - load_0_9 - p_0_2 + 20 x_0_9_2 <= 20
 c1432: d_0_2 + load_0_2 - load_0_9 - p_0_2 - 20 x_0_9_2 >= -20
 c1433: d_0_3 + load_0_3 - load_0_9 - p_0_3 + 20 x_0_9_3 <= 20
 c1434: d_0_3 + load_0_3 - load_0_9 - p_0_3 - 20 x_0_9_3 >= -20
 c1435: d_0_4 + load_0_4 - load_0_9 - p_0_4 + 20 x_0_9_4 <= 20
 c1436: d_0_4 + load_0_4 - load_0_9 - p_0_4 - 20 x_0_9_4 >= -20
 c1437: d_0_5 + load_0_5 - load_0_9 - p_0_5 + 20 x_0_9_5 <= 20
 c1438: d_0_5 + load_0_5 - load_0_9 - p_0_5 - 20 x_0_9_5 >= -20
 c1439: d_0_6 + load_0_6 - load_0_9 - p_0_6 + 20 x_0_9_6 <= 20
 c1440: d_0_6 + load_0_6 - load_0_9 - p_0_6 - 20 x_0_9_6 >= -20
 c1441: d_0_7 + load_0_7 - load_0_9 - p_0_7 + 20 x_0_9_7 <= 20
 c1442: d_0_7 + load_0_7 - load_0_9 - p_0_7 - 20 x_0_9_7 >= -20
 c1443: d_0_8 + load_0_8 - load_0_9 - p_0_8 + 20 x_0_9_8 <= 20
 c1444: d_0_8 + load_0_8 - load_0_9 - p_0_8 - 20 x_0_9_8 >= -20
 c1445: d_0_10 + load_0_10 - load_0_9 - p_0_10 + 20 x_0_9_10 <= 20
 c1446: d_0_10 + load_0_10 - load_0_9 - p_0_10 - 20 x_0_9_10 >= -20
 c1447: d_0_11 + load_0_11 - load_0_9 - p_0_11 + 20 x_0_9_11 <= 20
 c1448: d_0_11 + load_0_11 - load_0_9 - p_0_11 - 20 x_0_9_11 >= -20
 c1449: d_0_12 + load_0_12 - load_0_9 - p_0_12 + 20 x_0_9_12 <= 20
 c1450: d_0_12 + load_0_12 - load_0_9 - p_0_12 - 20 x_0_9_12 >= -20
 c1451: d_0_13 + load_0_13 - load_0_9 - p_0_13 + 20 x_0_9_13 <= 20
 c1452: d_0_13 + load_0_13 - load_0_9 - p_0_13 - 20 x_0_9_13 >= -20
 c1453: d_0_14 + load_0_14 - load_0_9 - p_0_14 + 20 x_0_9_14 <= 20
 c1454: d_0_14 + load_0_14 - load_0_9 - p_0_14 - 20 x_0_9_14 >= -20
 c1455: d_0_15 + load_0_15 - load_0_9 - p_0_15 + 20 x_0_9_15 <= 20
 c1456: d_0_15 + load_0_15 - load_0_9 - p_0_15 - 20 x_0_9_15 >= -20
 c1457: d_0_16 + load_0_16 - load_0_9 - p_0_16 + 20 x_0_9_16 <= 20
 c1458: d_0_16 + load_0_16 - load_0_9 - p_0_16 - 20 x_0_9_16 >= -20
 c1459: d_0_17 + load_0_17 - load_0_9 - p_0_17 + 20 x_0_9_17 <= 20
 c1460: d_0_17 + load_0_17 - load_0_9 - p_0_17 - 20 x_0_9_17 >= -20
 c1461: d_0_18 + load_0_18 - load_0_9 - p_0_18 + 20 x_0_9_18 <= 20
 c1462: d_0_18 + load_0_18 - load_0_9 - p_0_18 - 20 x_0_9_18 >= -20
 c1463: d_0_19 + load_0_19 - load_0_9 - p_0_19 + 20 x_0_9_19 <= 20
 c1464: d_0_19 + load_0_19 - load_0_9 - p_0_19 - 20 x_0_9_19 >= -20
 c1465: d_0_20 + load_0_20 - load_0_9 - p_0_20 + 20 x_0_9_20 <= 20
 c1466: d_0_20 + load_0_20 - load_0_9 - p_0_20 - 20 x_0_9_20 >= -20
 c1467: d_0_1 + load_0_1 - load_0_10 - p_0_1 + 20 x_0_10_1 <= 20
 c1468: d_0_1 + load_0_1 - load_0_10 - p_0_1 - 20 x_0_10_1 >= -20
 c1469: d_0_2 - load_0_10 + load_0_2 - p_0_2 + 20 x_0_10_2 <= 20
 c1470: d_0_2 - load_0_10 + load_0_2 - p_0_2 - 20 x_0_10_2 >= -20
 c1471: d_0_3 - load_0_10 + load_0_3 - p_0_3 + 20 x_0_10_3 <= 20
 c1472: d_0_3 - load_0_10 + load_0_3 - p_0_3 - 20 x_0_10_3 >= -20
 c1473: d_0_4 - load_0_10 + load_0_4 - p_0_4 + 20 x_0_10_4 <= 20
 c1474: d_0_4 - load_0_10 + load_0_4 - p_0_4 - 20 x_0_10_4 >= -20
 c1475: d_0_5 - load_0_10 + load_0_5 - p_0_5 + 20 x_0_10_5 <= 20
 c1476: d_0_5 - load_0_10 + load_0_5 - p_0_5 - 20 x_0_10_5 >= -20
 c1477: d_0_6 - load_0_10 + load_0_6 - p_0_6 + 20 x_0_10_6 <= 20
 c1478: d_0_6 - load_0_10 + load_0_6 - p_0_6 - 20 x_0_10_6 >= -20
 c1479: d_0_7 - load_0_10 + load_0_7 - p_0_7 + 20 x_0_10_7 <= 20
 c1480: d_0_7 - load_0_10 + load_0_7 - p_0_7 - 20 x_0_10_7 >= -20
 c1481: d_0_8 - load_0_10 + load_0_8 - p_0_8 + 20 x_0_10_8 <= 20
 c1482: d_0_8 - load_0_10 + load_0_8 - p_0_8 - 20 x_0_10_8 >= -20
 c1483: d_0_9 - load_0_10 + load_0_9 - p_0_9 + 20 x_0_10_9 <= 20
 c1484: d_0_9 - load_0_10 + load_0_9 - p_0_9 - 20 x_0_10_9 >= -20
 c1485: d_0_11 - load_0_10 + load_0_11 - p_0_11 + 20 x_0_10_11 <= 20
 c1486: d_0_11 - load_0_10 + load_0_11 - p_0_11 - 20 x_0_10_11 >= -20
 c1487: d_0_12 - load_0_10 + load_0_12 - p_0_12 + 20 x_0_10_12 <= 20
 c1488: d_0_12 - load_0_10 + load_0_12 - p_0_12 - 20 x_0_10_12 >= -20
 c1489: d_0_13 - load_0_10 + load_0_13 - p_0_13 + 20 x_0_10_13 <= 20
 c1490: d_0_13 - load_0_10 + load_0_13 - p_0_13 - 20 x_0_10_13 >= -20
 c1491: d_0_14 - load_0_10 + load_0_14 - p_0_14 + 20 x_0_10_14 <= 20
 c1492: d_0_14 - load_0_10 + load_0_14 - p_0_14 - 20 x_0_10_14 >= -20
 c1493: d_0_15 - load_0_10 + load_0_15 - p_0_15 + 20 x_0_10_15 <= 20
 c1494: d_0_15 - load_0_10 + load_0_15 - p_0_15 - 20 x_0_10_15 >= -20
 c1495: d_0_16 - load_0_10 + load_0_16 - p_0_16 + 20 x_0_10_16 <= 20
 c1496: d_0_16 - load_0_10 + load_0_16 - p_0_16 - 20 x_0_10_16 >= -20
 c1497: d_0_17 - load_0_10 + load_0_17 - p_0_17 + 20 x_0_10_17 <= 20
 c1498: d_0_17 - load_0_10 + load_0_17 - p_0_17 - 20 x_0_10_17 >= -20
 c1499: d_0_18 - load_0_10 + load_0_18 - p_0_18 + 20 x_0_10_18 <= 20
 c1500: d_0_18 - load_0_10 + load_0_18 - p_0_18 - 20 x_0_10_18 >= -20
 c1501: d_0_19 - load_0_10 + load_0_19 - p_0_19 + 20 x_0_10_19 <= 20
 c1502: d_0_19 - load_0_10 + load_0_19 - p_0_19 - 20 x_0_10_19 >= -20
 c1503: d_0_20 - load_0_10 + load_0_20 - p_0_20 + 20 x_0_10_20 <= 20
 c1504: d_0_20 - load_0_10 + load_0_20 - p_0_20 - 20 x_0_10_20 >= -20
 c1505: d_0_1 + load_0_1 - load_0_11 - p_0_1 + 20 x_0_11_1 <= 20
 c1506: d_0_1 + load_0_1 - load_0_11 - p_0_1 - 20 x_0_11_1 >= -20
 c1507: d_0_2 - load_0_11 + load_0_2 - p_0_2 + 20 x_0_11_2 <= 20
 c1508: d_0_2 - load_0_11 + load_0_2 - p_0_2 - 20 x_0_11_2 >= -20
 c1509: d_0_3 - load_0_11 + load_0_3 - p_0_3 + 20 x_0_11_3 <= 20
 c1510: d_0_3 - load_0_11 + load_0_3 - p_0_3 - 20 x_0_11_3 >= -20
 c1511: d_0_4 - load_0_11 + load_0_4 - p_0_4 + 20 x_0_11_4 <= 20
 c1512: d_0_4 - load_0_11 + load_0_4 - p_0_4 - 20 x_0_11_4 >= -20
 c1513: d_0_5 - load_0_11 + load_0_5 - p_0_5 + 20 x_0_11_5 <= 20
 c1514: d_0_5 - load_0_11 + load_0_5 - p_0_5 - 20 x_0_11_5 >= -20
 c1515: d_0_6 - load_0_11 + load_0_6 - p_0_6 + 20 x_0_11_6 <= 20
 c1516: d_0_6 - load_0_11 + load_0_6 - p_0_6 - 20 x_0_11_6 >= -20
 c1517: d_0_7 - load_0_11 + load_0_7 - p_0_7 + 20 x_0_11_7 <= 20
 c1518: d_0_7 - load_0_11 + load_0_7 - p_0_7 - 20 x_0_11_7 >= -20
 c1519: d_0_8 - load_0_11 + load_0_8 - p_0_8 + 20 x_0_11_8 <= 20
 c1520: d_0_8 - load_0_11 + load_0_8 - p_0_8 - 20 x_0_11_8 >= -20
 c1521: d_0_9 - load_0_11 + load_0_9 - p_0_9 + 20 x_0_11_9 <= 20
 c1522: d_0_9 - load_0_11 + load_0_9 - p_0_9 - 20 x_0_11_9 >= -20
 c1523: d_0_10 + load_0_10 - load_0_11 - p_0_10 + 20 x_0_11_10 <= 20
 c1524: d_0_10 + load_0_10 - load_0_11 - p_0_10 - 20 x_0_11_10 >= -20
 c1525: d_0_12 - load_0_11 + load_0_12 - p_0_12 + 20 x_0_11_12 <= 20
 c1526: d_0_12 - load_0_11 + load_0_12 - p_0_12 - 20 x_0_11_12 >= -20
 c1527: d_0_13 - load_0_11 + load_0_13 - p_0_13 + 20 x_0_11_13 <= 20
 c1528: d_0_13 - load_0_11 + load_0_13 - p_0_13 - 20 x_0_11_13 >= -20
 c1529: d_0_14 - load_0_11 + load_0_14 - p_0_14 + 20 x_0_11_14 <= 20
 c1530: d_0_14 - load_0_11 + load_0_14 - p_0_14 - 20 x_0_11_14 >= -20
 c1531: d_0_15 - load_0_11 + load_0_15 - p_0_15 + 20 x_0_11_15 <= 20
 c1532: d_0_15 - load_0_11 + load_0_15 - p_0_15 - 20 x_0_11_15 >= -20
 c1533: d_0_16 - load_0_11 + load_0_16 - p_0_16 + 20 x_0_11_16 <= 20
 c1534: d_0_16 - load_0_11 + load_0_16 - p_0_16 - 20 x_0_11_16 >= -20
 c1535: d_0_17 - load_0_11 + load_0_17 - p_0_17 + 20 x_0_11_17 <= 20
 c1536: d_0_17 - load_0_11 + load_0_17 - p_0_17 - 20 x_0_11_17 >= -20
 c1537: d_0_18 - load_0_11 + load_0_18 - p_0_18 + 20 x_0_11_18 <= 20
 c1538: d_0_18 - load_0_11 + load_0_18 - p_0_18 - 20 x_0_11_18 >= -20
 c1539: d_0_19 - load_0_11 + load_0_19 - p_0_19 + 20 x_0_11_19 <= 20
 c1540: d_0_19 - load_0_11 + load_0_19 - p_0_19 - 20 x_0_11_19 >= -20
 c1541: d_0_20 - load_0_11 + load_0_20 - p_0_20 + 20 x_0_11_20 <= 20
 c1542: d_0_20 - load_0_11 + load_0_20 - p_0_20 - 20 x_0_11_20 >= -20
 c1543: d_0_1 + load_0_1 - load_0_12 - p_0_1 + 20 x_0_12_1 <= 20
 c1544: d_0_1 + load_0_1 - load_0_12 - p_0_1 - 20 x_0_12_1 >= -20
 c1545: d_0_2 - load_0_12 + load_0_2 - p_0_2 + 20 x_0_12_2 <= 20
 c1546: d_0_2 - load_0_12 + load_0_2 - p_0_2 - 20 x_0_12_2 >= -20
 c1547: d_0_3 - load_0_12 + load_0_3 - p_0_3 + 20 x_0_12_3 <= 20
 c1548: d_0_3 - load_0_12 + load_0_3 - p_0_3 - 20 x_0_12_3 >= -20
 c1549: d_0_4 - load_0_12 + load_0_4 - p_0_4 + 20 x_0_12_4 <= 20
 c1550: d_0_4 - load_0_12 + load_0_4 - p_0_4 - 20 x_0_12_4 >= -20
 c1551: d_0_5 - load_0_12 + load_0_5 - p_0_5 + 20 x_0_12_5 <= 20
 c1552: d_0_5 - load_0_12 + load_0_5 - p_0_5 - 20 x_0_12_5 >= -20
 c1553: d_0_6 - load_0_12 + load_0_6 - p_0_6 + 20 x_0_12_6 <= 20
 c1554: d_0_6 - load_0_12 + load_0_6 - p_0_6 - 20 x_0_12_6 >= -20
 c1555: d_0_7 - load_0_12 + load_0_7 - p_0_7 + 20 x_0_12_7 <= 20
 c1556: d_0_7 - load_0_12 + load_0_7 - p_0_7 - 20 x_0_12_7 >= -20
 c1557: d_0_8 - load_0_12 + load_0_8 - p_0_8 + 20 x_0_12_8 <= 20
 c1558: d_0_8 - load_0_12 + load_0_8 - p_0_8 - 20 x_0_12_8 >= -20
 c1559: d_0_9 - load_0_12 + load_0_9 - p_0_9 + 20 x_0_12_9 <= 20
 c1560: d_0_9 - load_0_12 + load_0_9 - p_0_9 - 20 x_0_12_9 >= -20
 c1561: d_0_10 + load_0_10 - load_0_12 - p_0_10 + 20 x_0_12_10 <= 20
 c1562: d_0_10 + load_0_10 - load_0_12 - p_0_10 - 20 x_0_12_10 >= -20
 c1563: d_0_11 + load_0_11 - load_0_12 - p_0_11 + 20 x_0_12_11 <= 20
 c1564: d_0_11 + load_0_11 - load_0_12 - p_0_11 - 20 x_0_12_11 >= -20
 c1565: d_0_13 - load_0_12 + load_0_13 - p_0_13 + 20 x_0_12_13 <= 20
 c1566: d_0_13 - load_0_12 + load_0_13 - p_0_13 - 20 x_0_12_13 >= -20
 c1567: d_0_14 - load_0_12 + load_0_14 - p_0_14 + 20 x_0_12_14 <= 20
 c1568: d_0_14 - load_0_12 + load_0_14 - p_0_14 - 20 x_0_12_14 >= -20
 c1569: d_0_15 - load_0_12 + load_0_15 - p_0_15 + 20 x_0_12_15 <= 20
 c1570: d_0_15 - load_0_12 + load_0_15 - p_0_15 - 20 x_0_12_15 >= -20
 c1571: d_0_16 - load_0_12 + load_0_16 - p_0_16 + 20 x_0_12_16 <= 20
 c1572: d_0_16 - load_0_12 + load_0_16 - p_0_16 - 20 x_0_12_16 >= -20
 c1573: d_0_17 - load_0_12 + load_0_17 - p_0_17 + 20 x_0_12_17 <= 20
 c1574: d_0_17 - load_0_12 + load_0_17 - p_0_17 - 20 x_0_12_17 >= -20
 c1575: d_0_18 - load_0_12 + load_0_18 - p_0_18 + 20 x_0_12_18 <= 20
 c1576: d_0_18 - load_0_12 + load_0_18 - p_0_18 - 20 x_0_12_18 >= -20
 c1577: d_0_19 - load_0_12 + load_0_19 - p_0_19 + 20 x_0_12_19 <= 20
 c1578: d_0_19 - load_0_12 + load_0_19 - p_0_19 - 20 x_0_12_19 >= -20
 c1579: d_0_20 - load_0_12 + load_0_20 - p_0_20 + 20 x_0_12_20 <= 20
 c1580: d_0_20 - load_0_12 + load_0_20 - p_0_20 - 20 x_0_12_20 >= -20
 c1581: d_0_1 + load_0_1 - load_0_13 - p_0_1 + 20 x_0_13_1 <= 20
 c1582: d_0_1 + load_0_1 - load_0_13 - p_0_1 - 20 x_0_13_1 >= -20
 c1583: d_0_2 - load_0_13 + load_0_2 - p_0_2 + 20 x_0_13_2 <= 20
 c1584: d_0_2 - load_0_13 + load_0_2 - p_0_2 - 20 x_0_13_2 >= -20
 c1585: d_0_3 - load_0_13 + load_0_3 - p_0_3 + 20 x_0_13_3 <= 20
 c1586: d_0_3 - load_0_13 + load_0_3 - p_0_3 - 20 x_0_13_3 >= -20
 c1587: d_0_4 - load_0_13 + load_0_4 - p_0_4 + 20 x_0_13_4 <= 20
 c1588: d_0_4 - load_0_13 + load_0_4 - p_0_4 - 20 x_0_13_4 >= -20
 c1589: d_0_5 - load_0_13 + load_0_5 - p_0_5 + 20 x_0_13_5 <= 20
 c1590: d_0_5 - load_0_13 + load_0_5 - p_0_5 - 20 x_0_13_5 >= -20
 c1591: d_0_6 - load_0_13 + load_0_6 - p_0_6 + 20 x_0_13_6 <= 20
 c1592: d_0_6 - load_0_13 + load_0_6 - p_0_6 - 20 x_0_13_6 >= -20
 c1593: d_0_7 - load_0_13 + load_0_7 - p_0_7 + 20 x_0_13_7 <= 20
 c1594: d_0_7 - load_0_13 + load_0_7 - p_0_7 - 20 x_0_13_7 >= -20
 c1595: d_0_8 - load_0_13 + load_0_8 - p_0_8 + 20 x_0_13_8 <= 20
 c1596: d_0_8 - load_0_13 + load_0_8 - p_0_8 - 20 x_0_13_8 >= -20
 c1597: d_0_9 - load_0_13 + load_0_9 - p_0_9 + 20 x_0_13_9 <= 20
 c1598: d_0_9 - load_0_13 + load_0_9 - p_0_9 - 20 x_0_13_9 >= -20
 c1599: d_0_10 + load_0_10 - load_0_13 - p_0_10 + 20 x_0_13_10 <= 20
 c1600: d_0_10 + load_0_10 - load_0_13 - p_0_10 - 20 x_0_13_10 >= -20
 c1601: d_0_11 + load_0_11 - load_0_13 - p_0_11 + 20 x_0_13_11 <= 20
 c1602: d_0_11 + load_0_11 - load_0_13 - p_0_11 - 20 x_0_13_11 >= -20
 c1603: d_0_12 + load_0_12 - load_0_13 - p_0_12 + 20 x_0_13_12 <= 20
 c1604: d_0_12 + load_0_12 - load_0_13 - p_0_12 - 20 x_0_13_12 >= -20
 c1605: d_0_14 - load_0_13 + load_0_14 - p_0_14 + 20 x_0_13_14 <= 20
 c1606: d_0_14 - load_0_13 + load_0_14 - p_0_14 - 20 x_0_13_14 >= -20
 c1607: d_0_15 - load_0_13 + load_0_15 - p_0_15 + 20 x_0_13_15 <= 20
 c1608: d_0_15 - load_0_13 + load_0_15 - p_0_15 - 20 x_0_13_15 >= -20
 c1609: d_0_16 - load_0_13 + load_0_16 - p_0_16 + 20 x_0_13_16 <= 20
 c1610: d_0_16 - load_0_13 + load_0_16 - p_0_16 - 20 x_0_13_16 >= -20
 c1611: d_0_17 - load_0_13 + load_0_17 - p_0_17 + 20 x_0_13_17 <= 20
 c1612: d_0_17 - load_0_13 + load_0_17 - p_0_17 - 20 x_0_13_17 >= -20
 c1613: d_0_18 - load_0_13 + load_0_18 - p_0_18 + 20 x_0_13_18 <= 20
 c1614: d_0_18 - load_0_13 + load_0_18 - p_0_18 - 20 x_0_13_18 >= -20
 c1615: d_0_19 - load_0_13 + load_0_19 - p_0_19 + 20 x_0_13_19 <= 20
 c1616: d_0_19 - load_0_13 + load_0_19 - p_0_19 - 20 x_0_13_19 >= -20
 c1617: d_0_20 - load_0_13 + load_0_20 - p_0_20 + 20 x_0_13_20 <= 20
 c1618: d_0_20 - load_0_13 + load_0_20 - p_0_20 - 20 x_0_13_20 >= -20
 c1619: d_0_1 + load_0_1 - load_0_14 - p_0_1 + 20 x_0_14_1 <= 20
 c1620: d_0_1 + load_0_1 - load_0_14 - p_0_1 - 20 x_0_14_1 >= -20
 c1621: d_0_2 - load_0_14 + load_0_2 - p_0_2 + 20 x_0_14_2 <= 20
 c1622: d_0_2 - load_0_14 + load_0_2 - p_0_2 - 20 x_0_14_2 >= -20
 c1623: d_0_3 - load_0_14 + load_0_3 - p_0_3 + 20 x_0_14_3 <= 20
 c1624: d_0_3 - load_0_14 + load_0_3 - p_0_3 - 20 x_0_14_3 >= -20
 c1625: d_0_4 - load_0_14 + load_0_4 - p_0_4 + 20 x_0_14_4 <= 20
 c1626: d_0_4 - load_0_14 + load_0_4 - p_0_4 - 20 x_0_14_4 >= -20
 c1627: d_0_5 - load_0_14 + load_0_5 - p_0_5 + 20 x_0_14_5 <= 20
 c1628: d_0_5 - load_0_14 + load_0_5 - p_0_5 - 20 x_0_14_5 >= -20
 c1629: d_0_6 - load_0_14 + load_0_6 - p_0_6 + 20 x_0_14_6 <= 20
 c1630: d_0_6 - load_0_14 + load_0_6 - p_0_6 - 20 x_0_14_6 >= -20
 c1631: d_0_7 - load_0_14 + load_0_7 - p_0_7 + 20 x_0_14_7 <= 20
 c1632: d_0_7 - load_0_14 + load_0_7 - p_0_7 - 20 x_0_14_7 >= -20
 c1633: d_0_8 - load_0_14 + load_0_8 - p_0_8 + 20 x_0_14_8 <= 20
 c1634: d_0_8 - load_0_14 + load_0_8 - p_0_8 - 20 x_0_14_8 >= -20
 c1635: d_0_9 - load_0_14 + load_0_9 - p_0_9 + 20 x_0_14_9 <= 20
 c1636: d_0_9 - load_0_14 + load_0_9 - p_0_9 - 20 x_0_14_9 >= -20
 c1637: d_0_10 + load_0_10 - load_0_14 - p_0_10 + 20 x_0_14_10 <= 20
 c1638: d_0_10 + load_0_10 - load_0_14 - p_0_10 - 20 x_0_14_10 >= -20
 c1639: d_0_11 + load_0_11 - load_0_14 - p_0_11 + 20 x_0_14_11 <= 20
 c1640: d_0_11 + load_0_11 - load_0_14 - p_0_11 - 20 x_0_14_11 >= -20
 c1641: d_0_12 + load_0_12 - load_0_14 - p_0_12 + 20 x_0_14_12 <= 20
 c1642: d_0_12 + load_0_12 - load_0_14 - p_0_12 - 20 x_0_14_12 >= -20
 c1643: d_0_13 + load_0_13 - load_0_14 - p_0_13 + 20 x_0_14_13 <= 20
 c1644: d_0_13 + load_0_13 - load_0_14 - p_0_13 - 20 x_0_14_13 >= -20
 c1645: d_0_15 - load_0_14 + load_0_15 - p_0_15 + 20 x_0_14_15 <= 20
 c1646: d_0_15 - load_0_14 + load_0_15 - p_0_15 - 20 x_0_14_15 >= -20
 c1647: d_0_16 - load_0_14 + load_0_16 - p_0_16 + 20 x_0_14_16 <= 20
 c1648: d_0_16 - load_0_14 + load_0_16 - p_0_16 - 20 x_0_14_16 >= -20
 c1649: d_0_17 - load_0_14 + load_0_17 - p_0_17 + 20 x_0_14_17 <= 20
 c1650: d_0_17 - load_0_14 + load_0_17 - p_0_17 - 20 x_0_14_17 >= -20
 c1651: d_0_18 - load_0_14 + load_0_18 - p_0_18 + 20 x_0_14_18 <= 20
 c1652: d_0_18 - load_0_14 + load_0_18 - p_0_18 - 20 x_0_14_18 >= -20
 c1653: d_0_19 - load_0_14 + load_0_19 - p_0_19 + 20 x_0_14_19 <= 20
 c1654: d_0_19 - load_0_14 + load_0_19 - p_0_19 - 20 x_0_14_19 >= -20
 c1655: d_0_20 - load_0_14 + load_0_20 - p_0_20 + 20 x_0_14_20 <= 20
 c1656: d_0_20 - load_0_14 + load_0_20 - p_0_20 - 20 x_0_14_20 >= -20
 c1657: d_0_1 + load_0_1 - load_0_15 - p_0_1 + 20 x_0_15_1 <= 20
 c1658: d_0_1 + load_0_1 - load_0_15 - p_0_1 - 20 x_0_15_1 >= -20
 c1659: d_0_2 - load_0_15 + load_0_2 - p_0_2 + 20 x_0_15_2 <= 20
 c1660: d_0_2 - load_0_15 + load_0_2 - p_0_2 - 20 x_0_15_2 >= -20
 c1661: d_0_3 - load_0_15 + load_0_3 - p_0_3 + 20 x_0_15_3 <= 20
 c1662: d_0_3 - load_0_15 + load_0_3 - p_0_3 - 20 x_0_15_3 >= -20
 c1663: d_0_4 - load_0_15 + load_0_4 - p_0_4 + 20 x_0_15_4 <= 20
 c1664: d_0_4 - load_0_15 + load_0_4 - p_0_4 - 20 x_0_15_4 >= -20
 c1665: d_0_5 - load_0_15 + load_0_5 - p_0_5 + 20 x_0_15_5 <= 20
 c1666: d_0_5 - load_0_15 + load_0_5 - p_0_5 - 20 x_0_15_5 >= -20
 c1667: d_0_6 - load_0_15 + load_0_6 - p_0_6 + 20 x_0_15_6 <= 20
 c1668: d_0_6 - load_0_15 + load_0_6 - p_0_6 - 20 x_0_15_6 >= -20
 c1669: d_0_7 - load_0_15 + load_0_7 - p_0_7 + 20 x_0_15_7 <= 20
 c1670: d_0_7 - load_0_15 + load_0_7 - p_0_7 - 20 x_0_15_7 >= -20
 c1671: d_0_8 - load_0_15 + load_0_8 - p_0_8 + 20 x_0_15_8 <= 20
 c1672: d_0_8 - load_0_15 + load_0_8 - p_0_8 - 20 x_0_15_8 >= -20
 c1673: d_0_9 - load_0_15 + load_0_9 - p_0_9 + 20 x_0_15_9 <= 20
 c1674: d_0_9 - load_0_15 + load_0_9 - p_0_9 - 20 x_0_15_9 >= -20
 c1675: d_0_10 + load_0_10 - load_0_15 - p_0_10 + 20 x_0_15_10 <= 20
 c1676: d_0_10 + load_0_10 - load_0_15 - p_0_10 - 20 x_0_15_10 >= -20
 c1677: d_0_11 + load_0_11 - load_0_15 - p_0_11 + 20 x_0_15_11 <= 20
 c1678: d_0_11 + load_0_11 - load_0_15 - p_0_11 - 20 x_0_15_11 >= -20
 c1679: d_0_12 + load_0_12 - load_0_15 - p_0_12 + 20 x_0_15_12 <= 20
 c1680: d_0_12 + load_0_12 - load_0_15 - p_0_12 - 20 x_0_15_12 >= -20
 c1681: d_0_13 + load_0_13 - load_0_15 - p_0_13 + 20 x_0_15_13 <= 20
 c1682: d_0_13 + load_0_13 - load_0_15 - p_0_13 - 20 x_0_15_13 >= -20
 c1683: d_0_14 + load_0_14 - load_0_15 - p_0_14 + 20 x_0_15_14 <= 20
 c1684: d_0_14 + load_0_14 - load_0_15 - p_0_14 - 20 x_0_15_14 >= -20
 c1685: d_0_16 - load_0_15 + load_0_16 - p_0_16 + 20 x_0_15_16 <= 20
 c1686: d_0_16 - load_0_15 + load_0_16 - p_0_16 - 20 x_0_15_16 >= -20
 c1687: d_0_17 - load_0_15 + load_0_17 - p_0_17 + 20 x_0_15_17 <= 20
 c1688: d_0_17 - load_0_15 + load_0_17 - p_0_17 - 20 x_0_15_17 >= -20
 c1689: d_0_18 - load_0_15 + load_0_18 - p_0_18 + 20 x_0_15_18 <= 20
 c1690: d_0_18 - load_0_15 + load_0_18 - p_0_18 - 20 x_0_15_18 >= -20
 c1691: d_0_19 - load_0_15 + load_0_19 - p_0_19 + 20 x_0_15_19 <= 20
 c1692: d_0_19 - load_0_15 + load_0_19 - p_0_19 - 20 x_0_15_19 >= -20
 c1693: d_0_20 - load_0_15 + load_0_20 - p_0_20 + 20 x_0_15_20 <= 20
 c1694: d_0_20 - load_0_15 + load_0_20 - p_0_20 - 20 x_0_15_20 >= -20
 c1695: d_0_1 + load_0_1 - load_0_16 - p_0_1 + 20 x_0_16_1 <= 20
 c1696: d_0_1 + load_0_1 - load_0_16 - p_0_1 - 20 x_0_16_1 >= -20
 c1697: d_0_2 - load_0_16 + load_0_2 - p_0_2 + 20 x_0_16_2 <= 20
 c1698: d_0_2 - load_0_16 + load_0_2 - p_0_2 - 20 x_0_16_2 >= -20
 c1699: d_0_3 - load_0_16 + load_0_3 - p_0_3 + 20 x_0_16_3 <= 20
 c1700: d_0_3 - load_0_16 + load_0_3 - p_0_3 - 20 x_0_16_3 >= -20
 c1701: d_0_4 - load_0_16 + load_0_4 - p_0_4 + 20 x_0_16_4 <= 20
 c1702: d_0_4 - load_0_16 + load_0_4 - p_0_4 - 20 x_0_16_4 >= -20
 c1703: d_0_5 - load_0_16 + load_0_5 - p_0_5 + 20 x_0_16_5 <= 20
 c1704: d_0_5 - load_0_16 + load_0_5 - p_0_5 - 20 x_0_16_5 >= -20
 c1705: d_0_6 - load_0_16 + load_0_6 - p_0_6 + 20 x_0_16_6 <= 20
 c1706: d_0_6 - load_0_16 + load_0_6 - p_0_6 - 20 x_0_16_6 >= -20
 c1707: d_0_7 - load_0_16 + load_0_7 - p_0_7 + 20 x_0_16_7 <= 20
 c1708: d_0_7 - load_0_16 + load_0_7 - p_0_7 - 20 x_0_16_7 >= -20
 c1709: d_0_8 - load_0_16 + load_0_8 - p_0_8 + 20 x_0_16_8 <= 20
 c1710: d_0_8 - load_0_16 + load_0_8 - p_0_8 - 20 x_0_16_8 >= -20
 c1711: d_0_9 - load_0_16 + load_0_9 - p_0_9 + 20 x_0_16_9 <= 20
 c1712: d_0_9 - load_0_16 + load_0_9 - p_0_9 - 20 x_0_16_9 >= -20
 c1713: d_0_10 + load_0_10 - load_0_16 - p_0_10 + 20 x_0_16_10 <= 20
 c1714: d_0_10 + load_0_10 - load_0_16 - p_0_10 - 20 x_0_16_10 >= -20
 c1715: d_0_11 + load_0_11 - load_0_16 - p_0_11 + 20 x_0_16_11 <= 20
 c1716: d_0_11 + load_0_11 - load_0_16 - p_0_11 - 20 x_0_16_11 >= -20
 c1717: d_0_12 + load_0_12 - load_0_16 - p_0_12 + 20 x_0_16_12 <= 20
 c1718: d_0_12 + load_0_12 - load_0_16 - p_0_12 - 20 x_0_16_12 >= -20
 c1719: d_0_13 + load_0_13 - load_0_16 - p_0_13 + 20 x_0_16_13 <= 20
 c1720: d_0_13 + load_0_13 - load_0_16 - p_0_13 - 20 x_0_16_13 >= -20
 c1721: d_0_14 + load_0_14 - load_0_16 - p_0_14 + 20 x_0_16_14 <= 20
 c1722: d_0_14 + load_0_14 - load_0_16 - p_0_14 - 20 x_0_16_14 >= -20
 c1723: d_0_15 + load_0_15 - load_0_16 - p_0_15 + 20 x_0_16_15 <= 20
 c1724: d_0_15 + load_0_15 - load_0_16 - p_0_15 - 20 x_0_16_15 >= -20
 c1725: d_0_17 - load_0_16 + load_0_17 - p_0_17 + 20 x_0_16_17 <= 20
 c1726: d_0_17 - load_0_16 + load_0_17 - p_0_17 - 20 x_0_16_17 >= -20
 c1727: d_0_18 - load_0_16 + load_0_18 - p_0_18 + 20 x_0_16_18 <= 20
 c1728: d_0_18 - load_0_16 + load_0_18 - p_0_18 - 20 x_0_16_18 >= -20
 c1729: d_0_19 - load_0_16 + load_0_19 - p_0_19 + 20 x_0_16_19 <= 20
 c1730: d_0_19 - load_0_16 + load_0_19 - p_0_19 - 20 x_0_16_19 >= -20
 c1731: d_0_20 - load_0_16 + load_0_20 - p_0_20 + 20 x_0_16_20 <= 20
 c1732: d_0_20 - load_0_16 + load_0_20 - p_0_20 - 20 x_0_16_20 >= -20
 c1733: d_0_1 + load_0_1 - load_0_17 - p_0_1 + 20 x_0_17_1 <= 20
 c1734: d_0_1 + load_0_1 - load_0_17 - p_0_1 - 20 x_0_17_1 >= -20
 c1735: d_0_2 - load_0_17 + load_0_2 - p_0_2 + 20 x_0_17_2 <= 20
 c1736: d_0_2 - load_0_17 + load_0_2 - p_0_2 - 20 x_0_17_2 >= -20
 c1737: d_0_3 - load_0_17 + load_0_3 - p_0_3 + 20 x_0_17_3 <= 20
 c1738: d_0_3 - load_0_17 + load_0_3 - p_0_3 - 20 x_0_17_3 >= -20
 c1739: d_0_4 - load_0_17 + load_0_4 - p_0_4 + 20 x_0_17_4 <= 20
 c1740: d_0_4 - load_0_17 + load_0_4 - p_0_4 - 20 x_0_17_4 >= -20
 c1741: d_0_5 - load_0_17 + load_0_5 - p_0_5 + 20 x_0_17_5 <= 20
 c1742: d_0_5 - load_0_17 + load_0_5 - p_0_5 - 20 x_0_17_5 >= -20
 c1743: d_0_6 - load_0_17 + load_0_6 - p_0_6 + 20 x_0_17_6 <= 20
 c1744: d_0_6 - load_0_17 + load_0_6 - p_0_6 - 20 x_0_17_6 >= -20
 c1745: d_0_7 - load_0_17 + load_0_7 - p_0_7 + 20 x_0_17_7 <= 20
 c1746: d_0_7 - load_0_17 + load_0_7 - p_0_7 - 20 x_0_17_7 >= -20
 c1747: d_0_8 - load_0_17 + load_0_8 - p_0_8 + 20 x_0_17_8 <= 20
 c1748: d_0_8 - load_0_17 + load_0_8 - p_0_8 - 20 x_0_17_8 >= -20
 c1749: d_0_9 - load_0_17 + load_0_9 - p_0_9 + 20 x_0_17_9 <= 20
 c1750: d_0_9 - load_0_17 + load_0_9 - p_0_9 - 20 x_0_17_9 >= -20
 c1751: d_0_10 + load_0_10 - load_0_17 - p_0_10 + 20 x_0_17_10 <= 20
 c1752: d_0_10 + load_0_10 - load_0_17 - p_0_10 - 20 x_0_17_10 >= -20
 c1753: d_0_11 + load_0_11 - load_0_17 - p_0_11 + 20 x_0_17_11 <= 20
 c1754: d_0_11 + load_0_11 - load_0_17 - p_0_11 - 20 x_0_17_11 >= -20
 c1755: d_0_12 + load_0_12 - load_0_17 - p_0_12 + 20 x_0_17_12 <= 20
 c1756: d_0_12 + load_0_12 - load_0_17 - p_0_12 - 20 x_0_17_12 >= -20
 c1757: d_0_13 + load_0_13 - load_0_17 - p_0_13 + 20 x_0_17_13 <= 20
 c1758: d_0_13 + load_0_13 - load_0_17 - p_0_13 - 20 x_0_17_13 >= -20
 c1759: d_0_14 + load_0_14 - load_0_17 - p_0_14 + 20 x_0_17_14 <= 20
 c1760: d_0_14 + load_0_14 - load_0_17 - p_0_14 - 20 x_0_17_14 >= -20
 c1761: d_0_15 + load_0_15 - load_0_17 - p_0_15 + 20 x_0_17_15 <= 20
 c1762: d_0_15 + load_0_15 - load_0_17 - p_0_15 - 20 x_0_17_15 >= -20
 c1763: d_0_16 + load_0_16 - load_0_17 - p_0_16 + 20 x_0_17_16 <= 20
 c1764: d_0_16 + load_0_16 - load_0_17 - p_0_16 - 20 x_0_17_16 >= -20
 c1765: d_0_18 - load_0_17 + load_0_18 - p_0_18 + 20 x_0_17_18 <= 20
 c1766: d_0_18 - load_0_17 + load_0_18 - p_0_18 - 20 x_0_17_18 >= -20
 c1767: d_0_19 - load_0_17 + load_0_19 - p_0_19 + 20 x_0_17_19 <= 20
 c1768: d_0_19 - load_0_17 + load_0_19 - p_0_19 - 20 x_0_17_19 >= -20
 c1769: d_0_20 - load_0_17 + load_0_20 - p_0_20 + 20 x_0_17_20 <= 20
 c1770: d_0_20 - load_0_17 + load_0_20 - p_0_20 - 20 x_0_17_20 >= -20
 c1771: d_0_1 + load_0_1 - load_0_18 - p_0_1 + 20 x_0_18_1 <= 20
 c1772: d_0_1 + load_0_1 - load_0_18 - p_0_1 - 20 x_0_18_1 >= -20
 c1773: d_0_2 - load_0_18 + load_0_2 - p_0_2 + 20 x_0_18_2 <= 20
 c1774: d_0_2 - load_0_18 + load_0_2 - p_0_2 - 20 x_0_18_2 >= -20
 c1775: d_0_3 - load_0_18 + load_0_3 - p_0_3 + 20 x_0_18_3 <= 20
 c1776: d_0_3 - load_0_18 + load_0_3 - p_0_3 - 20 x_0_18_3 >= -20
 c1777: d_0_4 - load_0_18 + load_0_4 - p_0_4 + 20 x_0_18_4 <= 20
 c1778: d_0_4 - load_0_18 + load_0_4 - p_0_4 - 20 x_0_18_4 >= -20
 c1779: d_0_5 - load_0_18 + load_0_5 - p_0_5 + 20 x_0_18_5 <= 20
 c1780: d_0_5 - load_0_18 + load_0_5 - p_0_5 - 20 x_0_18_5 >= -20
 c1781: d_0_6 - load_0_18 + load_0_6 - p_0_6 + 20 x_0_18_6 <= 20
 c1782: d_0_6 - load_0_18 + load_0_6 - p_0_6 - 20 x_0_18_6 >= -20
 c1783: d_0_7 - load_0_18 + load_0_7 - p_0_7 + 20 x_0_18_7 <= 20
 c1784: d_0_7 - load_0_18 + load_0_7 - p_0_7 - 20 x_0_18_7 >= -20
 c1785: d_0_8 - load_0_18 + load_0_8 - p_0_8 + 20 x_0_18_8 <= 20
 c1786: d_0_8 - load_0_18 + load_0_8 - p_0_8 - 20 x_0_18_8 >= -20
 c1787: d_0_9 - load_0_18 + load_0_9 - p_0_9 + 20 x_0_18_9 <= 20
 c1788: d_0_9 - load_0_18 + load_0_9 - p_0_9 - 20 x_0_18_9 >= -20
 c1789: d_0_10 + load_0_10 - load_0_18 - p_0_10 + 20 x_0_18_10 <= 20
 c1790: d_0_10 + load_0_10 - load_0_18 - p_0_10 - 20 x_0_18_10 >= -20
 c1791: d_0_11 + load_0_11 - load_0_18 - p_0_11 + 20 x_0_18_11 <= 20
 c1792: d_0_11 + load_0_11 - load_0_18 - p_0_11 - 20 x_0_18_11 >= -20
 c1793: d_0_12 + load_0_12 - load_0_18 - p_0_12 + 20 x_0_18_12 <= 20
 c1794: d_0_12 + load_0_12 - load_0_18 - p_0_12 - 20 x_0_18_12 >= -20
 c1795: d_0_13 + load_0_13 - load_0_18 - p_0_13 + 20 x_0_18_13 <= 20
 c1796: d_0_13 + load_0_13 - load_0_18 - p_0_13 - 20 x_0_18_13 >= -20
 c1797: d_0_14 + load_0_14 - load_0_18 - p_0_14 + 20 x_0_18_14 <= 20
 c1798: d_0_14 + load_0_14 - load_0_18 - p_0_14 - 20 x_0_18_14 >= -20
 c1799: d_0_15 + load_0_15 - load_0_18 - p_0_15 + 20 x_0_18_15 <= 20
 c1800: d_0_15 + load_0_15 - load_0_18 - p_0_15 - 20 x_0_18_15 >= -20
 c1801: d_0_16 + load_0_16 - load_0_18 - p_0_16 + 20 x_0_18_16 <= 20
 c1802: d_0_16 + load_0_16 - load_0_18 - p_0_16 - 20 x_0_18_16 >= -20
 c1803: d_0_17 + load_0_17 - load_0_18 - p_0_17 + 20 x_0_18_17 <= 20
 c1804: d_0_17 + load_0_17 - load_0_18 - p_0_17 - 20 x_0_18_17 >= -20
 c1805: d_0_19 - load_0_18 + load_0_19 - p_0_19 + 20 x_0_18_19 <= 20
 c1806: d_0_19 - load_0_18 + load_0_19 - p_0_19 - 20 x_0_18_19 >= -20
 c1807: d_0_20 - load_0_18 + load_0_20 - p_0_20 + 20 x_0_18_20 <= 20
 c1808: d_0_20 - load_0_18 + load_0_20 - p_0_20 - 20 x_0_18_20 >= -20
 c1809: d_0_1 + load_0_1 - load_0_19 - p_0_1 + 20 x_0_19_1 <= 20
 c1810: d_0_1 + load_0_1 - load_0_19 - p_0_1 - 20 x_0_19_1 >= -20
 c1811: d_0_2 - load_0_19 + load_0_2 - p_0_2 + 20 x_0_19_2 <= 20
 c1812: d_0_2 - load_0_19 + load_0_2 - p_0_2 - 20 x_0_19_2 >= -20
 c1813: d_0_3 - load_0_19 + load_0_3 - p_0_3 + 20 x_0_19_3 <= 20
 c1814: d_0_3 - load_0_19 + load_0_3 - p_0_3 - 20 x_0_19_3 >= -20
 c1815: d_0_4 - load_0_19 + load_0_4 - p_0_4 + 20 x_0_19_4 <= 20
 c1816: d_0_4 - load_0_19 + load_0_4 - p_0_4 - 20 x_0_19_4 >= -20
 c1817: d_0_5 - load_0_19 + load_0_5 - p_0_5 + 20 x_0_19_5 <= 20
 c1818: d_0_5 - load_0_19 + load_0_5 - p_0_5 - 20 x_0_19_5 >= -20
 c1819: d_0_6 - load_0_19 + load_0_6 - p_0_6 + 20 x_0_19_6 <= 20
 c1820: d_0_6 - load_0_19 + load_0_6 - p_0_6 - 20 x_0_19_6 >= -20
 c1821: d_0_7 - load_0_19 + load_0_7 - p_0_7 + 20 x_0_19_7 <= 20
 c1822: d_0_7 - load_0_19 + load_0_7 - p_0_7 - 20 x_0_19_7 >= -20
 c1823: d_0_8 - load_0_19 + load_0_8 - p_0_8 + 20 x_0_19_8 <= 20
 c1824: d_0_8 - load_0_19 + load_0_8 - p_0_8 - 20 x_0_19_8 >= -20
 c1825: d_0_9 - load_0_19 + load_0_9 - p_0_9 + 20 x_0_19_9 <= 20
 c1826: d_0_9 - load_0_19 + load_0_9 - p_0_9 - 20 x_0_19_9 >= -20
 c1827: d_0_10 + load_0_10 - load_0_19 - p_0_10 + 20 x_0_19_10 <= 20
 c1828: d_0_10 + load_0_10 - load_0_19 - p_0_10 - 20 x_0_19_10 >= -20
 c1829: d_0_11 + load_0_11 - load_0_19 - p_0_11 + 20 x_0_19_11 <= 20
 c1830: d_0_11 + load_0_11 - load_0_19 - p_0_11 - 20 x_0_19_11 >= -20
 c1831: d_0_12 + load_0_12 - load_0_19 - p_0_12 + 20 x_0_19_12 <= 20
 c1832: d_0_12 + load_0_12 - load_0_19 - p_0_12 - 20 x_0_19_12 >= -20
 c1833: d_0_13 + load_0_13 - load_0_19 - p_0_13 + 20 x_0_19_13 <= 20
 c1834: d_0_13 + load_0_13 - load_0_19 - p_0_13 - 20 x_0_19_13 >= -20
 c1835: d_0_14 + load_0_14 - load_0_19 - p_0_14 + 20 x_0_19_14 <= 20
 c1836: d_0_14 + load_0_14 - load_0_19 - p_0_14 - 20 x_0_19_14 >= -20
 c1837: d_0_15 + load_0_15 - load_0_19 - p_0_15 + 20 x_0_19_15 <= 20
 c1838: d_0_15 + load_0_15 - load_0_19 - p_0_15 - 20 x_0_19_15 >= -20
 c1839: d_0_16 + load_0_16 - load_0_19 - p_0_16 + 20 x_0_19_16 <= 20
 c1840: d_0_16 + load_0_16 - load_0_19 - p_0_16 - 20 x_0_19_16 >= -20
 c1841: d_0_17 + load_0_17 - load_0_19 - p_0_17 + 20 x_0_19_17 <= 20
 c1842: d_0_17 + load_0_17 - load_0_19 - p_0_17 - 20 x_0_19_17 >= -20
 c1843: d_0_18 + load_0_18 - load_0_19 - p_0_18 + 20 x_0_19_18 <= 20
 c1844: d_0_18 + load_0_18 - load_0_19 - p_0_18 - 20 x_0_19_18 >= -20
 c1845: d_0_20 - load_0_19 + load_0_20 - p_0_20 + 20 x_0_19_20 <= 20
 c1846: d_0_20 - load_0_19 + load_0_20 - p_0_20 - 20 x_0_19_20 >= -20
 c1847: d_0_1 + load_0_1 - load_0_20 - p_0_1 + 20 x_0_20_1 <= 20
 c1848: d_0_1 + load_0_1 - load_0_20 - p_0_1 - 20 x_0_20_1 >= -20
 c1849: d_0_2 + load_0_2 - load_0_20 - p_0_2 + 20 x_0_20_2 <= 20
 c1850: d_0_2 + load_0_2 - load_0_20 - p_0_2 - 20 x_0_20_2 >= -20
 c1851: d_0_3 - load_0_20 + load_0_3 - p_0_3 + 20 x_0_20_3 <= 20
 c1852: d_0_3 - load_0_20 + load_0_3 - p_0_3 - 20 x_0_20_3 >= -20
 c1853: d_0_4 - load_0_20 + load_0_4 - p_0_4 + 20 x_0_20_4 <= 20
 c1854: d_0_4 - load_0_20 + load_0_4 - p_0_4 - 20 x_0_20_4 >= -20
 c1855: d_0_5 - load_0_20 + load_0_5 - p_0_5 + 20 x_0_20_5 <= 20
 c1856: d_0_5 - load_0_20 + load_0_5 - p_0_5 - 20 x_0_20_5 >= -20
 c1857: d_0_6 - load_0_20 + load_0_6 - p_0_6 + 20 x_0_20_6 <= 20
 c1858: d_0_6 - load_0_20 + load_0_6 - p_0_6 - 20 x_0_20_6 >= -20
 c1859: d_0_7 - load_0_20 + load_0_7 - p_0_7 + 20 x_0_20_7 <= 20
 c1860: d_0_7 - load_0_20 + load_0_7 - p_0_7 - 20 x_0_20_7 >= -20
 c1861: d_0_8 - load_0_20 + load_0_8 - p_0_8 + 20 x_0_20_8 <= 20
 c1862: d_0_8 - load_0_20 + load_0_8 - p_0_8 - 20 x_0_20_8 >= -20
 c1863: d_0_9 - load_0_20 + load_0_9 - p_0_9 + 20 x_0_20_9 <= 20
 c1864: d_0_9 - load_0_20 + load_0_9 - p_0_9 - 20 x_0_20_9 >= -20
 c1865: d_0_10 + load_0_10 - load_0_20 - p_0_10 + 20 x_0_20_10 <= 20
 c1866: d_0_10 + load_0_10 - load_0_20 - p_0_10 - 20 x_0_20_10 >= -20
 c1867: d_0_11 + load_0_11 - load_0_20 - p_0_11 + 20 x_0_20_11 <= 20
 c1868: d_0_11 + load_0_11 - load_0_20 - p_0_11 - 20 x_0_20_11 >= -20
 c1869: d_0_12 + load_0_12 - load_0_20 - p_0_12 + 20 x_0_20_12 <= 20
 c1870: d_0_12 + load_0_12 - load_0_20 - p_0_12 - 20 x_0_20_12 >= -20
 c1871: d_0_13 + load_0_13 - load_0_20 - p_0_13 + 20 x_0_20_13 <= 20
 c1872: d_0_13 + load_0_13 - load_0_20 - p_0_13 - 20 x_0_20_13 >= -20
 c1873: d_0_14 + load_0_14 - load_0_20 - p_0_14 + 20 x_0_20_14 <= 20
 c1874: d_0_14 + load_0_14 - load_0_20 - p_0_14 - 20 x_0_20_14 >= -20
 c1875: d_0_15 + load_0_15 - load_0_20 - p_0_15 + 20 x_0_20_15 <= 20
 c1876: d_0_15 + load_0_15 - load_0_20 - p_0_15 - 20 x_0_20_15 >= -20
 c1877: d_0_16 + load_0_16 - load_0_20 - p_0_16 + 20 x_0_20_16 <= 20
 c1878: d_0_16 + load_0_16 - load_0_20 - p_0_16 - 20 x_0_20_16 >= -20
 c1879: d_0_17 + load_0_17 - load_0_20 - p_0_17 + 20 x_0_20_17 <= 20
 c1880: d_0_17 + load_0_17 - load_0_20 - p_0_17 - 20 x_0_20_17 >= -20
 c1881: d_0_18 + load_0_18 - load_0_20 - p_0_18 + 20 x_0_20_18 <= 20
 c1882: d_0_18 + load_0_18 - load_0_20 - p_0_18 - 20 x_0_20_18 >= -20
 c1883: d_0_19 + load_0_19 - load_0_20 - p_0_19 + 20 x_0_20_19 <= 20
 c1884: d_0_19 + load_0_19 - load_0_20 - p_0_19 - 20 x_0_20_19 >= -20
 c1885: - d_0_1 - d_0_10 - d_0_11 - d_0_12 - d_0_13 - d_0_14 - d_0_15 - d_0_16 - d_0_17 - d_0_18 - d_0_19 - d_0_2 - d_0_20 - d_0_3 - d_0_4 - d_0_5 - d_0_6 - d_0_7 - d_0_8 - d_0_9 + p_0_1 + p_0_10 + p_0_11 + p_0_12 + p_0_13 + p_0_14 + p_0_15 + p_0_16 + p_0_17 + p_0_18 + p_0_19 + p_0_2 + p_0_20 + p_0_3 + p_0_4 + p_0_5 + p_0_6 + p_0_7 + p_0_8 + p_0_9 >= 0
 c1886: 120 p_0_1 + 120 p_0_10 + 120 p_0_11 + 120 p_0_12 + 120 p_0_13 + 120 p_0_14 + 120 p_0_15 + 120 p_0_16 + 120 p_0_17 + 120 p_0_18 + 120 p_0_19 + 120 p_0_2 + 120 p_0_20 + 120 p_0_3 + 120 p_0_4 + 120 p_0_5 + 120 p_0_6 + 120 p_0_7 + 120 p_0_8 + 120 p_0_9 + 551.64976801050545 x_0_0_1 + 430.39502378374891 x_0_0_10 + 279.45244228515679 x_0_0_11 + 251.01447533493365 x_0_0_12 + 207.70544087047156 x_0_0_13 + 545.88922560931553 x_0_0_14 + 271.54201525532488 x_0_0_15 + 343.84141482041258 x_0_0_16 + 586.40827407092218 x_0_0_17 + 679.81722055987882 x_0_0_18 + 498.86677654650202 x_0_0_19 + 347.62907077832102 x_0_0_2 + 420.75749905574497 x_0_0_20 + 504.95662709241361 x_0_0_3 + 163.12347073050395 x_0_0_4 + 286.35094060585743 x_0_0_5 + 400.16393486926341 x_0_0_6 + 51.83689005166864 x_0_0_7 + 306.94716985118197 x_0_0_8 + 135.9213282781096 x_0_0_9 + 430.39502378374891 x_0_10_0 + 636.8016772105326 x_0_10_1 + 709.77387964753188 x_0_10_11 + 649.43015948399136 x_0_10_12 + 500.60512641781298 x_0_10_13 + 142.47033749127351 x_0_10_14 + 420.02707161542145 x_0_10_15 + 515.84441691632458 x_0_10_16 + 1016.5279133066712 x_0_10_17 + 1108.7401623893554 x_0_10_18 + 915.66658269277229 x_0_10_19 + 543.2937047802119 x_0_10_2 + 743.26269309203315 x_0_10_20 + 307.75567169692727 x_0_10_3 + 422.89957835968033 x_0_10_4 + 238.66091688047666 x_0_10_5 + 184.97262138422664 x_0_10_6 + 413.92748972362892 x_0_10_7 + 140.76429047310381 x_0_10_8 + 558.01784000477198 x_0_10_9 + 279.45244228515679 x_0_11_0 + 654.22664740719131 x_0_11_1 + 709.77387964753188 x_0_11_10 + 175.93989087825662 x_0_11_12 + 331.97272691528684 x_0_11_13 + 823.45707027676292 x_0_11_14 + 457.81005771637979 x_0_11_15 + 475.59716692788805 x_0_11_16 + 308.51647321376748 x_0_11_17 + 401.74068359073954 x_0_11_18 + 259.44028114735505 x_0_11_19 + 447.55317009817128 x_0_11_2 + 370.95909217117713 x_0_11_20 + 743.14663553155242 x_0_11_3 + 351.44311164460424 x_0_11_4 + 542.31207557496816 x_0_11_5 + 661.3179998765462 x_0_11_6 + 303.87659792613027 x_0_11_7 + 584.60016021990089 x_0_11_8 + 166.02906913485992 x_0_11_9 + 251.01447533493365 x_0_12_0 + 754.40168595229034 x_0_12_1 + 649.43015948399136 x_0_12_10 + 175.93989087825662 x_0_12_11 + 184.61405610384384 x_0_12_13 + 741.49404314684932 x_0_12_14 + 315.28081266363608 x_0_12_15 + 310.9521451785991 x_0_12_16 + 403.08383761227054 x_0_12_17 + 523.53105269839523 x_0_12_18 + 268.78711623961198 x_0_12_19 + 541.20355347338216 x_0_12_2 + 209.40239087023852 x_0_12_20 + 755.95573477130131 x_0_12_3 + 390.52638140439376 x_0_12_4 + 536.829472320131 x_0_12_5 + 648.24558330757873 x_0_12_6 + 243.04118642570697 x_0_12_7 + 511.67431072068797 x_0_12_8 + 123.05977506551153 x_0_12_9 + 207.70544087047156 x_0_13_0 + 759.14093339750309 x_0_13_1 + 500.60512641781298 x_0_13_10 + 331.97272691528684 x_0_13_11 + 184.61405610384384 x_0_13_12 + 574.74005775754028 x_0_13_14 + 130.82446699138282 x_0_13_15 + 151.71318599093058 x_0_13_16 + 587.69705488620957 x_0_13_17 + 707.07254029422586 x_0_13_18 + 445.54166739917832 x_0_13_19 + 554.82967582790263 x_0_13_2 + 247.32120239780559 x_0_13_20 + 667.1862315181578 x_0_13_3 + 370.24935054132374 x_0_13_4 + 446.47016326775685 x_0_13_5 + 541.01036470375914 x_0_13_6 + 164.28378223215381 x_0_13_7 + 359.8477132749133 x_0_13_8 + 182.30033324291492 x_0_13_9 + 545.88922560931553 x_0_14_0 + 773.90989655755084 x_0_14_1 + 142.47033749127351 x_0_14_10 + 823.45707027676292 x_0_14_11 + 741.49404314684932 x_0_14_12 + 574.74005775754028 x_0_14_13 + 470.12702333905128 x_0_14_15 + 552.87650093704588 x_0_14_16 + 1125.4986996474656 x_0_14_17 + 1225.0349322608188 x_0_14_18 + 1010.2762755639997 x_0_14_19 + 685.73406647732827 x_0_14_2 + 803.50260373214621 x_0_14_20 + 422.60928656820573 x_0_14_3 + 559.50290158220344 x_0_14_4 + 381.05856007236372 x_0_14_5 + 318.51396316505401 x_0_14_6 + 520.52143404801939 x_0_14_7 + 239.01128500063339 x_0_14_8 + 664.11763088833015 x_0_14_9 + 271.54201525532488 x_0_15_0 + 796.98603797743715 x_0_15_1 + 420.02707161542145 x_0_15_10 + 457.81005771637979 x_0_15_11 + 315.28081266363608 x_0_15_12 + 130.82446699138282 x_0_15_13 + 470.12702333905128 x_0_15_14 + 101.6469069363056 x_0_15_16 + 718.28366321964461 x_0_15_17 + 837.85200595068693 x_0_15_18 + 572.13815674234831 x_0_15_19 + 607.17045279489014 x_0_15_2 + 333.4689667907648 x_0_15_20 + 638.27768293402016 x_0_15_3 + 416.59154534989904 x_0_15_4 + 429.8690457349162 x_0_15_5 + 501.74489132608596 x_0_15_6 + 219.71794428817637 x_0_15_7 + 284.95600511681778 x_0_15_8 + 298.62441193510512 x_0_15_9 + 343.84141482041258 x_0_16_0 + 885.69191423749271 x_0_16_1 + 515.84441691632458 x_0_16_10 + 475.59716692788805 x_0_16_11 + 310.9521451785991 x_0_16_12 + 151.71318599093058 x_0_16_13 + 552.87650093704588 x_0_16_14 + 101.6469069363056 x_0_16_15 + 702.94084574166425 x_0_16_17 + 829.46351013129049 x_0_16_18 + 541.55017992816931 x_0_16_19 + 689.17264290854928 x_0_16_2 + 264.878123880391 x_0_16_20 + 739.84145907411028 x_0_16_3 + 499.66837799571528 x_0_16_4 + 530.03168379081455 x_0_16_5 + 603.38207520377352 x_0_16_6 + 293.96205327351964 x_0_16_7 + 383.99774870224434 x_0_16_8 + 333.58354952779223 x_0_16_9 + 586.40827407092218 x_0_17_0 + 890.25550988175962 x_0_17_1 + 1016.5279133066712 x_0_17_10 + 308.51647321376748 x_0_17_11 + 403.08383761227054 x_0_17_12 + 587.69705488620957 x_0_17_13 + 1125.4986996474656 x_0_17_14 + 718.28366321964461 x_0_17_15 + 702.94084574166425 x_0_17_16 + 134.22612796989918 x_0_17_18 + 182.12861341371297 x_0_17_19 + 706.23307903744228 x_0_17_2 + 492.26820638293361 x_0_17_20 + 1042.115325519833 x_0_17_3 + 651.27527400903034 x_0_17_4 + 848.70833363451823 x_0_17_5 + 967.96807566964787 x_0_17_6 + 605.37932480772315 x_0_17_7 + 887.87210037877787 x_0_17_8 + 461.38507567471061 x_0_17_9 + 679.81722055987882 x_0_18_0 + 905.86027405858852 x_0_18_1 + 1108.7401623893554 x_0_18_10 + 401.74068359073954 x_0_18_11 + 523.53105269839523 x_0_18_12 + 707.07254029422586 x_0_18_13 + 1225.0349322608188 x_0_18_14 + 837.85200595068693 x_0_18_15 + 829.46351013129049 x_0_18_16 + 134.22612796989918 x_0_18_17 + 316.26990163962461 x_0_18_19 + 741.8281338977157 x_0_18_2 + 625.99616032403389 x_0_18_20 + 1102.6643302433147 x_0_18_3 + 719.62221760670764 x_0_18_4 + 923.57922528447807 x_0_18_5 + 1042.300882456613 x_0_18_6 + 705.55032626393415 x_0_18_7 + 986.07665531768578 x_0_18_8 + 564.92464145385554 x_0_18_9 + 498.86677654650202 x_0_19_0 + 909.57876532869568 x_0_19_1 + 915.66658269277229 x_0_19_10 + 259.44028114735505 x_0_19_11 + 268.78711623961198 x_0_19_12 + 445.54166739917832 x_0_19_13 + 1010.2762755639997 x_0_19_14 + 572.13815674234831 x_0_19_15 + 541.55017992816931 x_0_19_16 + 182.12861341371297 x_0_19_17 + 316.26990163962461 x_0_19_18 + 705.9420122752864 x_0_19_2 + 313.1203940162161 x_0_19_20 + 991.90559370339054 x_0_19_3 + 603.96363519891406 x_0_19_4 + 781.38293852372396 x_0_19_5 + 897.92364880556227 x_0_19_6 + 503.48189614160452 x_0_19_7 + 779.32355288901647 x_0_19_8 + 363.26592280171644 x_0_19_9 + 551.64976801050545 x_0_1_0 + 636.8016772105326 x_0_1_10 + 654.22664740719131 x_0_1_11 + 754.40168595229034 x_0_1_12 + 759.14093339750309 x_0_1_13 + 773.90989655755084 x_0_1_14 + 796.98603797743715 x_0_1_15 + 885.69191423749271 x_0_1_16 + 890.25550988175962 x_0_1_17 + 905.86027405858852 x_0_1_18 + 909.57876532869568 x_0_1_19 + 213.19872840341398 x_0_1_2 + 955.68923233647092 x_0_1_20 + 384.99869276542881 x_0_1_3 + 388.93393722068049 x_0_1_4 + 419.97332897786214 x_0_1_5 + 455.48684666161768 x_0_1_6 + 596.23323709572878 x_0_1_7 + 633.55717411998887 x_0_1_8 + 636.37511190404052 x_0_1_9 + 420.75749905574497 x_0_20_0 + 955.68923233647092 x_0_20_1 + 743.26269309203315 x_0_20_10 + 370.95909217117713 x_0_20_11 + 209.40239087023852 x_0_20_12 + 247.32120239780559 x_0_20_13 + 803.50260373214621 x_0_20_14 + 333.4689667907648 x_0_20_15 + 264.878123880391 x_0_20_16 + 492.26820638293361 x_0_20_17 + 625.99616032403389 x_0_20_18 + 313.1203940162161 x_0_20_19 + 743.16233313028579 x_0_20_2 + 910.38097634781741 x_0_20_3 + 578.04995918914994 x_0_20_4 + 688.45445297218942 x_0_20_5 + 787.28534368354894 x_0_20_6 + 392.14338807529816 x_0_20_7 + 603.15131944215966 x_0_20_8 + 319.61305952748035 x_0_20_9 + 347.62907077832102 x_0_2_0 + 213.19872840341398 x_0_2_1 + 543.2937047802119 x_0_2_10 + 447.55317009817128 x_0_2_11 + 541.20355347338216 x_0_2_12 + 554.82967582790263 x_0_2_13 + 685.73406647732827 x_0_2_14 + 607.17045279489014 x_0_2_15 + 689.17264290854928 x_0_2_16 + 706.23307903744228 x_0_2_17 + 741.8281338977157 x_0_2_18 + 705.9420122752864 x_0_2_19 + 743.16233313028579 x_0_2_20 + 390.85837776741715 x_0_2_3 + 190.57973793768915 x_0_2_4 + 304.69664380677978 x_0_2_5 + 390.56742046291652 x_0_2_6 + 395.57290334795516 x_0_2_7 + 496.9175058744076 x_0_2_8 + 423.61424761104121 x_0_2_9 + 504.95662709241361 x_0_3_0 + 384.99869276542881 x_0_3_1 + 307.75567169692727 x_0_3_10 + 743.14663553155242 x_0_3_11 + 755.95573477130131 x_0_3_12 + 667.1862315181578 x_0_3_13 + 422.60928656820573 x_0_3_14 + 638.27768293402016 x_0_3_15 + 739.84145907411028 x_0_3_16 + 1042.115325519833 x_0_3_17 + 1102.6643302433147 x_0_3_18 + 991.90559370339054 x_0_3_19 + 390.85837776741715 x_0_3_2 + 910.38097634781741 x_0_3_20 + 391.98647582341579 x_0_3_4 + 222.0878840384365 x_0_3_5 + 140.51672358820585 x_0_3_6 + 521.23157478215046 x_0_3_7 + 376.70671895208005 x_0_3_8 + 637.54250397531416 x_0_3_9 + 163.12347073050395 x_0_4_0 + 388.93393722068049 x_0_4_1 + 422.89957835968033 x_0_4_10 + 351.44311164460424 x_0_4_11 + 390.52638140439376 x_0_4_12 + 370.24935054132374 x_0_4_13 + 559.50290158220344 x_0_4_14 + 416.59154534989904 x_0_4_15 + 499.66837799571528 x_0_4_16 + 651.27527400903034 x_0_4_17 + 719.62221760670764 x_0_4_18 + 603.96363519891406 x_0_4_19 + 190.57973793768915 x_0_4_2 + 578.04995918914994 x_0_4_20 + 391.98647582341579 x_0_4_3 + 206.14483112597475 x_0_4_5 + 323.40013209950126 x_0_4_6 + 207.55133929510404 x_0_4_7 + 340.19139194607629 x_0_4_8 + 267.47420681483271 x_0_4_9 + 286.35094060585743 x_0_5_0 + 419.97332897786214 x_0_5_1 + 238.66091688047666 x_0_5_10 + 542.31207557496816 x_0_5_11 + 536.829472320131 x_0_5_12 + 446.47016326775685 x_0_5_13 + 381.05856007236372 x_0_5_14 + 429.8690457349162 x_0_5_15 + 530.03168379081455 x_0_5_16 + 848.70833363451823 x_0_5_17 + 923.57922528447807 x_0_5_18 + 781.38293852372396 x_0_5_19 + 304.69664380677978 x_0_5_2 + 688.45445297218942 x_0_5_20 + 222.0878840384365 x_0_5_3 + 206.14483112597475 x_0_5_4 + 119.28621178555596 x_0_5_6 + 299.40951541415831 x_0_5_7 + 214.10267066579618 x_0_5_8 + 421.27919830505795 x_0_5_9 + 400.16393486926341 x_0_6_0 + 455.48684666161768 x_0_6_1 + 184.97262138422664 x_0_6_10 + 661.3179998765462 x_0_6_11 + 648.24558330757873 x_0_6_12 + 541.01036470375914 x_0_6_13 + 318.51396316505401 x_0_6_14 + 501.74489132608596 x_0_6_15 + 603.38207520377352 x_0_6_16 + 967.96807566964787 x_0_6_17 + 1042.300882456613 x_0_6_18 + 897.92364880556227 x_0_6_19 + 390.56742046291652 x_0_6_2 + 787.28534368354894 x_0_6_20 + 140.51672358820585 x_0_6_3 + 323.40013209950126 x_0_6_4 + 119.28621178555596 x_0_6_5 + 406.69899122657671 x_0_6_7 + 236.23466143611623 x_0_6_8 + 535.99885141852894 x_0_6_9 + 51.83689005166864 x_0_7_0 + 596.23323709572878 x_0_7_1 + 413.92748972362892 x_0_7_10 + 303.87659792613027 x_0_7_11 + 243.04118642570697 x_0_7_12 + 164.28378223215381 x_0_7_13 + 520.52143404801939 x_0_7_14 + 219.71794428817637 x_0_7_15 + 293.96205327351964 x_0_7_16 + 605.37932480772315 x_0_7_17 + 705.55032626393415 x_0_7_18 + 503.48189614160452 x_0_7_19 + 395.57290334795516 x_0_7_2 + 392.14338807529816 x_0_7_20 + 521.23157478215046 x_0_7_3 + 207.55133929510404 x_0_7_4 + 299.40951541415831 x_0_7_5 + 406.69899122657671 x_0_7_6 + 282.49357900603161 x_0_7_8 + 144.44518036959616 x_0_7_9 + 306.94716985118197 x_0_8_0 + 633.55717411998887 x_0_8_1 + 140.76429047310381 x_0_8_10 + 584.60016021990089 x_0_8_11 + 511.67431072068797 x_0_8_12 + 359.8477132749133 x_0_8_13 + 239.01128500063339 x_0_8_14 + 284.95600511681778 x_0_8_15 + 383.99774870224434 x_0_8_16 + 887.87210037877787 x_0_8_17 + 986.07665531768578 x_0_8_18 + 779.32355288901647 x_0_8_19 + 496.9175058744076 x_0_8_2 + 603.15131944215966 x_0_8_20 + 376.70671895208005 x_0_8_3 + 340.19139194607629 x_0_8_4 + 214.10267066579618 x_0_8_5 + 236.23466143611623 x_0_8_6 + 282.49357900603161 x_0_8_7 + 426.73004916578469 x_0_8_9 + 135.9213282781096 x_0_9_0 + 636.37511190404052 x_0_9_1 + 558.01784000477198 x_0_9_10 + 166.02906913485992 x_0_9_11 + 123.05977506551153 x_0_9_12 + 182.30033324291492 x_0_9_13 + 664.11763088833015 x_0_9_14 + 298.62441193510512 x_0_9_15 + 333.58354952779223 x_0_9_16 + 461.38507567471061 x_0_9_17 + 564.92464145385554 x_0_9_18 + 363.26592280171644 x_0_9_19 + 423.61424761104121 x_0_9_2 + 319.61305952748035 x_0_9_20 + 637.54250397531416 x_0_9_3 + 267.47420681483271 x_0_9_4 + 421.27919830505795 x_0_9_5 + 535.99885141852894 x_0_9_6 + 144.44518036959616 x_0_9_7 + 426.73004916578469 x_0_9_8 <= 10800
 c1887: p_1_1 - 2 z_1_1 <= 0
 c1888: d_1_1 - 19 z_1_1 <= 0
 c1889: mode_1_1 - z_1_1 <= 0
 c1890: - 2 mode_1_1 + p_1_1 <= 0
 c1891: d_1_1 + 19 mode_1_1 - 19 z_1_1 <= 0
 c1892: d_1_1 + p_1_1 - z_1_1 >= 0
 c1893: load_1_1 - 20 z_1_1 <= 0
 c1894: p_1_2 - 14 z_1_2 <= 0
 c1895: d_1_2 - 6 z_1_2 <= 0
 c1896: mode_1_2 - z_1_2 <= 0
 c1897: - 14 mode_1_2 + p_1_2 <= 0
 c1898: d_1_2 + 6 mode_1_2 - 6 z_1_2 <= 0
 c1899: d_1_2 + p_1_2 - z_1_2 >= 0
 c1900: load_1_2 - 20 z_1_2 <= 0
 c1901: p_1_3 - 4 z_1_3 <= 0
 c1902: d_1_3 - 19 z_1_3 <= 0
 c1903: mode_1_3 - z_1_3 <= 0
 c1904: - 4 mode_1_3 + p_1_3 <= 0
 c1905: d_1_3 + 19 mode_1_3 - 19 z_1_3 <= 0
 c1906: d_1_3 + p_1_3 - z_1_3 >= 0
 c1907: load_1_3 - 20 z_1_3 <= 0
 c1908: p_1_4 - 16 z_1_4 <= 0
 c1909: d_1_4 - 5 z_1_4 <= 0
 c1910: mode_1_4 - z_1_4 <= 0
 c1911: - 16 mode_1_4 + p_1_4 <= 0
 c1912: d_1_4 + 5 mode_1_4 - 5 z_1_4 <= 0
 c1913: d_1_4 + p_1_4 - z_1_4 >= 0
 c1914: load_1_4 - 20 z_1_4 <= 0
 c1915: p_1_5 - 4 z_1_5 <= 0
 c1916: d_1_5 - 19 z_1_5 <= 0
 c1917: mode_1_5 - z_1_5 <= 0
 c1918: - 4 mode_1_5 + p_1_5 <= 0
 c1919: d_1_5 + 19 mode_1_5 - 19 z_1_5 <= 0
 c1920: d_1_5 + p_1_5 - z_1_5 >= 0
 c1921: load_1_5 - 20 z_1_5 <= 0
 c1922: p_1_6 - 17 z_1_6 <= 0
 c1923: d_1_6 - 4 z_1_6 <= 0
 c1924: mode_1_6 - z_1_6 <= 0
 c1925: - 17 mode_1_6 + p_1_6 <= 0
 c1926: d_1_6 + 4 mode_1_6 - 4 z_1_6 <= 0
 c1927: d_1_6 + p_1_6 - z_1_6 >= 0
 c1928: load_1_6 - 20 z_1_6 <= 0
 c1929: p_1_7 - 16 z_1_7 <= 0
 c1930: d_1_7 - 7 z_1_7 <= 0
 c1931: mode_1_7 - z_1_7 <= 0
 c1932: - 16 mode_1_7 + p_1_7 <= 0
 c1933: d_1_7 + 7 mode_1_7 - 7 z_1_7 <= 0
 c1934: d_1_7 + p_1_7 - z_1_7 >= 0
 c1935: load_1_7 - 20 z_1_7 <= 0
 c1936: p_1_8 - 3 z_1_8 <= 0
 c1937: d_1_8 - 18 z_1_8 <= 0
 c1938: mode_1_8 - z_1_8 <= 0
 c1939: - 3 mode_1_8 + p_1_8 <= 0
 c1940: d_1_8 + 18 mode_1_8 - 18 z_1_8 <= 0
 c1941: d_1_8 + p_1_8 - z_1_8 >= 0
 c1942: load_1_8 - 20 z_1_8 <= 0
 c1943: p_1_9 - 3 z_1_9 <= 0
 c1944: d_1_9 - 16 z_1_9 <= 0
 c1945: mode_1_9 - z_1_9 <= 0
 c1946: - 3 mode_1_9 + p_1_9 <= 0
 c1947: d_1_9 + 16 mode_1_9 - 16 z_1_9 <= 0
 c1948: d_1_9 + p_1_9 - z_1_9 >= 0
 c1949: load_1_9 - 20 z_1_9 <= 0
 c1950: p_1_10 - 20 z_1_10 <= 0
 c1951: d_1_10 - 8 z_1_10 <= 0
 c1952: mode_1_10 - z_1_10 <= 0
 c1953: - 20 mode_1_10 + p_1_10 <= 0
 c1954: d_1_10 + 8 mode_1_10 - 8 z_1_10 <= 0
 c1955: d_1_10 + p_1_10 - z_1_10 >= 0
 c1956: load_1_10 - 20 z_1_10 <= 0
 c1957: p_1_11 - z_1_11 <= 0
 c1958: d_1_11 - 20 z_1_11 <= 0
 c1959: mode_1_11 - z_1_11 <= 0
 c1960: - mode_1_11 + p_1_11 <= 0
 c1961: d_1_11 + 20 mode_1_11 - 20 z_1_11 <= 0
 c1962: d_1_11 + p_1_11 - z_1_11 >= 0
 c1963: load_1_11 - 20 z_1_11 <= 0
 c1964: p_1_12 - 20 z_1_12 <= 0
 c1965: d_1_12 - 7 z_1_12 <= 0
 c1966: mode_1_12 - z_1_12 <= 0
 c1967: - 20 mode_1_12 + p_1_12 <= 0
 c1968: d_1_12 + 7 mode_1_12 - 7 z_1_12 <= 0
 c1969: d_1_12 + p_1_12 - z_1_12 >= 0
 c1970: load_1_12 - 20 z_1_12 <= 0
 c1971: p_1_13 - 14 z_1_13 <= 0
 c1972: d_1_13 - 7 z_1_13 <= 0
 c1973: mode_1_13 - z_1_13 <= 0
 c1974: - 14 mode_1_13 + p_1_13 <= 0
 c1975: d_1_13 + 7 mode_1_13 - 7 z_1_13 <= 0
 c1976: d_1_13 + p_1_13 - z_1_13 >= 0
 c1977: load_1_13 - 20 z_1_13 <= 0
 c1978: p_1_14 - 4 z_1_14 <= 0
 c1979: d_1_14 - 18 z_1_14 <= 0
 c1980: mode_1_14 - z_1_14 <= 0
 c1981: - 4 mode_1_14 + p_1_14 <= 0
 c1982: d_1_14 + 18 mode_1_14 - 18 z_1_14 <= 0
 c1983: d_1_14 + p_1_14 - z_1_14 >= 0
 c1984: load_1_14 - 20 z_1_14 <= 0
 c1985: p_1_15 - 12 z_1_15 <= 0
 c1986: d_1_15 - 7 z_1_15 <= 0
 c1987: mode_1_15 - z_1_15 <= 0
 c1988: - 12 mode_1_15 + p_1_15 <= 0
 c1989: d_1_15 + 7 mode_1_15 - 7 z_1_15 <= 0
 c1990: d_1_15 + p_1_15 - z_1_15 >= 0
 c1991: load_1_15 - 20 z_1_15 <= 0
 c1992: p_1_16 - 2 z_1_16 <= 0
 c1993: d_1_16 - 20 z_1_16 <= 0
 c1994: mode_1_16 - z_1_16 <= 0
 c1995: - 2 mode_1_16 + p_1_16 <= 0
 c1996: d_1_16 + 20 mode_1_16 - 20 z_1_16 <= 0
 c1997: d_1_16 + p_1_16 - z_1_16 >= 0
 c1998: load_1_16 - 20 z_1_16 <= 0
 c1999: p_1_17 - 16 z_1_17 <= 0
 c2000: d_1_17 - 5 z_1_17 <= 0
 c2001: mode_1_17 - z_1_17 <= 0
 c2002: - 16 mode_1_17 + p_1_17 <= 0
 c2003: d_1_17 + 5 mode_1_17 - 5 z_1_17 <= 0
 c2004: d_1_17 + p_1_17 - z_1_17 >= 0
 c2005: load_1_17 - 20 z_1_17 <= 0
 c2006: p_1_18 - 16 z_1_18 <= 0
 c2007: d_1_18 - 8 z_1_18 <= 0
 c2008: mode_1_18 - z_1_18 <= 0
 c2009: - 16 mode_1_18 + p_1_18 <= 0
 c2010: d_1_18 + 8 mode_1_18 - 8 z_1_18 <= 0
 c2011: d_1_18 + p_1_18 - z_1_18 >= 0
 c2012: load_1_18 - 20 z_1_18 <= 0
 c2013: p_1_19 - 4 z_1_19 <= 0
 c2014: d_1_19 - 16 z_1_19 <= 0
 c2015: mode_1_19 - z_1_19 <= 0
 c2016: - 4 mode_1_19 + p_1_19 <= 0
 c2017: d_1_19 + 16 mode_1_19 - 16 z_1_19 <= 0
 c2018: d_1_19 + p_1_19 - z_1_19 >= 0
 c2019: load_1_19 - 20 z_1_19 <= 0
 c2020: p_1_20 - 4 z_1_20 <= 0
 c2021: d_1_20 - 16 z_1_20 <= 0
 c2022: mode_1_20 - z_1_20 <= 0
 c2023: - 4 mode_1_20 + p_1_20 <= 0
 c2024: d_1_20 + 16 mode_1_20 - 16 z_1_20 <= 0
 c2025: d_1_20 + p_1_20 - z_1_20 >= 0
 c2026: load_1_20 - 20 z_1_20 <= 0
 c2027: d_1_1 + load_1_1 - p_1_1 + 20 x_1_0_1 <= 20
 c2028: d_1_1 + load_1_1 - p_1_1 - 20 x_1_0_1 >= -20
 c2029: d_1_2 + load_1_2 - p_1_2 + 20 x_1_0_2 <= 20
 c2030: d_1_2 + load_1_2 - p_1_2 - 20 x_1_0_2 >= -20
 c2031: d_1_3 + load_1_3 - p_1_3 + 20 x_1_0_3 <= 20
 c2032: d_1_3 + load_1_3 - p_1_3 - 20 x_1_0_3 >= -20
 c2033: d_1_4 + load_1_4 - p_1_4 + 20 x_1_0_4 <= 20
 c2034: d_1_4 + load_1_4 - p_1_4 - 20 x_1_0_4 >= -20
 c2035: d_1_5 + load_1_5 - p_1_5 + 20 x_1_0_5 <= 20
 c2036: d_1_5 + load_1_5 - p_1_5 - 20 x_1_0_5 >= -20
 c2037: d_1_6 + load_1_6 - p_1_6 + 20 x_1_0_6 <= 20
 c2038: d_1_6 + load_1_6 - p_1_6 - 20 x_1_0_6 >= -20
 c2039: d_1_7 + load_1_7 - p_1_7 + 20 x_1_0_7 <= 20
 c2040: d_1_7 + load_1_7 - p_1_7 - 20 x_1_0_7 >= -20
 c2041: d_1_8 + load_1_8 - p_1_8 + 20 x_1_0_8 <= 20
 c2042: d_1_8 + load_1_8 - p_1_8 - 20 x_1_0_8 >= -20
 c2043: d_1_9 + load_1_9 - p_1_9 + 20 x_1_0_9 <= 20
 c2044: d_1_9 + load_1_9 - p_1_9 - 20 x_1_0_9 >= -20
 c2045: d_1_10 + load_1_10 - p_1_10 + 20 x_1_0_10 <= 20
 c2046: d_1_10 + load_1_10 - p_1_10 - 20 x_1_0_10 >= -20
 c2047: d_1_11 + load_1_11 - p_1_11 + 20 x_1_0_11 <= 20
 c2048: d_1_11 + load_1_11 - p_1_11 - 20 x_1_0_11 >= -20
 c2049: d_1_12 + load_1_12 - p_1_12 + 20 x_1_0_12 <= 20
 c2050: d_1_12 + load_1_12 - p_1_12 - 20 x_1_0_12 >= -20
 c2051: d_1_13 + load_1_13 - p_1_13 + 20 x_1_0_13 <= 20
 c2052: d_1_13 + load_1_13 - p_1_13 - 20 x_1_0_13 >= -20
 c2053: d_1_14 + load_1_14 - p_1_14 + 20 x_1_0_14 <= 20
 c2054: d_1_14 + load_1_14 - p_1_14 - 20 x_1_0_14 >= -20
 c2055: d_1_15 + load_1_15 - p_1_15 + 20 x_1_0_15 <= 20
 c2056: d_1_15 + load_1_15 - p_1_15 - 20 x_1_0_15 >= -20
 c2057: d_1_16 + load_1_16 - p_1_16 + 20 x_1_0_16 <= 20
 c2058: d_1_16 + load_1_16 - p_1_16 - 20 x_1_0_16 >= -20
 c2059: d_1_17 + load_1_17 - p_1_17 + 20 x_1_0_17 <= 20
 c2060: d_1_17 + load_1_17 - p_1_17 - 20 x_1_0_17 >= -20
 c2061: d_1_18 + load_1_18 - p_1_18 + 20 x_1_0_18 <= 20
 c2062: d_1_18 + load_1_18 - p_1_18 - 20 x_1_0_18 >= -20
 c2063: d_1_19 + load_1_19 - p_1_19 + 20 x_1_0_19 <= 20
 c2064: d_1_19 + load_1_19 - p_1_19 - 20 x_1_0_19 >= -20
 c2065: d_1_20 + load_1_20 - p_1_20 + 20 x_1_0_20 <= 20
 c2066: d_1_20 + load_1_20 - p_1_20 - 20 x_1_0_20 >= -20
 c2067: d_1_2 - load_1_1 + load_1_2 - p_1_2 + 20 x_1_1_2 <= 20
 c2068: d_1_2 - load_1_1 + load_1_2 - p_1_2 - 20 x_1_1_2 >= -20
 c2069: d_1_3 - load_1_1 + load_1_3 - p_1_3 + 20 x_1_1_3 <= 20
 c2070: d_1_3 - load_1_1 + load_1_3 - p_1_3 - 20 x_1_1_3 >= -20
 c2071: d_1_4 - load_1_1 + load_1_4 - p_1_4 + 20 x_1_1_4 <= 20
 c2072: d_1_4 - load_1_1 + load_1_4 - p_1_4 - 20 x_1_1_4 >= -20
 c2073: d_1_5 - load_1_1 + load_1_5 - p_1_5 + 20 x_1_1_5 <= 20
 c2074: d_1_5 - load_1_1 + load_1_5 - p_1_5 - 20 x_1_1_5 >= -20
 c2075: d_1_6 - load_1_1 + load_1_6 - p_1_6 + 20 x_1_1_6 <= 20
 c2076: d_1_6 - load_1_1 + load_1_6 - p_1_6 - 20 x_1_1_6 >= -20
 c2077: d_1_7 - load_1_1 + load_1_7 - p_1_7 + 20 x_1_1_7 <= 20
 c2078: d_1_7 - load_1_1 + load_1_7 - p_1_7 - 20 x_1_1_7 >= -20
 c2079: d_1_8 - load_1_1 + load_1_8 - p_1_8 + 20 x_1_1_8 <= 20
 c2080: d_1_8 - load_1_1 + load_1_8 - p_1_8 - 20 x_1_1_8 >= -20
 c2081: d_1_9 - load_1_1 + load_1_9 - p_1_9 + 20 x_1_1_9 <= 20
 c2082: d_1_9 - load_1_1 + load_1_9 - p_1_9 - 20 x_1_1_9 >= -20
 c2083: d_1_10 - load_1_1 + load_1_10 - p_1_10 + 20 x_1_1_10 <= 20
 c2084: d_1_10 - load_1_1 + load_1_10 - p_1_10 - 20 x_1_1_10 >= -20
 c2085: d_1_11 - load_1_1 + load_1_11 - p_1_11 + 20 x_1_1_11 <= 20
 c2086: d_1_11 - load_1_1 + load_1_11 - p_1_11 - 20 x_1_1_11 >= -20
 c2087: d_1_12 - load_1_1 + load_1_12 - p_1_12 + 20 x_1_1_12 <= 20
 c2088: d_1_12 - load_1_1 + load_1_12 - p_1_12 - 20 x_1_1_12 >= -20
 c2089: d_1_13 - load_1_1 + load_1_13 - p_1_13 + 20 x_1_1_13 <= 20
 c2090: d_1_13 - load_1_1 + load_1_13 - p_1_13 - 20 x_1_1_13 >= -20
 c2091: d_1_14 - load_1_1 + load_1_14 - p_1_14 + 20 x_1_1_14 <= 20
 c2092: d_1_14 - load_1_1 + load_1_14 - p_1_14 - 20 x_1_1_14 >= -20
 c2093: d_1_15 - load_1_1 + load_1_15 - p_1_15 + 20 x_1_1_15 <= 20
 c2094: d_1_15 - load_1_1 + load_1_15 - p_1_15 - 20 x_1_1_15 >= -20
 c2095: d_1_16 - load_1_1 + load_1_16 - p_1_16 + 20 x_1_1_16 <= 20
 c2096: d_1_16 - load_1_1 + load_1_16 - p_1_16 - 20 x_1_1_16 >= -20
 c2097: d_1_17 - load_1_1 + load_1_17 - p_1_17 + 20 x_1_1_17 <= 20
 c2098: d_1_17 - load_1_1 + load_1_17 - p_1_17 - 20 x_1_1_17 >= -20
 c2099: d_1_18 - load_1_1 + load_1_18 - p_1_18 + 20 x_1_1_18 <= 20
 c2100: d_1_18 - load_1_1 + load_1_18 - p_1_18 - 20 x_1_1_18 >= -20
 c2101: d_1_19 - load_1_1 + load_1_19 - p_1_19 + 20 x_1_1_19 <= 20
 c2102: d_1_19 - load_1_1 + load_1_19 - p_1_19 - 20 x_1_1_19 >= -20
 c2103: d_1_20 - load_1_1 + load_1_20 - p_1_20 + 20 x_1_1_20 <= 20
 c2104: d_1_20 - load_1_1 + load_1_20 - p_1_20 - 20 x_1_1_20 >= -20
 c2105: d_1_1 + load_1_1 - load_1_2 - p_1_1 + 20 x_1_2_1 <= 20
 c2106: d_1_1 + load_1_1 - load_1_2 - p_1_1 - 20 x_1_2_1 >= -20
 c2107: d_1_3 - load_1_2 + load_1_3 - p_1_3 + 20 x_1_2_3 <= 20
 c2108: d_1_3 - load_1_2 + load_1_3 - p_1_3 - 20 x_1_2_3 >= -20
 c2109: d_1_4 - load_1_2 + load_1_4 - p_1_4 + 20 x_1_2_4 <= 20
 c2110: d_1_4 - load_1_2 + load_1_4 - p_1_4 - 20 x_1_2_4 >= -20
 c2111: d_1_5 - load_1_2 + load_1_5 - p_1_5 + 20 x_1_2_5 <= 20
 c2112: d_1_5 - load_1_2 + load_1_5 - p_1_5 - 20 x_1_2_5 >= -20
 c2113: d_1_6 - load_1_2 + load_1_6 - p_1_6 + 20 x_1_2_6 <= 20
 c2114: d_1_6 - load_1_2 + load_1_6 - p_1_6 - 20 x_1_2_6 >= -20
 c2115: d_1_7 - load_1_2 + load_1_7 - p_1_7 + 20 x_1_2_7 <= 20
 c2116: d_1_7 - load_1_2 + load_1_7 - p_1_7 - 20 x_1_2_7 >= -20
 c2117: d_1_8 - load_1_2 + load_1_8 - p_1_8 + 20 x_1_2_8 <= 20
 c2118: d_1_8 - load_1_2 + load_1_8 - p_1_8 - 20 x_1_2_8 >= -20
 c2119: d_1_9 - load_1_2 + load_1_9 - p_1_9 + 20 x_1_2_9 <= 20
 c2120: d_1_9 - load_1_2 + load_1_9 - p_1_9 - 20 x_1_2_9 >= -20
 c2121: d_1_10 + load_1_10 - load_1_2 - p_1_10 + 20 x_1_2_10 <= 20
 c2122: d_1_10 + load_1_10 - load_1_2 - p_1_10 - 20 x_1_2_10 >= -20
 c2123: d_1_11 + load_1_11 - load_1_2 - p_1_11 + 20 x_1_2_11 <= 20
 c2124: d_1_11 + load_1_11 - load_1_2 - p_1_11 - 20 x_1_2_11 >= -20
 c2125: d_1_12 + load_1_12 - load_1_2 - p_1_12 + 20 x_1_2_12 <= 20
 c2126: d_1_12 + load_1_12 - load_1_2 - p_1_12 - 20 x_1_2_12 >= -20
 c2127: d_1_13 + load_1_13 - load_1_2 - p_1_13 + 20 x_1_2_13 <= 20
 c2128: d_1_13 + load_1_13 - load_1_2 - p_1_13 - 20 x_1_2_13 >= -20
 c2129: d_1_14 + load_1_14 - load_1_2 - p_1_14 + 20 x_1_2_14 <= 20
 c2130: d_1_14 + load_1_14 - load_1_2 - p_1_14 - 20 x_1_2_14 >= -20
 c2131: d_1_15 + load_1_15 - load_1_2 - p_1_15 + 20 x_1_2_15 <= 20
 c2132: d_1_15 + load_1_15 - load_1_2 - p_1_15 - 20 x_1_2_15 >= -20
 c2133: d_1_16 + load_1_16 - load_1_2 - p_1_16 + 20 x_1_2_16 <= 20
 c2134: d_1_16 + load_1_16 - load_1_2 - p_1_16 - 20 x_1_2_16 >= -20
 c2135: d_1_17 + load_1_17 - load_1_2 - p_1_17 + 20 x_1_2_17 <= 20
 c2136: d_1_17 + load_1_17 - load_1_2 - p_1_17 - 20 x_1_2_17 >= -20
 c2137: d_1_18 + load_1_18 - load_1_2 - p_1_18 + 20 x_1_2_18 <= 20
 c2138: d_1_18 + load_1_18 - load_1_2 - p_1_18 - 20 x_1_2_18 >= -20
 c2139: d_1_19 + load_1_19 - load_1_2 - p_1_19 + 20 x_1_2_19 <= 20
 c2140: d_1_19 + load_1_19 - load_1_2 - p_1_19 - 20 x_1_2_19 >= -20
 c2141: d_1_20 - load_1_2 + load_1_20 - p_1_20 + 20 x_1_2_20 <= 20
 c2142: d_1_20 - load_1_2 + load_1_20 - p_1_20 - 20 x_1_2_20 >= -20
 c2143: d_1_1 + load_1_1 - load_1_3 - p_1_1 + 20 x_1_3_1 <= 20
 c2144: d_1_1 + load_1_1 - load_1_3 - p_1_1 - 20 x_1_3_1 >= -20
 c2145: d_1_2 + load_1_2 - load_1_3 - p_1_2 + 20 x_1_3_2 <= 20
 c2146: d_1_2 + load_1_2 - load_1_3 - p_1_2 - 20 x_1_3_2 >= -20
 c2147: d_1_4 - load_1_3 + load_1_4 - p_1_4 + 20 x_1_3_4 <= 20
 c2148: d_1_4 - load_1_3 + load_1_4 - p_1_4 - 20 x_1_3_4 >= -20
 c2149: d_1_5 - load_1_3 + load_1_5 - p_1_5 + 20 x_1_3_5 <= 20
 c2150: d_1_5 - load_1_3 + load_1_5 - p_1_5 - 20 x_1_3_5 >= -20
 c2151: d_1_6 - load_1_3 + load_1_6 - p_1_6 + 20 x_1_3_6 <= 20
 c2152: d_1_6 - load_1_3 + load_1_6 - p_1_6 - 20 x_1_3_6 >= -20
 c2153: d_1_7 - load_1_3 + load_1_7 - p_1_7 + 20 x_1_3_7 <= 20
 c2154: d_1_7 - load_1_3 + load_1_7 - p_1_7 - 20 x_1_3_7 >= -20
 c2155: d_1_8 - load_1_3 + load_1_8 - p_1_8 + 20 x_1_3_8 <= 20
 c2156: d_1_8 - load_1_3 + load_1_8 - p_1_8 - 20 x_1_3_8 >= -20
 c2157: d_1_9 - load_1_3 + load_1_9 - p_1_9 + 20 x_1_3_9 <= 20
 c2158: d_1_9 - load_1_3 + load_1_9 - p_1_9 - 20 x_1_3_9 >= -20
 c2159: d_1_10 + load_1_10 - load_1_3 - p_1_10 + 20 x_1_3_10 <= 20
 c2160: d_1_10 + load_1_10 - load_1_3 - p_1_10 - 20 x_1_3_10 >= -20
 c2161: d_1_11 + load_1_11 - load_1_3 - p_1_11 + 20 x_1_3_11 <= 20
 c2162: d_1_11 + load_1_11 - load_1_3 - p_1_11 - 20 x_1_3_11 >= -20
 c2163: d_1_12 + load_1_12 - load_1_3 - p_1_12 + 20 x_1_3_12 <= 20
 c2164: d_1_12 + load_1_12 - load_1_3 - p_1_12 - 20 x_1_3_12 >= -20
 c2165: d_1_13 + load_1_13 - load_1_3 - p_1_13 + 20 x_1_3_13 <= 20
 c2166: d_1_13 + load_1_13 - load_1_3 - p_1_13 - 20 x_1_3_13 >= -20
 c2167: d_1_14 + load_1_14 - load_1_3 - p_1_14 + 20 x_1_3_14 <= 20
 c2168: d_1_14 + load_1_14 - load_1_3 - p_1_14 - 20 x_1_3_14 >= -20
 c2169: d_1_15 + load_1_15 - load_1_3 - p_1_15 + 20 x_1_3_15 <= 20
 c2170: d_1_15 + load_1_15 - load_1_3 - p_1_15 - 20 x_1_3_15 >= -20
 c2171: d_1_16 + load_1_16 - load_1_3 - p_1_16 + 20 x_1_3_16 <= 20
 c2172: d_1_16 + load_1_16 - load_1_3 - p_1_16 - 20 x_1_3_16 >= -20
 c2173: d_1_17 + load_1_17 - load_1_3 - p_1_17 + 20 x_1_3_17 <= 20
 c2174: d_1_17 + load_1_17 - load_1_3 - p_1_17 - 20 x_1_3_17 >= -20
 c2175: d_1_18 + load_1_18 - load_1_3 - p_1_18 + 20 x_1_3_18 <= 20
 c2176: d_1_18 + load_1_18 - load_1_3 - p_1_18 - 20 x_1_3_18 >= -20
 c2177: d_1_19 + load_1_19 - load_1_3 - p_1_19 + 20 x_1_3_19 <= 20
 c2178: d_1_19 + load_1_19 - load_1_3 - p_1_19 - 20 x_1_3_19 >= -20
 c2179: d_1_20 + load_1_20 - load_1_3 - p_1_20 + 20 x_1_3_20 <= 20
 c2180: d_1_20 + load_1_20 - load_1_3 - p_1_20 - 20 x_1_3_20 >= -20
 c2181: d_1_1 + load_1_1 - load_1_4 - p_1_1 + 20 x_1_4_1 <= 20
 c2182: d_1_1 + load_1_1 - load_1_4 - p_1_1 - 20 x_1_4_1 >= -20
 c2183: d_1_2 + load_1_2 - load_1_4 - p_1_2 + 20 x_1_4_2 <= 20
 c2184: d_1_2 + load_1_2 - load_1_4 - p_1_2 - 20 x_1_4_2 >= -20
 c2185: d_1_3 + load_1_3 - load_1_4 - p_1_3 + 20 x_1_4_3 <= 20
 c2186: d_1_3 + load_1_3 - load_1_4 - p_1_3 - 20 x_1_4_3 >= -20
 c2187: d_1_5 - load_1_4 + load_1_5 - p_1_5 + 20 x_1_4_5 <= 20
 c2188: d_1_5 - load_1_4 + load_1_5 - p_1_5 - 20 x_1_4_5 >= -20
 c2189: d_1_6 - load_1_4 + load_1_6 - p_1_6 + 20 x_1_4_6 <= 20
 c2190: d_1_6 - load_1_4 + load_1_6 - p_1_6 - 20 x_1_4_6 >= -20
 c2191: d_1_7 - load_1_4 + load_1_7 - p_1_7 + 20 x_1_4_7 <= 20
 c2192: d_1_7 - load_1_4 + load_1_7 - p_1_7 - 20 x_1_4_7 >= -20
 c2193: d_1_8 - load_1_4 + load_1_8 - p_1_8 + 20 x_1_4_8 <= 20
 c2194: d_1_8 - load_1_4 + load_1_8 - p_1_8 - 20 x_1_4_8 >= -20
 c2195: d_1_9 - load_1_4 + load_1_9 - p_1_9 + 20 x_1_4_9 <= 20
 c2196: d_1_9 - load_1_4 + load_1_9 - p_1_9 - 20 x_1_4_9 >= -20
 c2197: d_1_10 + load_1_10 - load_1_4 - p_1_10 + 20 x_1_4_10 <= 20
 c2198: d_1_10 + load_1_10 - load_1_4 - p_1_10 - 20 x_1_4_10 >= -20
 c2199: d_1_11 + load_1_11 - load_1_4 - p_1_11 + 20 x_1_4_11 <= 20
 c2200: d_1_11 + load_1_11 - load_1_4 - p_1_11 - 20 x_1_4_11 >= -20
 c2201: d_1_12 + load_1_12 - load_1_4 - p_1_12 + 20 x_1_4_12 <= 20
 c2202: d_1_12 + load_1_12 - load_1_4 - p_1_12 - 20 x_1_4_12 >= -20
 c2203: d_1_13 + load_1_13 - load_1_4 - p_1_13 + 20 x_1_4_13 <= 20
 c2204: d_1_13 + load_1_13 - load_1_4 - p_1_13 - 20 x_1_4_13 >= -20
 c2205: d_1_14 + load_1_14 - load_1_4 - p_1_14 + 20 x_1_4_14 <= 20
 c2206: d_1_14 + load_1_14 - load_1_4 - p_1_14 - 20 x_1_4_14 >= -20
 c2207: d_1_15 + load_1_15 - load_1_4 - p_1_15 + 20 x_1_4_15 <= 20
 c2208: d_1_15 + load_1_15 - load_1_4 - p_1_15 - 20 x_1_4_15 >= -20
 c2209: d_1_16 + load_1_16 - load_1_4 - p_1_16 + 20 x_1_4_16 <= 20
 c2210: d_1_16 + load_1_16 - load_1_4 - p_1_16 - 20 x_1_4_16 >= -20
 c2211: d_1_17 + load_1_17 - load_1_4 - p_1_17 + 20 x_1_4_17 <= 20
 c2212: d_1_17 + load_1_17 - load_1_4 - p_1_17 - 20 x_1_4_17 >= -20
 c2213: d_1_18 + load_1_18 - load_1_4 - p_1_18 + 20 x_1_4_18 <= 20
 c2214: d_1_18 + load_1_18 - load_1_4 - p_1_18 - 20 x_1_4_18 >= -20
 c2215: d_1_19 + load_1_19 - load_1_4 - p_1_19 + 20 x_1_4_19 <= 20
 c2216: d_1_19 + load_1_19 - load_1_4 - p_1_19 - 20 x_1_4_19 >= -20
 c2217: d_1_20 + load_1_20 - load_1_4 - p_1_20 + 20 x_1_4_20 <= 20
 c2218: d_1_20 + load_1_20 - load_1_4 - p_1_20 - 20 x_1_4_20 >= -20
 c2219: d_1_1 + load_1_1 - load_1_5 - p_1_1 + 20 x_1_5_1 <= 20
 c2220: d_1_1 + load_1_1 - load_1_5 - p_1_1 - 20 x_1_5_1 >= -20
 c2221: d_1_2 + load_1_2 - load_1_5 - p_1_2 + 20 x_1_5_2 <= 20
 c2222: d_1_2 + load_1_2 - load_1_5 - p_1_2 - 20 x_1_5_2 >= -20
 c2223: d_1_3 + load_1_3 - load_1_5 - p_1_3 + 20 x_1_5_3 <= 20
 c2224: d_1_3 + load_1_3 - load_1_5 - p_1_3 - 20 x_1_5_3 >= -20
 c2225: d_1_4 + load_1_4 - load_1_5 - p_1_4 + 20 x_1_5_4 <= 20
 c2226: d_1_4 + load_1_4 - load_1_5 - p_1_4 - 20 x_1_5_4 >= -20
 c2227: d_1_6 - load_1_5 + load_1_6 - p_1_6 + 20 x_1_5_6 <= 20
 c2228: d_1_6 - load_1_5 + load_1_6 - p_1_6 - 20 x_1_5_6 >= -20
 c2229: d_1_7 - load_1_5 + load_1_7 - p_1_7 + 20 x_1_5_7 <= 20
 c2230: d_1_7 - load_1_5 + load_1_7 - p_1_7 - 20 x_1_5_7 >= -20
 c2231: d_1_8 - load_1_5 + load_1_8 - p_1_8 + 20 x_1_5_8 <= 20
 c2232: d_1_8 - load_1_5 + load_1_8 - p_1_8 - 20 x_1_5_8 >= -20
 c2233: d_1_9 - load_1_5 + load_1_9 - p_1_9 + 20 x_1_5_9 <= 20
 c2234: d_1_9 - load_1_5 + load_1_9 - p_1_9 - 20 x_1_5_9 >= -20
 c2235: d_1_10 + load_1_10 - load_1_5 - p_1_10 + 20 x_1_5_10 <= 20
 c2236: d_1_10 + load_1_10 - load_1_5 - p_1_10 - 20 x_1_5_10 >= -20
 c2237: d_1_11 + load_1_11 - load_1_5 - p_1_11 + 20 x_1_5_11 <= 20
 c2238: d_1_11 + load_1_11 - load_1_5 - p_1_11 - 20 x_1_5_11 >= -20
 c2239: d_1_12 + load_1_12 - load_1_5 - p_1_12 + 20 x_1_5_12 <= 20
 c2240: d_1_12 + load_1_12 - load_1_5 - p_1_12 - 20 x_1_5_12 >= -20
 c2241: d_1_13 + load_1_13 - load_1_5 - p_1_13 + 20 x_1_5_13 <= 20
 c2242: d_1_13 + load_1_13 - load_1_5 - p_1_13 - 20 x_1_5_13 >= -20
 c2243: d_1_14 + load_1_14 - load_1_5 - p_1_14 + 20 x_1_5_14 <= 20
 c2244: d_1_14 + load_1_14 - load_1_5 - p_1_14 - 20 x_1_5_14 >= -20
 c2245: d_1_15 + load_1_15 - load_1_5 - p_1_15 + 20 x_1_5_15 <= 20
 c2246: d_1_15 + load_1_15 - load_1_5 - p_1_15 - 20 x_1_5_15 >= -20
 c2247: d_1_16 + load_1_16 - load_1_5 - p_1_16 + 20 x_1_5_16 <= 20
 c2248: d_1_16 + load_1_16 - load_1_5 - p_1_16 - 20 x_1_5_16 >= -20
 c2249: d_1_17 + load_1_17 - load_1_5 - p_1_17 + 20 x_1_5_17 <= 20
 c2250: d_1_17 + load_1_17 - load_1_5 - p_1_17 - 20 x_1_5_17 >= -20
 c2251: d_1_18 + load_1_18 - load_1_5 - p_1_18 + 20 x_1_5_18 <= 20
 c2252: d_1_18 + load_1_18 - load_1_5 - p_1_18 - 20 x_1_5_18 >= -20
 c2253: d_1_19 + load_1_19 - load_1_5 - p_1_19 + 20 x_1_5_19 <= 20
 c2254: d_1_19 + load_1_19 - load_1_5 - p_1_19 - 20 x_1_5_19 >= -20
 c2255: d_1_20 + load_1_20 - load_1_5 - p_1_20 + 20 x_1_5_20 <= 20
 c2256: d_1_20 + load_1_20 - load_1_5 - p_1_20 - 20 x_1_5_20 >= -20
 c2257: d_1_1 + load_1_1 - load_1_6 - p_1_1 + 20 x_1_6_1 <= 20
 c2258: d_1_1 + load_1_1 - load_1_6 - p_1_1 - 20 x_1_6_1 >= -20
 c2259: d_1_2 + load_1_2 - load_1_6 - p_1_2 + 20 x_1_6_2 <= 20
 c2260: d_1_2 + load_1_2 - load_1_6 - p_1_2 - 20 x_1_6_2 >= -20
 c2261: d_1_3 + load_1_3 - load_1_6 - p_1_3 + 20 x_1_6_3 <= 20
 c2262: d_1_3 + load_1_3 - load_1_6 - p_1_3 - 20 x_1_6_3 >= -20
 c2263: d_1_4 + load_1_4 - load_1_6 - p_1_4 + 20 x_1_6_4 <= 20
 c2264: d_1_4 + load_1_4 - load_1_6 - p_1_4 - 20 x_1_6_4 >= -20
 c2265: d_1_5 + load_1_5 - load_1_6 - p_1_5 + 20 x_1_6_5 <= 20
 c2266: d_1_5 + load_1_5 - load_1_6 - p_1_5 - 20 x_1_6_5 >= -20
 c2267: d_1_7 - load_1_6 + load_1_7 - p_1_7 + 20 x_1_6_7 <= 20
 c2268: d_1_7 - load_1_6 + load_1_7 - p_1_7 - 20 x_1_6_7 >= -20
 c2269: d_1_8 - load_1_6 + load_1_8 - p_1_8 + 20 x_1_6_8 <= 20
 c2270: d_1_8 - load_1_6 + load_1_8 - p_1_8 - 20 x_1_6_8 >= -20
 c2271: d_1_9 - load_1_6 + load_1_9 - p_1_9 + 20 x_1_6_9 <= 20
 c2272: d_1_9 - load_1_6 + load_1_9 - p_1_9 - 20 x_1_6_9 >= -20
 c2273: d_1_10 + load_1_10 - load_1_6 - p_1_10 + 20 x_1_6_10 <= 20
 c2274: d_1_10 + load_1_10 - load_1_6 - p_1_10 - 20 x_1_6_10 >= -20
 c2275: d_1_11 + load_1_11 - load_1_6 - p_1_11 + 20 x_1_6_11 <= 20
 c2276: d_1_11 + load_1_11 - load_1_6 - p_1_11 - 20 x_1_6_11 >= -20
 c2277: d_1_12 + load_1_12 - load_1_6 - p_1_12 + 20 x_1_6_12 <= 20
 c2278: d_1_12 + load_1_12 - load_1_6 - p_1_12 - 20 x_1_6_12 >= -20
 c2279: d_1_13 + load_1_13 - load_1_6 - p_1_13 + 20 x_1_6_13 <= 20
 c2280: d_1_13 + load_1_13 - load_1_6 - p_1_13 - 20 x_1_6_13 >= -20
 c2281: d_1_14 + load_1_14 - load_1_6 - p_1_14 + 20 x_1_6_14 <= 20
 c2282: d_1_14 + load_1_14 - load_1_6 - p_1_14 - 20 x_1_6_14 >= -20
 c2283: d_1_15 + load_1_15 - load_1_6 - p_1_15 + 20 x_1_6_15 <= 20
 c2284: d_1_15 + load_1_15 - load_1_6 - p_1_15 - 20 x_1_6_15 >= -20
 c2285: d_1_16 + load_1_16 - load_1_6 - p_1_16 + 20 x_1_6_16 <= 20
 c2286: d_1_16 + load_1_16 - load_1_6 - p_1_16 - 20 x_1_6_16 >= -20
 c2287: d_1_17 + load_1_17 - load_1_6 - p_1_17 + 20 x_1_6_17 <= 20
 c2288: d_1_17 + load_1_17 - load_1_6 - p_1_17 - 20 x_1_6_17 >= -20
 c2289: d_1_18 + load_1_18 - load_1_6 - p_1_18 + 20 x_1_6_18 <= 20
 c2290: d_1_18 + load_1_18 - load_1_6 - p_1_18 - 20 x_1_6_18 >= -20
 c2291: d_1_19 + load_1_19 - load_1_6 - p_1_19 + 20 x_1_6_19 <= 20
 c2292: d_1_19 + load_1_19 - load_1_6 - p_1_19 - 20 x_1_6_19 >= -20
 c2293: d_1_20 + load_1_20 - load_1_6 - p_1_20 + 20 x_1_6_20 <= 20
 c2294: d_1_20 + load_1_20 - load_1_6 - p_1_20 - 20 x_1_6_20 >= -20
 c2295: d_1_1 + load_1_1 - load_1_7 - p_1_1 + 20 x_1_7_1 <= 20
 c2296: d_1_1 + load_1_1 - load_1_7 - p_1_1 - 20 x_1_7_1 >= -20
 c2297: d_1_2 + load_1_2 - load_1_7 - p_1_2 + 20 x_1_7_2 <= 20
 c2298: d_1_2 + load_1_2 - load_1_7 - p_1_2 - 20 x_1_7_2 >= -20
 c2299: d_1_3 + load_1_3 - load_1_7 - p_1_3 + 20 x_1_7_3 <= 20
 c2300: d_1_3 + load_1_3 - load_1_7 - p_1_3 - 20 x_1_7_3 >= -20
 c2301: d_1_4 + load_1_4 - load_1_7 - p_1_4 + 20 x_1_7_4 <= 20
 c2302: d_1_4 + load_1_4 - load_1_7 - p_1_4 - 20 x_1_7_4 >= -20
 c2303: d_1_5 + load_1_5 - load_1_7 - p_1_5 + 20 x_1_7_5 <= 20
 c2304: d_1_5 + load_1_5 - load_1_7 - p_1_5 - 20 x_1_7_5 >= -20
 c2305: d_1_6 + load_1_6 - load_1_7 - p_1_6 + 20 x_1_7_6 <= 20
 c2306: d_1_6 + load_1_6 - load_1_7 - p_1_6 - 20 x_1_7_6 >= -20
 c2307: d_1_8 - load_1_7 + load_1_8 - p_1_8 + 20 x_1_7_8 <= 20
 c2308: d_1_8 - load_1_7 + load_1_8 - p_1_8 - 20 x_1_7_8 >= -20
 c2309: d_1_9 - load_1_7 + load_1_9 - p_1_9 + 20 x_1_7_9 <= 20
 c2310: d_1_9 - load_1_7 + load_1_9 - p_1_9 - 20 x_1_7_9 >= -20
 c2311: d_1_10 + load_1_10 - load_1_7 - p_1_10 + 20 x_1_7_10 <= 20
 c2312: d_1_10 + load_1_10 - load_1_7 - p_1_10 - 20 x_1_7_10 >= -20
 c2313: d_1_11 + load_1_11 - load_1_7 - p_1_11 + 20 x_1_7_11 <= 20
 c2314: d_1_11 + load_1_11 - load_1_7 - p_1_11 - 20 x_1_7_11 >= -20
 c2315: d_1_12 + load_1_12 - load_1_7 - p_1_12 + 20 x_1_7_12 <= 20
 c2316: d_1_12 + load_1_12 - load_1_7 - p_1_12 - 20 x_1_7_12 >= -20
 c2317: d_1_13 + load_1_13 - load_1_7 - p_1_13 + 20 x_1_7_13 <= 20
 c2318: d_1_13 + load_1_13 - load_1_7 - p_1_13 - 20 x_1_7_13 >= -20
 c2319: d_1_14 + load_1_14 - load_1_7 - p_1_14 + 20 x_1_7_14 <= 20
 c2320: d_1_14 + load_1_14 - load_1_7 - p_1_14 - 20 x_1_7_14 >= -20
 c2321: d_1_15 + load_1_15 - load_1_7 - p_1_15 + 20 x_1_7_15 <= 20
 c2322: d_1_15 + load_1_15 - load_1_7 - p_1_15 - 20 x_1_7_15 >= -20
 c2323: d_1_16 + load_1_16 - load_1_7 - p_1_16 + 20 x_1_7_16 <= 20
 c2324: d_1_16 + load_1_16 - load_1_7 - p_1_16 - 20 x_1_7_16 >= -20
 c2325: d_1_17 + load_1_17 - load_1_7 - p_1_17 + 20 x_1_7_17 <= 20
 c2326: d_1_17 + load_1_17 - load_1_7 - p_1_17 - 20 x_1_7_17 >= -20
 c2327: d_1_18 + load_1_18 - load_1_7 - p_1_18 + 20 x_1_7_18 <= 20
 c2328: d_1_18 + load_1_18 - load_1_7 - p_1_18 - 20 x_1_7_18 >= -20
 c2329: d_1_19 + load_1_19 - load_1_7 - p_1_19 + 20 x_1_7_19 <= 20
 c2330: d_1_19 + load_1_19 - load_1_7 - p_1_19 - 20 x_1_7_19 >= -20
 c2331: d_1_20 + load_1_20 - load_1_7 - p_1_20 + 20 x_1_7_20 <= 20
 c2332: d_1_20 + load_1_20 - load_1_7 - p_1_20 - 20 x_1_7_20 >= -20
 c2333: d_1_1 + load_1_1 - load_1_8 - p_1_1 + 20 x_1_8_1 <= 20
 c2334: d_1_1 + load_1_1 - load_1_8 - p_1_1 - 20 x_1_8_1 >= -20
 c2335: d_1_2 + load_1_2 - load_1_8 - p_1_2 + 20 x_1_8_2 <= 20
 c2336: d_1_2 + load_1_2 - load_1_8 - p_1_2 - 20 x_1_8_2 >= -20
 c2337: d_1_3 + load_1_3 - load_1_8 - p_1_3 + 20 x_1_8_3 <= 20
 c2338: d_1_3 + load_1_3 - load_1_8 - p_1_3 - 20 x_1_8_3 >= -20
 c2339: d_1_4 + load_1_4 - load_1_8 - p_1_4 + 20 x_1_8_4 <= 20
 c2340: d_1_4 + load_1_4 - load_1_8 - p_1_4 - 20 x_1_8_4 >= -20
 c2341: d_1_5 + load_1_5 - load_1_8 - p_1_5 + 20 x_1_8_5 <= 20
 c2342: d_1_5 + load_1_5 - load_1_8 - p_1_5 - 20 x_1_8_5 >= -20
 c2343: d_1_6 + load_1_6 - load_1_8 - p_1_6 + 20 x_1_8_6 <= 20
 c2344: d_1_6 + load_1_6 - load_1_8 - p_1_6 - 20 x_1_8_6 >= -20
 c2345: d_1_7 + load_1_7 - load_1_8 - p_1_7 + 20 x_1_8_7 <= 20
 c2346: d_1_7 + load_1_7 - load_1_8 - p_1_7 - 20 x_1_8_7 >= -20
 c2347: d_1_9 - load_1_8 + load_1_9 - p_1_9 + 20 x_1_8_9 <= 20
 c2348: d_1_9 - load_1_8 + load_1_9 - p_1_9 - 20 x_1_8_9 >= -20
 c2349: d_1_10 + load_1_10 - load_1_8 - p_1_10 + 20 x_1_8_10 <= 20
 c2350: d_1_10 + load_1_10 - load_1_8 - p_1_10 - 20 x_1_8_10 >= -20
 c2351: d_1_11 + load_1_11 - load_1_8 - p_1_11 + 20 x_1_8_11 <= 20
 c2352: d_1_11 + load_1_11 - load_1_8 - p_1_11 - 20 x_1_8_11 >= -20
 c2353: d_1_12 + load_1_12 - load_1_8 - p_1_12 + 20 x_1_8_12 <= 20
 c2354: d_1_12 + load_1_12 - load_1_8 - p_1_12 - 20 x_1_8_12 >= -20
 c2355: d_1_13 + load_1_13 - load_1_8 - p_1_13 + 20 x_1_8_13 <= 20
 c2356: d_1_13 + load_1_13 - load_1_8 - p_1_13 - 20 x_1_8_13 >= -20
 c2357: d_1_14 + load_1_14 - load_1_8 - p_1_14 + 20 x_1_8_14 <= 20
 c2358: d_1_14 + load_1_14 - load_1_8 - p_1_14 - 20 x_1_8_14 >= -20
 c2359: d_1_15 + load_1_15 - load_1_8 - p_1_15 + 20 x_1_8_15 <= 20
 c2360: d_1_15 + load_1_15 - load_1_8 - p_1_15 - 20 x_1_8_15 >= -20
 c2361: d_1_16 + load_1_16 - load_1_8 - p_1_16 + 20 x_1_8_16 <= 20
 c2362: d_1_16 + load_1_16 - load_1_8 - p_1_16 - 20 x_1_8_16 >= -20
 c2363: d_1_17 + load_1_17 - load_1_8 - p_1_17 + 20 x_1_8_17 <= 20
 c2364: d_1_17 + load_1_17 - load_1_8 - p_1_17 - 20 x_1_8_17 >= -20
 c2365: d_1_18 + load_1_18 - load_1_8 - p_1_18 + 20 x_1_8_18 <= 20
 c2366: d_1_18 + load_1_18 - load_1_8 - p_1_18 - 20 x_1_8_18 >= -20
 c2367: d_1_19 + load_1_19 - load_1_8 - p_1_19 + 20 x_1_8_19 <= 20
 c2368: d_1_19 + load_1_19 - load_1_8 - p_1_19 - 20 x_1_8_19 >= -20
 c2369: d_1_20 + load_1_20 - load_1_8 - p_1_20 + 20 x_1_8_20 <= 20
 c2370: d_1_20 + load_1_20 - load_1_8 - p_1_20 - 20 x_1_8_20 >= -20
 c2371: d_1_1 + load_1_1 - load_1_9 - p_1_1 + 20 x_1_9_1 <= 20
 c2372: d_1_1 + load_1_1 - load_1_9 - p_1_1 - 20 x_1_9_1 >= -20
 c2373: d_1_2 + load_1_2 - load_1_9 - p_1_2 + 20 x_1_9_2 <= 20
 c2374: d_1_2 + load_1_2 - load_1_9 - p_1_2 - 20 x_1_9_2 >= -20
 c2375: d_1_3 + load_1_3 - load_1_9 - p_1_3 + 20 x_1_9_3 <= 20
 c2376: d_1_3 + load_1_3 - load_1_9 - p_1_3 - 20 x_1_9_3 >= -20
 c2377: d_1_4 + load_1_4 - load_1_9 - p_1_4 + 20 x_1_9_4 <= 20
 c2378: d_1_4 + load_1_4 - load_1_9 - p_1_4 - 20 x_1_9_4 >= -20
 c2379: d_1_5 + load_1_5 - load_1_9 - p_1_5 + 20 x_1_9_5 <= 20
 c2380: d_1_5 + load_1_5 - load_1_9 - p_1_5 - 20 x_1_9_5 >= -20
 c2381: d_1_6 + load_1_6 - load_1_9 - p_1_6 + 20 x_1_9_6 <= 20
 c2382: d_1_6 + load_1_6 - load_1_9 - p_1_6 - 20 x_1_9_6 >= -20
 c2383: d_1_7 + load_1_7 - load_1_9 - p_1_7 + 20 x_1_9_7 <= 20
 c2384: d_1_7 + load_1_7 - load_1_9 - p_1_7 - 20 x_1_9_7 >= -20
 c2385: d_1_8 + load_1_8 - load_1_9 - p_1_8 + 20 x_1_9_8 <= 20
 c2386: d_1_8 + load_1_8 - load_1_9 - p_1_8 - 20 x_1_9_8 >= -20
 c2387: d_1_10 + load_1_10 - load_1_9 - p_1_10 + 20 x_1_9_10 <= 20
 c2388: d_1_10 + load_1_10 - load_1_9 - p_1_10 - 20 x_1_9_10 >= -20
 c2389: d_1_11 + load_1_11 - load_1_9 - p_1_11 + 20 x_1_9_11 <= 20
 c2390: d_1_11 + load_1_11 - load_1_9 - p_1_11 - 20 x_1_9_11 >= -20
 c2391: d_1_12 + load_1_12 - load_1_9 - p_1_12 + 20 x_1_9_12 <= 20
 c2392: d_1_12 + load_1_12 - load_1_9 - p_1_12 - 20 x_1_9_12 >= -20
 c2393: d_1_13 + load_1_13 - load_1_9 - p_1_13 + 20 x_1_9_13 <= 20
 c2394: d_1_13 + load_1_13 - load_1_9 - p_1_13 - 20 x_1_9_13 >= -20
 c2395: d_1_14 + load_1_14 - load_1_9 - p_1_14 + 20 x_1_9_14 <= 20
 c2396: d_1_14 + load_1_14 - load_1_9 - p_1_14 - 20 x_1_9_14 >= -20
 c2397: d_1_15 + load_1_15 - load_1_9 - p_1_15 + 20 x_1_9_15 <= 20
 c2398: d_1_15 + load_1_15 - load_1_9 - p_1_15 - 20 x_1_9_15 >= -20
 c2399: d_1_16 + load_1_16 - load_1_9 - p_1_16 + 20 x_1_9_16 <= 20
 c2400: d_1_16 + load_1_16 - load_1_9 - p_1_16 - 20 x_1_9_16 >= -20
 c2401: d_1_17 + load_1_17 - load_1_9 - p_1_17 + 20 x_1_9_17 <= 20
 c2402: d_1_17 + load_1_17 - load_1_9 - p_1_17 - 20 x_1_9_17 >= -20
 c2403: d_1_18 + load_1_18 - load_1_9 - p_1_18 + 20 x_1_9_18 <= 20
 c2404: d_1_18 + load_1_18 - load_1_9 - p_1_18 - 20 x_1_9_18 >= -20
 c2405: d_1_19 + load_1_19 - load_1_9 - p_1_19 + 20 x_1_9_19 <= 20
 c2406: d_1_19 + load_1_19 - load_1_9 - p_1_19 - 20 x_1_9_19 >= -20
 c2407: d_1_20 + load_1_20 - load_1_9 - p_1_20 + 20 x_1_9_20 <= 20
 c2408: d_1_20 + load_1_20 - load_1_9 - p_1_20 - 20 x_1_9_20 >= -20
 c2409: d_1_1 + load_1_1 - load_1_10 - p_1_1 + 20 x_1_10_1 <= 20
 c2410: d_1_1 + load_1_1 - load_1_10 - p_1_1 - 20 x_1_10_1 >= -20
 c2411: d_1_2 - load_1_10 + load_1_2 - p_1_2 + 20 x_1_10_2 <= 20
 c2412: d_1_2 - load_1_10 + load_1_2 - p_1_2 - 20 x_1_10_2 >= -20
 c2413: d_1_3 - load_1_10 + load_1_3 - p_1_3 + 20 x_1_10_3 <= 20
 c2414: d_1_3 - load_1_10 + load_1_3 - p_1_3 - 20 x_1_10_3 >= -20
 c2415: d_1_4 - load_1_10 + load_1_4 - p_1_4 + 20 x_1_10_4 <= 20
 c2416: d_1_4 - load_1_10 + load_1_4 - p_1_4 - 20 x_1_10_4 >= -20
 c2417: d_1_5 - load_1_10 + load_1_5 - p_1_5 + 20 x_1_10_5 <= 20
 c2418: d_1_5 - load_1_10 + load_1_5 - p_1_5 - 20 x_1_10_5 >= -20
 c2419: d_1_6 - load_1_10 + load_1_6 - p_1_6 + 20 x_1_10_6 <= 20
 c2420: d_1_6 - load_1_10 + load_1_6 - p_1_6 - 20 x_1_10_6 >= -20
 c2421: d_1_7 - load_1_10 + load_1_7 - p_1_7 + 20 x_1_10_7 <= 20
 c2422: d_1_7 - load_1_10 + load_1_7 - p_1_7 - 20 x_1_10_7 >= -20
 c2423: d_1_8 - load_1_10 + load_1_8 - p_1_8 + 20 x_1_10_8 <= 20
 c2424: d_1_8 - load_1_10 + load_1_8 - p_1_8 - 20 x_1_10_8 >= -20
 c2425: d_1_9 - load_1_10 + load_1_9 - p_1_9 + 20 x_1_10_9 <= 20
 c2426: d_1_9 - load_1_10 + load_1_9 - p_1_9 - 20 x_1_10_9 >= -20
 c2427: d_1_11 - load_1_10 + load_1_11 - p_1_11 + 20 x_1_10_11 <= 20
 c2428: d_1_11 - load_1_10 + load_1_11 - p_1_11 - 20 x_1_10_11 >= -20
 c2429: d_1_12 - load_1_10 + load_1_12 - p_1_12 + 20 x_1_10_12 <= 20
 c2430: d_1_12 - load_1_10 + load_1_12 - p_1_12 - 20 x_1_10_12 >= -20
 c2431: d_1_13 - load_1_10 + load_1_13 - p_1_13 + 20 x_1_10_13 <= 20
 c2432: d_1_13 - load_1_10 + load_1_13 - p_1_13 - 20 x_1_10_13 >= -20
 c2433: d_1_14 - load_1_10 + load_1_14 - p_1_14 + 20 x_1_10_14 <= 20
 c2434: d_1_14 - load_1_10 + load_1_14 - p_1_14 - 20 x_1_10_14 >= -20
 c2435: d_1_15 - load_1_10 + load_1_15 - p_1_15 + 20 x_1_10_15 <= 20
 c2436: d_1_15 - load_1_10 + load_1_15 - p_1_15 - 20 x_1_10_15 >= -20
 c2437: d_1_16 - load_1_10 + load_1_16 - p_1_16 + 20 x_1_10_16 <= 20
 c2438: d_1_16 - load_1_10 + load_1_16 - p_1_16 - 20 x_1_10_16 >= -20
 c2439: d_1_17 - load_1_10 + load_1_17 - p_1_17 + 20 x_1_10_17 <= 20
 c2440: d_1_17 - load_1_10 + load_1_17 - p_1_17 - 20 x_1_10_17 >= -20
 c2441: d_1_18 - load_1_10 + load_1_18 - p_1_18 + 20 x_1_10_18 <= 20
 c2442: d_1_18 - load_1_10 + load_1_18 - p_1_18 - 20 x_1_10_18 >= -20
 c2443: d_1_19 - load_1_10 + load_1_19 - p_1_19 + 20 x_1_10_19 <= 20
 c2444: d_1_19 - load_1_10 + load_1_19 - p_1_19 - 20 x_1_10_19 >= -20
 c2445: d_1_20 - load_1_10 + load_1_20 - p_1_20 + 20 x_1_10_20 <= 20
 c2446: d_1_20 - load_1_10 + load_1_20 - p_1_20 - 20 x_1_10_20 >= -20
 c2447: d_1_1 + load_1_1 - load_1_11 - p_1_1 + 20 x_1_11_1 <= 20
 c2448: d_1_1 + load_1_1 - load_1_11 - p_1_1 - 20 x_1_11_1 >= -20
 c2449: d_1_2 - load_1_11 + load_1_2 - p_1_2 + 20 x_1_11_2 <= 20
 c2450: d_1_2 - load_1_11 + load_1_2 - p_1_2 - 20 x_1_11_2 >= -20
 c2451: d_1_3 - load_1_11 + load_1_3 - p_1_3 + 20 x_1_11_3 <= 20
 c2452: d_1_3 - load_1_11 + load_1_3 - p_1_3 - 20 x_1_11_3 >= -20
 c2453: d_1_4 - load_1_11 + load_1_4 - p_1_4 + 20 x_1_11_4 <= 20
 c2454: d_1_4 - load_1_11 + load_1_4 - p_1_4 - 20 x_1_11_4 >= -20
 c2455: d_1_5 - load_1_11 + load_1_5 - p_1_5 + 20 x_1_11_5 <= 20
 c2456: d_1_5 - load_1_11 + load_1_5 - p_1_5 - 20 x_1_11_5 >= -20
 c2457: d_1_6 - load_1_11 + load_1_6 - p_1_6 + 20 x_1_11_6 <= 20
 c2458: d_1_6 - load_1_11 + load_1_6 - p_1_6 - 20 x_1_11_6 >= -20
 c2459: d_1_7 - load_1_11 + load_1_7 - p_1_7 + 20 x_1_11_7 <= 20
 c2460: d_1_7 - load_1_11 + load_1_7 - p_1_7 - 20 x_1_11_7 >= -20
 c2461: d_1_8 - load_1_11 + load_1_8 - p_1_8 + 20 x_1_11_8 <= 20
 c2462: d_1_8 - load_1_11 + load_1_8 - p_1_8 - 20 x_1_11_8 >= -20
 c2463: d_1_9 - load_1_11 + load_1_9 - p_1_9 + 20 x_1_11_9 <= 20
 c2464: d_1_9 - load_1_11 + load_1_9 - p_1_9 - 20 x_1_11_9 >= -20
 c2465: d_1_10 + load_1_10 - load_1_11 - p_1_10 + 20 x_1_11_10 <= 20
 c2466: d_1_10 + load_1_10 - load_1_11 - p_1_10 - 20 x_1_11_10 >= -20
 c2467: d_1_12 - load_1_11 + load_1_12 - p_1_12 + 20 x_1_11_12 <= 20
 c2468: d_1_12 - load_1_11 + load_1_12 - p_1_12 - 20 x_1_11_12 >= -20
 c2469: d_1_13 - load_1_11 + load_1_13 - p_1_13 + 20 x_1_11_13 <= 20
 c2470: d_1_13 - load_1_11 + load_1_13 - p_1_13 - 20 x_1_11_13 >= -20
 c2471: d_1_14 - load_1_11 + load_1_14 - p_1_14 + 20 x_1_11_14 <= 20
 c2472: d_1_14 - load_1_11 + load_1_14 - p_1_14 - 20 x_1_11_14 >= -20
 c2473: d_1_15 - load_1_11 + load_1_15 - p_1_15 + 20 x_1_11_15 <= 20
 c2474: d_1_15 - load_1_11 + load_1_15 - p_1_15 - 20 x_1_11_15 >= -20
 c2475: d_1_16 - load_1_11 + load_1_16 - p_1_16 + 20 x_1_11_16 <= 20
 c2476: d_1_16 - load_1_11 + load_1_16 - p_1_16 - 20 x_1_11_16 >= -20
 c2477: d_1_17 - load_1_11 + load_1_17 - p_1_17 + 20 x_1_11_17 <= 20
 c2478: d_1_17 - load_1_11 + load_1_17 - p_1_17 - 20 x_1_11_17 >= -20
 c2479: d_1_18 - load_1_11 + load_1_18 - p_1_18 + 20 x_1_11_18 <= 20
 c2480: d_1_18 - load_1_11 + load_1_18 - p_1_18 - 20 x_1_11_18 >= -20
 c2481: d_1_19 - load_1_11 + load_1_19 - p_1_19 + 20 x_1_11_19 <= 20
 c2482: d_1_19 - load_1_11 + load_1_19 - p_1_19 - 20 x_1_11_19 >= -20
 c2483: d_1_20 - load_1_11 + load_1_20 - p_1_20 + 20 x_1_11_20 <= 20
 c2484: d_1_20 - load_1_11 + load_1_20 - p_1_20 - 20 x_1_11_20 >= -20
 c2485: d_1_1 + load_1_1 - load_1_12 - p_1_1 + 20 x_1_12_1 <= 20
 c2486: d_1_1 + load_1_1 - load_1_12 - p_1_1 - 20 x_1_12_1 >= -20
 c2487: d_1_2 - load_1_12 + load_1_2 - p_1_2 + 20 x_1_12_2 <= 20
 c2488: d_1_2 - load_1_12 + load_1_2 - p_1_2 - 20 x_1_12_2 >= -20
 c2489: d_1_3 - load_1_12 + load_1_3 - p_1_3 + 20 x_1_12_3 <= 20
 c2490: d_1_3 - load_1_12 + load_1_3 - p_1_3 - 20 x_1_12_3 >= -20
 c2491: d_1_4 - load_1_12 + load_1_4 - p_1_4 + 20 x_1_12_4 <= 20
 c2492: d_1_4 - load_1_12 + load_1_4 - p_1_4 - 20 x_1_12_4 >= -20
 c2493: d_1_5 - load_1_12 + load_1_5 - p_1_5 + 20 x_1_12_5 <= 20
 c2494: d_1_5 - load_1_12 + load_1_5 - p_1_5 - 20 x_1_12_5 >= -20
 c2495: d_1_6 - load_1_12 + load_1_6 - p_1_6 + 20 x_1_12_6 <= 20
 c2496: d_1_6 - load_1_12 + load_1_6 - p_1_6 - 20 x_1_12_6 >= -20
 c2497: d_1_7 - load_1_12 + load_1_7 - p_1_7 + 20 x_1_12_7 <= 20
 c2498: d_1_7 - load_1_12 + load_1_7 - p_1_7 - 20 x_1_12_7 >= -20
 c2499: d_1_8 - load_1_12 + load_1_8 - p_1_8 + 20 x_1_12_8 <= 20
 c2500: d_1_8 - load_1_12 + load_1_8 - p_1_8 - 20 x_1_12_8 >= -20
 c2501: d_1_9 - load_1_12 + load_1_9 - p_1_9 + 20 x_1_12_9 <= 20
 c2502: d_1_9 - load_1_12 + load_1_9 - p_1_9 - 20 x_1_12_9 >= -20
 c2503: d_1_10 + load_1_10 - load_1_12 - p_1_10 + 20 x_1_12_10 <= 20
 c2504: d_1_10 + load_1_10 - load_1_12 - p_1_10 - 20 x_1_12_10 >= -20
 c2505: d_1_11 + load_1_11 - load_1_12 - p_1_11 + 20 x_1_12_11 <= 20
 c2506: d_1_11 + load_1_11 - load_1_12 - p_1_11 - 20 x_1_12_11 >= -20
 c2507: d_1_13 - load_1_12 + load_1_13 - p_1_13 + 20 x_1_12_13 <= 20
 c2508: d_1_13 - load_1_12 + load_1_13 - p_1_13 - 20 x_1_12_13 >= -20
 c2509: d_1_14 - load_1_12 + load_1_14 - p_1_14 + 20 x_1_12_14 <= 20
 c2510: d_1_14 - load_1_12 + load_1_14 - p_1_14 - 20 x_1_12_14 >= -20
 c2511: d_1_15 - load_1_12 + load_1_15 - p_1_15 + 20 x_1_12_15 <= 20
 c2512: d_1_15 - load_1_12 + load_1_15 - p_1_15 - 20 x_1_12_15 >= -20
 c2513: d_1_16 - load_1_12 + load_1_16 - p_1_16 + 20 x_1_12_16 <= 20
 c2514: d_1_16 - load_1_12 + load_1_16 - p_1_16 - 20 x_1_12_16 >= -20
 c2515: d_1_17 - load_1_12 + load_1_17 - p_1_17 + 20 x_1_12_17 <= 20
 c2516: d_1_17 - load_1_12 + load_1_17 - p_1_17 - 20 x_1_12_17 >= -20
 c2517: d_1_18 - load_1_12 + load_1_18 - p_1_18 + 20 x_1_12_18 <= 20
 c2518: d_1_18 - load_1_12 + load_1_18 - p_1_18 - 20 x_1_12_18 >= -20
 c2519: d_1_19 - load_1_12 + load_1_19 - p_1_19 + 20 x_1_12_19 <= 20
 c2520: d_1_19 - load_1_12 + load_1_19 - p_1_19 - 20 x_1_12_19 >= -20
 c2521: d_1_20 - load_1_12 + load_1_20 - p_1_20 + 20 x_1_12_20 <= 20
 c2522: d_1_20 - load_1_12 + load_1_20 - p_1_20 - 20 x_1_12_20 >= -20
 c2523: d_1_1 + load_1_1 - load_1_13 - p_1_1 + 20 x_1_13_1 <= 20
 c2524: d_1_1 + load_1_1 - load_1_13 - p_1_1 - 20 x_1_13_1 >= -20
 c2525: d_1_2 - load_1_13 + load_1_2 - p_1_2 + 20 x_1_13_2 <= 20
 c2526: d_1_2 - load_1_13 + load_1_2 - p_1_2 - 20 x_1_13_2 >= -20
 c2527: d_1_3 - load_1_13 + load_1_3 - p_1_3 + 20 x_1_13_3 <= 20
 c2528: d_1_3 - load_1_13 + load_1_3 - p_1_3 - 20 x_1_13_3 >= -20
 c2529: d_1_4 - load_1_13 + load_1_4 - p_1_4 + 20 x_1_13_4 <= 20
 c2530: d_1_4 - load_1_13 + load_1_4 - p_1_4 - 20 x_1_13_4 >= -20
 c2531: d_1_5 - load_1_13 + load_1_5 - p_1_5 + 20 x_1_13_5 <= 20
 c2532: d_1_5 - load_1_13 + load_1_5 - p_1_5 - 20 x_1_13_5 >= -20
 c2533: d_1_6 - load_1_13 + load_1_6 - p_1_6 + 20 x_1_13_6 <= 20
 c2534: d_1_6 - load_1_13 + load_1_6 - p_1_6 - 20 x_1_13_6 >= -20
 c2535: d_1_7 - load_1_13 + load_1_7 - p_1_7 + 20 x_1_13_7 <= 20
 c2536: d_1_7 - load_1_13 + load_1_7 - p_1_7 - 20 x_1_13_7 >= -20
 c2537: d_1_8 - load_1_13 + load_1_8 - p_1_8 + 20 x_1_13_8 <= 20
 c2538: d_1_8 - load_1_13 + load_1_8 - p_1_8 - 20 x_1_13_8 >= -20
 c2539: d_1_9 - load_1_13 + load_1_9 - p_1_9 + 20 x_1_13_9 <= 20
 c2540: d_1_9 - load_1_13 + load_1_9 - p_1_9 - 20 x_1_13_9 >= -20
 c2541: d_1_10 + load_1_10 - load_1_13 - p_1_10 + 20 x_1_13_10 <= 20
 c2542: d_1_10 + load_1_10 - load_1_13 - p_1_10 - 20 x_1_13_10 >= -20
 c2543: d_1_11 + load_1_11 - load_1_13 - p_1_11 + 20 x_1_13_11 <= 20
 c2544: d_1_11 + load_1_11 - load_1_13 - p_1_11 - 20 x_1_13_11 >= -20
 c2545: d_1_12 + load_1_12 - load_1_13 - p_1_12 + 20 x_1_13_12 <= 20
 c2546: d_1_12 + load_1_12 - load_1_13 - p_1_12 - 20 x_1_13_12 >= -20
 c2547: d_1_14 - load_1_13 + load_1_14 - p_1_14 + 20 x_1_13_14 <= 20
 c2548: d_1_14 - load_1_13 + load_1_14 - p_1_14 - 20 x_1_13_14 >= -20
 c2549: d_1_15 - load_1_13 + load_1_15 - p_1_15 + 20 x_1_13_15 <= 20
 c2550: d_1_15 - load_1_13 + load_1_15 - p_1_15 - 20 x_1_13_15 >= -20
 c2551: d_1_16 - load_1_13 + load_1_16 - p_1_16 + 20 x_1_13_16 <= 20
 c2552: d_1_16 - load_1_13 + load_1_16 - p_1_16 - 20 x_1_13_16 >= -20
 c2553: d_1_17 - load_1_13 + load_1_17 - p_1_17 + 20 x_1_13_17 <= 20
 c2554: d_1_17 - load_1_13 + load_1_17 - p_1_17 - 20 x_1_13_17 >= -20
 c2555: d_1_18 - load_1_13 + load_1_18 - p_1_18 + 20 x_1_13_18 <= 20
 c2556: d_1_18 - load_1_13 + load_1_18 - p_1_18 - 20 x_1_13_18 >= -20
 c2557: d_1_19 - load_1_13 + load_1_19 - p_1_19 + 20 x_1_13_19 <= 20
 c2558: d_1_19 - load_1_13 + load_1_19 - p_1_19 - 20 x_1_13_19 >= -20
 c2559: d_1_20 - load_1_13 + load_1_20 - p_1_20 + 20 x_1_13_20 <= 20
 c2560: d_1_20 - load_1_13 + load_1_20 - p_1_20 - 20 x_1_13_20 >= -20
 c2561: d_1_1 + load_1_1 - load_1_14 - p_1_1 + 20 x_1_14_1 <= 20
 c2562: d_1_1 + load_1_1 - load_1_14 - p_1_1 - 20 x_1_14_1 >= -20
 c2563: d_1_2 - load_1_14 + load_1_2 - p_1_2 + 20 x_1_14_2 <= 20
 c2564: d_1_2 - load_1_14 + load_1_2 - p_1_2 - 20 x_1_14_2 >= -20
 c2565: d_1_3 - load_1_14 + load_1_3 - p_1_3 + 20 x_1_14_3 <= 20
 c2566: d_1_3 - load_1_14 + load_1_3 - p_1_3 - 20 x_1_14_3 >= -20
 c2567: d_1_4 - load_1_14 + load_1_4 - p_1_4 + 20 x_1_14_4 <= 20
 c2568: d_1_4 - load_1_14 + load_1_4 - p_1_4 - 20 x_1_14_4 >= -20
 c2569: d_1_5 - load_1_14 + load_1_5 - p_1_5 + 20 x_1_14_5 <= 20
 c2570: d_1_5 - load_1_14 + load_1_5 - p_1_5 - 20 x_1_14_5 >= -20
 c2571: d_1_6 - load_1_14 + load_1_6 - p_1_6 + 20 x_1_14_6 <= 20
 c2572: d_1_6 - load_1_14 + load_1_6 - p_1_6 - 20 x_1_14_6 >= -20
 c2573: d_1_7 - load_1_14 + load_1_7 - p_1_7 + 20 x_1_14_7 <= 20
 c2574: d_1_7 - load_1_14 + load_1_7 - p_1_7 - 20 x_1_14_7 >= -20
 c2575: d_1_8 - load_1_14 + load_1_8 - p_1_8 + 20 x_1_14_8 <= 20
 c2576: d_1_8 - load_1_14 + load_1_8 - p_1_8 - 20 x_1_14_8 >= -20
 c2577: d_1_9 - load_1_14 + load_1_9 - p_1_9 + 20 x_1_14_9 <= 20
 c2578: d_1_9 - load_1_14 + load_1_9 - p_1_9 - 20 x_1_14_9 >= -20
 c2579: d_1_10 + load_1_10 - load_1_14 - p_1_10 + 20 x_1_14_10 <= 20
 c2580: d_1_10 + load_1_10 - load_1_14 - p_1_10 - 20 x_1_14_10 >= -20
 c2581: d_1_11 + load_1_11 - load_1_14 - p_1_11 + 20 x_1_14_11 <= 20
 c2582: d_1_11 + load_1_11 - load_1_14 - p_1_11 - 20 x_1_14_11 >= -20
 c2583: d_1_12 + load_1_12 - load_1_14 - p_1_12 + 20 x_1_14_12 <= 20
 c2584: d_1_12 + load_1_12 - load_1_14 - p_1_12 - 20 x_1_14_12 >= -20
 c2585: d_1_13 + load_1_13 - load_1_14 - p_1_13 + 20 x_1_14_13 <= 20
 c2586: d_1_13 + load_1_13 - load_1_14 - p_1_13 - 20 x_1_14_13 >= -20
 c2587: d_1_15 - load_1_14 + load_1_15 - p_1_15 + 20 x_1_14_15 <= 20
 c2588: d_1_15 - load_1_14 + load_1_15 - p_1_15 - 20 x_1_14_15 >= -20
 c2589: d_1_16 - load_1_14 + load_1_16 - p_1_16 + 20 x_1_14_16 <= 20
 c2590: d_1_16 - load_1_14 + load_1_16 - p_1_16 - 20 x_1_14_16 >= -20
 c2591: d_1_17 - load_1_14 + load_1_17 - p_1_17 + 20 x_1_14_17 <= 20
 c2592: d_1_17 - load_1_14 + load_1_17 - p_1_17 - 20 x_1_14_17 >= -20
 c2593: d_1_18 - load_1_14 + load_1_18 - p_1_18 + 20 x_1_14_18 <= 20
 c2594: d_1_18 - load_1_14 + load_1_18 - p_1_18 - 20 x_1_14_18 >= -20
 c2595: d_1_19 - load_1_14 + load_1_19 - p_1_19 + 20 x_1_14_19 <= 20
 c2596: d_1_19 - load_1_14 + load_1_19 - p_1_19 - 20 x_1_14_19 >= -20
 c2597: d_1_20 - load_1_14 + load_1_20 - p_1_20 + 20 x_1_14_20 <= 20
 c2598: d_1_20 - load_1_14 + load_1_20 - p_1_20 - 20 x_1_14_20 >= -20
 c2599: d_1_1 + load_1_1 - load_1_15 - p_1_1 + 20 x_1_15_1 <= 20
 c2600: d_1_1 + load_1_1 - load_1_15 - p_1_1 - 20 x_1_15_1 >= -20
 c2601: d_1_2 - load_1_15 + load_1_2 - p_1_2 + 20 x_1_15_2 <= 20
 c2602: d_1_2 - load_1_15 + load_1_2 - p_1_2 - 20 x_1_15_2 >= -20
 c2603: d_1_3 - load_1_15 + load_1_3 - p_1_3 + 20 x_1_15_3 <= 20
 c2604: d_1_3 - load_1_15 + load_1_3 - p_1_3 - 20 x_1_15_3 >= -20
 c2605: d_1_4 - load_1_15 + load_1_4 - p_1_4 + 20 x_1_15_4 <= 20
 c2606: d_1_4 - load_1_15 + load_1_4 - p_1_4 - 20 x_1_15_4 >= -20
 c2607: d_1_5 - load_1_15 + load_1_5 - p_1_5 + 20 x_1_15_5 <= 20
 c2608: d_1_5 - load_1_15 + load_1_5 - p_1_5 - 20 x_1_15_5 >= -20
 c2609: d_1_6 - load_1_15 + load_1_6 - p_1_6 + 20 x_1_15_6 <= 20
 c2610: d_1_6 - load_1_15 + load_1_6 - p_1_6 - 20 x_1_15_6 >= -20
 c2611: d_1_7 - load_1_15 + load_1_7 - p_1_7 + 20 x_1_15_7 <= 20
 c2612: d_1_7 - load_1_15 + load_1_7 - p_1_7 - 20 x_1_15_7 >= -20
 c2613: d_1_8 - load_1_15 + load_1_8 - p_1_8 + 20 x_1_15_8 <= 20
 c2614: d_1_8 - load_1_15 + load_1_8 - p_1_8 - 20 x_1_15_8 >= -20
 c2615: d_1_9 - load_1_15 + load_1_9 - p_1_9 + 20 x_1_15_9 <= 20
 c2616: d_1_9 - load_1_15 + load_1_9 - p_1_9 - 20 x_1_15_9 >= -20
 c2617: d_1_10 + load_1_10 - load_1_15 - p_1_10 + 20 x_1_15_10 <= 20
 c2618: d_1_10 + load_1_10 - load_1_15 - p_1_10 - 20 x_1_15_10 >= -20
 c2619: d_1_11 + load_1_11 - load_1_15 - p_1_11 + 20 x_1_15_11 <= 20
 c2620: d_1_11 + load_1_11 - load_1_15 - p_1_11 - 20 x_1_15_11 >= -20
 c2621: d_1_12 + load_1_12 - load_1_15 - p_1_12 + 20 x_1_15_12 <= 20
 c2622: d_1_12 + load_1_12 - load_1_15 - p_1_12 - 20 x_1_15_12 >= -20
 c2623: d_1_13 + load_1_13 - load_1_15 - p_1_13 + 20 x_1_15_13 <= 20
 c2624: d_1_13 + load_1_13 - load_1_15 - p_1_13 - 20 x_1_15_13 >= -20
 c2625: d_1_14 + load_1_14 - load_1_15 - p_1_14 + 20 x_1_15_14 <= 20
 c2626: d_1_14 + load_1_14 - load_1_15 - p_1_14 - 20 x_1_15_14 >= -20
 c2627: d_1_16 - load_1_15 + load_1_16 - p_1_16 + 20 x_1_15_16 <= 20
 c2628: d_1_16 - load_1_15 + load_1_16 - p_1_16 - 20 x_1_15_16 >= -20
 c2629: d_1_17 - load_1_15 + load_1_17 - p_1_17 + 20 x_1_15_17 <= 20
 c2630: d_1_17 - load_1_15 + load_1_17 - p_1_17 - 20 x_1_15_17 >= -20
 c2631: d_1_18 - load_1_15 + load_1_18 - p_1_18 + 20 x_1_15_18 <= 20
 c2632: d_1_18 - load_1_15 + load_1_18 - p_1_18 - 20 x_1_15_18 >= -20
 c2633: d_1_19 - load_1_15 + load_1_19 - p_1_19 + 20 x_1_15_19 <= 20
 c2634: d_1_19 - load_1_15 + load_1_19 - p_1_19 - 20 x_1_15_19 >= -20
 c2635: d_1_20 - load_1_15 + load_1_20 - p_1_20 + 20 x_1_15_20 <= 20
 c2636: d_1_20 - load_1_15 + load_1_20 - p_1_20 - 20 x_1_15_20 >= -20
 c2637: d_1_1 + load_1_1 - load_1_16 - p_1_1 + 20 x_1_16_1 <= 20
 c2638: d_1_1 + load_1_1 - load_1_16 - p_1_1 - 20 x_1_16_1 >= -20
 c2639: d_1_2 - load_1_16 + load_1_2 - p_1_2 + 20 x_1_16_2 <= 20
 c2640: d_1_2 - load_1_16 + load_1_2 - p_1_2 - 20 x_1_16_2 >= -20
 c2641: d_1_3 - load_1_16 + load_1_3 - p_1_3 + 20 x_1_16_3 <= 20
 c2642: d_1_3 - load_1_16 + load_1_3 - p_1_3 - 20 x_1_16_3 >= -20
 c2643: d_1_4 - load_1_16 + load_1_4 - p_1_4 + 20 x_1_16_4 <= 20
 c2644: d_1_4 - load_1_16 + load_1_4 - p_1_4 - 20 x_1_16_4 >= -20
 c2645: d_1_5 - load_1_16 + load_1_5 - p_1_5 + 20 x_1_16_5 <= 20
 c2646: d_1_5 - load_1_16 + load_1_5 - p_1_5 - 20 x_1_16_5 >= -20
 c2647: d_1_6 - load_1_16 + load_1_6 - p_1_6 + 20 x_1_16_6 <= 20
 c2648: d_1_6 - load_1_16 + load_1_6 - p_1_6 - 20 x_1_16_6 >= -20
 c2649: d_1_7 - load_1_16 + load_1_7 - p_1_7 + 20 x_1_16_7 <= 20
 c2650: d_1_7 - load_1_16 + load_1_7 - p_1_7 - 20 x_1_16_7 >= -20
 c2651: d_1_8 - load_1_16 + load_1_8 - p_1_8 + 20 x_1_16_8 <= 20
 c2652: d_1_8 - load_1_16 + load_1_8 - p_1_8 - 20 x_1_16_8 >= -20
 c2653: d_1_9 - load_1_16 + load_1_9 - p_1_9 + 20 x_1_16_9 <= 20
 c2654: d_1_9 - load_1_16 + load_1_9 - p_1_9 - 20 x_1_16_9 >= -20
 c2655: d_1_10 + load_1_10 - load_1_16 - p_1_10 + 20 x_1_16_10 <= 20
 c2656: d_1_10 + load_1_10 - load_1_16 - p_1_10 - 20 x_1_16_10 >= -20
 c2657: d_1_11 + load_1_11 - load_1_16 - p_1_11 + 20 x_1_16_11 <= 20
 c2658: d_1_11 + load_1_11 - load_1_16 - p_1_11 - 20 x_1_16_11 >= -20
 c2659: d_1_12 + load_1_12 - load_1_16 - p_1_12 + 20 x_1_16_12 <= 20
 c2660: d_1_12 + load_1_12 - load_1_16 - p_1_12 - 20 x_1_16_12 >= -20
 c2661: d_1_13 + load_1_13 - load_1_16 - p_1_13 + 20 x_1_16_13 <= 20
 c2662: d_1_13 + load_1_13 - load_1_16 - p_1_13 - 20 x_1_16_13 >= -20
 c2663: d_1_14 + load_1_14 - load_1_16 - p_1_14 + 20 x_1_16_14 <= 20
 c2664: d_1_14 + load_1_14 - load_1_16 - p_1_14 - 20 x_1_16_14 >= -20
 c2665: d_1_15 + load_1_15 - load_1_16 - p_1_15 + 20 x_1_16_15 <= 20
 c2666: d_1_15 + load_1_15 - load_1_16 - p_1_15 - 20 x_1_16_15 >= -20
 c2667: d_1_17 - load_1_16 + load_1_17 - p_1_17 + 20 x_1_16_17 <= 20
 c2668: d_1_17 - load_1_16 + load_1_17 - p_1_17 - 20 x_1_16_17 >= -20
 c2669: d_1_18 - load_1_16 + load_1_18 - p_1_18 + 20 x_1_16_18 <= 20
 c2670: d_1_18 - load_1_16 + load_1_18 - p_1_18 - 20 x_1_16_18 >= -20
 c2671: d_1_19 - load_1_16 + load_1_19 - p_1_19 + 20 x_1_16_19 <= 20
 c2672: d_1_19 - load_1_16 + load_1_19 - p_1_19 - 20 x_1_16_19 >= -20
 c2673: d_1_20 - load_1_16 + load_1_20 - p_1_20 + 20 x_1_16_20 <= 20
 c2674: d_1_20 - load_1_16 + load_1_20 - p_1_20 - 20 x_1_16_20 >= -20
 c2675: d_1_1 + load_1_1 - load_1_17 - p_1_1 + 20 x_1_17_1 <= 20
 c2676: d_1_1 + load_1_1 - load_1_17 - p_1_1 - 20 x_1_17_1 >= -20
 c2677: d_1_2 - load_1_17 + load_1_2 - p_1_2 + 20 x_1_17_2 <= 20
 c2678: d_1_2 - load_1_17 + load_1_2 - p_1_2 - 20 x_1_17_2 >= -20
 c2679: d_1_3 - load_1_17 + load_1_3 - p_1_3 + 20 x_1_17_3 <= 20
 c2680: d_1_3 - load_1_17 + load_1_3 - p_1_3 - 20 x_1_17_3 >= -20
 c2681: d_1_4 - load_1_17 + load_1_4 - p_1_4 + 20 x_1_17_4 <= 20
 c2682: d_1_4 - load_1_17 + load_1_4 - p_1_4 - 20 x_1_17_4 >= -20
 c2683: d_1_5 - load_1_17 + load_1_5 - p_1_5 + 20 x_1_17_5 <= 20
 c2684: d_1_5 - load_1_17 + load_1_5 - p_1_5 - 20 x_1_17_5 >= -20
 c2685: d_1_6 - load_1_17 + load_1_6 - p_1_6 + 20 x_1_17_6 <= 20
 c2686: d_1_6 - load_1_17 + load_1_6 - p_1_6 - 20 x_1_17_6 >= -20
 c2687: d_1_7 - load_1_17 + load_1_7 - p_1_7 + 20 x_1_17_7 <= 20
 c2688: d_1_7 - load_1_17 + load_1_7 - p_1_7 - 20 x_1_17_7 >= -20
 c2689: d_1_8 - load_1_17 + load_1_8 - p_1_8 + 20 x_1_17_8 <= 20
 c2690: d_1_8 - load_1_17 + load_1_8 - p_1_8 - 20 x_1_17_8 >= -20
 c2691: d_1_9 - load_1_17 + load_1_9 - p_1_9 + 20 x_1_17_9 <= 20
 c2692: d_1_9 - load_1_17 + load_1_9 - p_1_9 - 20 x_1_17_9 >= -20
 c2693: d_1_10 + load_1_10 - load_1_17 - p_1_10 + 20 x_1_17_10 <= 20
 c2694: d_1_10 + load_1_10 - load_1_17 - p_1_10 - 20 x_1_17_10 >= -20
 c2695: d_1_11 + load_1_11 - load_1_17 - p_1_11 + 20 x_1_17_11 <= 20
 c2696: d_1_11 + load_1_11 - load_1_17 - p_1_11 - 20 x_1_17_11 >= -20
 c2697: d_1_12 + load_1_12 - load_1_17 - p_1_12 + 20 x_1_17_12 <= 20
 c2698: d_1_12 + load_1_12 - load_1_17 - p_1_12 - 20 x_1_17_12 >= -20
 c2699: d_1_13 + load_1_13 - load_1_17 - p_1_13 + 20 x_1_17_13 <= 20
 c2700: d_1_13 + load_1_13 - load_1_17 - p_1_13 - 20 x_1_17_13 >= -20
 c2701: d_1_14 + load_1_14 - load_1_17 - p_1_14 + 20 x_1_17_14 <= 20
 c2702: d_1_14 + load_1_14 - load_1_17 - p_1_14 - 20 x_1_17_14 >= -20
 c2703: d_1_15 + load_1_15 - load_1_17 - p_1_15 + 20 x_1_17_15 <= 20
 c2704: d_1_15 + load_1_15 - load_1_17 - p_1_15 - 20 x_1_17_15 >= -20
 c2705: d_1_16 + load_1_16 - load_1_17 - p_1_16 + 20 x_1_17_16 <= 20
 c2706: d_1_16 + load_1_16 - load_1_17 - p_1_16 - 20 x_1_17_16 >= -20
 c2707: d_1_18 - load_1_17 + load_1_18 - p_1_18 + 20 x_1_17_18 <= 20
 c2708: d_1_18 - load_1_17 + load_1_18 - p_1_18 - 20 x_1_17_18 >= -20
 c2709: d_1_19 - load_1_17 + load_1_19 - p_1_19 + 20 x_1_17_19 <= 20
 c2710: d_1_19 - load_1_17 + load_1_19 - p_1_19 - 20 x_1_17_19 >= -20
 c2711: d_1_20 - load_1_17 + load_1_20 - p_1_20 + 20 x_1_17_20 <= 20
 c2712: d_1_20 - load_1_17 + load_1_20 - p_1_20 - 20 x_1_17_20 >= -20
 c2713: d_1_1 + load_1_1 - load_1_18 - p_1_1 + 20 x_1_18_1 <= 20
 c2714: d_1_1 + load_1_1 - load_1_18 - p_1_1 - 20 x_1_18_1 >= -20
 c2715: d_1_2 - load_1_18 + load_1_2 - p_1_2 + 20 x_1_18_2 <= 20
 c2716: d_1_2 - load_1_18 + load_1_2 - p_1_2 - 20 x_1_18_2 >= -20
 c2717: d_1_3 - load_1_18 + load_1_3 - p_1_3 + 20 x_1_18_3 <= 20
 c2718: d_1_3 - load_1_18 + load_1_3 - p_1_3 - 20 x_1_18_3 >= -20
 c2719: d_1_4 - load_1_18 + load_1_4 - p_1_4 + 20 x_1_18_4 <= 20
 c2720: d_1_4 - load_1_18 + load_1_4 - p_1_4 - 20 x_1_18_4 >= -20
 c2721: d_1_5 - load_1_18 + load_1_5 - p_1_5 + 20 x_1_18_5 <= 20
 c2722: d_1_5 - load_1_18 + load_1_5 - p_1_5 - 20 x_1_18_5 >= -20
 c2723: d_1_6 - load_1_18 + load_1_6 - p_1_6 + 20 x_1_18_6 <= 20
 c2724: d_1_6 - load_1_18 + load_1_6 - p_1_6 - 20 x_1_18_6 >= -20
 c2725: d_1_7 - load_1_18 + load_1_7 - p_1_7 + 20 x_1_18_7 <= 20
 c2726: d_1_7 - load_1_18 + load_1_7 - p_1_7 - 20 x_1_18_7 >= -20
 c2727: d_1_8 - load_1_18 + load_1_8 - p_1_8 + 20 x_1_18_8 <= 20
 c2728: d_1_8 - load_1_18 + load_1_8 - p_1_8 - 20 x_1_18_8 >= -20
 c2729: d_1_9 - load_1_18 + load_1_9 - p_1_9 + 20 x_1_18_9 <= 20
 c2730: d_1_9 - load_1_18 + load_1_9 - p_1_9 - 20 x_1_18_9 >= -20
 c2731: d_1_10 + load_1_10 - load_1_18 - p_1_10 + 20 x_1_18_10 <= 20
 c2732: d_1_10 + load_1_10 - load_1_18 - p_1_10 - 20 x_1_18_10 >= -20
 c2733: d_1_11 + load_1_11 - load_1_18 - p_1_11 + 20 x_1_18_11 <= 20
 c2734: d_1_11 + load_1_11 - load_1_18 - p_1_11 - 20 x_1_18_11 >= -20
 c2735: d_1_12 + load_1_12 - load_1_18 - p_1_12 + 20 x_1_18_12 <= 20
 c2736: d_1_12 + load_1_12 - load_1_18 - p_1_12 - 20 x_1_18_12 >= -20
 c2737: d_1_13 + load_1_13 - load_1_18 - p_1_13 + 20 x_1_18_13 <= 20
 c2738: d_1_13 + load_1_13 - load_1_18 - p_1_13 - 20 x_1_18_13 >= -20
 c2739: d_1_14 + load_1_14 - load_1_18 - p_1_14 + 20 x_1_18_14 <= 20
 c2740: d_1_14 + load_1_14 - load_1_18 - p_1_14 - 20 x_1_18_14 >= -20
 c2741: d_1_15 + load_1_15 - load_1_18 - p_1_15 + 20 x_1_18_15 <= 20
 c2742: d_1_15 + load_1_15 - load_1_18 - p_1_15 - 20 x_1_18_15 >= -20
 c2743: d_1_16 + load_1_16 - load_1_18 - p_1_16 + 20 x_1_18_16 <= 20
 c2744: d_1_16 + load_1_16 - load_1_18 - p_1_16 - 20 x_1_18_16 >= -20
 c2745: d_1_17 + load_1_17 - load_1_18 - p_1_17 + 20 x_1_18_17 <= 20
 c2746: d_1_17 + load_1_17 - load_1_18 - p_1_17 - 20 x_1_18_17 >= -20
 c2747: d_1_19 - load_1_18 + load_1_19 - p_1_19 + 20 x_1_18_19 <= 20
 c2748: d_1_19 - load_1_18 + load_1_19 - p_1_19 - 20 x_1_18_19 >= -20
 c2749: d_1_20 - load_1_18 + load_1_20 - p_1_20 + 20 x_1_18_20 <= 20
 c2750: d_1_20 - load_1_18 + load_1_20 - p_1_20 - 20 x_1_18_20 >= -20
 c2751: d_1_1 + load_1_1 - load_1_19 - p_1_1 + 20 x_1_19_1 <= 20
 c2752: d_1_1 + load_1_1 - load_1_19 - p_1_1 - 20 x_1_19_1 >= -20
 c2753: d_1_2 - load_1_19 + load_1_2 - p_1_2 + 20 x_1_19_2 <= 20
 c2754: d_1_2 - load_1_19 + load_1_2 - p_1_2 - 20 x_1_19_2 >= -20
 c2755: d_1_3 - load_1_19 + load_1_3 - p_1_3 + 20 x_1_19_3 <= 20
 c2756: d_1_3 - load_1_19 + load_1_3 - p_1_3 - 20 x_1_19_3 >= -20
 c2757: d_1_4 - load_1_19 + load_1_4 - p_1_4 + 20 x_1_19_4 <= 20
 c2758: d_1_4 - load_1_19 + load_1_4 - p_1_4 - 20 x_1_19_4 >= -20
 c2759: d_1_5 - load_1_19 + load_1_5 - p_1_5 + 20 x_1_19_5 <= 20
 c2760: d_1_5 - load_1_19 + load_1_5 - p_1_5 - 20 x_1_19_5 >= -20
 c2761: d_1_6 - load_1_19 + load_1_6 - p_1_6 + 20 x_1_19_6 <= 20
 c2762: d_1_6 - load_1_19 + load_1_6 - p_1_6 - 20 x_1_19_6 >= -20
 c2763: d_1_7 - load_1_19 + load_1_7 - p_1_7 + 20 x_1_19_7 <= 20
 c2764: d_1_7 - load_1_19 + load_1_7 - p_1_7 - 20 x_1_19_7 >= -20
 c2765: d_1_8 - load_1_19 + load_1_8 - p_1_8 + 20 x_1_19_8 <= 20
 c2766: d_1_8 - load_1_19 + load_1_8 - p_1_8 - 20 x_1_19_8 >= -20
 c2767: d_1_9 - load_1_19 + load_1_9 - p_1_9 + 20 x_1_19_9 <= 20
 c2768: d_1_9 - load_1_19 + load_1_9 - p_1_9 - 20 x_1_19_9 >= -20
 c2769: d_1_10 + load_1_10 - load_1_19 - p_1_10 + 20 x_1_19_10 <= 20
 c2770: d_1_10 + load_1_10 - load_1_19 - p_1_10 - 20 x_1_19_10 >= -20
 c2771: d_1_11 + load_1_11 - load_1_19 - p_1_11 + 20 x_1_19_11 <= 20
 c2772: d_1_11 + load_1_11 - load_1_19 - p_1_11 - 20 x_1_19_11 >= -20
 c2773: d_1_12 + load_1_12 - load_1_19 - p_1_12 + 20 x_1_19_12 <= 20
 c2774: d_1_12 + load_1_12 - load_1_19 - p_1_12 - 20 x_1_19_12 >= -20
 c2775: d_1_13 + load_1_13 - load_1_19 - p_1_13 + 20 x_1_19_13 <= 20
 c2776: d_1_13 + load_1_13 - load_1_19 - p_1_13 - 20 x_1_19_13 >= -20
 c2777: d_1_14 + load_1_14 - load_1_19 - p_1_14 + 20 x_1_19_14 <= 20
 c2778: d_1_14 + load_1_14 - load_1_19 - p_1_14 - 20 x_1_19_14 >= -20
 c2779: d_1_15 + load_1_15 - load_1_19 - p_1_15 + 20 x_1_19_15 <= 20
 c2780: d_1_15 + load_1_15 - load_1_19 - p_1_15 - 20 x_1_19_15 >= -20
 c2781: d_1_16 + load_1_16 - load_1_19 - p_1_16 + 20 x_1_19_16 <= 20
 c2782: d_1_16 + load_1_16 - load_1_19 - p_1_16 - 20 x_1_19_16 >= -20
 c2783: d_1_17 + load_1_17 - load_1_19 - p_1_17 + 20 x_1_19_17 <= 20
 c2784: d_1_17 + load_1_17 - load_1_19 - p_1_17 - 20 x_1_19_17 >= -20
 c2785: d_1_18 + load_1_18 - load_1_19 - p_1_18 + 20 x_1_19_18 <= 20
 c2786: d_1_18 + load_1_18 - load_1_19 - p_1_18 - 20 x_1_19_18 >= -20
 c2787: d_1_20 - load_1_19 + load_1_20 - p_1_20 + 20 x_1_19_20 <= 20
 c2788: d_1_20 - load_1_19 + load_1_20 - p_1_20 - 20 x_1_19_20 >= -20
 c2789: d_1_1 + load_1_1 - load_1_20 - p_1_1 + 20 x_1_20_1 <= 20
 c2790: d_1_1 + load_1_1 - load_1_20 - p_1_1 - 20 x_1_20_1 >= -20
 c2791: d_1_2 + load_1_2 - load_1_20 - p_1_2 + 20 x_1_20_2 <= 20
 c2792: d_1_2 + load_1_2 - load_1_20 - p_1_2 - 20 x_1_20_2 >= -20
 c2793: d_1_3 - load_1_20 + load_1_3 - p_1_3 + 20 x_1_20_3 <= 20
 c2794: d_1_3 - load_1_20 + load_1_3 - p_1_3 - 20 x_1_20_3 >= -20
 c2795: d_1_4 - load_1_20 + load_1_4 - p_1_4 + 20 x_1_20_4 <= 20
 c2796: d_1_4 - load_1_20 + load_1_4 - p_1_4 - 20 x_1_20_4 >= -20
 c2797: d_1_5 - load_1_20 + load_1_5 - p_1_5 + 20 x_1_20_5 <= 20
 c2798: d_1_5 - load_1_20 + load_1_5 - p_1_5 - 20 x_1_20_5 >= -20
 c2799: d_1_6 - load_1_20 + load_1_6 - p_1_6 + 20 x_1_20_6 <= 20
 c2800: d_1_6 - load_1_20 + load_1_6 - p_1_6 - 20 x_1_20_6 >= -20
 c2801: d_1_7 - load_1_20 + load_1_7 - p_1_7 + 20 x_1_20_7 <= 20
 c2802: d_1_7 - load_1_20 + load_1_7 - p_1_7 - 20 x_1_20_7 >= -20
 c2803: d_1_8 - load_1_20 + load_1_8 - p_1_8 + 20 x_1_20_8 <= 20
 c2804: d_1_8 - load_1_20 + load_1_8 - p_1_8 - 20 x_1_20_8 >= -20
 c2805: d_1_9 - load_1_20 + load_1_9 - p_1_9 + 20 x_1_20_9 <= 20
 c2806: d_1_9 - load_1_20 + load_1_9 - p_1_9 - 20 x_1_20_9 >= -20
 c2807: d_1_10 + load_1_10 - load_1_20 - p_1_10 + 20 x_1_20_10 <= 20
 c2808: d_1_10 + load_1_10 - load_1_20 - p_1_10 - 20 x_1_20_10 >= -20
 c2809: d_1_11 + load_1_11 - load_1_20 - p_1_11 + 20 x_1_20_11 <= 20
 c2810: d_1_11 + load_1_11 - load_1_20 - p_1_11 - 20 x_1_20_11 >= -20
 c2811: d_1_12 + load_1_12 - load_1_20 - p_1_12 + 20 x_1_20_12 <= 20
 c2812: d_1_12 + load_1_12 - load_1_20 - p_1_12 - 20 x_1_20_12 >= -20
 c2813: d_1_13 + load_1_13 - load_1_20 - p_1_13 + 20 x_1_20_13 <= 20
 c2814: d_1_13 + load_1_13 - load_1_20 - p_1_13 - 20 x_1_20_13 >= -20
 c2815: d_1_14 + load_1_14 - load_1_20 - p_1_14 + 20 x_1_20_14 <= 20
 c2816: d_1_14 + load_1_14 - load_1_20 - p_1_14 - 20 x_1_20_14 >= -20
 c2817: d_1_15 + load_1_15 - load_1_20 - p_1_15 + 20 x_1_20_15 <= 20
 c2818: d_1_15 + load_1_15 - load_1_20 - p_1_15 - 20 x_1_20_15 >= -20
 c2819: d_1_16 + load_1_16 - load_1_20 - p_1_16 + 20 x_1_20_16 <= 20
 c2820: d_1_16 + load_1_16 - load_1_20 - p_1_16 - 20 x_1_20_16 >= -20
 c2821: d_1_17 + load_1_17 - load_1_20 - p_1_17 + 20 x_1_20_17 <= 20
 c2822: d_1_17 + load_1_17 - load_1_20 - p_1_17 - 20 x_1_20_17 >= -20
 c2823: d_1_18 + load_1_18 - load_1_20 - p_1_18 + 20 x_1_20_18 <= 20
 c2824: d_1_18 + load_1_18 - load_1_20 - p_1_18 - 20 x_1_20_18 >= -20
 c2825: d_1_19 + load_1_19 - load_1_20 - p_1_19 + 20 x_1_20_19 <= 20
 c2826: d_1_19 + load_1_19 - load_1_20 - p_1_19 - 20 x_1_20_19 >= -20
 c2827: - d_1_1 - d_1_10 - d_1_11 - d_1_12 - d_1_13 - d_1_14 - d_1_15 - d_1_16 - d_1_17 - d_1_18 - d_1_19 - d_1_2 - d_1_20 - d_1_3 - d_1_4 - d_1_5 - d_1_6 - d_1_7 - d_1_8 - d_1_9 + p_1_1 + p_1_10 + p_1_11 + p_1_12 + p_1_13 + p_1_14 + p_1_15 + p_1_16 + p_1_17 + p_1_18 + p_1_19 + p_1_2 + p_1_20 + p_1_3 + p_1_4 + p_1_5 + p_1_6 + p_1_7 + p_1_8 + p_1_9 >= 0
 c2828: 120 p_1_1 + 120 p_1_10 + 120 p_1_11 + 120 p_1_12 + 120 p_1_13 + 120 p_1_14 + 120 p_1_15 + 120 p_1_16 + 120 p_1_17 + 120 p_1_18 + 120 p_1_19 + 120 p_1_2 + 120 p_1_20 + 120 p_1_3 + 120 p_1_4 + 120 p_1_5 + 120 p_1_6 + 120 p_1_7 + 120 p_1_8 + 120 p_1_9 + 551.64976801050545 x_1_0_1 + 430.39502378374891 x_1_0_10 + 279.45244228515679 x_1_0_11 + 251.01447533493365 x_1_0_12 + 207.70544087047156 x_1_0_13 + 545.88922560931553 x_1_0_14 + 271.54201525532488 x_1_0_15 + 343.84141482041258 x_1_0_16 + 586.40827407092218 x_1_0_17 + 679.81722055987882 x_1_0_18 + 498.86677654650202 x_1_0_19 + 347.62907077832102 x_1_0_2 + 420.75749905574497 x_1_0_20 + 504.95662709241361 x_1_0_3 + 163.12347073050395 x_1_0_4 + 286.35094060585743 x_1_0_5 + 400.16393486926341 x_1_0_6 + 51.83689005166864 x_1_0_7 + 306.94716985118197 x_1_0_8 + 135.9213282781096 x_1_0_9 + 430.39502378374891 x_1_10_0 + 636.8016772105326 x_1_10_1 + 709.77387964753188 x_1_10_11 + 649.43015948399136 x_1_10_12 + 500.60512641781298 x_1_10_13 + 142.47033749127351 x_1_10_14 + 420.02707161542145 x_1_10_15 + 515.84441691632458 x_1_10_16 + 1016.5279133066712 x_1_10_17 + 1108.7401623893554 x_1_10_18 + 915.66658269277229 x_1_10_19 + 543.2937047802119 x_1_10_2 + 743.26269309203315 x_1_10_20 + 307.75567169692727 x_1_10_3 + 422.89957835968033 x_1_10_4 + 238.66091688047666 x_1_10_5 + 184.97262138422664 x_1_10_6 + 413.92748972362892 x_1_10_7 + 140.76429047310381 x_1_10_8 + 558.01784000477198 x_1_10_9 + 279.45244228515679 x_1_11_0 + 654.22664740719131 x_1_11_1 + 709.77387964753188 x_1_11_10 + 175.93989087825662 x_1_11_12 + 331.97272691528684 x_1_11_13 + 823.45707027676292 x_1_11_14 + 457.81005771637979 x_1_11_15 + 475.59716692788805 x_1_11_16 + 308.51647321376748 x_1_11_17 + 401.74068359073954 x_1_11_18 + 259.44028114735505 x_1_11_19 + 447.55317009817128 x_1_11_2 + 370.95909217117713 x_1_11_20 + 743.14663553155242 x_1_11_3 + 351.44311164460424 x_1_11_4 + 542.31207557496816 x_1_11_5 + 661.3179998765462 x_1_11_6 + 303.87659792613027 x_1_11_7 + 584.60016021990089 x_1_11_8 + 166.02906913485992 x_1_11_9 + 251.01447533493365 x_1_12_0 + 754.40168595229034 x_1_12_1 + 649.43015948399136 x_1_12_10 + 175.93989087825662 x_1_12_11 + 184.61405610384384 x_1_12_13 + 741.49404314684932 x_1_12_14 + 315.28081266363608 x_1_12_15 + 310.9521451785991 x_1_12_16 + 403.08383761227054 x_1_12_17 + 523.53105269839523 x_1_12_18 + 268.78711623961198 x_1_12_19 + 541.20355347338216 x_1_12_2 + 209.40239087023852 x_1_12_20 + 755.95573477130131 x_1_12_3 + 390.52638140439376 x_1_12_4 + 536.829472320131 x_1_12_5 + 648.24558330757873 x_1_12_6 + 243.04118642570697 x_1_12_7 + 511.67431072068797 x_1_12_8 + 123.05977506551153 x_1_12_9 + 207.70544087047156 x_1_13_0 + 759.14093339750309 x_1_13_1 + 500.60512641781298 x_1_13_10 + 331.97272691528684 x_1_13_11 + 184.61405610384384 x_1_13_12 + 574.74005775754028 x_1_13_14 + 130.82446699138282 x_1_13_15 + 151.71318599093058 x_1_13_16 + 587.69705488620957 x_1_13_17 + 707.07254029422586 x_1_13_18 + 445.54166739917832 x_1_13_19 + 554.82967582790263 x_1_13_2 + 247.32120239780559 x_1_13_20 + 667.1862315181578 x_1_13_3 + 370.24935054132374 x_1_13_4 + 446.47016326775685 x_1_13_5 + 541.01036470375914 x_1_13_6 + 164.28378223215381 x_1_13_7 + 359.8477132749133 x_1_13_8 + 182.30033324291492 x_1_13_9 + 545.88922560931553 x_1_14_0 + 773.90989655755084 x_1_14_1 + 142.47033749127351 x_1_14_10 + 823.45707027676292 x_1_14_11 + 741.49404314684932 x_1_14_12 + 574.74005775754028 x_1_14_13 + 470.12702333905128 x_1_14_15 + 552.87650093704588 x_1_14_16 + 1125.4986996474656 x_1_14_17 + 1225.0349322608188 x_1_14_18 + 1010.2762755639997 x_1_14_19 + 685.73406647732827 x_1_14_2 + 803.50260373214621 x_1_14_20 + 422.60928656820573 x_1_14_3 + 559.50290158220344 x_1_14_4 + 381.05856007236372 x_1_14_5 + 318.51396316505401 x_1_14_6 + 520.52143404801939 x_1_14_7 + 239.01128500063339 x_1_14_8 + 664.11763088833015 x_1_14_9 + 271.54201525532488 x_1_15_0 + 796.98603797743715 x_1_15_1 + 420.02707161542145 x_1_15_10 + 457.81005771637979 x_1_15_11 + 315.28081266363608 x_1_15_12 + 130.82446699138282 x_1_15_13 + 470.12702333905128 x_1_15_14 + 101.6469069363056 x_1_15_16 + 718.28366321964461 x_1_15_17 + 837.85200595068693 x_1_15_18 + 572.13815674234831 x_1_15_19 + 607.17045279489014 x_1_15_2 + 333.4689667907648 x_1_15_20 + 638.27768293402016 x_1_15_3 + 416.59154534989904 x_1_15_4 + 429.8690457349162 x_1_15_5 + 501.74489132608596 x_1_15_6 + 219.71794428817637 x_1_15_7 + 284.95600511681778 x_1_15_8 + 298.62441193510512 x_1_15_9 + 343.84141482041258 x_1_16_0 + 885.69191423749271 x_1_16_1 + 515.84441691632458 x_1_16_10 + 475.59716692788805 x_1_16_11 + 310.9521451785991 x_1_16_12 + 151.71318599093058 x_1_16_13 + 552.87650093704588 x_1_16_14 + 101.6469069363056 x_1_16_15 + 702.94084574166425 x_1_16_17 + 829.46351013129049 x_1_16_18 + 541.55017992816931 x_1_16_19 + 689.17264290854928 x_1_16_2 + 264.878123880391 x_1_16_20 + 739.84145907411028 x_1_16_3 + 499.66837799571528 x_1_16_4 + 530.03168379081455 x_1_16_5 + 603.38207520377352 x_1_16_6 + 293.96205327351964 x_1_16_7 + 383.99774870224434 x_1_16_8 + 333.58354952779223 x_1_16_9 + 586.40827407092218 x_1_17_0 + 890.25550988175962 x_1_17_1 + 1016.5279133066712 x_1_17_10 + 308.51647321376748 x_1_17_11 + 403.08383761227054 x_1_17_12 + 587.69705488620957 x_1_17_13 + 1125.4986996474656 x_1_17_14 + 718.28366321964461 x_1_17_15 + 702.94084574166425 x_1_17_16 + 134.22612796989918 x_1_17_18 + 182.12861341371297 x_1_17_19 + 706.23307903744228 x_1_17_2 + 492.26820638293361 x_1_17_20 + 1042.115325519833 x_1_17_3 + 651.27527400903034 x_1_17_4 + 848.70833363451823 x_1_17_5 + 967.96807566964787 x_1_17_6 + 605.37932480772315 x_1_17_7 + 887.87210037877787 x_1_17_8 + 461.38507567471061 x_1_17_9 + 679.81722055987882 x_1_18_0 + 905.86027405858852 x_1_18_1 + 1108.7401623893554 x_1_18_10 + 401.74068359073954 x_1_18_11 + 523.53105269839523 x_1_18_12 + 707.07254029422586 x_1_18_13 + 1225.0349322608188 x_1_18_14 + 837.85200595068693 x_1_18_15 + 829.46351013129049 x_1_18_16 + 134.22612796989918 x_1_18_17 + 316.26990163962461 x_1_18_19 + 741.8281338977157 x_1_18_2 + 625.99616032403389 x_1_18_20 + 1102.6643302433147 x_1_18_3 + 719.62221760670764 x_1_18_4 + 923.57922528447807 x_1_18_5 + 1042.300882456613 x_1_18_6 + 705.55032626393415 x_1_18_7 + 986.07665531768578 x_1_18_8 + 564.92464145385554 x_1_18_9 + 498.86677654650202 x_1_19_0 + 909.57876532869568 x_1_19_1 + 915.66658269277229 x_1_19_10 + 259.44028114735505 x_1_19_11 + 268.78711623961198 x_1_19_12 + 445.54166739917832 x_1_19_13 + 1010.2762755639997 x_1_19_14 + 572.13815674234831 x_1_19_15 + 541.55017992816931 x_1_19_16 + 182.12861341371297 x_1_19_17 + 316.26990163962461 x_1_19_18 + 705.9420122752864 x_1_19_2 + 313.1203940162161 x_1_19_20 + 991.90559370339054 x_1_19_3 + 603.96363519891406 x_1_19_4 + 781.38293852372396 x_1_19_5 + 897.92364880556227 x_1_19_6 + 503.48189614160452 x_1_19_7 + 779.32355288901647 x_1_19_8 + 363.26592280171644 x_1_19_9 + 551.64976801050545 x_1_1_0 + 636.8016772105326 x_1_1_10 + 654.22664740719131 x_1_1_11 + 754.40168595229034 x_1_1_12 + 759.14093339750309 x_1_1_13 + 773.90989655755084 x_1_1_14 + 796.98603797743715 x_1_1_15 + 885.69191423749271 x_1_1_16 + 890.25550988175962 x_1_1_17 + 905.86027405858852 x_1_1_18 + 909.57876532869568 x_1_1_19 + 213.19872840341398 x_1_1_2 + 955.68923233647092 x_1_1_20 + 384.99869276542881 x_1_1_3 + 388.93393722068049 x_1_1_4 + 419.97332897786214 x_1_1_5 + 455.48684666161768 x_1_1_6 + 596.23323709572878 x_1_1_7 + 633.55717411998887 x_1_1_8 + 636.37511190404052 x_1_1_9 + 420.75749905574497 x_1_20_0 + 955.68923233647092 x_1_20_1 + 743.26269309203315 x_1_20_10 + 370.95909217117713 x_1_20_11 + 209.40239087023852 x_1_20_12 + 247.32120239780559 x_1_20_13 + 803.50260373214621 x_1_20_14 + 333.4689667907648 x_1_20_15 + 264.878123880391 x_1_20_16 + 492.26820638293361 x_1_20_17 + 625.99616032403389 x_1_20_18 + 313.1203940162161 x_1_20_19 + 743.16233313028579 x_1_20_2 + 910.38097634781741 x_1_20_3 + 578.04995918914994 x_1_20_4 + 688.45445297218942 x_1_20_5 + 787.28534368354894 x_1_20_6 + 392.14338807529816 x_1_20_7 + 603.15131944215966 x_1_20_8 + 319.61305952748035 x_1_20_9 + 347.62907077832102 x_1_2_0 + 213.19872840341398 x_1_2_1 + 543.2937047802119 x_1_2_10 + 447.55317009817128 x_1_2_11 + 541.20355347338216 x_1_2_12 + 554.82967582790263 x_1_2_13 + 685.73406647732827 x_1_2_14 + 607.17045279489014 x_1_2_15 + 689.17264290854928 x_1_2_16 + 706.23307903744228 x_1_2_17 + 741.8281338977157 x_1_2_18 + 705.9420122752864 x_1_2_19 + 743.16233313028579 x_1_2_20 + 390.85837776741715 x_1_2_3 + 190.57973793768915 x_1_2_4 + 304.69664380677978 x_1_2_5 + 390.56742046291652 x_1_2_6 + 395.57290334795516 x_1_2_7 + 496.9175058744076 x_1_2_8 + 423.61424761104121 x_1_2_9 + 504.95662709241361 x_1_3_0 + 384.99869276542881 x_1_3_1 + 307.75567169692727 x_1_3_10 + 743.14663553155242 x_1_3_11 + 755.95573477130131 x_1_3_12 + 667.1862315181578 x_1_3_13 + 422.60928656820573 x_1_3_14 + 638.27768293402016 x_1_3_15 + 739.84145907411028 x_1_3_16 + 1042.115325519833 x_1_3_17 + 1102.6643302433147 x_1_3_18 + 991.90559370339054 x_1_3_19 + 390.85837776741715 x_1_3_2 + 910.38097634781741 x_1_3_20 + 391.98647582341579 x_1_3_4 + 222.0878840384365 x_1_3_5 + 140.51672358820585 x_1_3_6 + 521.23157478215046 x_1_3_7 + 376.70671895208005 x_1_3_8 + 637.54250397531416 x_1_3_9 + 163.12347073050395 x_1_4_0 + 388.93393722068049 x_1_4_1 + 422.89957835968033 x_1_4_10 + 351.44311164460424 x_1_4_11 + 390.52638140439376 x_1_4_12 + 370.24935054132374 x_1_4_13 + 559.50290158220344 x_1_4_14 + 416.59154534989904 x_1_4_15 + 499.66837799571528 x_1_4_16 + 651.27527400903034 x_1_4_17 + 719.62221760670764 x_1_4_18 + 603.96363519891406 x_1_4_19 + 190.57973793768915 x_1_4_2 + 578.04995918914994 x_1_4_20 + 391.98647582341579 x_1_4_3 + 206.14483112597475 x_1_4_5 + 323.40013209950126 x_1_4_6 + 207.55133929510404 x_1_4_7 + 340.19139194607629 x_1_4_8 + 267.47420681483271 x_1_4_9 + 286.35094060585743 x_1_5_0 + 419.97332897786214 x_1_5_1 + 238.66091688047666 x_1_5_10 + 542.31207557496816 x_1_5_11 + 536.829472320131 x_1_5_12 + 446.47016326775685 x_1_5_13 + 381.05856007236372 x_1_5_14 + 429.8690457349162 x_1_5_15 + 530.03168379081455 x_1_5_16 + 848.70833363451823 x_1_5_17 + 923.57922528447807 x_1_5_18 + 781.38293852372396 x_1_5_19 + 304.69664380677978 x_1_5_2 + 688.45445297218942 x_1_5_20 + 222.0878840384365 x_1_5_3 + 206.14483112597475 x_1_5_4 + 119.28621178555596 x_1_5_6 + 299.40951541415831 x_1_5_7 + 214.10267066579618 x_1_5_8 + 421.27919830505795 x_1_5_9 + 400.16393486926341 x_1_6_0 + 455.48684666161768 x_1_6_1 + 184.97262138422664 x_1_6_10 + 661.3179998765462 x_1_6_11 + 648.24558330757873 x_1_6_12 + 541.01036470375914 x_1_6_13 + 318.51396316505401 x_1_6_14 + 501.74489132608596 x_1_6_15 + 603.38207520377352 x_1_6_16 + 967.96807566964787 x_1_6_17 + 1042.300882456613 x_1_6_18 + 897.92364880556227 x_1_6_19 + 390.56742046291652 x_1_6_2 + 787.28534368354894 x_1_6_20 + 140.51672358820585 x_1_6_3 + 323.40013209950126 x_1_6_4 + 119.28621178555596 x_1_6_5 + 406.69899122657671 x_1_6_7 + 236.23466143611623 x_1_6_8 + 535.99885141852894 x_1_6_9 + 51.83689005166864 x_1_7_0 + 596.23323709572878 x_1_7_1 + 413.92748972362892 x_1_7_10 + 303.87659792613027 x_1_7_11 + 243.04118642570697 x_1_7_12 + 164.28378223215381 x_1_7_13 + 520.52143404801939 x_1_7_14 + 219.71794428817637 x_1_7_15 + 293.96205327351964 x_1_7_16 + 605.37932480772315 x_1_7_17 + 705.55032626393415 x_1_7_18 + 503.48189614160452 x_1_7_19 + 395.57290334795516 x_1_7_2 + 392.14338807529816 x_1_7_20 + 521.23157478215046 x_1_7_3 + 207.55133929510404 x_1_7_4 + 299.40951541415831 x_1_7_5 + 406.69899122657671 x_1_7_6 + 282.49357900603161 x_1_7_8 + 144.44518036959616 x_1_7_9 + 306.94716985118197 x_1_8_0 + 633.55717411998887 x_1_8_1 + 140.76429047310381 x_1_8_10 + 584.60016021990089 x_1_8_11 + 511.67431072068797 x_1_8_12 + 359.8477132749133 x_1_8_13 + 239.01128500063339 x_1_8_14 + 284.95600511681778 x_1_8_15 + 383.99774870224434 x_1_8_16 + 887.87210037877787 x_1_8_17 + 986.07665531768578 x_1_8_18 + 779.32355288901647 x_1_8_19 + 496.9175058744076 x_1_8_2 + 603.15131944215966 x_1_8_20 + 376.70671895208005 x_1_8_3 + 340.19139194607629 x_1_8_4 + 214.10267066579618 x_1_8_5 + 236.23466143611623 x_1_8_6 + 282.49357900603161 x_1_8_7 + 426.73004916578469 x_1_8_9 + 135.9213282781096 x_1_9_0 + 636.37511190404052 x_1_9_1 + 558.01784000477198 x_1_9_10 + 166.02906913485992 x_1_9_11 + 123.05977506551153 x_1_9_12 + 182.30033324291492 x_1_9_13 + 664.11763088833015 x_1_9_14 + 298.62441193510512 x_1_9_15 + 333.58354952779223 x_1_9_16 + 461.38507567471061 x_1_9_17 + 564.92464145385554 x_1_9_18 + 363.26592280171644 x_1_9_19 + 423.61424761104121 x_1_9_2 + 319.61305952748035 x_1_9_20 + 637.54250397531416 x_1_9_3 + 267.47420681483271 x_1_9_4 + 421.27919830505795 x_1_9_5 + 535.99885141852894 x_1_9_6 + 144.44518036959616 x_1_9_7 + 426.73004916578469 x_1_9_8 <= 10800
 c2829: Y_1 - d_0_1 - d_1_1 + p_0_1 + p_1_1 = 2
 c2830: - 0.10000000000000001 Y_1 + r_1 = 0
 c2831: e_1 - r_1 >= -1
 c2832: e_1 + r_1 >= 1
 c2833: Y_2 - d_0_2 - d_1_2 + p_0_2 + p_1_2 = 14
 c2834: - 0.1111111111111111 Y_2 + r_2 = 0
 c2835: e_2 - r_2 >= -1
 c2836: e_2 + r_2 >= 1
 c2837: Y_3 - d_0_3 - d_1_3 + p_0_3 + p_1_3 = 4
 c2838: - 0.083333333333333329 Y_3 + r_3 = 0
 c2839: e_3 - r_3 >= -1
 c2840: e_3 + r_3 >= 1
 c2841: Y_4 - d_0_4 - d_1_4 + p_0_4 + p_1_4 = 16
 c2842: - 0.090909090909090912 Y_4 + r_4 = 0
 c2843: e_4 - r_4 >= -1
 c2844: e_4 + r_4 >= 1
 c2845: Y_5 - d_0_5 - d_1_5 + p_0_5 + p_1_5 = 4
 c2846: - 0.083333333333333329 Y_5 + r_5 = 0
 c2847: e_5 - r_5 >= -1
 c2848: e_5 + r_5 >= 1
 c2849: Y_6 - d_0_6 - d_1_6 + p_0_6 + p_1_6 = 17
 c2850: - 0.083333333333333329 Y_6 + r_6 = 0
 c2851: e_6 - r_6 >= -1
 c2852: e_6 + r_6 >= 1
 c2853: Y_7 - d_0_7 - d_1_7 + p_0_7 + p_1_7 = 16
 c2854: - 0.090909090909090912 Y_7 + r_7 = 0
 c2855: e_7 - r_7 >= -1
 c2856: e_7 + r_7 >= 1
 c2857: Y_8 - d_0_8 - d_1_8 + p_0_8 + p_1_8 = 3
 c2858: - 0.090909090909090912 Y_8 + r_8 = 0
 c2859: e_8 - r_8 >= -1
 c2860: e_8 + r_8 >= 1
 c2861: Y_9 - d_0_9 - d_1_9 + p_0_9 + p_1_9 = 3
 c2862: - 0.10000000000000001 Y_9 + r_9 = 0
 c2863: e_9 - r_9 >= -1
 c2864: e_9 + r_9 >= 1
 c2865: Y_10 - d_0_10 - d_1_10 + p_0_10 + p_1_10 = 22
 c2866: - 0.066666666666666666 Y_10 + r_10 = 0
 c2867: e_10 - r_10 >= -1
 c2868: e_10 + r_10 >= 1
 c2869: Y_11 - d_0_11 - d_1_11 + p_0_11 + p_1_11 = 1
 c2870: - 0.10000000000000001 Y_11 + r_11 = 0
 c2871: e_11 - r_11 >= -1
 c2872: e_11 + r_11 >= 1
 c2873: Y_12 - d_0_12 - d_1_12 + p_0_12 + p_1_12 = 20
 c2874: - 0.071428571428571425 Y_12 + r_12 = 0
 c2875: e_12 - r_12 >= -1
 c2876: e_12 + r_12 >= 1
 c2877: Y_13 - d_0_13 - d_1_13 + p_0_13 + p_1_13 = 14
 c2878: - 0.1111111111111111 Y_13 + r_13 = 0
 c2879: e_13 - r_13 >= -1
 c2880: e_13 + r_13 >= 1
 c2881: Y_14 - d_0_14 - d_1_14 + p_0_14 + p_1_14 = 4
 c2882: - 0.083333333333333329 Y_14 + r_14 = 0
 c2883: e_14 - r_14 >= -1
 c2884: e_14 + r_14 >= 1
 c2885: Y_15 - d_0_15 - d_1_15 + p_0_15 + p_1_15 = 12
 c2886: - 0.125 Y_15 + r_15 = 0
 c2887: e_15 - r_15 >= -1
 c2888: e_15 + r_15 >= 1
 c2889: Y_16 - d_0_16 - d_1_16 + p_0_16 + p_1_16 = 2
 c2890: - 0.090909090909090912 Y_16 + r_16 = 0
 c2891: e_16 - r_16 >= -1
 c2892: e_16 + r_16 >= 1
 c2893: Y_17 - d_0_17 - d_1_17 + p_0_17 + p_1_17 = 16
 c2894: - 0.090909090909090912 Y_17 + r_17 = 0
 c2895: e_17 - r_17 >= -1
 c2896: e_17 + r_17 >= 1
 c2897: Y_18 - d_0_18 - d_1_18 + p_0_18 + p_1_18 = 16
 c2898: - 0.090909090909090912 Y_18 + r_18 = 0
 c2899: e_18 - r_18 >= -1
 c2900: e_18 + r_18 >= 1
 c2901: Y_19 - d_0_19 - d_1_19 + p_0_19 + p_1_19 = 4
 c2902: - 0.090909090909090912 Y_19 + r_19 = 0
 c2903: e_19 - r_19 >= -1
 c2904: e_19 + r_19 >= 1
 c2905: Y_20 - d_0_20 - d_1_20 + p_0_20 + p_1_20 = 4
 c2906: - 0.090909090909090912 Y_20 + r_20 = 0
 c2907: e_20 - r_20 >= -1
 c2908: e_20 + r_20 >= 1
 c2909: h_1_2 - r_1 + r_2 >= 0
 c2910: h_1_2 + r_1 - r_2 >= 0
 c2911: h_1_3 - r_1 + r_3 >= 0
 c2912: h_1_3 + r_1 - r_3 >= 0
 c2913: h_1_4 - r_1 + r_4 >= 0
 c2914: h_1_4 + r_1 - r_4 >= 0
 c2915: h_1_5 - r_1 + r_5 >= 0
 c2916: h_1_5 + r_1 - r_5 >= 0
 c2917: h_1_6 - r_1 + r_6 >= 0
 c2918: h_1_6 + r_1 - r_6 >= 0
 c2919: h_1_7 - r_1 + r_7 >= 0
 c2920: h_1_7 + r_1 - r_7 >= 0
 c2921: h_1_8 - r_1 + r_8 >= 0
 c2922: h_1_8 + r_1 - r_8 >= 0
 c2923: h_1_9 - r_1 + r_9 >= 0
 c2924: h_1_9 + r_1 - r_9 >= 0
 c2925: h_1_10 - r_1 + r_10 >= 0
 c2926: h_1_10 + r_1 - r_10 >= 0
 c2927: h_1_11 - r_1 + r_11 >= 0
 c2928: h_1_11 + r_1 - r_11 >= 0
 c2929: h_1_12 - r_1 + r_12 >= 0
 c2930: h_1_12 + r_1 - r_12 >= 0
 c2931: h_1_13 - r_1 + r_13 >= 0
 c2932: h_1_13 + r_1 - r_13 >= 0
 c2933: h_1_14 - r_1 + r_14 >= 0
 c2934: h_1_14 + r_1 - r_14 >= 0
 c2935: h_1_15 - r_1 + r_15 >= 0
 c2936: h_1_15 + r_1 - r_15 >= 0
 c2937: h_1_16 - r_1 + r_16 >= 0
 c2938: h_1_16 + r_1 - r_16 >= 0
 c2939: h_1_17 - r_1 + r_17 >= 0
 c2940: h_1_17 + r_1 - r_17 >= 0
 c2941: h_1_18 - r_1 + r_18 >= 0
 c2942: h_1_18 + r_1 - r_18 >= 0
 c2943: h_1_19 - r_1 + r_19 >= 0
 c2944: h_1_19 + r_1 - r_19 >= 0
 c2945: h_1_20 - r_1 + r_20 >= 0
 c2946: h_1_20 + r_1 - r_20 >= 0
 c2947: h_2_3 - r_2 + r_3 >= 0
 c2948: h_2_3 + r_2 - r_3 >= 0
 c2949: h_2_4 - r_2 + r_4 >= 0
 c2950: h_2_4 + r_2 - r_4 >= 0
 c2951: h_2_5 - r_2 + r_5 >= 0
 c2952: h_2_5 + r_2 - r_5 >= 0
 c2953: h_2_6 - r_2 + r_6 >= 0
 c2954: h_2_6 + r_2 - r_6 >= 0
 c2955: h_2_7 - r_2 + r_7 >= 0
 c2956: h_2_7 + r_2 - r_7 >= 0
 c2957: h_2_8 - r_2 + r_8 >= 0
 c2958: h_2_8 + r_2 - r_8 >= 0
 c2959: h_2_9 - r_2 + r_9 >= 0
 c2960: h_2_9 + r_2 - r_9 >= 0
 c2961: h_2_10 + r_10 - r_2 >= 0
 c2962: h_2_10 - r_10 + r_2 >= 0
 c2963: h_2_11 + r_11 - r_2 >= 0
 c2964: h_2_11 - r_11 + r_2 >= 0
 c2965: h_2_12 + r_12 - r_2 >= 0
 c2966: h_2_12 - r_12 + r_2 >= 0
 c2967: h_2_13 + r_13 - r_2 >= 0
 c2968: h_2_13 - r_13 + r_2 >= 0
 c2969: h_2_14 + r_14 - r_2 >= 0
 c2970: h_2_14 - r_14 + r_2 >= 0
 c2971: h_2_15 + r_15 - r_2 >= 0
 c2972: h_2_15 - r_15 + r_2 >= 0
 c2973: h_2_16 + r_16 - r_2 >= 0
 c2974: h_2_16 - r_16 + r_2 >= 0
 c2975: h_2_17 + r_17 - r_2 >= 0
 c2976: h_2_17 - r_17 + r_2 >= 0
 c2977: h_2_18 + r_18 - r_2 >= 0
 c2978: h_2_18 - r_18 + r_2 >= 0
 c2979: h_2_19 + r_19 - r_2 >= 0
 c2980: h_2_19 - r_19 + r_2 >= 0
 c2981: h_2_20 - r_2 + r_20 >= 0
 c2982: h_2_20 + r_2 - r_20 >= 0
 c2983: h_3_4 - r_3 + r_4 >= 0
 c2984: h_3_4 + r_3 - r_4 >= 0
 c2985: h_3_5 - r_3 + r_5 >= 0
 c2986: h_3_5 + r_3 - r_5 >= 0
 c2987: h_3_6 - r_3 + r_6 >= 0
 c2988: h_3_6 + r_3 - r_6 >= 0
 c2989: h_3_7 - r_3 + r_7 >= 0
 c2990: h_3_7 + r_3 - r_7 >= 0
 c2991: h_3_8 - r_3 + r_8 >= 0
 c2992: h_3_8 + r_3 - r_8 >= 0
 c2993: h_3_9 - r_3 + r_9 >= 0
 c2994: h_3_9 + r_3 - r_9 >= 0
 c2995: h_3_10 + r_10 - r_3 >= 0
 c2996: h_3_10 - r_10 + r_3 >= 0
 c2997: h_3_11 + r_11 - r_3 >= 0
 c2998: h_3_11 - r_11 + r_3 >= 0
 c2999: h_3_12 + r_12 - r_3 >= 0
 c3000: h_3_12 - r_12 + r_3 >= 0
 c3001: h_3_13 + r_13 - r_3 >= 0
 c3002: h_3_13 - r_13 + r_3 >= 0
 c3003: h_3_14 + r_14 - r_3 >= 0
 c3004: h_3_14 - r_14 + r_3 >= 0
 c3005: h_3_15 + r_15 - r_3 >= 0
 c3006: h_3_15 - r_15 + r_3 >= 0
 c3007: h_3_16 + r_16 - r_3 >= 0
 c3008: h_3_16 - r_16 + r_3 >= 0
 c3009: h_3_17 + r_17 - r_3 >= 0
 c3010: h_3_17 - r_17 + r_3 >= 0
 c3011: h_3_18 + r_18 - r_3 >= 0
 c3012: h_3_18 - r_18 + r_3 >= 0
 c3013: h_3_19 + r_19 - r_3 >= 0
 c3014: h_3_19 - r_19 + r_3 >= 0
 c3015: h_3_20 + r_20 - r_3 >= 0
 c3016: h_3_20 - r_20 + r_3 >= 0
 c3017: h_4_5 - r_4 + r_5 >= 0
 c3018: h_4_5 + r_4 - r_5 >= 0
 c3019: h_4_6 - r_4 + r_6 >= 0
 c3020: h_4_6 + r_4 - r_6 >= 0
 c3021: h_4_7 - r_4 + r_7 >= 0
 c3022: h_4_7 + r_4 - r_7 >= 0
 c3023: h_4_8 - r_4 + r_8 >= 0
 c3024: h_4_8 + r_4 - r_8 >= 0
 c3025: h_4_9 - r_4 + r_9 >= 0
 c3026: h_4_9 + r_4 - r_9 >= 0
 c3027: h_4_10 + r_10 - r_4 >= 0
 c3028: h_4_10 - r_10 + r_4 >= 0
 c3029: h_4_11 + r_11 - r_4 >= 0
 c3030: h_4_11 - r_11 + r_4 >= 0
 c3031: h_4_12 + r_12 - r_4 >= 0
 c3032: h_4_12 - r_12 + r_4 >= 0
 c3033: h_4_13 + r_13 - r_4 >= 0
 c3034: h_4_13 - r_13 + r_4 >= 0
 c3035: h_4_14 + r_14 - r_4 >= 0
 c3036: h_4_14 - r_14 + r_4 >= 0
 c3037: h_4_15 + r_15 - r_4 >= 0
 c3038: h_4_15 - r_15 + r_4 >= 0
 c3039: h_4_16 + r_16 - r_4 >= 0
 c3040: h_4_16 - r_16 + r_4 >= 0
 c3041: h_4_17 + r_17 - r_4 >= 0
 c3042: h_4_17 - r_17 + r_4 >= 0
 c3043: h_4_18 + r_18 - r_4 >= 0
 c3044: h_4_18 - r_18 + r_4 >= 0
 c3045: h_4_19 + r_19 - r_4 >= 0
 c3046: h_4_19 - r_19 + r_4 >= 0
 c3047: h_4_20 + r_20 - r_4 >= 0
 c3048: h_4_20 - r_20 + r_4 >= 0
 c3049: h_5_6 - r_5 + r_6 >= 0
 c3050: h_5_6 + r_5 - r_6 >= 0
 c3051: h_5_7 - r_5 + r_7 >= 0
 c3052: h_5_7 + r_5 - r_7 >= 0
 c3053: h_5_8 - r_5 + r_8 >= 0
 c3054: h_5_8 + r_5 - r_8 >= 0
 c3055: h_5_9 - r_5 + r_9 >= 0
 c3056: h_5_9 + r_5 - r_9 >= 0
 c3057: h_5_10 + r_10 - r_5 >= 0
 c3058: h_5_10 - r_10 + r_5 >= 0
 c3059: h_5_11 + r_11 - r_5 >= 0
 c3060: h_5_11 - r_11 + r_5 >= 0
 c3061: h_5_12 + r_12 - r_5 >= 0
 c3062: h_5_12 - r_12 + r_5 >= 0
 c3063: h_5_13 + r_13 - r_5 >= 0
 c3064: h_5_13 - r_13 + r_5 >= 0
 c3065: h_5_14 + r_14 - r_5 >= 0
 c3066: h_5_14 - r_14 + r_5 >= 0
 c3067: h_5_15 + r_15 - r_5 >= 0
 c3068: h_5_15 - r_15 + r_5 >= 0
 c3069: h_5_16 + r_16 - r_5 >= 0
 c3070: h_5_16 - r_16 + r_5 >= 0
 c3071: h_5_17 + r_17 - r_5 >= 0
 c3072: h_5_17 - r_17 + r_5 >= 0
 c3073: h_5_18 + r_18 - r_5 >= 0
 c3074: h_5_18 - r_18 + r_5 >= 0
 c3075: h_5_19 + r_19 - r_5 >= 0
 c3076: h_5_19 - r_19 + r_5 >= 0
 c3077: h_5_20 + r_20 - r_5 >= 0
 c3078: h_5_20 - r_20 + r_5 >= 0
 c3079: h_6_7 - r_6 + r_7 >= 0
 c3080: h_6_7 + r_6 - r_7 >= 0
 c3081: h_6_8 - r_6 + r_8 >= 0
 c3082: h_6_8 + r_6 - r_8 >= 0
 c3083: h_6_9 - r_6 + r_9 >= 0
 c3084: h_6_9 + r_6 - r_9 >= 0
 c3085: h_6_10 + r_10 - r_6 >= 0
 c3086: h_6_10 - r_10 + r_6 >= 0
 c3087: h_6_11 + r_11 - r_6 >= 0
 c3088: h_6_11 - r_11 + r_6 >= 0
 c3089: h_6_12 + r_12 - r_6 >= 0
 c3090: h_6_12 - r_12 + r_6 >= 0
 c3091: h_6_13 + r_13 - r_6 >= 0
 c3092: h_6_13 - r_13 + r_6 >= 0
 c3093: h_6_14 + r_14 - r_6 >= 0
 c3094: h_6_14 - r_14 + r_6 >= 0
 c3095: h_6_15 + r_15 - r_6 >= 0
 c3096: h_6_15 - r_15 + r_6 >= 0
 c3097: h_6_16 + r_16 - r_6 >= 0
 c3098: h_6_16 - r_16 + r_6 >= 0
 c3099: h_6_17 + r_17 - r_6 >= 0
 c3100: h_6_17 - r_17 + r_6 >= 0
 c3101: h_6_18 + r_18 - r_6 >= 0
 c3102: h_6_18 - r_18 + r_6 >= 0
 c3103: h_6_19 + r_19 - r_6 >= 0
 c3104: h_6_19 - r_19 + r_6 >= 0
 c3105: h_6_20 + r_20 - r_6 >= 0
 c3106: h_6_20 - r_20 + r_6 >= 0
 c3107: h_7_8 - r_7 + r_8 >= 0
 c3108: h_7_8 + r_7 - r_8 >= 0
 c3109: h_7_9 - r_7 + r_9 >= 0
 c3110: h_7_9 + r_7 - r_9 >= 0
 c3111: h_7_10 + r_10 - r_7 >= 0
 c3112: h_7_10 - r_10 + r_7 >= 0
 c3113: h_7_11 + r_11 - r_7 >= 0
 c3114: h_7_11 - r_11 + r_7 >= 0
 c3115: h_7_12 + r_12 - r_7 >= 0
 c3116: h_7_12 - r_12 + r_7 >= 0
 c3117: h_7_13 + r_13 - r_7 >= 0
 c3118: h_7_13 - r_13 + r_7 >= 0
 c3119: h_7_14 + r_14 - r_7 >= 0
 c3120: h_7_14 - r_14 + r_7 >= 0
 c3121: h_7_15 + r_15 - r_7 >= 0
 c3122: h_7_15 - r_15 + r_7 >= 0
 c3123: h_7_16 + r_16 - r_7 >= 0
 c3124: h_7_16 - r_16 + r_7 >= 0
 c3125: h_7_17 + r_17 - r_7 >= 0
 c3126: h_7_17 - r_17 + r_7 >= 0
 c3127: h_7_18 + r_18 - r_7 >= 0
 c3128: h_7_18 - r_18 + r_7 >= 0
 c3129: h_7_19 + r_19 - r_7 >= 0
 c3130: h_7_19 - r_19 + r_7 >= 0
 c3131: h_7_20 + r_20 - r_7 >= 0
 c3132: h_7_20 - r_20 + r_7 >= 0
 c3133: h_8_9 - r_8 + r_9 >= 0
 c3134: h_8_9 + r_8 - r_9 >= 0
 c3135: h_8_10 + r_10 - r_8 >= 0
 c3136: h_8_10 - r_10 + r_8 >= 0
 c3137: h_8_11 + r_11 - r_8 >= 0
 c3138: h_8_11 - r_11 + r_8 >= 0
 c3139: h_8_12 + r_12 - r_8 >= 0
 c3140: h_8_12 - r_12 + r_8 >= 0
 c3141: h_8_13 + r_13 - r_8 >= 0
 c3142: h_8_13 - r_13 + r_8 >= 0
 c3143: h_8_14 + r_14 - r_8 >= 0
 c3144: h_8_14 - r_14 + r_8 >= 0
 c3145: h_8_15 + r_15 - r_8 >= 0
 c3146: h_8_15 - r_15 + r_8 >= 0
 c3147: h_8_16 + r_16 - r_8 >= 0
 c3148: h_8_16 - r_16 + r_8 >= 0
 c3149: h_8_17 + r_17 - r_8 >= 0
 c3150: h_8_17 - r_17 + r_8 >= 0
 c3151: h_8_18 + r_18 - r_8 >= 0
 c3152: h_8_18 - r_18 + r_8 >= 0
 c3153: h_8_19 + r_19 - r_8 >= 0
 c3154: h_8_19 - r_19 + r_8 >= 0
 c3155: h_8_20 + r_20 - r_8 >= 0
 c3156: h_8_20 - r_20 + r_8 >= 0
 c3157: h_9_10 + r_10 - r_9 >= 0
 c3158: h_9_10 - r_10 + r_9 >= 0
 c3159: h_9_11 + r_11 - r_9 >= 0
 c3160: h_9_11 - r_11 + r_9 >= 0
 c3161: h_9_12 + r_12 - r_9 >= 0
 c3162: h_9_12 - r_12 + r_9 >= 0
 c3163: h_9_13 + r_13 - r_9 >= 0
 c3164: h_9_13 - r_13 + r_9 >= 0
 c3165: h_9_14 + r_14 - r_9 >= 0
 c3166: h_9_14 - r_14 + r_9 >= 0
 c3167: h_9_15 + r_15 - r_9 >= 0
 c3168: h_9_15 - r_15 + r_9 >= 0
 c3169: h_9_16 + r_16 - r_9 >= 0
 c3170: h_9_16 - r_16 + r_9 >= 0
 c3171: h_9_17 + r_17 - r_9 >= 0
 c3172: h_9_17 - r_17 + r_9 >= 0
 c3173: h_9_18 + r_18 - r_9 >= 0
 c3174: h_9_18 - r_18 + r_9 >= 0
 c3175: h_9_19 + r_19 - r_9 >= 0
 c3176: h_9_19 - r_19 + r_9 >= 0
 c3177: h_9_20 + r_20 - r_9 >= 0
 c3178: h_9_20 - r_20 + r_9 >= 0
 c3179: h_10_11 - r_10 + r_11 >= 0
 c3180: h_10_11 + r_10 - r_11 >= 0
 c3181: h_10_12 - r_10 + r_12 >= 0
 c3182: h_10_12 + r_10 - r_12 >= 0
 c3183: h_10_13 - r_10 + r_13 >= 0
 c3184: h_10_13 + r_10 - r_13 >= 0
 c3185: h_10_14 - r_10 + r_14 >= 0
 c3186: h_10_14 + r_10 - r_14 >= 0
 c3187: h_10_15 - r_10 + r_15 >= 0
 c3188: h_10_15 + r_10 - r_15 >= 0
 c3189: h_10_16 - r_10 + r_16 >= 0
 c3190: h_10_16 + r_10 - r_16 >= 0
 c3191: h_10_17 - r_10 + r_17 >= 0
 c3192: h_10_17 + r_10 - r_17 >= 0
 c3193: h_10_18 - r_10 + r_18 >= 0
 c3194: h_10_18 + r_10 - r_18 >= 0
 c3195: h_10_19 - r_10 + r_19 >= 0
 c3196: h_10_19 + r_10 - r_19 >= 0
 c3197: h_10_20 - r_10 + r_20 >= 0
 c3198: h_10_20 + r_10 - r_20 >= 0
 c3199: h_11_12 - r_11 + r_12 >= 0
 c3200: h_11_12 + r_11 - r_12 >= 0
 c3201: h_11_13 - r_11 + r_13 >= 0
 c3202: h_11_13 + r_11 - r_13 >= 0
 c3203: h_11_14 - r_11 + r_14 >= 0
 c3204: h_11_14 + r_11 - r_14 >= 0
 c3205: h_11_15 - r_11 + r_15 >= 0
 c3206: h_11_15 + r_11 - r_15 >= 0
 c3207: h_11_16 - r_11 + r_16 >= 0
 c3208: h_11_16 + r_11 - r_16 >= 0
 c3209: h_11_17 - r_11 + r_17 >= 0
 c3210: h_11_17 + r_11 - r_17 >= 0
 c3211: h_11_18 - r_11 + r_18 >= 0
 c3212: h_11_18 + r_11 - r_18 >= 0
 c3213: h_11_19 - r_11 + r_19 >= 0
 c3214: h_11_19 + r_11 - r_19 >= 0
 c3215: h_11_20 - r_11 + r_20 >= 0
 c3216: h_11_20 + r_11 - r_20 >= 0
 c3217: h_12_13 - r_12 + r_13 >= 0
 c3218: h_12_13 + r_12 - r_13 >= 0
 c3219: h_12_14 - r_12 + r_14 >= 0
 c3220: h_12_14 + r_12 - r_14 >= 0
 c3221: h_12_15 - r_12 + r_15 >= 0
 c3222: h_12_15 + r_12 - r_15 >= 0
 c3223: h_12_16 - r_12 + r_16 >= 0
 c3224: h_12_16 + r_12 - r_16 >= 0
 c3225: h_12_17 - r_12 + r_17 >= 0
 c3226: h_12_17 + r_12 - r_17 >= 0
 c3227: h_12_18 - r_12 + r_18 >= 0
 c3228: h_12_18 + r_12 - r_18 >= 0
 c3229: h_12_19 - r_12 + r_19 >= 0
 c3230: h_12_19 + r_12 - r_19 >= 0
 c3231: h_12_20 - r_12 + r_20 >= 0
 c3232: h_12_20 + r_12 - r_20 >= 0
 c3233: h_13_14 - r_13 + r_14 >= 0
 c3234: h_13_14 + r_13 - r_14 >= 0
 c3235: h_13_15 - r_13 + r_15 >= 0
 c3236: h_13_15 + r_13 - r_15 >= 0
 c3237: h_13_16 - r_13 + r_16 >= 0
 c3238: h_13_16 + r_13 - r_16 >= 0
 c3239: h_13_17 - r_13 + r_17 >= 0
 c3240: h_13_17 + r_13 - r_17 >= 0
 c3241: h_13_18 - r_13 + r_18 >= 0
 c3242: h_13_18 + r_13 - r_18 >= 0
 c3243: h_13_19 - r_13 + r_19 >= 0
 c3244: h_13_19 + r_13 - r_19 >= 0
 c3245: h_13_20 - r_13 + r_20 >= 0
 c3246: h_13_20 + r_13 - r_20 >= 0
 c3247: h_14_15 - r_14 + r_15 >= 0
 c3248: h_14_15 + r_14 - r_15 >= 0
 c3249: h_14_16 - r_14 + r_16 >= 0
 c3250: h_14_16 + r_14 - r_16 >= 0
 c3251: h_14_17 - r_14 + r_17 >= 0
 c3252: h_14_17 + r_14 - r_17 >= 0
 c3253: h_14_18 - r_14 + r_18 >= 0
 c3254: h_14_18 + r_14 - r_18 >= 0
 c3255: h_14_19 - r_14 + r_19 >= 0
 c3256: h_14_19 + r_14 - r_19 >= 0
 c3257: h_14_20 - r_14 + r_20 >= 0
 c3258: h_14_20 + r_14 - r_20 >= 0
 c3259: h_15_16 - r_15 + r_16 >= 0
 c3260: h_15_16 + r_15 - r_16 >= 0
 c3261: h_15_17 - r_15 + r_17 >= 0
 c3262: h_15_17 + r_15 - r_17 >= 0
 c3263: h_15_18 - r_15 + r_18 >= 0
 c3264: h_15_18 + r_15 - r_18 >= 0
 c3265: h_15_19 - r_15 + r_19 >= 0
 c3266: h_15_19 + r_15 - r_19 >= 0
 c3267: h_15_20 - r_15 + r_20 >= 0
 c3268: h_15_20 + r_15 - r_20 >= 0
 c3269: h_16_17 - r_16 + r_17 >= 0
 c3270: h_16_17 + r_16 - r_17 >= 0
 c3271: h_16_18 - r_16 + r_18 >= 0
 c3272: h_16_18 + r_16 - r_18 >= 0
 c3273: h_16_19 - r_16 + r_19 >= 0
 c3274: h_16_19 + r_16 - r_19 >= 0
 c3275: h_16_20 - r_16 + r_20 >= 0
 c3276: h_16_20 + r_16 - r_20 >= 0
 c3277: h_17_18 - r_17 + r_18 >= 0
 c3278: h_17_18 + r_17 - r_18 >= 0
 c3279: h_17_19 - r_17 + r_19 >= 0
 c3280: h_17_19 + r_17 - r_19 >= 0
 c3281: h_17_20 - r_17 + r_20 >= 0
 c3282: h_17_20 + r_17 - r_20 >= 0
 c3283: h_18_19 - r_18 + r_19 >= 0
 c3284: h_18_19 + r_18 - r_19 >= 0
 c3285: h_18_20 - r_18 + r_20 >= 0
 c3286: h_18_20 + r_18 - r_20 >= 0
 c3287: h_19_20 - r_19 + r_20 >= 0
 c3288: h_19_20 + r_19 - r_20 >= 0
 c3289: Y_1 - bit_1_0 - 2 bit_1_1 - 4 bit_1_2 - 8 bit_1_3 - 16 bit_1_4 = 0
 c3290: - prod_1_0 - 2 prod_1_1 - 4 prod_1_2 - 8 prod_1_3 - 16 prod_1_4 + zprod_1 = 0
 c3291: - G + prod_1_0 <= 0
 c3292: - bit_1_0 + prod_1_0 <= 0
 c3293: - G - bit_1_0 + prod_1_0 >= -1
 c3294: - G + prod_1_1 <= 0
 c3295: - bit_1_1 + prod_1_1 <= 0
 c3296: - G - bit_1_1 + prod_1_1 >= -1
 c3297: - G + prod_1_2 <= 0
 c3298: - bit_1_2 + prod_1_2 <= 0
 c3299: - G - bit_1_2 + prod_1_2 >= -1
 c3300: - G + prod_1_3 <= 0
 c3301: - bit_1_3 + prod_1_3 <= 0
 c3302: - G - bit_1_3 + prod_1_3 >= -1
 c3303: - G + prod_1_4 <= 0
 c3304: - bit_1_4 + prod_1_4 <= 0
 c3305: - G - bit_1_4 + prod_1_4 >= -1
 c3306: Y_2 - bit_2_0 - 2 bit_2_1 - 4 bit_2_2 - 8 bit_2_3 - 16 bit_2_4 = 0
 c3307: - prod_2_0 - 2 prod_2_1 - 4 prod_2_2 - 8 prod_2_3 - 16 prod_2_4 + zprod_2 = 0
 c3308: - G + prod_2_0 <= 0
 c3309: - bit_2_0 + prod_2_0 <= 0
 c3310: - G - bit_2_0 + prod_2_0 >= -1
 c3311: - G + prod_2_1 <= 0
 c3312: - bit_2_1 + prod_2_1 <= 0
 c3313: - G - bit_2_1 + prod_2_1 >= -1
 c3314: - G + prod_2_2 <= 0
 c3315: - bit_2_2 + prod_2_2 <= 0
 c3316: - G - bit_2_2 + prod_2_2 >= -1
 c3317: - G + prod_2_3 <= 0
 c3318: - bit_2_3 + prod_2_3 <= 0
 c3319: - G - bit_2_3 + prod_2_3 >= -1
 c3320: - G + prod_2_4 <= 0
 c3321: - bit_2_4 + prod_2_4 <= 0
 c3322: - G - bit_2_4 + prod_2_4 >= -1
 c3323: Y_3 - bit_3_0 - 2 bit_3_1 - 4 bit_3_2 - 8 bit_3_3 - 16 bit_3_4 = 0
 c3324: - prod_3_0 - 2 prod_3_1 - 4 prod_3_2 - 8 prod_3_3 - 16 prod_3_4 + zprod_3 = 0
 c3325: - G + prod_3_0 <= 0
 c3326: - bit_3_0 + prod_3_0 <= 0
 c3327: - G - bit_3_0 + prod_3_0 >= -1
 c3328: - G + prod_3_1 <= 0
 c3329: - bit_3_1 + prod_3_1 <= 0
 c3330: - G - bit_3_1 + prod_3_1 >= -1
 c3331: - G + prod_3_2 <= 0
 c3332: - bit_3_2 + prod_3_2 <= 0
 c3333: - G - bit_3_2 + prod_3_2 >= -1
 c3334: - G + prod_3_3 <= 0
 c3335: - bit_3_3 + prod_3_3 <= 0
 c3336: - G - bit_3_3 + prod_3_3 >= -1
 c3337: - G + prod_3_4 <= 0
 c3338: - bit_3_4 + prod_3_4 <= 0
 c3339: - G - bit_3_4 + prod_3_4 >= -1
 c3340: Y_4 - bit_4_0 - 2 bit_4_1 - 4 bit_4_2 - 8 bit_4_3 - 16 bit_4_4 = 0
 c3341: - prod_4_0 - 2 prod_4_1 - 4 prod_4_2 - 8 prod_4_3 - 16 prod_4_4 + zprod_4 = 0
 c3342: - G + prod_4_0 <= 0
 c3343: - bit_4_0 + prod_4_0 <= 0
 c3344: - G - bit_4_0 + prod_4_0 >= -1
 c3345: - G + prod_4_1 <= 0
 c3346: - bit_4_1 + prod_4_1 <= 0
 c3347: - G - bit_4_1 + prod_4_1 >= -1
 c3348: - G + prod_4_2 <= 0
 c3349: - bit_4_2 + prod_4_2 <= 0
 c3350: - G - bit_4_2 + prod_4_2 >= -1
 c3351: - G + prod_4_3 <= 0
 c3352: - bit_4_3 + prod_4_3 <= 0
 c3353: - G - bit_4_3 + prod_4_3 >= -1
 c3354: - G + prod_4_4 <= 0
 c3355: - bit_4_4 + prod_4_4 <= 0
 c3356: - G - bit_4_4 + prod_4_4 >= -1
 c3357: Y_5 - bit_5_0 - 2 bit_5_1 - 4 bit_5_2 - 8 bit_5_3 - 16 bit_5_4 = 0
 c3358: - prod_5_0 - 2 prod_5_1 - 4 prod_5_2 - 8 prod_5_3 - 16 prod_5_4 + zprod_5 = 0
 c3359: - G + prod_5_0 <= 0
 c3360: - bit_5_0 + prod_5_0 <= 0
 c3361: - G - bit_5_0 + prod_5_0 >= -1
 c3362: - G + prod_5_1 <= 0
 c3363: - bit_5_1 + prod_5_1 <= 0
 c3364: - G - bit_5_1 + prod_5_1 >= -1
 c3365: - G + prod_5_2 <= 0
 c3366: - bit_5_2 + prod_5_2 <= 0
 c3367: - G - bit_5_2 + prod_5_2 >= -1
 c3368: - G + prod_5_3 <= 0
 c3369: - bit_5_3 + prod_5_3 <= 0
 c3370: - G - bit_5_3 + prod_5_3 >= -1
 c3371: - G + prod_5_4 <= 0
 c3372: - bit_5_4 + prod_5_4 <= 0
 c3373: - G - bit_5_4 + prod_5_4 >= -1
 c3374: Y_6 - bit_6_0 - 2 bit_6_1 - 4 bit_6_2 - 8 bit_6_3 - 16 bit_6_4 = 0
 c3375: - prod_6_0 - 2 prod_6_1 - 4 prod_6_2 - 8 prod_6_3 - 16 prod_6_4 + zprod_6 = 0
 c3376: - G + prod_6_0 <= 0
 c3377: - bit_6_0 + prod_6_0 <= 0
 c3378: - G - bit_6_0 + prod_6_0 >= -1
 c3379: - G + prod_6_1 <= 0
 c3380: - bit_6_1 + prod_6_1 <= 0
 c3381: - G - bit_6_1 + prod_6_1 >= -1
 c3382: - G + prod_6_2 <= 0
 c3383: - bit_6_2 + prod_6_2 <= 0
 c3384: - G - bit_6_2 + prod_6_2 >= -1
 c3385: - G + prod_6_3 <= 0
 c3386: - bit_6_3 + prod_6_3 <= 0
 c3387: - G - bit_6_3 + prod_6_3 >= -1
 c3388: - G + prod_6_4 <= 0
 c3389: - bit_6_4 + prod_6_4 <= 0
 c3390: - G - bit_6_4 + prod_6_4 >= -1
 c3391: Y_7 - bit_7_0 - 2 bit_7_1 - 4 bit_7_2 - 8 bit_7_3 - 16 bit_7_4 = 0
 c3392: - prod_7_0 - 2 prod_7_1 - 4 prod_7_2 - 8 prod_7_3 - 16 prod_7_4 + zprod_7 = 0
 c3393: - G + prod_7_0 <= 0
 c3394: - bit_7_0 + prod_7_0 <= 0
 c3395: - G - bit_7_0 + prod_7_0 >= -1
 c3396: - G + prod_7_1 <= 0
 c3397: - bit_7_1 + prod_7_1 <= 0
 c3398: - G - bit_7_1 + prod_7_1 >= -1
 c3399: - G + prod_7_2 <= 0
 c3400: - bit_7_2 + prod_7_2 <= 0
 c3401: - G - bit_7_2 + prod_7_2 >= -1
 c3402: - G + prod_7_3 <= 0
 c3403: - bit_7_3 + prod_7_3 <= 0
 c3404: - G - bit_7_3 + prod_7_3 >= -1
 c3405: - G + prod_7_4 <= 0
 c3406: - bit_7_4 + prod_7_4 <= 0
 c3407: - G - bit_7_4 + prod_7_4 >= -1
 c3408: Y_8 - bit_8_0 - 2 bit_8_1 - 4 bit_8_2 - 8 bit_8_3 - 16 bit_8_4 = 0
 c3409: - prod_8_0 - 2 prod_8_1 - 4 prod_8_2 - 8 prod_8_3 - 16 prod_8_4 + zprod_8 = 0
 c3410: - G + prod_8_0 <= 0
 c3411: - bit_8_0 + prod_8_0 <= 0
 c3412: - G - bit_8_0 + prod_8_0 >= -1
 c3413: - G + prod_8_1 <= 0
 c3414: - bit_8_1 + prod_8_1 <= 0
 c3415: - G - bit_8_1 + prod_8_1 >= -1
 c3416: - G + prod_8_2 <= 0
 c3417: - bit_8_2 + prod_8_2 <= 0
 c3418: - G - bit_8_2 + prod_8_2 >= -1
 c3419: - G + prod_8_3 <= 0
 c3420: - bit_8_3 + prod_8_3 <= 0
 c3421: - G - bit_8_3 + prod_8_3 >= -1
 c3422: - G + prod_8_4 <= 0
 c3423: - bit_8_4 + prod_8_4 <= 0
 c3424: - G - bit_8_4 + prod_8_4 >= -1
 c3425: Y_9 - bit_9_0 - 2 bit_9_1 - 4 bit_9_2 - 8 bit_9_3 - 16 bit_9_4 = 0
 c3426: - prod_9_0 - 2 prod_9_1 - 4 prod_9_2 - 8 prod_9_3 - 16 prod_9_4 + zprod_9 = 0
 c3427: - G + prod_9_0 <= 0
 c3428: - bit_9_0 + prod_9_0 <= 0
 c3429: - G - bit_9_0 + prod_9_0 >= -1
 c3430: - G + prod_9_1 <= 0
 c3431: - bit_9_1 + prod_9_1 <= 0
 c3432: - G - bit_9_1 + prod_9_1 >= -1
 c3433: - G + prod_9_2 <= 0
 c3434: - bit_9_2 + prod_9_2 <= 0
 c3435: - G - bit_9_2 + prod_9_2 >= -1
 c3436: - G + prod_9_3 <= 0
 c3437: - bit_9_3 + prod_9_3 <= 0
 c3438: - G - bit_9_3 + prod_9_3 >= -1
 c3439: - G + prod_9_4 <= 0
 c3440: - bit_9_4 + prod_9_4 <= 0
 c3441: - G - bit_9_4 + prod_9_4 >= -1
 c3442: Y_10 - bit_10_0 - 2 bit_10_1 - 4 bit_10_2 - 8 bit_10_3 - 16 bit_10_4 = 0
 c3443: - prod_10_0 - 2 prod_10_1 - 4 prod_10_2 - 8 prod_10_3 - 16 prod_10_4 + zprod_10 = 0
 c3444: - G + prod_10_0 <= 0
 c3445: - bit_10_0 + prod_10_0 <= 0
 c3446: - G - bit_10_0 + prod_10_0 >= -1
 c3447: - G + prod_10_1 <= 0
 c3448: - bit_10_1 + prod_10_1 <= 0
 c3449: - G - bit_10_1 + prod_10_1 >= -1
 c3450: - G + prod_10_2 <= 0
 c3451: - bit_10_2 + prod_10_2 <= 0
 c3452: - G - bit_10_2 + prod_10_2 >= -1
 c3453: - G + prod_10_3 <= 0
 c3454: - bit_10_3 + prod_10_3 <= 0
 c3455: - G - bit_10_3 + prod_10_3 >= -1
 c3456: - G + prod_10_4 <= 0
 c3457: - bit_10_4 + prod_10_4 <= 0
 c3458: - G - bit_10_4 + prod_10_4 >= -1
 c3459: Y_11 - bit_11_0 - 2 bit_11_1 - 4 bit_11_2 - 8 bit_11_3 - 16 bit_11_4 = 0
 c3460: - prod_11_0 - 2 prod_11_1 - 4 prod_11_2 - 8 prod_11_3 - 16 prod_11_4 + zprod_11 = 0
 c3461: - G + prod_11_0 <= 0
 c3462: - bit_11_0 + prod_11_0 <= 0
 c3463: - G - bit_11_0 + prod_11_0 >= -1
 c3464: - G + prod_11_1 <= 0
 c3465: - bit_11_1 + prod_11_1 <= 0
 c3466: - G - bit_11_1 + prod_11_1 >= -1
 c3467: - G + prod_11_2 <= 0
 c3468: - bit_11_2 + prod_11_2 <= 0
 c3469: - G - bit_11_2 + prod_11_2 >= -1
 c3470: - G + prod_11_3 <= 0
 c3471: - bit_11_3 + prod_11_3 <= 0
 c3472: - G - bit_11_3 + prod_11_3 >= -1
 c3473: - G + prod_11_4 <= 0
 c3474: - bit_11_4 + prod_11_4 <= 0
 c3475: - G - bit_11_4 + prod_11_4 >= -1
 c3476: Y_12 - bit_12_0 - 2 bit_12_1 - 4 bit_12_2 - 8 bit_12_3 - 16 bit_12_4 = 0
 c3477: - prod_12_0 - 2 prod_12_1 - 4 prod_12_2 - 8 prod_12_3 - 16 prod_12_4 + zprod_12 = 0
 c3478: - G + prod_12_0 <= 0
 c3479: - bit_12_0 + prod_12_0 <= 0
 c3480: - G - bit_12_0 + prod_12_0 >= -1
 c3481: - G + prod_12_1 <= 0
 c3482: - bit_12_1 + prod_12_1 <= 0
 c3483: - G - bit_12_1 + prod_12_1 >= -1
 c3484: - G + prod_12_2 <= 0
 c3485: - bit_12_2 + prod_12_2 <= 0
 c3486: - G - bit_12_2 + prod_12_2 >= -1
 c3487: - G + prod_12_3 <= 0
 c3488: - bit_12_3 + prod_12_3 <= 0
 c3489: - G - bit_12_3 + prod_12_3 >= -1
 c3490: - G + prod_12_4 <= 0
 c3491: - bit_12_4 + prod_12_4 <= 0
 c3492: - G - bit_12_4 + prod_12_4 >= -1
 c3493: Y_13 - bit_13_0 - 2 bit_13_1 - 4 bit_13_2 - 8 bit_13_3 - 16 bit_13_4 = 0
 c3494: - prod_13_0 - 2 prod_13_1 - 4 prod_13_2 - 8 prod_13_3 - 16 prod_13_4 + zprod_13 = 0
 c3495: - G + prod_13_0 <= 0
 c3496: - bit_13_0 + prod_13_0 <= 0
 c3497: - G - bit_13_0 + prod_13_0 >= -1
 c3498: - G + prod_13_1 <= 0
 c3499: - bit_13_1 + prod_13_1 <= 0
 c3500: - G - bit_13_1 + prod_13_1 >= -1
 c3501: - G + prod_13_2 <= 0
 c3502: - bit_13_2 + prod_13_2 <= 0
 c3503: - G - bit_13_2 + prod_13_2 >= -1
 c3504: - G + prod_13_3 <= 0
 c3505: - bit_13_3 + prod_13_3 <= 0
 c3506: - G - bit_13_3 + prod_13_3 >= -1
 c3507: - G + prod_13_4 <= 0
 c3508: - bit_13_4 + prod_13_4 <= 0
 c3509: - G - bit_13_4 + prod_13_4 >= -1
 c3510: Y_14 - bit_14_0 - 2 bit_14_1 - 4 bit_14_2 - 8 bit_14_3 - 16 bit_14_4 = 0
 c3511: - prod_14_0 - 2 prod_14_1 - 4 prod_14_2 - 8 prod_14_3 - 16 prod_14_4 + zprod_14 = 0
 c3512: - G + prod_14_0 <= 0
 c3513: - bit_14_0 + prod_14_0 <= 0
 c3514: - G - bit_14_0 + prod_14_0 >= -1
 c3515: - G + prod_14_1 <= 0
 c3516: - bit_14_1 + prod_14_1 <= 0
 c3517: - G - bit_14_1 + prod_14_1 >= -1
 c3518: - G + prod_14_2 <= 0
 c3519: - bit_14_2 + prod_14_2 <= 0
 c3520: - G - bit_14_2 + prod_14_2 >= -1
 c3521: - G + prod_14_3 <= 0
 c3522: - bit_14_3 + prod_14_3 <= 0
 c3523: - G - bit_14_3 + prod_14_3 >= -1
 c3524: - G + prod_14_4 <= 0
 c3525: - bit_14_4 + prod_14_4 <= 0
 c3526: - G - bit_14_4 + prod_14_4 >= -1
 c3527: Y_15 - bit_15_0 - 2 bit_15_1 - 4 bit_15_2 - 8 bit_15_3 - 16 bit_15_4 = 0
 c3528: - prod_15_0 - 2 prod_15_1 - 4 prod_15_2 - 8 prod_15_3 - 16 prod_15_4 + zprod_15 = 0
 c3529: - G + prod_15_0 <= 0
 c3530: - bit_15_0 + prod_15_0 <= 0
 c3531: - G - bit_15_0 + prod_15_0 >= -1
 c3532: - G + prod_15_1 <= 0
 c3533: - bit_15_1 + prod_15_1 <= 0
 c3534: - G - bit_15_1 + prod_15_1 >= -1
 c3535: - G + prod_15_2 <= 0
 c3536: - bit_15_2 + prod_15_2 <= 0
 c3537: - G - bit_15_2 + prod_15_2 >= -1
 c3538: - G + prod_15_3 <= 0
 c3539: - bit_15_3 + prod_15_3 <= 0
 c3540: - G - bit_15_3 + prod_15_3 >= -1
 c3541: - G + prod_15_4 <= 0
 c3542: - bit_15_4 + prod_15_4 <= 0
 c3543: - G - bit_15_4 + prod_15_4 >= -1
 c3544: Y_16 - bit_16_0 - 2 bit_16_1 - 4 bit_16_2 - 8 bit_16_3 - 16 bit_16_4 = 0
 c3545: - prod_16_0 - 2 prod_16_1 - 4 prod_16_2 - 8 prod_16_3 - 16 prod_16_4 + zprod_16 = 0
 c3546: - G + prod_16_0 <= 0
 c3547: - bit_16_0 + prod_16_0 <= 0
 c3548: - G - bit_16_0 + prod_16_0 >= -1
 c3549: - G + prod_16_1 <= 0
 c3550: - bit_16_1 + prod_16_1 <= 0
 c3551: - G - bit_16_1 + prod_16_1 >= -1
 c3552: - G + prod_16_2 <= 0
 c3553: - bit_16_2 + prod_16_2 <= 0
 c3554: - G - bit_16_2 + prod_16_2 >= -1
 c3555: - G + prod_16_3 <= 0
 c3556: - bit_16_3 + prod_16_3 <= 0
 c3557: - G - bit_16_3 + prod_16_3 >= -1
 c3558: - G + prod_16_4 <= 0
 c3559: - bit_16_4 + prod_16_4 <= 0
 c3560: - G - bit_16_4 + prod_16_4 >= -1
 c3561: Y_17 - bit_17_0 - 2 bit_17_1 - 4 bit_17_2 - 8 bit_17_3 - 16 bit_17_4 = 0
 c3562: - prod_17_0 - 2 prod_17_1 - 4 prod_17_2 - 8 prod_17_3 - 16 prod_17_4 + zprod_17 = 0
 c3563: - G + prod_17_0 <= 0
 c3564: - bit_17_0 + prod_17_0 <= 0
 c3565: - G - bit_17_0 + prod_17_0 >= -1
 c3566: - G + prod_17_1 <= 0
 c3567: - bit_17_1 + prod_17_1 <= 0
 c3568: - G - bit_17_1 + prod_17_1 >= -1
 c3569: - G + prod_17_2 <= 0
 c3570: - bit_17_2 + prod_17_2 <= 0
 c3571: - G - bit_17_2 + prod_17_2 >= -1
 c3572: - G + prod_17_3 <= 0
 c3573: - bit_17_3 + prod_17_3 <= 0
 c3574: - G - bit_17_3 + prod_17_3 >= -1
 c3575: - G + prod_17_4 <= 0
 c3576: - bit_17_4 + prod_17_4 <= 0
 c3577: - G - bit_17_4 + prod_17_4 >= -1
 c3578: Y_18 - bit_18_0 - 2 bit_18_1 - 4 bit_18_2 - 8 bit_18_3 - 16 bit_18_4 = 0
 c3579: - prod_18_0 - 2 prod_18_1 - 4 prod_18_2 - 8 prod_18_3 - 16 prod_18_4 + zprod_18 = 0
 c3580: - G + prod_18_0 <= 0
 c3581: - bit_18_0 + prod_18_0 <= 0
 c3582: - G - bit_18_0 + prod_18_0 >= -1
 c3583: - G + prod_18_1 <= 0
 c3584: - bit_18_1 + prod_18_1 <= 0
 c3585: - G - bit_18_1 + prod_18_1 >= -1
 c3586: - G + prod_18_2 <= 0
 c3587: - bit_18_2 + prod_18_2 <= 0
 c3588: - G - bit_18_2 + prod_18_2 >= -1
 c3589: - G + prod_18_3 <= 0
 c3590: - bit_18_3 + prod_18_3 <= 0
 c3591: - G - bit_18_3 + prod_18_3 >= -1
 c3592: - G + prod_18_4 <= 0
 c3593: - bit_18_4 + prod_18_4 <= 0
 c3594: - G - bit_18_4 + prod_18_4 >= -1
 c3595: Y_19 - bit_19_0 - 2 bit_19_1 - 4 bit_19_2 - 8 bit_19_3 - 16 bit_19_4 = 0
 c3596: - prod_19_0 - 2 prod_19_1 - 4 prod_19_2 - 8 prod_19_3 - 16 prod_19_4 + zprod_19 = 0
 c3597: - G + prod_19_0 <= 0
 c3598: - bit_19_0 + prod_19_0 <= 0
 c3599: - G - bit_19_0 + prod_19_0 >= -1
 c3600: - G + prod_19_1 <= 0
 c3601: - bit_19_1 + prod_19_1 <= 0
 c3602: - G - bit_19_1 + prod_19_1 >= -1
 c3603: - G + prod_19_2 <= 0
 c3604: - bit_19_2 + prod_19_2 <= 0
 c3605: - G - bit_19_2 + prod_19_2 >= -1
 c3606: - G + prod_19_3 <= 0
 c3607: - bit_19_3 + prod_19_3 <= 0
 c3608: - G - bit_19_3 + prod_19_3 >= -1
 c3609: - G + prod_19_4 <= 0
 c3610: - bit_19_4 + prod_19_4 <= 0
 c3611: - G - bit_19_4 + prod_19_4 >= -1
 c3612: Y_20 - bit_20_0 - 2 bit_20_1 - 4 bit_20_2 - 8 bit_20_3 - 16 bit_20_4 = 0
 c3613: - prod_20_0 - 2 prod_20_1 - 4 prod_20_2 - 8 prod_20_3 - 16 prod_20_4 + zprod_20 = 0
 c3614: - G + prod_20_0 <= 0
 c3615: - bit_20_0 + prod_20_0 <= 0
 c3616: - G - bit_20_0 + prod_20_0 >= -1
 c3617: - G + prod_20_1 <= 0
 c3618: - bit_20_1 + prod_20_1 <= 0
 c3619: - G - bit_20_1 + prod_20_1 >= -1
 c3620: - G + prod_20_2 <= 0
 c3621: - bit_20_2 + prod_20_2 <= 0
 c3622: - G - bit_20_2 + prod_20_2 >= -1
 c3623: - G + prod_20_3 <= 0
 c3624: - bit_20_3 + prod_20_3 <= 0
 c3625: - G - bit_20_3 + prod_20_3 >= -1
 c3626: - G + prod_20_4 <= 0
 c3627: - bit_20_4 + prod_20_4 <= 0
 c3628: - G - bit_20_4 + prod_20_4 >= -1
 c3629: - h_10_11 - h_10_12 - h_10_13 - h_10_14 - h_10_15 - h_10_16 - h_10_17 - h_10_18 - h_10_19 - h_10_20 - h_11_12 - h_11_13 - h_11_14 - h_11_15 - h_11_16 - h_11_17 - h_11_18 - h_11_19 - h_11_20 - h_12_13 - h_12_14 - h_12_15 - h_12_16 - h_12_17 - h_12_18 - h_12_19 - h_12_20 - h_13_14 - h_13_15 - h_13_16 - h_13_17 - h_13_18 - h_13_19 - h_13_20 - h_14_15 - h_14_16 - h_14_17 - h_14_18 - h_14_19 - h_14_20 - h_15_16 - h_15_17 - h_15_18 - h_15_19 - h_15_20 - h_16_17 - h_16_18 - h_16_19 - h_16_20 - h_17_18 - h_17_19 - h_17_20 - h_18_19 - h_18_20 - h_19_20 - h_1_10 - h_1_11 - h_1_12 - h_1_13 - h_1_14 - h_1_15 - h_1_16 - h_1_17 - h_1_18 - h_1_19 - h_1_2 - h_1_20 - h_1_3 - h_1_4 - h_1_5 - h_1_6 - h_1_7 - h_1_8 - h_1_9 - h_2_10 - h_2_11 - h_2_12 - h_2_13 - h_2_14 - h_2_15 - h_2_16 - h_2_17 - h_2_18 - h_2_19 - h_2_20 - h_2_3 - h_2_4 - h_2_5 - h_2_6 - h_2_7 - h_2_8 - h_2_9 - h_3_10 - h_3_11 - h_3_12 - h_3_13 - h_3_14 - h_3_15 - h_3_16 - h_3_17 - h_3_18 - h_3_19 - h_3_20 - h_3_4 - h_3_5 - h_3_6 - h_3_7 - h_3_8 - h_3_9 - h_4_10 - h_4_11 - h_4_12 - h_4_13 - h_4_14 - h_4_15 - h_4_16 - h_4_17 - h_4_18 - h_4_19 - h_4_20 - h_4_5 - h_4_6 - h_4_7 - h_4_8 - h_4_9 - h_5_10 - h_5_11 - h_5_12 - h_5_13 - h_5_14 - h_5_15 - h_5_16 - h_5_17 - h_5_18 - h_5_19 - h_5_20 - h_5_6 - h_5_7 - h_5_8 - h_5_9 - h_6_10 - h_6_11 - h_6_12 - h_6_13 - h_6_14 - h_6_15 - h_6_16 - h_6_17 - h_6_18 - h_6_19 - h_6_20 - h_6_7 - h_6_8 - h_6_9 - h_7_10 - h_7_11 - h_7_12 - h_7_13 - h_7_14 - h_7_15 - h_7_16 - h_7_17 - h_7_18 - h_7_19 - h_7_20 - h_7_8 - h_7_9 - h_8_10 - h_8_11 - h_8_12 - h_8_13 - h_8_14 - h_8_15 - h_8_16 - h_8_17 - h_8_18 - h_8_19 - h_8_20 - h_8_9 - h_9_10 - h_9_11 - h_9_12 - h_9_13 - h_9_14 - h_9_15 - h_9_16 - h_9_17 - h_9_18 - h_9_19 - h_9_20 + 2 zprod_1 + 1.3333333333333333 zprod_10 + 2 zprod_11 + 1.4285714285714286 zprod_12 + 2.2222222222222223 zprod_13 + 1.6666666666666667 zprod_14 + 2.5 zprod_15 + 1.8181818181818181 zprod_16 + 1.8181818181818181 zprod_17 + 1.8181818181818181 zprod_18 + 1.8181818181818181 zprod_19 + 2.2222222222222223 zprod_2 + 1.8181818181818181 zprod_20 + 1.6666666666666667 zprod_3 + 1.8181818181818181 zprod_4 + 1.6666666666666667 zprod_5 + 1.6666666666666667 zprod_6 + 1.8181818181818181 zprod_7 + 1.8181818181818181 zprod_8 + 2 zprod_9 >= 0
Bounds
 0 <= G <= 1
 0 <= Y_1 <= 21
 0 <= Y_10 <= 30
 0 <= Y_11 <= 22
 0 <= Y_12 <= 27
 0 <= Y_13 <= 21
 0 <= Y_14 <= 22
 0 <= Y_15 <= 19
 0 <= Y_16 <= 24
 0 <= Y_17 <= 21
 0 <= Y_18 <= 24
 0 <= Y_19 <= 20
 0 <= Y_2 <= 20
 0 <= Y_20 <= 20
 0 <= Y_3 <= 23
 0 <= Y_4 <= 21
 0 <= Y_5 <= 23
 0 <= Y_6 <= 21
 0 <= Y_7 <= 23
 0 <= Y_8 <= 21
 0 <= Y_9 <= 19
 0 <= bit_10_0 <= 1
 0 <= bit_10_1 <= 1
 0 <= bit_10_2 <= 1
 0 <= bit_10_3 <= 1
 0 <= bit_10_4 <= 1
 0 <= bit_11_0 <= 1
 0 <= bit_11_1 <= 1
 0 <= bit_11_2 <= 1
 0 <= bit_11_3 <= 1
 0 <= bit_11_4 <= 1
 0 <= bit_12_0 <= 1
 0 <= bit_12_1 <= 1
 0 <= bit_12_2 <= 1
 0 <= bit_12_3 <= 1
 0 <= bit_12_4 <= 1
 0 <= bit_13_0 <= 1
 0 <= bit_13_1 <= 1
 0 <= bit_13_2 <= 1
 0 <= bit_13_3 <= 1
 0 <= bit_13_4 <= 1
 0 <= bit_14_0 <= 1
 0 <= bit_14_1 <= 1
 0 <= bit_14_2 <= 1
 0 <= bit_14_3 <= 1
 0 <= bit_14_4 <= 1
 0 <= bit_15_0 <= 1
 0 <= bit_15_1 <= 1
 0 <= bit_15_2 <= 1
 0 <= bit_15_3 <= 1
 0 <= bit_15_4 <= 1
 0 <= bit_16_0 <= 1
 0 <= bit_16_1 <= 1
 0 <= bit_16_2 <= 1
 0 <= bit_16_3 <= 1
 0 <= bit_16_4 <= 1
 0 <= bit_17_0 <= 1
 0 <= bit_17_1 <= 1
 0 <= bit_17_2 <= 1
 0 <= bit_17_3 <= 1
 0 <= bit_17_4 <= 1
 0 <= bit_18_0 <= 1
 0 <= bit_18_1 <= 1
 0 <= bit_18_2 <= 1
 0 <= bit_18_3 <= 1
 0 <= bit_18_4 <= 1
 0 <= bit_19_0 <= 1
 0 <= bit_19_1 <= 1
 0 <= bit_19_2 <= 1
 0 <= bit_19_3 <= 1
 0 <= bit_19_4 <= 1
 0 <= bit_1_0 <= 1
 0 <= bit_1_1 <= 1
 0 <= bit_1_2 <= 1
 0 <= bit_1_3 <= 1
 0 <= bit_1_4 <= 1
 0 <= bit_20_0 <= 1
 0 <= bit_20_1 <= 1
 0 <= bit_20_2 <= 1
 0 <= bit_20_3 <= 1
 0 <= bit_20_4 <= 1
 0 <= bit_2_0 <= 1
 0 <= bit_2_1 <= 1
 0 <= bit_2_2 <= 1
 0 <= bit_2_3 <= 1
 0 <= bit_2_4 <= 1
 0 <= bit_3_0 <= 1
 0 <= bit_3_1 <= 1
 0 <= bit_3_2 <= 1
 0 <= bit_3_3 <= 1
 0 <= bit_3_4 <= 1
 0 <= bit_4_0 <= 1
 0 <= bit_4_1 <= 1
 0 <= bit_4_2 <= 1
 0 <= bit_4_3 <= 1
 0 <= bit_4_4 <= 1
 0 <= bit_5_0 <= 1
 0 <= bit_5_1 <= 1
 0 <= bit_5_2 <= 1
 0 <= bit_5_3 <= 1
 0 <= bit_5_4 <= 1
 0 <= bit_6_0 <= 1
 0 <= bit_6_1 <= 1
 0 <= bit_6_2 <= 1
 0 <= bit_6_3 <= 1
 0 <= bit_6_4 <= 1
 0 <= bit_7_0 <= 1
 0 <= bit_7_1 <= 1
 0 <= bit_7_2 <= 1
 0 <= bit_7_3 <= 1
 0 <= bit_7_4 <= 1
 0 <= bit_8_0 <= 1
 0 <= bit_8_1 <= 1
 0 <= bit_8_2 <= 1
 0 <= bit_8_3 <= 1
 0 <= bit_8_4 <= 1
 0 <= bit_9_0 <= 1
 0 <= bit_9_1 <= 1
 0 <= bit_9_2 <= 1
 0 <= bit_9_3 <= 1
 0 <= bit_9_4 <= 1
 0 <= d_0_1 <= 19
 0 <= d_0_10 <= 8
 0 <= d_0_11 <= 20
 0 <= d_0_12 <= 7
 0 <= d_0_13 <= 7
 0 <= d_0_14 <= 18
 0 <= d_0_15 <= 7
 0 <= d_0_16 <= 20
 0 <= d_0_17 <= 5
 0 <= d_0_18 <= 8
 0 <= d_0_19 <= 16
 0 <= d_0_2 <= 6
 0 <= d_0_20 <= 16
 0 <= d_0_3 <= 19
 0 <= d_0_4 <= 5
 0 <= d_0_5 <= 19
 0 <= d_0_6 <= 4
 0 <= d_0_7 <= 7
 0 <= d_0_8 <= 18
 0 <= d_0_9 <= 16
 0 <= d_1_1 <= 19
 0 <= d_1_10 <= 8
 0 <= d_1_11 <= 20
 0 <= d_1_12 <= 7
 0 <= d_1_13 <= 7
 0 <= d_1_14 <= 18
 0 <= d_1_15 <= 7
 0 <= d_1_16 <= 20
 0 <= d_1_17 <= 5
 0 <= d_1_18 <= 8
 0 <= d_1_19 <= 16
 0 <= d_1_2 <= 6
 0 <= d_1_20 <= 16
 0 <= d_1_3 <= 19
 0 <= d_1_4 <= 5
 0 <= d_1_5 <= 19
 0 <= d_1_6 <= 4
 0 <= d_1_7 <= 7
 0 <= d_1_8 <= 18
 0 <= d_1_9 <= 16
 0 <= e_1 <= 1.1000000000000001
 0 <= e_10 <= 1
 0 <= e_11 <= 1.2000000000000002
 0 <= e_12 <= 1
 0 <= e_13 <= 1.3333333333333335
 0 <= e_14 <= 1
 0 <= e_15 <= 1.375
 0 <= e_16 <= 1.1818181818181817
 0 <= e_17 <= 1
 0 <= e_18 <= 1.1818181818181817
 0 <= e_19 <= 1
 0 <= e_2 <= 1.2222222222222223
 0 <= e_20 <= 1
 0 <= e_3 <= 1
 0 <= e_4 <= 1
 0 <= e_5 <= 1
 0 <= e_6 <= 1
 0 <= e_7 <= 1.0909090909090908
 0 <= e_8 <= 1
 0 <= e_9 <= 1
 0 <= h_10_11 <= 4.2000000000000002
 0 <= h_10_12 <= 3.9285714285714288
 0 <= h_10_13 <= 4.3333333333333339
 0 <= h_10_14 <= 3.833333333333333
 0 <= h_10_15 <= 4.375
 0 <= h_10_16 <= 4.1818181818181817
 0 <= h_10_17 <= 3.9090909090909092
 0 <= h_10_18 <= 4.1818181818181817
 0 <= h_10_19 <= 3.8181818181818183
 0 <= h_10_20 <= 3.8181818181818183
 0 <= h_11_12 <= 4.128571428571429
 0 <= h_11_13 <= 4.5333333333333332
 0 <= h_11_14 <= 4.0333333333333332
 0 <= h_11_15 <= 4.5750000000000002
 0 <= h_11_16 <= 4.3818181818181818
 0 <= h_11_17 <= 4.1090909090909093
 0 <= h_11_18 <= 4.3818181818181818
 0 <= h_11_19 <= 4.0181818181818185
 0 <= h_11_20 <= 4.0181818181818185
 0 <= h_12_13 <= 4.2619047619047619
 0 <= h_12_14 <= 3.7619047619047619
 0 <= h_12_15 <= 4.3035714285714288
 0 <= h_12_16 <= 4.1103896103896105
 0 <= h_12_17 <= 3.837662337662338
 0 <= h_12_18 <= 4.1103896103896105
 0 <= h_12_19 <= 3.7467532467532467
 0 <= h_12_20 <= 3.7467532467532467
 0 <= h_13_14 <= 4.166666666666667
 0 <= h_13_15 <= 4.7083333333333339
 0 <= h_13_16 <= 4.5151515151515156
 0 <= h_13_17 <= 4.2424242424242422
 0 <= h_13_18 <= 4.5151515151515156
 0 <= h_13_19 <= 4.1515151515151514
 0 <= h_13_20 <= 4.1515151515151514
 0 <= h_14_15 <= 4.208333333333333
 0 <= h_14_16 <= 4.0151515151515147
 0 <= h_14_17 <= 3.7424242424242422
 0 <= h_14_18 <= 4.0151515151515147
 0 <= h_14_19 <= 3.6515151515151514
 0 <= h_14_20 <= 3.6515151515151514
 0 <= h_15_16 <= 4.5568181818181817
 0 <= h_15_17 <= 4.2840909090909092
 0 <= h_15_18 <= 4.5568181818181817
 0 <= h_15_19 <= 4.1931818181818183
 0 <= h_15_20 <= 4.1931818181818183
 0 <= h_16_17 <= 4.0909090909090908
 0 <= h_16_18 <= 4.3636363636363633
 0 <= h_16_19 <= 4
 0 <= h_16_20 <= 4
 0 <= h_17_18 <= 4.0909090909090908
 0 <= h_17_19 <= 3.7272727272727275
 0 <= h_17_20 <= 3.7272727272727275
 0 <= h_18_19 <= 4
 0 <= h_18_20 <= 4
 0 <= h_19_20 <= 3.6363636363636362
 0 <= h_1_10 <= 4.0999999999999996
 0 <= h_1_11 <= 4.3000000000000007
 0 <= h_1_12 <= 4.0285714285714285
 0 <= h_1_13 <= 4.4333333333333336
 0 <= h_1_14 <= 3.9333333333333336
 0 <= h_1_15 <= 4.4749999999999996
 0 <= h_1_16 <= 4.2818181818181813
 0 <= h_1_17 <= 4.0090909090909097
 0 <= h_1_18 <= 4.2818181818181813
 0 <= h_1_19 <= 3.918181818181818
 0 <= h_1_2 <= 4.3222222222222229
 0 <= h_1_20 <= 3.918181818181818
 0 <= h_1_3 <= 4.0166666666666666
 0 <= h_1_4 <= 4.0090909090909097
 0 <= h_1_5 <= 4.0166666666666666
 0 <= h_1_6 <= 3.8500000000000001
 0 <= h_1_7 <= 4.1909090909090914
 0 <= h_1_8 <= 4.0090909090909097
 0 <= h_1_9 <= 4
 0 <= h_2_10 <= 4.2222222222222223
 0 <= h_2_11 <= 4.4222222222222225
 0 <= h_2_12 <= 4.1507936507936511
 0 <= h_2_13 <= 4.5555555555555554
 0 <= h_2_14 <= 4.0555555555555554
 0 <= h_2_15 <= 4.5972222222222223
 0 <= h_2_16 <= 4.404040404040404
 0 <= h_2_17 <= 4.1313131313131315
 0 <= h_2_18 <= 4.404040404040404
 0 <= h_2_19 <= 4.0404040404040407
 0 <= h_2_20 <= 4.0404040404040407
 0 <= h_2_3 <= 4.1388888888888893
 0 <= h_2_4 <= 4.1313131313131315
 0 <= h_2_5 <= 4.1388888888888893
 0 <= h_2_6 <= 3.9722222222222223
 0 <= h_2_7 <= 4.3131313131313131
 0 <= h_2_8 <= 4.1313131313131315
 0 <= h_2_9 <= 4.1222222222222218
 0 <= h_3_10 <= 3.916666666666667
 0 <= h_3_11 <= 4.1166666666666671
 0 <= h_3_12 <= 3.8452380952380953
 0 <= h_3_13 <= 4.25
 0 <= h_3_14 <= 3.75
 0 <= h_3_15 <= 4.291666666666667
 0 <= h_3_16 <= 4.0984848484848486
 0 <= h_3_17 <= 3.8257575757575761
 0 <= h_3_18 <= 4.0984848484848486
 0 <= h_3_19 <= 3.7348484848484849
 0 <= h_3_20 <= 3.7348484848484849
 0 <= h_3_4 <= 3.8257575757575761
 0 <= h_3_5 <= 3.8333333333333335
 0 <= h_3_6 <= 3.666666666666667
 0 <= h_3_7 <= 4.0075757575757578
 0 <= h_3_8 <= 3.8257575757575761
 0 <= h_3_9 <= 3.8166666666666664
 0 <= h_4_10 <= 3.9090909090909092
 0 <= h_4_11 <= 4.1090909090909093
 0 <= h_4_12 <= 3.837662337662338
 0 <= h_4_13 <= 4.2424242424242422
 0 <= h_4_14 <= 3.7424242424242422
 0 <= h_4_15 <= 4.2840909090909092
 0 <= h_4_16 <= 4.0909090909090908
 0 <= h_4_17 <= 3.8181818181818183
 0 <= h_4_18 <= 4.0909090909090908
 0 <= h_4_19 <= 3.7272727272727275
 0 <= h_4_20 <= 3.7272727272727275
 0 <= h_4_5 <= 3.8257575757575761
 0 <= h_4_6 <= 3.6590909090909092
 0 <= h_4_7 <= 4
 0 <= h_4_8 <= 3.8181818181818183
 0 <= h_4_9 <= 3.8090909090909091
 0 <= h_5_10 <= 3.916666666666667
 0 <= h_5_11 <= 4.1166666666666671
 0 <= h_5_12 <= 3.8452380952380953
 0 <= h_5_13 <= 4.25
 0 <= h_5_14 <= 3.75
 0 <= h_5_15 <= 4.291666666666667
 0 <= h_5_16 <= 4.0984848484848486
 0 <= h_5_17 <= 3.8257575757575761
 0 <= h_5_18 <= 4.0984848484848486
 0 <= h_5_19 <= 3.7348484848484849
 0 <= h_5_20 <= 3.7348484848484849
 0 <= h_5_6 <= 3.666666666666667
 0 <= h_5_7 <= 4.0075757575757578
 0 <= h_5_8 <= 3.8257575757575761
 0 <= h_5_9 <= 3.8166666666666664
 0 <= h_6_10 <= 3.75
 0 <= h_6_11 <= 3.9500000000000002
 0 <= h_6_12 <= 3.6785714285714288
 0 <= h_6_13 <= 4.0833333333333339
 0 <= h_6_14 <= 3.583333333333333
 0 <= h_6_15 <= 4.125
 0 <= h_6_16 <= 3.9318181818181817
 0 <= h_6_17 <= 3.6590909090909092
 0 <= h_6_18 <= 3.9318181818181817
 0 <= h_6_19 <= 3.5681818181818183
 0 <= h_6_20 <= 3.5681818181818183
 0 <= h_6_7 <= 3.8409090909090908
 0 <= h_6_8 <= 3.6590909090909092
 0 <= h_6_9 <= 3.6499999999999999
 0 <= h_7_10 <= 4.0909090909090908
 0 <= h_7_11 <= 4.290909090909091
 0 <= h_7_12 <= 4.0194805194805197
 0 <= h_7_13 <= 4.4242424242424239
 0 <= h_7_14 <= 3.9242424242424239
 0 <= h_7_15 <= 4.4659090909090908
 0 <= h_7_16 <= 4.2727272727272725
 0 <= h_7_17 <= 4
 0 <= h_7_18 <= 4.2727272727272725
 0 <= h_7_19 <= 3.9090909090909092
 0 <= h_7_20 <= 3.9090909090909092
 0 <= h_7_8 <= 4
 0 <= h_7_9 <= 3.9909090909090907
 0 <= h_8_10 <= 3.9090909090909092
 0 <= h_8_11 <= 4.1090909090909093
 0 <= h_8_12 <= 3.837662337662338
 0 <= h_8_13 <= 4.2424242424242422
 0 <= h_8_14 <= 3.7424242424242422
 0 <= h_8_15 <= 4.2840909090909092
 0 <= h_8_16 <= 4.0909090909090908
 0 <= h_8_17 <= 3.8181818181818183
 0 <= h_8_18 <= 4.0909090909090908
 0 <= h_8_19 <= 3.7272727272727275
 0 <= h_8_20 <= 3.7272727272727275
 0 <= h_8_9 <= 3.8090909090909091
 0 <= h_9_10 <= 3.8999999999999999
 0 <= h_9_11 <= 4.0999999999999996
 0 <= h_9_12 <= 3.8285714285714283
 0 <= h_9_13 <= 4.2333333333333334
 0 <= h_9_14 <= 3.7333333333333334
 0 <= h_9_15 <= 4.2750000000000004
 0 <= h_9_16 <= 4.081818181818182
 0 <= h_9_17 <= 3.8090909090909091
 0 <= h_9_18 <= 4.081818181818182
 0 <= h_9_19 <= 3.7181818181818178
 0 <= h_9_20 <= 3.7181818181818178
 0 <= load_0_1 <= 20
 0 <= load_0_10 <= 20
 0 <= load_0_11 <= 20
 0 <= load_0_12 <= 20
 0 <= load_0_13 <= 20
 0 <= load_0_14 <= 20
 0 <= load_0_15 <= 20
 0 <= load_0_16 <= 20
 0 <= load_0_17 <= 20
 0 <= load_0_18 <= 20
 0 <= load_0_19 <= 20
 0 <= load_0_2 <= 20
 0 <= load_0_20 <= 20
 0 <= load_0_3 <= 20
 0 <= load_0_4 <= 20
 0 <= load_0_5 <= 20
 0 <= load_0_6 <= 20
 0 <= load_0_7 <= 20
 0 <= load_0_8 <= 20
 0 <= load_0_9 <= 20
 0 <= load_1_1 <= 20
 0 <= load_1_10 <= 20
 0 <= load_1_11 <= 20
 0 <= load_1_12 <= 20
 0 <= load_1_13 <= 20
 0 <= load_1_14 <= 20
 0 <= load_1_15 <= 20
 0 <= load_1_16 <= 20
 0 <= load_1_17 <= 20
 0 <= load_1_18 <= 20
 0 <= load_1_19 <= 20
 0 <= load_1_2 <= 20
 0 <= load_1_20 <= 20
 0 <= load_1_3 <= 20
 0 <= load_1_4 <= 20
 0 <= load_1_5 <= 20
 0 <= load_1_6 <= 20
 0 <= load_1_7 <= 20
 0 <= load_1_8 <= 20
 0 <= load_1_9 <= 20
 0 <= mode_0_1 <= 1
 0 <= mode_0_10 <= 1
 0 <= mode_0_11 <= 1
 0 <= mode_0_12 <= 1
 0 <= mode_0_13 <= 1
 0 <= mode_0_14 <= 1
 0 <= mode_0_15 <= 1
 0 <= mode_0_16 <= 1
 0 <= mode_0_17 <= 1
 0 <= mode_0_18 <= 1
 0 <= mode_0_19 <= 1
 0 <= mode_0_2 <= 1
 0 <= mode_0_20 <= 1
 0 <= mode_0_3 <= 1
 0 <= mode_0_4 <= 1
 0 <= mode_0_5 <= 1
 0 <= mode_0_6 <= 1
 0 <= mode_0_7 <= 1
 0 <= mode_0_8 <= 1
 0 <= mode_0_9 <= 1
 0 <= mode_1_1 <= 1
 0 <= mode_1_10 <= 1
 0 <= mode_1_11 <= 1
 0 <= mode_1_12 <= 1
 0 <= mode_1_13 <= 1
 0 <= mode_1_14 <= 1
 0 <= mode_1_15 <= 1
 0 <= mode_1_16 <= 1
 0 <= mode_1_17 <= 1
 0 <= mode_1_18 <= 1
 0 <= mode_1_19 <= 1
 0 <= mode_1_2 <= 1
 0 <= mode_1_20 <= 1
 0 <= mode_1_3 <= 1
 0 <= mode_1_4 <= 1
 0 <= mode_1_5 <= 1
 0 <= mode_1_6 <= 1
 0 <= mode_1_7 <= 1
 0 <= mode_1_8 <= 1
 0 <= mode_1_9 <= 1
 0 <= ord_0_1 <= 20
 0 <= ord_0_10 <= 20
 0 <= ord_0_11 <= 20
 0 <= ord_0_12 <= 20
 0 <= ord_0_13 <= 20
 0 <= ord_0_14 <= 20
 0 <= ord_0_15 <= 20
 0 <= ord_0_16 <= 20
 0 <= ord_0_17 <= 20
 0 <= ord_0_18 <= 20
 0 <= ord_0_19 <= 20
 0 <= ord_0_2 <= 20
 0 <= ord_0_20 <= 20
 0 <= ord_0_3 <= 20
 0 <= ord_0_4 <= 20
 0 <= ord_0_5 <= 20
 0 <= ord_0_6 <= 20
 0 <= ord_0_7 <= 20
 0 <= ord_0_8 <= 20
 0 <= ord_0_9 <= 20
 0 <= ord_1_1 <= 20
 0 <= ord_1_10 <= 20
 0 <= ord_1_11 <= 20
 0 <= ord_1_12 <= 20
 0 <= ord_1_13 <= 20
 0 <= ord_1_14 <= 20
 0 <= ord_1_15 <= 20
 0 <= ord_1_16 <= 20
 0 <= ord_1_17 <= 20
 0 <= ord_1_18 <= 20
 0 <= ord_1_19 <= 20
 0 <= ord_1_2 <= 20
 0 <= ord_1_20 <= 20
 0 <= ord_1_3 <= 20
 0 <= ord_1_4 <= 20
 0 <= ord_1_5 <= 20
 0 <= ord_1_6 <= 20
 0 <= ord_1_7 <= 20
 0 <= ord_1_8 <= 20
 0 <= ord_1_9 <= 20
 0 <= p_0_1 <= 2
 0 <= p_0_10 <= 20
 0 <= p_0_11 <= 1
 0 <= p_0_12 <= 20
 0 <= p_0_13 <= 14
 0 <= p_0_14 <= 4
 0 <= p_0_15 <= 12
 0 <= p_0_16 <= 2
 0 <= p_0_17 <= 16
 0 <= p_0_18 <= 16
 0 <= p_0_19 <= 4
 0 <= p_0_2 <= 14
 0 <= p_0_20 <= 4
 0 <= p_0_3 <= 4
 0 <= p_0_4 <= 16
 0 <= p_0_5 <= 4
 0 <= p_0_6 <= 17
 0 <= p_0_7 <= 16
 0 <= p_0_8 <= 3
 0 <= p_0_9 <= 3
 0 <= p_1_1 <= 2
 0 <= p_1_10 <= 20
 0 <= p_1_11 <= 1
 0 <= p_1_12 <= 20
 0 <= p_1_13 <= 14
 0 <= p_1_14 <= 4
 0 <= p_1_15 <= 12
 0 <= p_1_16 <= 2
 0 <= p_1_17 <= 16
 0 <= p_1_18 <= 16
 0 <= p_1_19 <= 4
 0 <= p_1_2 <= 14
 0 <= p_1_20 <= 4
 0 <= p_1_3 <= 4
 0 <= p_1_4 <= 16
 0 <= p_1_5 <= 4
 0 <= p_1_6 <= 17
 0 <= p_1_7 <= 16
 0 <= p_1_8 <= 3
 0 <= p_1_9 <= 3
 0 <= prod_10_0 <= 1
 0 <= prod_10_1 <= 1
 0 <= prod_10_2 <= 1
 0 <= prod_10_3 <= 1
 0 <= prod_10_4 <= 1
 0 <= prod_11_0 <= 1
 0 <= prod_11_1 <= 1
 0 <= prod_11_2 <= 1
 0 <= prod_11_3 <= 1
 0 <= prod_11_4 <= 1
 0 <= prod_12_0 <= 1
 0 <= prod_12_1 <= 1
 0 <= prod_12_2 <= 1
 0 <= prod_12_3 <= 1
 0 <= prod_12_4 <= 1
 0 <= prod_13_0 <= 1
 0 <= prod_13_1 <= 1
 0 <= prod_13_2 <= 1
 0 <= prod_13_3 <= 1
 0 <= prod_13_4 <= 1
 0 <= prod_14_0 <= 1
 0 <= prod_14_1 <= 1
 0 <= prod_14_2 <= 1
 0 <= prod_14_3 <= 1
 0 <= prod_14_4 <= 1
 0 <= prod_15_0 <= 1
 0 <= prod_15_1 <= 1
 0 <= prod_15_2 <= 1
 0 <= prod_15_3 <= 1
 0 <= prod_15_4 <= 1
 0 <= prod_16_0 <= 1
 0 <= prod_16_1 <= 1
 0 <= prod_16_2 <= 1
 0 <= prod_16_3 <= 1
 0 <= prod_16_4 <= 1
 0 <= prod_17_0 <= 1
 0 <= prod_17_1 <= 1
 0 <= prod_17_2 <= 1
 0 <= prod_17_3 <= 1
 0 <= prod_17_4 <= 1
 0 <= prod_18_0 <= 1
 0 <= prod_18_1 <= 1
 0 <= prod_18_2 <= 1
 0 <= prod_18_3 <= 1
 0 <= prod_18_4 <= 1
 0 <= prod_19_0 <= 1
 0 <= prod_19_1 <= 1
 0 <= prod_19_2 <= 1
 0 <= prod_19_3 <= 1
 0 <= prod_19_4 <= 1
 0 <= prod_1_0 <= 1
 0 <= prod_1_1 <= 1
 0 <= prod_1_2 <= 1
 0 <= prod_1_3 <= 1
 0 <= prod_1_4 <= 1
 0 <= prod_20_0 <= 1
 0 <= prod_20_1 <= 1
 0 <= prod_20_2 <= 1
 0 <= prod_20_3 <= 1
 0 <= prod_20_4 <= 1
 0 <= prod_2_0 <= 1
 0 <= prod_2_1 <= 1
 0 <= prod_2_2 <= 1
 0 <= prod_2_3 <= 1
 0 <= prod_2_4 <= 1
 0 <= prod_3_0 <= 1
 0 <= prod_3_1 <= 1
 0 <= prod_3_2 <= 1
 0 <= prod_3_3 <= 1
 0 <= prod_3_4 <= 1
 0 <= prod_4_0 <= 1
 0 <= prod_4_1 <= 1
 0 <= prod_4_2 <= 1
 0 <= prod_4_3 <= 1
 0 <= prod_4_4 <= 1
 0 <= prod_5_0 <= 1
 0 <= prod_5_1 <= 1
 0 <= prod_5_2 <= 1
 0 <= prod_5_3 <= 1
 0 <= prod_5_4 <= 1
 0 <= prod_6_0 <= 1
 0 <= prod_6_1 <= 1
 0 <= prod_6_2 <= 1
 0 <= prod_6_3 <= 1
 0 <= prod_6_4 <= 1
 0 <= prod_7_0 <= 1
 0 <= prod_7_1 <= 1
 0 <= prod_7_2 <= 1
 0 <= prod_7_3 <= 1
 0 <= prod_7_4 <= 1
 0 <= prod_8_0 <= 1
 0 <= prod_8_1 <= 1
 0 <= prod_8_2 <= 1
 0 <= prod_8_3 <= 1
 0 <= prod_8_4 <= 1
 0 <= prod_9_0 <= 1
 0 <= prod_9_1 <= 1
 0 <= prod_9_2 <= 1
 0 <= prod_9_3 <= 1
 0 <= prod_9_4 <= 1
 0 <= r_1 <= 2.1000000000000001
 0 <= r_10 <= 2
 0 <= r_11 <= 2.2000000000000002
 0 <= r_12 <= 1.9285714285714286
 0 <= r_13 <= 2.3333333333333335
 0 <= r_14 <= 1.8333333333333333
 0 <= r_15 <= 2.375
 0 <= r_16 <= 2.1818181818181817
 0 <= r_17 <= 1.9090909090909092
 0 <= r_18 <= 2.1818181818181817
 0 <= r_19 <= 1.8181818181818181
 0 <= r_2 <= 2.2222222222222223
 0 <= r_20 <= 1.8181818181818181
 0 <= r_3 <= 1.9166666666666667
 0 <= r_4 <= 1.9090909090909092
 0 <= r_5 <= 1.9166666666666667
 0 <= r_6 <= 1.75
 0 <= r_7 <= 2.0909090909090908
 0 <= r_8 <= 1.9090909090909092
 0 <= r_9 <= 1.8999999999999999
 0 <= x_0_0_1 <= 1
 0 <= x_0_0_10 <= 1
 0 <= x_0_0_11 <= 1
 0 <= x_0_0_12 <= 1
 0 <= x_0_0_13 <= 1
 0 <= x_0_0_14 <= 1
 0 <= x_0_0_15 <= 1
 0 <= x_0_0_16 <= 1
 0 <= x_0_0_17 <= 1
 0 <= x_0_0_18 <= 1
 0 <= x_0_0_19 <= 1
 0 <= x_0_0_2 <= 1
 0 <= x_0_0_20 <= 1
 0 <= x_0_0_3 <= 1
 0 <= x_0_0_4 <= 1
 0 <= x_0_0_5 <= 1
 0 <= x_0_0_6 <= 1
 0 <= x_0_0_7 <= 1
 0 <= x_0_0_8 <= 1
 0 <= x_0_0_9 <= 1
 0 <= x_0_10_0 <= 1
 0 <= x_0_10_1 <= 1
 0 <= x_0_10_11 <= 1
 0 <= x_0_10_12 <= 1
 0 <= x_0_10_13 <= 1
 0 <= x_0_10_14 <= 1
 0 <= x_0_10_15 <= 1
 0 <= x_0_10_16 <= 1
 0 <= x_0_10_17 <= 1
 0 <= x_0_10_18 <= 1
 0 <= x_0_10_19 <= 1
 0 <= x_0_10_2 <= 1
 0 <= x_0_10_20 <= 1
 0 <= x_0_10_3 <= 1
 0 <= x_0_10_4 <= 1
 0 <= x_0_10_5 <= 1
 0 <= x_0_10_6 <= 1
 0 <= x_0_10_7 <= 1
 0 <= x_0_10_8 <= 1
 0 <= x_0_10_9 <= 1
 0 <= x_0_11_0 <= 1
 0 <= x_0_11_1 <= 1
 0 <= x_0_11_10 <= 1
 0 <= x_0_11_12 <= 1
 0 <= x_0_11_13 <= 1
 0 <= x_0_11_14 <= 1
 0 <= x_0_11_15 <= 1
 0 <= x_0_11_16 <= 1
 0 <= x_0_11_17 <= 1
 0 <= x_0_11_18 <= 1
 0 <= x_0_11_19 <= 1
 0 <= x_0_11_2 <= 1
 0 <= x_0_11_20 <= 1
 0 <= x_0_11_3 <= 1
 0 <= x_0_11_4 <= 1
 0 <= x_0_11_5 <= 1
 0 <= x_0_11_6 <= 1
 0 <= x_0_11_7 <= 1
 0 <= x_0_11_8 <= 1
 0 <= x_0_11_9 <= 1
 0 <= x_0_12_0 <= 1
 0 <= x_0_12_1 <= 1
 0 <= x_0_12_10 <= 1
 0 <= x_0_12_11 <= 1
 0 <= x_0_12_13 <= 1
 0 <= x_0_12_14 <= 1
 0 <= x_0_12_15 <= 1
 0 <= x_0_12_16 <= 1
 0 <= x_0_12_17 <= 1
 0 <= x_0_12_18 <= 1
 0 <= x_0_12_19 <= 1
 0 <= x_0_12_2 <= 1
 0 <= x_0_12_20 <= 1
 0 <= x_0_12_3 <= 1
 0 <= x_0_12_4 <= 1
 0 <= x_0_12_5 <= 1
 0 <= x_0_12_6 <= 1
 0 <= x_0_12_7 <= 1
 0 <= x_0_12_8 <= 1
 0 <= x_0_12_9 <= 1
 0 <= x_0_13_0 <= 1
 0 <= x_0_13_1 <= 1
 0 <= x_0_13_10 <= 1
 0 <= x_0_13_11 <= 1
 0 <= x_0_13_12 <= 1
 0 <= x_0_13_14 <= 1
 0 <= x_0_13_15 <= 1
 0 <= x_0_13_16 <= 1
 0 <= x_0_13_17 <= 1
 0 <= x_0_13_18 <= 1
 0 <= x_0_13_19 <= 1
 0 <= x_0_13_2 <= 1
 0 <= x_0_13_20 <= 1
 0 <= x_0_13_3 <= 1
 0 <= x_0_13_4 <= 1
 0 <= x_0_13_5 <= 1
 0 <= x_0_13_6 <= 1
 0 <= x_0_13_7 <= 1
 0 <= x_0_13_8 <= 1
 0 <= x_0_13_9 <= 1
 0 <= x_0_14_0 <= 1
 0 <= x_0_14_1 <= 1
 0 <= x_0_14_10 <= 1
 0 <= x_0_14_11 <= 1
 0 <= x_0_14_12 <= 1
 0 <= x_0_14_13 <= 1
 0 <= x_0_14_15 <= 1
 0 <= x_0_14_16 <= 1
 0 <= x_0_14_17 <= 1
 0 <= x_0_14_18 <= 1
 0 <= x_0_14_19 <= 1
 0 <= x_0_14_2 <= 1
 0 <= x_0_14_20 <= 1
 0 <= x_0_14_3 <= 1
 0 <= x_0_14_4 <= 1
 0 <= x_0_14_5 <= 1
 0 <= x_0_14_6 <= 1
 0 <= x_0_14_7 <= 1
 0 <= x_0_14_8 <= 1
 0 <= x_0_14_9 <= 1
 0 <= x_0_15_0 <= 1
 0 <= x_0_15_1 <= 1
 0 <= x_0_15_10 <= 1
 0 <= x_0_15_11 <= 1
 0 <= x_0_15_12 <= 1
 0 <= x_0_15_13 <= 1
 0 <= x_0_15_14 <= 1
 0 <= x_0_15_16 <= 1
 0 <= x_0_15_17 <= 1
 0 <= x_0_15_18 <= 1
 0 <= x_0_15_19 <= 1
 0 <= x_0_15_2 <= 1
 0 <= x_0_15_20 <= 1
 0 <= x_0_15_3 <= 1
 0 <= x_0_15_4 <= 1
 0 <= x_0_15_5 <= 1
 0 <= x_0_15_6 <= 1
 0 <= x_0_15_7 <= 1
 0 <= x_0_15_8 <= 1
 0 <= x_0_15_9 <= 1
 0 <= x_0_16_0 <= 1
 0 <= x_0_16_1 <= 1
 0 <= x_0_16_10 <= 1
 0 <= x_0_16_11 <= 1
 0 <= x_0_16_12 <= 1
 0 <= x_0_16_13 <= 1
 0 <= x_0_16_14 <= 1
 0 <= x_0_16_15 <= 1
 0 <= x_0_16_17 <= 1
 0 <= x_0_16_18 <= 1
 0 <= x_0_16_19 <= 1
 0 <= x_0_16_2 <= 1
 0 <= x_0_16_20 <= 1
 0 <= x_0_16_3 <= 1
 0 <= x_0_16_4 <= 1
 0 <= x_0_16_5 <= 1
 0 <= x_0_16_6 <= 1
 0 <= x_0_16_7 <= 1
 0 <= x_0_16_8 <= 1
 0 <= x_0_16_9 <= 1
 0 <= x_0_17_0 <= 1
 0 <= x_0_17_1 <= 1
 0 <= x_0_17_10 <= 1
 0 <= x_0_17_11 <= 1
 0 <= x_0_17_12 <= 1
 0 <= x_0_17_13 <= 1
 0 <= x_0_17_14 <= 1
 0 <= x_0_17_15 <= 1
 0 <= x_0_17_16 <= 1
 0 <= x_0_17_18 <= 1
 0 <= x_0_17_19 <= 1
 0 <= x_0_17_2 <= 1
 0 <= x_0_17_20 <= 1
 0 <= x_0_17_3 <= 1
 0 <= x_0_17_4 <= 1
 0 <= x_0_17_5 <= 1
 0 <= x_0_17_6 <= 1
 0 <= x_0_17_7 <= 1
 0 <= x_0_17_8 <= 1
 0 <= x_0_17_9 <= 1
 0 <= x_0_18_0 <= 1
 0 <= x_0_18_1 <= 1
 0 <= x_0_18_10 <= 1
 0 <= x_0_18_11 <= 1
 0 <= x_0_18_12 <= 1
 0 <= x_0_18_13 <= 1
 0 <= x_0_18_14 <= 1
 0 <= x_0_18_15 <= 1
 0 <= x_0_18_16 <= 1
 0 <= x_0_18_17 <= 1
 0 <= x_0_18_19 <= 1
 0 <= x_0_18_2 <= 1
 0 <= x_0_18_20 <= 1
 0 <= x_0_18_3 <= 1
 0 <= x_0_18_4 <= 1
 0 <= x_0_18_5 <= 1
 0 <= x_0_18_6 <= 1
 0 <= x_0_18_7 <= 1
 0 <= x_0_18_8 <= 1
 0 <= x_0_18_9 <= 1
 0 <= x_0_19_0 <= 1
 0 <= x_0_19_1 <= 1
 0 <= x_0_19_10 <= 1
 0 <= x_0_19_11 <= 1
 0 <= x_0_19_12 <= 1
 0 <= x_0_19_13 <= 1
 0 <= x_0_19_14 <= 1
 0 <= x_0_19_15 <= 1
 0 <= x_0_19_16 <= 1
 0 <= x_0_19_17 <= 1
 0 <= x_0_19_18 <= 1
 0 <= x_0_19_2 <= 1
 0 <= x_0_19_20 <= 1
 0 <= x_0_19_3 <= 1
 0 <= x_0_19_4 <= 1
 0 <= x_0_19_5 <= 1
 0 <= x_0_19_6 <= 1
 0 <= x_0_19_7 <= 1
 0 <= x_0_19_8 <= 1
 0 <= x_0_19_9 <= 1
 0 <= x_0_1_0 <= 1
 0 <= x_0_1_10 <= 1
 0 <= x_0_1_11 <= 1
 0 <= x_0_1_12 <= 1
 0 <= x_0_1_13 <= 1
 0 <= x_0_1_14 <= 1
 0 <= x_0_1_15 <= 1
 0 <= x_0_1_16 <= 1
 0 <= x_0_1_17 <= 1
 0 <= x_0_1_18 <= 1
 0 <= x_0_1_19 <= 1
 0 <= x_0_1_2 <= 1
 0 <= x_0_1_20 <= 1
 0 <= x_0_1_3 <= 1
 0 <= x_0_1_4 <= 1
 0 <= x_0_1_5 <= 1
 0 <= x_0_1_6 <= 1
 0 <= x_0_1_7 <= 1
 0 <= x_0_1_8 <= 1
 0 <= x_0_1_9 <= 1
 0 <= x_0_20_0 <= 1
 0 <= x_0_20_1 <= 1
 0 <= x_0_20_10 <= 1
 0 <= x_0_20_11 <= 1
 0 <= x_0_20_12 <= 1
 0 <= x_0_20_13 <= 1
 0 <= x_0_20_14 <= 1
 0 <= x_0_20_15 <= 1
 0 <= x_0_20_16 <= 1
 0 <= x_0_20_17 <= 1
 0 <= x_0_20_18 <= 1
 0 <= x_0_20_19 <= 1
 0 <= x_0_20_2 <= 1
 0 <= x_0_20_3 <= 1
 0 <= x_0_20_4 <= 1
 0 <= x_0_20_5 <= 1
 0 <= x_0_20_6 <= 1
 0 <= x_0_20_7 <= 1
 0 <= x_0_20_8 <= 1
 0 <= x_0_20_9 <= 1
 0 <= x_0_2_0 <= 1
 0 <= x_0_2_1 <= 1
 0 <= x_0_2_10 <= 1
 0 <= x_0_2_11 <= 1
 0 <= x_0_2_12 <= 1
 0 <= x_0_2_13 <= 1
 0 <= x_0_2_14 <= 1
 0 <= x_0_2_15 <= 1
 0 <= x_0_2_16 <= 1
 0 <= x_0_2_17 <= 1
 0 <= x_0_2_18 <= 1
 0 <= x_0_2_19 <= 1
 0 <= x_0_2_20 <= 1
 0 <= x_0_2_3 <= 1
 0 <= x_0_2_4 <= 1
 0 <= x_0_2_5 <= 1
 0 <= x_0_2_6 <= 1
 0 <= x_0_2_7 <= 1
 0 <= x_0_2_8 <= 1
 0 <= x_0_2_9 <= 1
 0 <= x_0_3_0 <= 1
 0 <= x_0_3_1 <= 1
 0 <= x_0_3_10 <= 1
 0 <= x_0_3_11 <= 1
 0 <= x_0_3_12 <= 1
 0 <= x_0_3_13 <= 1
 0 <= x_0_3_14 <= 1
 0 <= x_0_3_15 <= 1
 0 <= x_0_3_16 <= 1
 0 <= x_0_3_17 <= 1
 0 <= x_0_3_18 <= 1
 0 <= x_0_3_19 <= 1
 0 <= x_0_3_2 <= 1
 0 <= x_0_3_20 <= 1
 0 <= x_0_3_4 <= 1
 0 <= x_0_3_5 <= 1
 0 <= x_0_3_6 <= 1
 0 <= x_0_3_7 <= 1
 0 <= x_0_3_8 <= 1
 0 <= x_0_3_9 <= 1
 0 <= x_0_4_0 <= 1
 0 <= x_0_4_1 <= 1
 0 <= x_0_4_10 <= 1
 0 <= x_0_4_11 <= 1
 0 <= x_0_4_12 <= 1
 0 <= x_0_4_13 <= 1
 0 <= x_0_4_14 <= 1
 0 <= x_0_4_15 <= 1
 0 <= x_0_4_16 <= 1
 0 <= x_0_4_17 <= 1
 0 <= x_0_4_18 <= 1
 0 <= x_0_4_19 <= 1
 0 <= x_0_4_2 <= 1
 0 <= x_0_4_20 <= 1
 0 <= x_0_4_3 <= 1
 0 <= x_0_4_5 <= 1
 0 <= x_0_4_6 <= 1
 0 <= x_0_4_7 <= 1
 0 <= x_0_4_8 <= 1
 0 <= x_0_4_9 <= 1
 0 <= x_0_5_0 <= 1
 0 <= x_0_5_1 <= 1
 0 <= x_0_5_10 <= 1
 0 <= x_0_5_11 <= 1
 0 <= x_0_5_12 <= 1
 0 <= x_0_5_13 <= 1
 0 <= x_0_5_14 <= 1
 0 <= x_0_5_15 <= 1
 0 <= x_0_5_16 <= 1
 0 <= x_0_5_17 <= 1
 0 <= x_0_5_18 <= 1
 0 <= x_0_5_19 <= 1
 0 <= x_0_5_2 <= 1
 0 <= x_0_5_20 <= 1
 0 <= x_0_5_3 <= 1
 0 <= x_0_5_4 <= 1
 0 <= x_0_5_6 <= 1
 0 <= x_0_5_7 <= 1
 0 <= x_0_5_8 <= 1
 0 <= x_0_5_9 <= 1
 0 <= x_0_6_0 <= 1
 0 <= x_0_6_1 <= 1
 0 <= x_0_6_10 <= 1
 0 <= x_0_6_11 <= 1
 0 <= x_0_6_12 <= 1
 0 <= x_0_6_13 <= 1
 0 <= x_0_6_14 <= 1
 0 <= x_0_6_15 <= 1
 0 <= x_0_6_16 <= 1
 0 <= x_0_6_17 <= 1
 0 <= x_0_6_18 <= 1
 0 <= x_0_6_19 <= 1
 0 <= x_0_6_2 <= 1
 0 <= x_0_6_20 <= 1
 0 <= x_0_6_3 <= 1
 0 <= x_0_6_4 <= 1
 0 <= x_0_6_5 <= 1
 0 <= x_0_6_7 <= 1
 0 <= x_0_6_8 <= 1
 0 <= x_0_6_9 <= 1
 0 <= x_0_7_0 <= 1
 0 <= x_0_7_1 <= 1
 0 <= x_0_7_10 <= 1
 0 <= x_0_7_11 <= 1
 0 <= x_0_7_12 <= 1
 0 <= x_0_7_13 <= 1
 0 <= x_0_7_14 <= 1
 0 <= x_0_7_15 <= 1
 0 <= x_0_7_16 <= 1
 0 <= x_0_7_17 <= 1
 0 <= x_0_7_18 <= 1
 0 <= x_0_7_19 <= 1
 0 <= x_0_7_2 <= 1
 0 <= x_0_7_20 <= 1
 0 <= x_0_7_3 <= 1
 0 <= x_0_7_4 <= 1
 0 <= x_0_7_5 <= 1
 0 <= x_0_7_6 <= 1
 0 <= x_0_7_8 <= 1
 0 <= x_0_7_9 <= 1
 0 <= x_0_8_0 <= 1
 0 <= x_0_8_1 <= 1
 0 <= x_0_8_10 <= 1
 0 <= x_0_8_11 <= 1
 0 <= x_0_8_12 <= 1
 0 <= x_0_8_13 <= 1
 0 <= x_0_8_14 <= 1
 0 <= x_0_8_15 <= 1
 0 <= x_0_8_16 <= 1
 0 <= x_0_8_17 <= 1
 0 <= x_0_8_18 <= 1
 0 <= x_0_8_19 <= 1
 0 <= x_0_8_2 <= 1
 0 <= x_0_8_20 <= 1
 0 <= x_0_8_3 <= 1
 0 <= x_0_8_4 <= 1
 0 <= x_0_8_5 <= 1
 0 <= x_0_8_6 <= 1
 0 <= x_0_8_7 <= 1
 0 <= x_0_8_9 <= 1
 0 <= x_0_9_0 <= 1
 0 <= x_0_9_1 <= 1
 0 <= x_0_9_10 <= 1
 0 <= x_0_9_11 <= 1
 0 <= x_0_9_12 <= 1
 0 <= x_0_9_13 <= 1
 0 <= x_0_9_14 <= 1
 0 <= x_0_9_15 <= 1
 0 <= x_0_9_16 <= 1
 0 <= x_0_9_17 <= 1
 0 <= x_0_9_18 <= 1
 0 <= x_0_9_19 <= 1
 0 <= x_0_9_2 <= 1
 0 <= x_0_9_20 <= 1
 0 <= x_0_9_3 <= 1
 0 <= x_0_9_4 <= 1
 0 <= x_0_9_5 <= 1
 0 <= x_0_9_6 <= 1
 0 <= x_0_9_7 <= 1
 0 <= x_0_9_8 <= 1
 0 <= x_1_0_1 <= 1
 0 <= x_1_0_10 <= 1
 0 <= x_1_0_11 <= 1
 0 <= x_1_0_12 <= 1
 0 <= x_1_0_13 <= 1
 0 <= x_1_0_14 <= 1
 0 <= x_1_0_15 <= 1
 0 <= x_1_0_16 <= 1
 0 <= x_1_0_17 <= 1
 0 <= x_1_0_18 <= 1
 0 <= x_1_0_19 <= 1
 0 <= x_1_0_2 <= 1
 0 <= x_1_0_20 <= 1
 0 <= x_1_0_3 <= 1
 0 <= x_1_0_4 <= 1
 0 <= x_1_0_5 <= 1
 0 <= x_1_0_6 <= 1
 0 <= x_1_0_7 <= 1
 0 <= x_1_0_8 <= 1
 0 <= x_1_0_9 <= 1
 0 <= x_1_10_0 <= 1
 0 <= x_1_10_1 <= 1
 0 <= x_1_10_11 <= 1
 0 <= x_1_10_12 <= 1
 0 <= x_1_10_13 <= 1
 0 <= x_1_10_14 <= 1
 0 <= x_1_10_15 <= 1
 0 <= x_1_10_16 <= 1
 0 <= x_1_10_17 <= 1
 0 <= x_1_10_18 <= 1
 0 <= x_1_10_19 <= 1
 0 <= x_1_10_2 <= 1
 0 <= x_1_10_20 <= 1
 0 <= x_1_10_3 <= 1
 0 <= x_1_10_4 <= 1
 0 <= x_1_10_5 <= 1
 0 <= x_1_10_6 <= 1
 0 <= x_1_10_7 <= 1
 0 <= x_1_10_8 <= 1
 0 <= x_1_10_9 <= 1
 0 <= x_1_11_0 <= 1
 0 <= x_1_11_1 <= 1
 0 <= x_1_11_10 <= 1
 0 <= x_1_11_12 <= 1
 0 <= x_1_11_13 <= 1
 0 <= x_1_11_14 <= 1
 0 <= x_1_11_15 <= 1
 0 <= x_1_11_16 <= 1
 0 <= x_1_11_17 <= 1
 0 <= x_1_11_18 <= 1
 0 <= x_1_11_19 <= 1
 0 <= x_1_11_2 <= 1
 0 <= x_1_11_20 <= 1
 0 <= x_1_11_3 <= 1
 0 <= x_1_11_4 <= 1
 0 <= x_1_11_5 <= 1
 0 <= x_1_11_6 <= 1
 0 <= x_1_11_7 <= 1
 0 <= x_1_11_8 <= 1
 0 <= x_1_11_9 <= 1
 0 <= x_1_12_0 <= 1
 0 <= x_1_12_1 <= 1
 0 <= x_1_12_10 <= 1
 0 <= x_1_12_11 <= 1
 0 <= x_1_12_13 <= 1
 0 <= x_1_12_14 <= 1
 0 <= x_1_12_15 <= 1
 0 <= x_1_12_16 <= 1
 0 <= x_1_12_17 <= 1
 0 <= x_1_12_18 <= 1
 0 <= x_1_12_19 <= 1
 0 <= x_1_12_2 <= 1
 0 <= x_1_12_20 <= 1
 0 <= x_1_12_3 <= 1
 0 <= x_1_12_4 <= 1
 0 <= x_1_12_5 <= 1
 0 <= x_1_12_6 <= 1
 0 <= x_1_12_7 <= 1
 0 <= x_1_12_8 <= 1
 0 <= x_1_12_9 <= 1
 0 <= x_1_13_0 <= 1
 0 <= x_1_13_1 <= 1
 0 <= x_1_13_10 <= 1
 0 <= x_1_13_11 <= 1
 0 <= x_1_13_12 <= 1
 0 <= x_1_13_14 <= 1
 0 <= x_1_13_15 <= 1
 0 <= x_1_13_16 <= 1
 0 <= x_1_13_17 <= 1
 0 <= x_1_13_18 <= 1
 0 <= x_1_13_19 <= 1
 0 <= x_1_13_2 <= 1
 0 <= x_1_13_20 <= 1
 0 <= x_1_13_3 <= 1
 0 <= x_1_13_4 <= 1
 0 <= x_1_13_5 <= 1
 0 <= x_1_13_6 <= 1
 0 <= x_1_13_7 <= 1
 0 <= x_1_13_8 <= 1
 0 <= x_1_13_9 <= 1
 0 <= x_1_14_0 <= 1
 0 <= x_1_14_1 <= 1
 0 <= x_1_14_10 <= 1
 0 <= x_1_14_11 <= 1
 0 <= x_1_14_12 <= 1
 0 <= x_1_14_13 <= 1
 0 <= x_1_14_15 <= 1
 0 <= x_1_14_16 <= 1
 0 <= x_1_14_17 <= 1
 0 <= x_1_14_18 <= 1
 0 <= x_1_14_19 <= 1
 0 <= x_1_14_2 <= 1
 0 <= x_1_14_20 <= 1
 0 <= x_1_14_3 <= 1
 0 <= x_1_14_4 <= 1
 0 <= x_1_14_5 <= 1
 0 <= x_1_14_6 <= 1
 0 <= x_1_14_7 <= 1
 0 <= x_1_14_8 <= 1
 0 <= x_1_14_9 <= 1
 0 <= x_1_15_0 <= 1
 0 <= x_1_15_1 <= 1
 0 <= x_1_15_10 <= 1
 0 <= x_1_15_11 <= 1
 0 <= x_1_15_12 <= 1
 0 <= x_1_15_13 <= 1
 0 <= x_1_15_14 <= 1
 0 <= x_1_15_16 <= 1
 0 <= x_1_15_17 <= 1
 0 <= x_1_15_18 <= 1
 0 <= x_1_15_19 <= 1
 0 <= x_1_15_2 <= 1
 0 <= x_1_15_20 <= 1
 0 <= x_1_15_3 <= 1
 0 <= x_1_15_4 <= 1
 0 <= x_1_15_5 <= 1
 0 <= x_1_15_6 <= 1
 0 <= x_1_15_7 <= 1
 0 <= x_1_15_8 <= 1
 0 <= x_1_15_9 <= 1
 0 <= x_1_16_0 <= 1
 0 <= x_1_16_1 <= 1
 0 <= x_1_16_10 <= 1
 0 <= x_1_16_11 <= 1
 0 <= x_1_16_12 <= 1
 0 <= x_1_16_13 <= 1
 0 <= x_1_16_14 <= 1
 0 <= x_1_16_15 <= 1
 0 <= x_1_16_17 <= 1
 0 <= x_1_16_18 <= 1
 0 <= x_1_16_19 <= 1
 0 <= x_1_16_2 <= 1
 0 <= x_1_16_20 <= 1
 0 <= x_1_16_3 <= 1
 0 <= x_1_16_4 <= 1
 0 <= x_1_16_5 <= 1
 0 <= x_1_16_6 <= 1
 0 <= x_1_16_7 <= 1
 0 <= x_1_16_8 <= 1
 0 <= x_1_16_9 <= 1
 0 <= x_1_17_0 <= 1
 0 <= x_1_17_1 <= 1
 0 <= x_1_17_10 <= 1
 0 <= x_1_17_11 <= 1
 0 <= x_1_17_12 <= 1
 0 <= x_1_17_13 <= 1
 0 <= x_1_17_14 <= 1
 0 <= x_1_17_15 <= 1
 0 <= x_1_17_16 <= 1
 0 <= x_1_17_18 <= 1
 0 <= x_1_17_19 <= 1
 0 <= x_1_17_2 <= 1
 0 <= x_1_17_20 <= 1
 0 <= x_1_17_3 <= 1
 0 <= x_1_17_4 <= 1
 0 <= x_1_17_5 <= 1
 0 <= x_1_17_6 <= 1
 0 <= x_1_17_7 <= 1
 0 <= x_1_17_8 <= 1
 0 <= x_1_17_9 <= 1
 0 <= x_1_18_0 <= 1
 0 <= x_1_18_1 <= 1
 0 <= x_1_18_10 <= 1
 0 <= x_1_18_11 <= 1
 0 <= x_1_18_12 <= 1
 0 <= x_1_18_13 <= 1
 0 <= x_1_18_14 <= 1
 0 <= x_1_18_15 <= 1
 0 <= x_1_18_16 <= 1
 0 <= x_1_18_17 <= 1
 0 <= x_1_18_19 <= 1
 0 <= x_1_18_2 <= 1
 0 <= x_1_18_20 <= 1
 0 <= x_1_18_3 <= 1
 0 <= x_1_18_4 <= 1
 0 <= x_1_18_5 <= 1
 0 <= x_1_18_6 <= 1
 0 <= x_1_18_7 <= 1
 0 <= x_1_18_8 <= 1
 0 <= x_1_18_9 <= 1
 0 <= x_1_19_0 <= 1
 0 <= x_1_19_1 <= 1
 0 <= x_1_19_10 <= 1
 0 <= x_1_19_11 <= 1
 0 <= x_1_19_12 <= 1
 0 <= x_1_19_13 <= 1
 0 <= x_1_19_14 <= 1
 0 <= x_1_19_15 <= 1
 0 <= x_1_19_16 <= 1
 0 <= x_1_19_17 <= 1
 0 <= x_1_19_18 <= 1
 0 <= x_1_19_2 <= 1
 0 <= x_1_19_20 <= 1
 0 <= x_1_19_3 <= 1
 0 <= x_1_19_4 <= 1
 0 <= x_1_19_5 <= 1
 0 <= x_1_19_6 <= 1
 0 <= x_1_19_7 <= 1
 0 <= x_1_19_8 <= 1
 0 <= x_1_19_9 <= 1
 0 <= x_1_1_0 <= 1
 0 <= x_1_1_10 <= 1
 0 <= x_1_1_11 <= 1
 0 <= x_1_1_12 <= 1
 0 <= x_1_1_13 <= 1
 0 <= x_1_1_14 <= 1
 0 <= x_1_1_15 <= 1
 0 <= x_1_1_16 <= 1
 0 <= x_1_1_17 <= 1
 0 <= x_1_1_18 <= 1
 0 <= x_1_1_19 <= 1
 0 <= x_1_1_2 <= 1
 0 <= x_1_1_20 <= 1
 0 <= x_1_1_3 <= 1
 0 <= x_1_1_4 <= 1
 0 <= x_1_1_5 <= 1
 0 <= x_1_1_6 <= 1
 0 <= x_1_1_7 <= 1
 0 <= x_1_1_8 <= 1
 0 <= x_1_1_9 <= 1
 0 <= x_1_20_0 <= 1
 0 <= x_1_20_1 <= 1
 0 <= x_1_20_10 <= 1
 0 <= x_1_20_11 <= 1
 0 <= x_1_20_12 <= 1
 0 <= x_1_20_13 <= 1
 0 <= x_1_20_14 <= 1
 0 <= x_1_20_15 <= 1
 0 <= x_1_20_16 <= 1
 0 <= x_1_20_17 <= 1
 0 <= x_1_20_18 <= 1
 0 <= x_1_20_19 <= 1
 0 <= x_1_20_2 <= 1
 0 <= x_1_20_3 <= 1
 0 <= x_1_20_4 <= 1
 0 <= x_1_20_5 <= 1
 0 <= x_1_20_6 <= 1
 0 <= x_1_20_7 <= 1
 0 <= x_1_20_8 <= 1
 0 <= x_1_20_9 <= 1
 0 <= x_1_2_0 <= 1
 0 <= x_1_2_1 <= 1
 0 <= x_1_2_10 <= 1
 0 <= x_1_2_11 <= 1
 0 <= x_1_2_12 <= 1
 0 <= x_1_2_13 <= 1
 0 <= x_1_2_14 <= 1
 0 <= x_1_2_15 <= 1
 0 <= x_1_2_16 <= 1
 0 <= x_1_2_17 <= 1
 0 <= x_1_2_18 <= 1
 0 <= x_1_2_19 <= 1
 0 <= x_1_2_20 <= 1
 0 <= x_1_2_3 <= 1
 0 <= x_1_2_4 <= 1
 0 <= x_1_2_5 <= 1
 0 <= x_1_2_6 <= 1
 0 <= x_1_2_7 <= 1
 0 <= x_1_2_8 <= 1
 0 <= x_1_2_9 <= 1
 0 <= x_1_3_0 <= 1
 0 <= x_1_3_1 <= 1
 0 <= x_1_3_10 <= 1
 0 <= x_1_3_11 <= 1
 0 <= x_1_3_12 <= 1
 0 <= x_1_3_13 <= 1
 0 <= x_1_3_14 <= 1
 0 <= x_1_3_15 <= 1
 0 <= x_1_3_16 <= 1
 0 <= x_1_3_17 <= 1
 0 <= x_1_3_18 <= 1
 0 <= x_1_3_19 <= 1
 0 <= x_1_3_2 <= 1
 0 <= x_1_3_20 <= 1
 0 <= x_1_3_4 <= 1
 0 <= x_1_3_5 <= 1
 0 <= x_1_3_6 <= 1
 0 <= x_1_3_7 <= 1
 0 <= x_1_3_8 <= 1
 0 <= x_1_3_9 <= 1
 0 <= x_1_4_0 <= 1
 0 <= x_1_4_1 <= 1
 0 <= x_1_4_10 <= 1
 0 <= x_1_4_11 <= 1
 0 <= x_1_4_12 <= 1
 0 <= x_1_4_13 <= 1
 0 <= x_1_4_14 <= 1
 0 <= x_1_4_15 <= 1
 0 <= x_1_4_16 <= 1
 0 <= x_1_4_17 <= 1
 0 <= x_1_4_18 <= 1
 0 <= x_1_4_19 <= 1
 0 <= x_1_4_2 <= 1
 0 <= x_1_4_20 <= 1
 0 <= x_1_4_3 <= 1
 0 <= x_1_4_5 <= 1
 0 <= x_1_4_6 <= 1
 0 <= x_1_4_7 <= 1
 0 <= x_1_4_8 <= 1
 0 <= x_1_4_9 <= 1
 0 <= x_1_5_0 <= 1
 0 <= x_1_5_1 <= 1
 0 <= x_1_5_10 <= 1
 0 <= x_1_5_11 <= 1
 0 <= x_1_5_12 <= 1
 0 <= x_1_5_13 <= 1
 0 <= x_1_5_14 <= 1
 0 <= x_1_5_15 <= 1
 0 <= x_1_5_16 <= 1
 0 <= x_1_5_17 <= 1
 0 <= x_1_5_18 <= 1
 0 <= x_1_5_19 <= 1
 0 <= x_1_5_2 <= 1
 0 <= x_1_5_20 <= 1
 0 <= x_1_5_3 <= 1
 0 <= x_1_5_4 <= 1
 0 <= x_1_5_6 <= 1
 0 <= x_1_5_7 <= 1
 0 <= x_1_5_8 <= 1
 0 <= x_1_5_9 <= 1
 0 <= x_1_6_0 <= 1
 0 <= x_1_6_1 <= 1
 0 <= x_1_6_10 <= 1
 0 <= x_1_6_11 <= 1
 0 <= x_1_6_12 <= 1
 0 <= x_1_6_13 <= 1
 0 <= x_1_6_14 <= 1
 0 <= x_1_6_15 <= 1
 0 <= x_1_6_16 <= 1
 0 <= x_1_6_17 <= 1
 0 <= x_1_6_18 <= 1
 0 <= x_1_6_19 <= 1
 0 <= x_1_6_2 <= 1
 0 <= x_1_6_20 <= 1
 0 <= x_1_6_3 <= 1
 0 <= x_1_6_4 <= 1
 0 <= x_1_6_5 <= 1
 0 <= x_1_6_7 <= 1
 0 <= x_1_6_8 <= 1
 0 <= x_1_6_9 <= 1
 0 <= x_1_7_0 <= 1
 0 <= x_1_7_1 <= 1
 0 <= x_1_7_10 <= 1
 0 <= x_1_7_11 <= 1
 0 <= x_1_7_12 <= 1
 0 <= x_1_7_13 <= 1
 0 <= x_1_7_14 <= 1
 0 <= x_1_7_15 <= 1
 0 <= x_1_7_16 <= 1
 0 <= x_1_7_17 <= 1
 0 <= x_1_7_18 <= 1
 0 <= x_1_7_19 <= 1
 0 <= x_1_7_2 <= 1
 0 <= x_1_7_20 <= 1
 0 <= x_1_7_3 <= 1
 0 <= x_1_7_4 <= 1
 0 <= x_1_7_5 <= 1
 0 <= x_1_7_6 <= 1
 0 <= x_1_7_8 <= 1
 0 <= x_1_7_9 <= 1
 0 <= x_1_8_0 <= 1
 0 <= x_1_8_1 <= 1
 0 <= x_1_8_10 <= 1
 0 <= x_1_8_11 <= 1
 0 <= x_1_8_12 <= 1
 0 <= x_1_8_13 <= 1
 0 <= x_1_8_14 <= 1
 0 <= x_1_8_15 <= 1
 0 <= x_1_8_16 <= 1
 0 <= x_1_8_17 <= 1
 0 <= x_1_8_18 <= 1
 0 <= x_1_8_19 <= 1
 0 <= x_1_8_2 <= 1
 0 <= x_1_8_20 <= 1
 0 <= x_1_8_3 <= 1
 0 <= x_1_8_4 <= 1
 0 <= x_1_8_5 <= 1
 0 <= x_1_8_6 <= 1
 0 <= x_1_8_7 <= 1
 0 <= x_1_8_9 <= 1
 0 <= x_1_9_0 <= 1
 0 <= x_1_9_1 <= 1
 0 <= x_1_9_10 <= 1
 0 <= x_1_9_11 <= 1
 0 <= x_1_9_12 <= 1
 0 <= x_1_9_13 <= 1
 0 <= x_1_9_14 <= 1
 0 <= x_1_9_15 <= 1
 0 <= x_1_9_16 <= 1
 0 <= x_1_9_17 <= 1
 0 <= x_1_9_18 <= 1
 0 <= x_1_9_19 <= 1
 0 <= x_1_9_2 <= 1
 0 <= x_1_9_20 <= 1
 0 <= x_1_9_3 <= 1
 0 <= x_1_9_4 <= 1
 0 <= x_1_9_5 <= 1
 0 <= x_1_9_6 <= 1
 0 <= x_1_9_7 <= 1
 0 <= x_1_9_8 <= 1
 0 <= z_0_1 <= 1
 0 <= z_0_10 <= 1
 0 <= z_0_11 <= 1
 0 <= z_0_12 <= 1
 0 <= z_0_13 <= 1
 0 <= z_0_14 <= 1
 0 <= z_0_15 <= 1
 0 <= z_0_16 <= 1
 0 <= z_0_17 <= 1
 0 <= z_0_18 <= 1
 0 <= z_0_19 <= 1
 0 <= z_0_2 <= 1
 0 <= z_0_20 <= 1
 0 <= z_0_3 <= 1
 0 <= z_0_4 <= 1
 0 <= z_0_5 <= 1
 0 <= z_0_6 <= 1
 0 <= z_0_7 <= 1
 0 <= z_0_8 <= 1
 0 <= z_0_9 <= 1
 0 <= z_1_1 <= 1
 0 <= z_1_10 <= 1
 0 <= z_1_11 <= 1
 0 <= z_1_12 <= 1
 0 <= z_1_13 <= 1
 0 <= z_1_14 <= 1
 0 <= z_1_15 <= 1
 0 <= z_1_16 <= 1
 0 <= z_1_17 <= 1
 0 <= z_1_18 <= 1
 0 <= z_1_19 <= 1
 0 <= z_1_2 <= 1
 0 <= z_1_20 <= 1
 0 <= z_1_3 <= 1
 0 <= z_1_4 <= 1
 0 <= z_1_5 <= 1
 0 <= z_1_6 <= 1
 0 <= z_1_7 <= 1
 0 <= z_1_8 <= 1
 0 <= z_1_9 <= 1
 0 <= zprod_1 <= 21
 0 <= zprod_10 <= 30
 0 <= zprod_11 <= 22
 0 <= zprod_12 <= 27
 0 <= zprod_13 <= 21
 0 <= zprod_14 <= 22
 0 <= zprod_15 <= 19
 0 <= zprod_16 <= 24
 0 <= zprod_17 <= 21
 0 <= zprod_18 <= 24
 0 <= zprod_19 <= 20
 0 <= zprod_2 <= 20
 0 <= zprod_20 <= 20
 0 <= zprod_3 <= 23
 0 <= zprod_4 <= 21
 0 <= zprod_5 <= 23
 0 <= zprod_6 <= 21
 0 <= zprod_7 <= 23
 0 <= zprod_8 <= 21
 0 <= zprod_9 <= 19
Generals
 Y_1
 Y_10
 Y_11
 Y_12
 Y_13
 Y_14
 Y_15
 Y_16
 Y_17
 Y_18
 Y_19
 Y_2
 Y_20
 Y_3
 Y_4
 Y_5
 Y_6
 Y_7
 Y_8
 Y_9
 d_0_1
 d_0_10
 d_0_11
 d_0_12
 d_0_13
 d_0_14
 d_0_15
 d_0_16
 d_0_17
 d_0_18
 d_0_19
 d_0_2
 d_0_20
 d_0_3
 d_0_4
 d_0_5
 d_0_6
 d_0_7
 d_0_8
 d_0_9
 d_1_1
 d_1_10
 d_1_11
 d_1_12
 d_1_13
 d_1_14
 d_1_15
 d_1_16
 d_1_17
 d_1_18
 d_1_19
 d_1_2
 d_1_20
 d_1_3
 d_1_4
 d_1_5
 d_1_6
 d_1_7
 d_1_8
 d_1_9
 load_0_1
 load_0_10
 load_0_11
 load_0_12
 load_0_13
 load_0_14
 load_0_15
 load_0_16
 load_0_17
 load_0_18
 load_0_19
 load_0_2
 load_0_20
 load_0_3
 load_0_4
 load_0_5
 load_0_6
 load_0_7
 load_0_8
 load_0_9
 load_1_1
 load_1_10
 load_1_11
 load_1_12
 load_1_13
 load_1_14
 load_1_15
 load_1_16
 load_1_17
 load_1_18
 load_1_19
 load_1_2
 load_1_20
 load_1_3
 load_1_4
 load_1_5
 load_1_6
 load_1_7
 load_1_8
 load_1_9
 p_0_1
 p_0_10
 p_0_11
 p_0_12
 p_0_13
 p_0_14
 p_0_15
 p_0_16
 p_0_17
 p_0_18
 p_0_19
 p_0_2
 p_0_20
 p_0_3
 p_0_4
 p_0_5
 p_0_6
 p_0_7
 p_0_8
 p_0_9
 p_1_1
 p_1_10
 p_1_11
 p_1_12
 p_1_13
 p_1_14
 p_1_15
 p_1_16
 p_1_17
 p_1_18
 p_1_19
 p_1_2
 p_1_20
 p_1_3
 p_1_4
 p_1_5
 p_1_6
 p_1_7
 p_1_8
 p_1_9
Binaries
 bit_10_0
 bit_10_1
 bit_10_2
 bit_10_3
 bit_10_4
 bit_11_0
 bit_11_1
 bit_11_2
 bit_11_3
 bit_11_4
 bit_12_0
 bit_12_1
 bit_12_2
 bit_12_3
 bit_12_4
 bit_13_0
 bit_13_1
 bit_13_2
 bit_13_3
 bit_13_4
 bit_14_0
 bit_14_1
 bit_14_2
 bit_14_3
 bit_14_4
 bit_15_0
 bit_15_1
 bit_15_2
 bit_15_3
 bit_15_4
 bit_16_0
 bit_16_1
 bit_16_2
 bit_16_3
 bit_16_4
 bit_17_0
 bit_17_1
 bit_17_2
 bit_17_3
 bit_17_4
 bit_18_0
 bit_18_1
 bit_18_2
 bit_18_3
 bit_18_4
 bit_19_0
 bit_19_1
 bit_19_2
 bit_19_3
 bit_19_4
 bit_1_0
 bit_1_1
 bit_1_2
 bit_1_3
 bit_1_4
 bit_20_0
 bit_20_1
 bit_20_2
 bit_20_3
 bit_20_4
 bit_2_0
 bit_2_1
 bit_2_2
 bit_2_3
 bit_2_4
 bit_3_0
 bit_3_1
 bit_3_2
 bit_3_3
 bit_3_4
 bit_4_0
 bit_4_1
 bit_4_2
 bit_4_3
 bit_4_4
 bit_5_0
 bit_5_1
 bit_5_2
 bit_5_3
 bit_5_4
 bit_6_0
 bit_6_1
 bit_6_2
 bit_6_3
 bit_6_4
 bit_7_0
 bit_7_1
 bit_7_2
 bit_7_3
 bit_7_4
 bit_8_0
 bit_8_1
 bit_8_2
 bit_8_3
 bit_8_4
 bit_9_0
 bit_9_1
 bit_9_2
 bit_9_3
 bit_9_4
 mode_0_1
 mode_0_10
 mode_0_11
 mode_0_12
 mode_0_13
 mode_0_14
 mode_0_15
 mode_0_16
 mode_0_17
 mode_0_18
 mode_0_19
 mode_0_2
 mode_0_20
 mode_0_3
 mode_0_4
 mode_0_5
 mode_0_6
 mode_0_7
 mode_0_8
 mode_0_9
 mode_1_1
 mode_1_10
 mode_1_11
 mode_1_12
 mode_1_13
 mode_1_14
 mode_1_15
 mode_1_16
 mode_1_17
 mode_1_18
 mode_1_19
 mode_1_2
 mode_1_20
 mode_1_3
 mode_1_4
 mode_1_5
 mode_1_6
 mode_1_7
 mode_1_8
 mode_1_9
 x_0_0_1
 x_0_0_10
 x_0_0_11
 x_0_0_12
 x_0_0_13
 x_0_0_14
 x_0_0_15
 x_0_0_16
 x_0_0_17
 x_0_0_18
 x_0_0_19
 x_0_0_2
 x_0_0_20
 x_0_0_3
 x_0_0_4
 x_0_0_5
 x_0_0_6
 x_0_0_7
 x_0_0_8
 x_0_0_9
 x_0_10_0
 x_0_10_1
 x_0_10_11
 x_0_10_12
 x_0_10_13
 x_0_10_14
 x_0_10_15
 x_0_10_16
 x_0_10_17
 x_0_10_18
 x_0_10_19
 x_0_10_2
 x_0_10_20
 x_0_10_3
 x_0_10_4
 x_0_10_5
 x_0_10_6
 x_0_10_7
 x_0_10_8
 x_0_10_9
 x_0_11_0
 x_0_11_1
 x_0_11_10
 x_0_11_12
 x_0_11_13
 x_0_11_14
 x_0_11_15
 x_0_11_16
 x_0_11_17
 x_0_11_18
 x_0_11_19
 x_0_11_2
 x_0_11_20
 x_0_11_3
 x_0_11_4
 x_0_11_5
 x_0_11_6
 x_0_11_7
 x_0_11_8
 x_0_11_9
 x_0_12_0
 x_0_12_1
 x_0_12_10
 x_0_12_11
 x_0_12_13
 x_0_12_14
 x_0_12_15
 x_0_12_16
 x_0_12_17
 x_0_12_18
 x_0_12_19
 x_0_12_2
 x_0_12_20
 x_0_12_3
 x_0_12_4
 x_0_12_5
 x_0_12_6
 x_0_12_7
 x_0_12_8
 x_0_12_9
 x_0_13_0
 x_0_13_1
 x_0_13_10
 x_0_13_11
 x_0_13_12
 x_0_13_14
 x_0_13_15
 x_0_13_16
 x_0_13_17
 x_0_13_18
 x_0_13_19
 x_0_13_2
 x_0_13_20
 x_0_13_3
 x_0_13_4
 x_0_13_5
 x_0_13_6
 x_0_13_7
 x_0_13_8
 x_0_13_9
 x_0_14_0
 x_0_14_1
 x_0_14_10
 x_0_14_11
 x_0_14_12
 x_0_14_13
 x_0_14_15
 x_0_14_16
 x_0_14_17
 x_0_14_18
 x_0_14_19
 x_0_14_2
 x_0_14_20
 x_0_14_3
 x_0_14_4
 x_0_14_5
 x_0_14_6
 x_0_14_7
 x_0_14_8
 x_0_14_9
 x_0_15_0
 x_0_15_1
 x_0_15_10
 x_0_15_11
 x_0_15_12
 x_0_15_13
 x_0_15_14
 x_0_15_16
 x_0_15_17
 x_0_15_18
 x_0_15_19
 x_0_15_2
 x_0_15_20
 x_0_15_3
 x_0_15_4
 x_0_15_5
 x_0_15_6
 x_0_15_7
 x_0_15_8
 x_0_15_9
 x_0_16_0
 x_0_16_1
 x_0_16_10
 x_0_16_11
 x_0_16_12
 x_0_16_13
 x_0_16_14
 x_0_16_15
 x_0_16_17
 x_0_16_18
 x_0_16_19
 x_0_16_2
 x_0_16_20
 x_0_16_3
 x_0_16_4
 x_0_16_5
 x_0_16_6
 x_0_16_7
 x_0_16_8
 x_0_16_9
 x_0_17_0
 x_0_17_1
 x_0_17_10
 x_0_17_11
 x_0_17_12
 x_0_17_13
 x_0_17_14
 x_0_17_15
 x_0_17_16
 x_0_17_18
 x_0_17_19
 x_0_17_2
 x_0_17_20
 x_0_17_3
 x_0_17_4
 x_0_17_5
 x_0_17_6
 x_0_17_7
 x_0_17_8
 x_0_17_9
 x_0_18_0
 x_0_18_1
 x_0_18_10
 x_0_18_11
 x_0_18_12
 x_0_18_13
 x_0_18_14
 x_0_18_15
 x_0_18_16
 x_0_18_17
 x_0_18_19
 x_0_18_2
 x_0_18_20
 x_0_18_3
 x_0_18_4
 x_0_18_5
 x_0_18_6
 x_0_18_7
 x_0_18_8
 x_0_18_9
 x_0_19_0
 x_0_19_1
 x_0_19_10
 x_0_19_11
 x_0_19_12
 x_0_19_13
 x_0_19_14
 x_0_19_15
 x_0_19_16
 x_0_19_17
 x_0_19_18
 x_0_19_2
 x_0_19_20
 x_0_19_3
 x_0_19_4
 x_0_19_5
 x_0_19_6
 x_0_19_7
 x_0_19_8
 x_0_19_9
 x_0_1_0
 x_0_1_10
 x_0_1_11
 x_0_1_12
 x_0_1_13
 x_0_1_14
 x_0_1_15
 x_0_1_16
 x_0_1_17
 x_0_1_18
 x_0_1_19
 x_0_1_2
 x_0_1_20
 x_0_1_3
 x_0_1_4
 x_0_1_5
 x_0_1_6
 x_0_1_7
 x_0_1_8
 x_0_1_9
 x_0_20_0
 x_0_20_1
 x_0_20_10
 x_0_20_11
 x_0_20_12
 x_0_20_13
 x_0_20_14
 x_0_20_15
 x_0_20_16
 x_0_20_17
 x_0_20_18
 x_0_20_19
 x_0_20_2
 x_0_20_3
 x_0_20_4
 x_0_20_5
 x_0_20_6
 x_0_20_7
 x_0_20_8
 x_0_20_9
 x_0_2_0
 x_0_2_1
 x_0_2_10
 x_0_2_11
 x_0_2_12
 x_0_2_13
 x_0_2_14
 x_0_2_15
 x_0_2_16
 x_0_2_17
 x_0_2_18
 x_0_2_19
 x_0_2_20
 x_0_2_3
 x_0_2_4
 x_0_2_5
 x_0_2_6
 x_0_2_7
 x_0_2_8
 x_0_2_9
 x_0_3_0
 x_0_3_1
 x_0_3_10
 x_0_3_11
 x_0_3_12
 x_0_3_13
 x_0_3_14
 x_0_3_15
 x_0_3_16
 x_0_3_17
 x_0_3_18
 x_0_3_19
 x_0_3_2
 x_0_3_20
 x_0_3_4
 x_0_3_5
 x_0_3_6
 x_0_3_7
 x_0_3_8
 x_0_3_9
 x_0_4_0
 x_0_4_1
 x_0_4_10
 x_0_4_11
 x_0_4_12
 x_0_4_13
 x_0_4_14
 x_0_4_15
 x_0_4_16
 x_0_4_17
 x_0_4_18
 x_0_4_19
 x_0_4_2
 x_0_4_20
 x_0_4_3
 x_0_4_5
 x_0_4_6
 x_0_4_7
 x_0_4_8
 x_0_4_9
 x_0_5_0
 x_0_5_1
 x_0_5_10
 x_0_5_11
 x_0_5_12
 x_0_5_13
 x_0_5_14
 x_0_5_15
 x_0_5_16
 x_0_5_17
 x_0_5_18
 x_0_5_19
 x_0_5_2
 x_0_5_20
 x_0_5_3
 x_0_5_4
 x_0_5_6
 x_0_5_7
 x_0_5_8
 x_0_5_9
 x_0_6_0
 x_0_6_1
 x_0_6_10
 x_0_6_11
 x_0_6_12
 x_0_6_13
 x_0_6_14
 x_0_6_15
 x_0_6_16
 x_0_6_17
 x_0_6_18
 x_0_6_19
 x_0_6_2
 x_0_6_20
 x_0_6_3
 x_0_6_4
 x_0_6_5
 x_0_6_7
 x_0_6_8
 x_0_6_9
 x_0_7_0
 x_0_7_1
 x_0_7_10
 x_0_7_11
 x_0_7_12
 x_0_7_13
 x_0_7_14
 x_0_7_15
 x_0_7_16
 x_0_7_17
 x_0_7_18
 x_0_7_19
 x_0_7_2
 x_0_7_20
 x_0_7_3
 x_0_7_4
 x_0_7_5
 x_0_7_6
 x_0_7_8
 x_0_7_9
 x_0_8_0
 x_0_8_1
 x_0_8_10
 x_0_8_11
 x_0_8_12
 x_0_8_13
 x_0_8_14
 x_0_8_15
 x_0_8_16
 x_0_8_17
 x_0_8_18
 x_0_8_19
 x_0_8_2
 x_0_8_20
 x_0_8_3
 x_0_8_4
 x_0_8_5
 x_0_8_6
 x_0_8_7
 x_0_8_9
 x_0_9_0
 x_0_9_1
 x_0_9_10
 x_0_9_11
 x_0_9_12
 x_0_9_13
 x_0_9_14
 x_0_9_15
 x_0_9_16
 x_0_9_17
 x_0_9_18
 x_0_9_19
 x_0_9_2
 x_0_9_20
 x_0_9_3
 x_0_9_4
 x_0_9_5
 x_0_9_6
 x_0_9_7
 x_0_9_8
 x_1_0_1
 x_1_0_10
 x_1_0_11
 x_1_0_12
 x_1_0_13
 x_1_0_14
 x_1_0_15
 x_1_0_16
 x_1_0_17
 x_1_0_18
 x_1_0_19
 x_1_0_2
 x_1_0_20
 x_1_0_3
 x_1_0_4
 x_1_0_5
 x_1_0_6
 x_1_0_7
 x_1_0_8
 x_1_0_9
 x_1_10_0
 x_1_10_1
 x_1_10_11
 x_1_10_12
 x_1_10_13
 x_1_10_14
 x_1_10_15
 x_1_10_16
 x_1_10_17
 x_1_10_18
 x_1_10_19
 x_1_10_2
 x_1_10_20
 x_1_10_3
 x_1_10_4
 x_1_10_5
 x_1_10_6
 x_1_10_7
 x_1_10_8
 x_1_10_9
 x_1_11_0
 x_1_11_1
 x_1_11_10
 x_1_11_12
 x_1_11_13
 x_1_11_14
 x_1_11_15
 x_1_11_16
 x_1_11_17
 x_1_11_18
 x_1_11_19
 x_1_11_2
 x_1_11_20
 x_1_11_3
 x_1_11_4
 x_1_11_5
 x_1_11_6
 x_1_11_7
 x_1_11_8
 x_1_11_9
 x_1_12_0
 x_1_12_1
 x_1_12_10
 x_1_12_11
 x_1_12_13
 x_1_12_14
 x_1_12_15
 x_1_12_16
 x_1_12_17
 x_1_12_18
 x_1_12_19
 x_1_12_2
 x_1_12_20
 x_1_12_3
 x_1_12_4
 x_1_12_5
 x_1_12_6
 x_1_12_7
 x_1_12_8
 x_1_12_9
 x_1_13_0
 x_1_13_1
 x_1_13_10
 x_1_13_11
 x_1_13_12
 x_1_13_14
 x_1_13_15
 x_1_13_16
 x_1_13_17
 x_1_13_18
 x_1_13_19
 x_1_13_2
 x_1_13_20
 x_1_13_3
 x_1_13_4
 x_1_13_5
 x_1_13_6
 x_1_13_7
 x_1_13_8
 x_1_13_9
 x_1_14_0
 x_1_14_1
 x_1_14_10
 x_1_14_11
 x_1_14_12
 x_1_14_13
 x_1_14_15
 x_1_14_16
 x_1_14_17
 x_1_14_18
 x_1_14_19
 x_1_14_2
 x_1_14_20
 x_1_14_3
 x_1_14_4
 x_1_14_5
 x_1_14_6
 x_1_14_7
 x_1_14_8
 x_1_14_9
 x_1_15_0
 x_1_15_1
 x_1_15_10
 x_1_15_11
 x_1_15_12
 x_1_15_13
 x_1_15_14
 x_1_15_16
 x_1_15_17
 x_1_15_18
 x_1_15_19
 x_1_15_2
 x_1_15_20
 x_1_15_3
 x_1_15_4
 x_1_15_5
 x_1_15_6
 x_1_15_7
 x_1_15_8
 x_1_15_9
 x_1_16_0
 x_1_16_1
 x_1_16_10
 x_1_16_11
 x_1_16_12
 x_1_16_13
 x_1_16_14
 x_1_16_15
 x_1_16_17
 x_1_16_18
 x_1_16_19
 x_1_16_2
 x_1_16_20
 x_1_16_3
 x_1_16_4
 x_1_16_5
 x_1_16_6
 x_1_16_7
 x_1_16_8
 x_1_16_9
 x_1_17_0
 x_1_17_1
 x_1_17_10
 x_1_17_11
 x_1_17_12
 x_1_17_13
 x_1_17_14
 x_1_17_15
 x_1_17_16
 x_1_17_18
 x_1_17_19
 x_1_17_2
 x_1_17_20
 x_1_17_3
 x_1_17_4
 x_1_17_5
 x_1_17_6
 x_1_17_7
 x_1_17_8
 x_1_17_9
 x_1_18_0
 x_1_18_1
 x_1_18_10
 x_1_18_11
 x_1_18_12
 x_1_18_13
 x_1_18_14
 x_1_18_15
 x_1_18_16
 x_1_18_17
 x_1_18_19
 x_1_18_2
 x_1_18_20
 x_1_18_3
 x_1_18_4
 x_1_18_5
 x_1_18_6
 x_1_18_7
 x_1_18_8
 x_1_18_9
 x_1_19_0
 x_1_19_1
 x_1_19_10
 x_1_19_11
 x_1_19_12
 x_1_19_13
 x_1_19_14
 x_1_19_15
 x_1_19_16
 x_1_19_17
 x_1_19_18
 x_1_19_2
 x_1_19_20
 x_1_19_3
 x_1_19_4
 x_1_19_5
 x_1_19_6
 x_1_19_7
 x_1_19_8
 x_1_19_9
 x_1_1_0
 x_1_1_10
 x_1_1_11
 x_1_1_12
 x_1_1_13
 x_1_1_14
 x_1_1_15
 x_1_1_16
 x_1_1_17
 x_1_1_18
 x_1_1_19
 x_1_1_2
 x_1_1_20
 x_1_1_3
 x_1_1_4
 x_1_1_5
 x_1_1_6
 x_1_1_7
 x_1_1_8
 x_1_1_9
 x_1_20_0
 x_1_20_1
 x_1_20_10
 x_1_20_11
 x_1_20_12
 x_1_20_13
 x_1_20_14
 x_1_20_15
 x_1_20_16
 x_1_20_17
 x_1_20_18
 x_1_20_19
 x_1_20_2
 x_1_20_3
 x_1_20_4
 x_1_20_5
 x_1_20_6
 x_1_20_7
 x_1_20_8
 x_1_20_9
 x_1_2_0
 x_1_2_1
 x_1_2_10
 x_1_2_11
 x_1_2_12
 x_1_2_13
 x_1_2_14
 x_1_2_15
 x_1_2_16
 x_1_2_17
 x_1_2_18
 x_1_2_19
 x_1_2_20
 x_1_2_3
 x_1_2_4
 x_1_2_5
 x_1_2_6
 x_1_2_7
 x_1_2_8
 x_1_2_9
 x_1_3_0
 x_1_3_1
 x_1_3_10
 x_1_3_11
 x_1_3_12
 x_1_3_13
 x_1_3_14
 x_1_3_15
 x_1_3_16
 x_1_3_17
 x_1_3_18
 x_1_3_19
 x_1_3_2
 x_1_3_20
 x_1_3_4
 x_1_3_5
 x_1_3_6
 x_1_3_7
 x_1_3_8
 x_1_3_9
 x_1_4_0
 x_1_4_1
 x_1_4_10
 x_1_4_11
 x_1_4_12
 x_1_4_13
 x_1_4_14
 x_1_4_15
 x_1_4_16
 x_1_4_17
 x_1_4_18
 x_1_4_19
 x_1_4_2
 x_1_4_20
 x_1_4_3
 x_1_4_5
 x_1_4_6
 x_1_4_7
 x_1_4_8
 x_1_4_9
 x_1_5_0
 x_1_5_1
 x_1_5_10
 x_1_5_11
 x_1_5_12
 x_1_5_13
 x_1_5_14
 x_1_5_15
 x_1_5_16
 x_1_5_17
 x_1_5_18
 x_1_5_19
 x_1_5_2
 x_1_5_20
 x_1_5_3
 x_1_5_4
 x_1_5_6
 x_1_5_7
 x_1_5_8
 x_1_5_9
 x_1_6_0
 x_1_6_1
 x_1_6_10
 x_1_6_11
 x_1_6_12
 x_1_6_13
 x_1_6_14
 x_1_6_15
 x_1_6_16
 x_1_6_17
 x_1_6_18
 x_1_6_19
 x_1_6_2
 x_1_6_20
 x_1_6_3
 x_1_6_4
 x_1_6_5
 x_1_6_7
 x_1_6_8
 x_1_6_9
 x_1_7_0
 x_1_7_1
 x_1_7_10
 x_1_7_11
 x_1_7_12
 x_1_7_13
 x_1_7_14
 x_1_7_15
 x_1_7_16
 x_1_7_17
 x_1_7_18
 x_1_7_19
 x_1_7_2
 x_1_7_20
 x_1_7_3
 x_1_7_4
 x_1_7_5
 x_1_7_6
 x_1_7_8
 x_1_7_9
 x_1_8_0
 x_1_8_1
 x_1_8_10
 x_1_8_11
 x_1_8_12
 x_1_8_13
 x_1_8_14
 x_1_8_15
 x_1_8_16
 x_1_8_17
 x_1_8_18
 x_1_8_19
 x_1_8_2
 x_1_8_20
 x_1_8_3
 x_1_8_4
 x_1_8_5
 x_1_8_6
 x_1_8_7
 x_1_8_9
 x_1_9_0
 x_1_9_1
 x_1_9_10
 x_1_9_11
 x_1_9_12
 x_1_9_13
 x_1_9_14
 x_1_9_15
 x_1_9_16
 x_1_9_17
 x_1_9_18
 x_1_9_19
 x_1_9_2
 x_1_9_20
 x_1_9_3
 x_1_9_4
 x_1_9_5
 x_1_9_6
 x_1_9_7
 x_1_9_8
 z_0_1
 z_0_10
 z_0_11
 z_0_12
 z_0_13
 z_0_14
 z_0_15
 z_0_16
 z_0_17
 z_0_18
 z_0_19
 z_0_2
 z_0_20
 z_0_3
 z_0_4
 z_0_5
 z_0_6
 z_0_7
 z_0_8
 z_0_9
 z_1_1
 z_1_10
 z_1_11
 z_1_12
 z_1_13
 z_1_14
 z_1_15
 z_1_16
 z_1_17
 z_1_18
 z_1_19
 z_1_2
 z_1_20
 z_1_3
 z_1_4
 z_1_5
 z_1_6
 z_1_7
 z_1_8
 z_1_9
End
