\ ExactEBRP compact MILP generated from C++ command-line runner
Minimize
 obj: G + 0.01269705 e_1 + 0.013021949999999999 e_2 + 0.075899999999999995 e_3 + 0.025739999999999999 e_4 + 0.017760000000000001 e_5 + 0.14999999999999999 e_6 + 0.013199999999999998 e_7 + 0.013003499999999999 e_8 + 0.0189 e_9 + 0.013041599999999999 e_10
Subject To
 c1: x_0_0_1 + x_0_0_10 + x_0_0_2 + x_0_0_3 + x_0_0_4 + x_0_0_5 + x_0_0_6 + x_0_0_7 + x_0_0_8 + x_0_0_9 - x_0_10_0 - x_0_1_0 - x_0_2_0 - x_0_3_0 - x_0_4_0 - x_0_5_0 - x_0_6_0 - x_0_7_0 - x_0_8_0 - x_0_9_0 = 0
 c2: x_0_0_1 + x_0_0_10 + x_0_0_2 + x_0_0_3 + x_0_0_4 + x_0_0_5 + x_0_0_6 + x_0_0_7 + x_0_0_8 + x_0_0_9 <= 1
 c3: x_0_0_1 + x_0_10_1 + x_0_2_1 + x_0_3_1 + x_0_4_1 + x_0_5_1 + x_0_6_1 + x_0_7_1 + x_0_8_1 + x_0_9_1 - z_0_1 = 0
 c4: x_0_1_0 + x_0_1_10 + x_0_1_2 + x_0_1_3 + x_0_1_4 + x_0_1_5 + x_0_1_6 + x_0_1_7 + x_0_1_8 + x_0_1_9 - z_0_1 = 0
 c5: x_0_0_2 + x_0_10_2 + x_0_1_2 + x_0_3_2 + x_0_4_2 + x_0_5_2 + x_0_6_2 + x_0_7_2 + x_0_8_2 + x_0_9_2 - z_0_2 = 0
 c6: x_0_2_0 + x_0_2_1 + x_0_2_10 + x_0_2_3 + x_0_2_4 + x_0_2_5 + x_0_2_6 + x_0_2_7 + x_0_2_8 + x_0_2_9 - z_0_2 = 0
 c7: x_0_0_3 + x_0_10_3 + x_0_1_3 + x_0_2_3 + x_0_4_3 + x_0_5_3 + x_0_6_3 + x_0_7_3 + x_0_8_3 + x_0_9_3 - z_0_3 = 0
 c8: x_0_3_0 + x_0_3_1 + x_0_3_10 + x_0_3_2 + x_0_3_4 + x_0_3_5 + x_0_3_6 + x_0_3_7 + x_0_3_8 + x_0_3_9 - z_0_3 = 0
 c9: x_0_0_4 + x_0_10_4 + x_0_1_4 + x_0_2_4 + x_0_3_4 + x_0_5_4 + x_0_6_4 + x_0_7_4 + x_0_8_4 + x_0_9_4 - z_0_4 = 0
 c10: x_0_4_0 + x_0_4_1 + x_0_4_10 + x_0_4_2 + x_0_4_3 + x_0_4_5 + x_0_4_6 + x_0_4_7 + x_0_4_8 + x_0_4_9 - z_0_4 = 0
 c11: x_0_0_5 + x_0_10_5 + x_0_1_5 + x_0_2_5 + x_0_3_5 + x_0_4_5 + x_0_6_5 + x_0_7_5 + x_0_8_5 + x_0_9_5 - z_0_5 = 0
 c12: x_0_5_0 + x_0_5_1 + x_0_5_10 + x_0_5_2 + x_0_5_3 + x_0_5_4 + x_0_5_6 + x_0_5_7 + x_0_5_8 + x_0_5_9 - z_0_5 = 0
 c13: x_0_0_6 + x_0_10_6 + x_0_1_6 + x_0_2_6 + x_0_3_6 + x_0_4_6 + x_0_5_6 + x_0_7_6 + x_0_8_6 + x_0_9_6 - z_0_6 = 0
 c14: x_0_6_0 + x_0_6_1 + x_0_6_10 + x_0_6_2 + x_0_6_3 + x_0_6_4 + x_0_6_5 + x_0_6_7 + x_0_6_8 + x_0_6_9 - z_0_6 = 0
 c15: x_0_0_7 + x_0_10_7 + x_0_1_7 + x_0_2_7 + x_0_3_7 + x_0_4_7 + x_0_5_7 + x_0_6_7 + x_0_8_7 + x_0_9_7 - z_0_7 = 0
 c16: x_0_7_0 + x_0_7_1 + x_0_7_10 + x_0_7_2 + x_0_7_3 + x_0_7_4 + x_0_7_5 + x_0_7_6 + x_0_7_8 + x_0_7_9 - z_0_7 = 0
 c17: x_0_0_8 + x_0_10_8 + x_0_1_8 + x_0_2_8 + x_0_3_8 + x_0_4_8 + x_0_5_8 + x_0_6_8 + x_0_7_8 + x_0_9_8 - z_0_8 = 0
 c18: x_0_8_0 + x_0_8_1 + x_0_8_10 + x_0_8_2 + x_0_8_3 + x_0_8_4 + x_0_8_5 + x_0_8_6 + x_0_8_7 + x_0_8_9 - z_0_8 = 0
 c19: x_0_0_9 + x_0_10_9 + x_0_1_9 + x_0_2_9 + x_0_3_9 + x_0_4_9 + x_0_5_9 + x_0_6_9 + x_0_7_9 + x_0_8_9 - z_0_9 = 0
 c20: x_0_9_0 + x_0_9_1 + x_0_9_10 + x_0_9_2 + x_0_9_3 + x_0_9_4 + x_0_9_5 + x_0_9_6 + x_0_9_7 + x_0_9_8 - z_0_9 = 0
 c21: x_0_0_10 + x_0_1_10 + x_0_2_10 + x_0_3_10 + x_0_4_10 + x_0_5_10 + x_0_6_10 + x_0_7_10 + x_0_8_10 + x_0_9_10 - z_0_10 = 0
 c22: x_0_10_0 + x_0_10_1 + x_0_10_2 + x_0_10_3 + x_0_10_4 + x_0_10_5 + x_0_10_6 + x_0_10_7 + x_0_10_8 + x_0_10_9 - z_0_10 = 0
 c23: z_0_1 <= 1
 c24: z_0_2 <= 1
 c25: z_0_3 <= 1
 c26: z_0_4 <= 1
 c27: z_0_5 <= 1
 c28: z_0_6 <= 1
 c29: z_0_7 <= 1
 c30: z_0_8 <= 1
 c31: z_0_9 <= 1
 c32: z_0_10 <= 1
 c33: ord_0_1 - z_0_1 >= 0
 c34: ord_0_1 - 10 z_0_1 <= 0
 c35: ord_0_2 - z_0_2 >= 0
 c36: ord_0_2 - 10 z_0_2 <= 0
 c37: ord_0_3 - z_0_3 >= 0
 c38: ord_0_3 - 10 z_0_3 <= 0
 c39: ord_0_4 - z_0_4 >= 0
 c40: ord_0_4 - 10 z_0_4 <= 0
 c41: ord_0_5 - z_0_5 >= 0
 c42: ord_0_5 - 10 z_0_5 <= 0
 c43: ord_0_6 - z_0_6 >= 0
 c44: ord_0_6 - 10 z_0_6 <= 0
 c45: ord_0_7 - z_0_7 >= 0
 c46: ord_0_7 - 10 z_0_7 <= 0
 c47: ord_0_8 - z_0_8 >= 0
 c48: ord_0_8 - 10 z_0_8 <= 0
 c49: ord_0_9 - z_0_9 >= 0
 c50: ord_0_9 - 10 z_0_9 <= 0
 c51: ord_0_10 - z_0_10 >= 0
 c52: ord_0_10 - 10 z_0_10 <= 0
 c53: ord_0_1 - ord_0_2 + 10 x_0_1_2 <= 9
 c54: ord_0_1 - ord_0_3 + 10 x_0_1_3 <= 9
 c55: ord_0_1 - ord_0_4 + 10 x_0_1_4 <= 9
 c56: ord_0_1 - ord_0_5 + 10 x_0_1_5 <= 9
 c57: ord_0_1 - ord_0_6 + 10 x_0_1_6 <= 9
 c58: ord_0_1 - ord_0_7 + 10 x_0_1_7 <= 9
 c59: ord_0_1 - ord_0_8 + 10 x_0_1_8 <= 9
 c60: ord_0_1 - ord_0_9 + 10 x_0_1_9 <= 9
 c61: ord_0_1 - ord_0_10 + 10 x_0_1_10 <= 9
 c62: - ord_0_1 + ord_0_2 + 10 x_0_2_1 <= 9
 c63: ord_0_2 - ord_0_3 + 10 x_0_2_3 <= 9
 c64: ord_0_2 - ord_0_4 + 10 x_0_2_4 <= 9
 c65: ord_0_2 - ord_0_5 + 10 x_0_2_5 <= 9
 c66: ord_0_2 - ord_0_6 + 10 x_0_2_6 <= 9
 c67: ord_0_2 - ord_0_7 + 10 x_0_2_7 <= 9
 c68: ord_0_2 - ord_0_8 + 10 x_0_2_8 <= 9
 c69: ord_0_2 - ord_0_9 + 10 x_0_2_9 <= 9
 c70: - ord_0_10 + ord_0_2 + 10 x_0_2_10 <= 9
 c71: - ord_0_1 + ord_0_3 + 10 x_0_3_1 <= 9
 c72: - ord_0_2 + ord_0_3 + 10 x_0_3_2 <= 9
 c73: ord_0_3 - ord_0_4 + 10 x_0_3_4 <= 9
 c74: ord_0_3 - ord_0_5 + 10 x_0_3_5 <= 9
 c75: ord_0_3 - ord_0_6 + 10 x_0_3_6 <= 9
 c76: ord_0_3 - ord_0_7 + 10 x_0_3_7 <= 9
 c77: ord_0_3 - ord_0_8 + 10 x_0_3_8 <= 9
 c78: ord_0_3 - ord_0_9 + 10 x_0_3_9 <= 9
 c79: - ord_0_10 + ord_0_3 + 10 x_0_3_10 <= 9
 c80: - ord_0_1 + ord_0_4 + 10 x_0_4_1 <= 9
 c81: - ord_0_2 + ord_0_4 + 10 x_0_4_2 <= 9
 c82: - ord_0_3 + ord_0_4 + 10 x_0_4_3 <= 9
 c83: ord_0_4 - ord_0_5 + 10 x_0_4_5 <= 9
 c84: ord_0_4 - ord_0_6 + 10 x_0_4_6 <= 9
 c85: ord_0_4 - ord_0_7 + 10 x_0_4_7 <= 9
 c86: ord_0_4 - ord_0_8 + 10 x_0_4_8 <= 9
 c87: ord_0_4 - ord_0_9 + 10 x_0_4_9 <= 9
 c88: - ord_0_10 + ord_0_4 + 10 x_0_4_10 <= 9
 c89: - ord_0_1 + ord_0_5 + 10 x_0_5_1 <= 9
 c90: - ord_0_2 + ord_0_5 + 10 x_0_5_2 <= 9
 c91: - ord_0_3 + ord_0_5 + 10 x_0_5_3 <= 9
 c92: - ord_0_4 + ord_0_5 + 10 x_0_5_4 <= 9
 c93: ord_0_5 - ord_0_6 + 10 x_0_5_6 <= 9
 c94: ord_0_5 - ord_0_7 + 10 x_0_5_7 <= 9
 c95: ord_0_5 - ord_0_8 + 10 x_0_5_8 <= 9
 c96: ord_0_5 - ord_0_9 + 10 x_0_5_9 <= 9
 c97: - ord_0_10 + ord_0_5 + 10 x_0_5_10 <= 9
 c98: - ord_0_1 + ord_0_6 + 10 x_0_6_1 <= 9
 c99: - ord_0_2 + ord_0_6 + 10 x_0_6_2 <= 9
 c100: - ord_0_3 + ord_0_6 + 10 x_0_6_3 <= 9
 c101: - ord_0_4 + ord_0_6 + 10 x_0_6_4 <= 9
 c102: - ord_0_5 + ord_0_6 + 10 x_0_6_5 <= 9
 c103: ord_0_6 - ord_0_7 + 10 x_0_6_7 <= 9
 c104: ord_0_6 - ord_0_8 + 10 x_0_6_8 <= 9
 c105: ord_0_6 - ord_0_9 + 10 x_0_6_9 <= 9
 c106: - ord_0_10 + ord_0_6 + 10 x_0_6_10 <= 9
 c107: - ord_0_1 + ord_0_7 + 10 x_0_7_1 <= 9
 c108: - ord_0_2 + ord_0_7 + 10 x_0_7_2 <= 9
 c109: - ord_0_3 + ord_0_7 + 10 x_0_7_3 <= 9
 c110: - ord_0_4 + ord_0_7 + 10 x_0_7_4 <= 9
 c111: - ord_0_5 + ord_0_7 + 10 x_0_7_5 <= 9
 c112: - ord_0_6 + ord_0_7 + 10 x_0_7_6 <= 9
 c113: ord_0_7 - ord_0_8 + 10 x_0_7_8 <= 9
 c114: ord_0_7 - ord_0_9 + 10 x_0_7_9 <= 9
 c115: - ord_0_10 + ord_0_7 + 10 x_0_7_10 <= 9
 c116: - ord_0_1 + ord_0_8 + 10 x_0_8_1 <= 9
 c117: - ord_0_2 + ord_0_8 + 10 x_0_8_2 <= 9
 c118: - ord_0_3 + ord_0_8 + 10 x_0_8_3 <= 9
 c119: - ord_0_4 + ord_0_8 + 10 x_0_8_4 <= 9
 c120: - ord_0_5 + ord_0_8 + 10 x_0_8_5 <= 9
 c121: - ord_0_6 + ord_0_8 + 10 x_0_8_6 <= 9
 c122: - ord_0_7 + ord_0_8 + 10 x_0_8_7 <= 9
 c123: ord_0_8 - ord_0_9 + 10 x_0_8_9 <= 9
 c124: - ord_0_10 + ord_0_8 + 10 x_0_8_10 <= 9
 c125: - ord_0_1 + ord_0_9 + 10 x_0_9_1 <= 9
 c126: - ord_0_2 + ord_0_9 + 10 x_0_9_2 <= 9
 c127: - ord_0_3 + ord_0_9 + 10 x_0_9_3 <= 9
 c128: - ord_0_4 + ord_0_9 + 10 x_0_9_4 <= 9
 c129: - ord_0_5 + ord_0_9 + 10 x_0_9_5 <= 9
 c130: - ord_0_6 + ord_0_9 + 10 x_0_9_6 <= 9
 c131: - ord_0_7 + ord_0_9 + 10 x_0_9_7 <= 9
 c132: - ord_0_8 + ord_0_9 + 10 x_0_9_8 <= 9
 c133: - ord_0_10 + ord_0_9 + 10 x_0_9_10 <= 9
 c134: - ord_0_1 + ord_0_10 + 10 x_0_10_1 <= 9
 c135: ord_0_10 - ord_0_2 + 10 x_0_10_2 <= 9
 c136: ord_0_10 - ord_0_3 + 10 x_0_10_3 <= 9
 c137: ord_0_10 - ord_0_4 + 10 x_0_10_4 <= 9
 c138: ord_0_10 - ord_0_5 + 10 x_0_10_5 <= 9
 c139: ord_0_10 - ord_0_6 + 10 x_0_10_6 <= 9
 c140: ord_0_10 - ord_0_7 + 10 x_0_10_7 <= 9
 c141: ord_0_10 - ord_0_8 + 10 x_0_10_8 <= 9
 c142: ord_0_10 - ord_0_9 + 10 x_0_10_9 <= 9
 c143: p_0_1 - 3 z_0_1 <= 0
 c144: d_0_1 - 20 z_0_1 <= 0
 c145: mode_0_1 - z_0_1 <= 0
 c146: - 3 mode_0_1 + p_0_1 <= 0
 c147: d_0_1 + 20 mode_0_1 - 20 z_0_1 <= 0
 c148: d_0_1 + p_0_1 - z_0_1 >= 0
 c149: load_0_1 - 20 z_0_1 <= 0
 c150: p_0_2 - z_0_2 <= 0
 c151: d_0_2 - 20 z_0_2 <= 0
 c152: mode_0_2 - z_0_2 <= 0
 c153: - mode_0_2 + p_0_2 <= 0
 c154: d_0_2 + 20 mode_0_2 - 20 z_0_2 <= 0
 c155: d_0_2 + p_0_2 - z_0_2 >= 0
 c156: load_0_2 - 20 z_0_2 <= 0
 c157: p_0_3 - 20 z_0_3 <= 0
 c158: d_0_3 - 2 z_0_3 <= 0
 c159: mode_0_3 - z_0_3 <= 0
 c160: - 20 mode_0_3 + p_0_3 <= 0
 c161: d_0_3 + 2 mode_0_3 - 2 z_0_3 <= 0
 c162: d_0_3 + p_0_3 - z_0_3 >= 0
 c163: load_0_3 - 20 z_0_3 <= 0
 c164: p_0_4 - 20 z_0_4 <= 0
 c165: d_0_4 - z_0_4 <= 0
 c166: mode_0_4 - z_0_4 <= 0
 c167: - 20 mode_0_4 + p_0_4 <= 0
 c168: d_0_4 + mode_0_4 - z_0_4 <= 0
 c169: d_0_4 + p_0_4 - z_0_4 >= 0
 c170: load_0_4 - 20 z_0_4 <= 0
 c171: p_0_5 - 20 z_0_5 <= 0
 c172: d_0_5 - 5 z_0_5 <= 0
 c173: mode_0_5 - z_0_5 <= 0
 c174: - 20 mode_0_5 + p_0_5 <= 0
 c175: d_0_5 + 5 mode_0_5 - 5 z_0_5 <= 0
 c176: d_0_5 + p_0_5 - z_0_5 >= 0
 c177: load_0_5 - 20 z_0_5 <= 0
 c178: p_0_6 - 20 z_0_6 <= 0
 c179: d_0_6 - 3 z_0_6 <= 0
 c180: mode_0_6 - z_0_6 <= 0
 c181: - 20 mode_0_6 + p_0_6 <= 0
 c182: d_0_6 + 3 mode_0_6 - 3 z_0_6 <= 0
 c183: d_0_6 + p_0_6 - z_0_6 >= 0
 c184: load_0_6 - 20 z_0_6 <= 0
 c185: p_0_7 <= 0
 c186: d_0_7 - 20 z_0_7 <= 0
 c187: mode_0_7 - z_0_7 <= 0
 c188: p_0_7 <= 0
 c189: d_0_7 + 20 mode_0_7 - 20 z_0_7 <= 0
 c190: d_0_7 + p_0_7 - z_0_7 >= 0
 c191: load_0_7 - 20 z_0_7 <= 0
 c192: p_0_8 - z_0_8 <= 0
 c193: d_0_8 - 20 z_0_8 <= 0
 c194: mode_0_8 - z_0_8 <= 0
 c195: - mode_0_8 + p_0_8 <= 0
 c196: d_0_8 + 20 mode_0_8 - 20 z_0_8 <= 0
 c197: d_0_8 + p_0_8 - z_0_8 >= 0
 c198: load_0_8 - 20 z_0_8 <= 0
 c199: p_0_9 - 20 z_0_9 <= 0
 c200: d_0_9 - z_0_9 <= 0
 c201: mode_0_9 - z_0_9 <= 0
 c202: - 20 mode_0_9 + p_0_9 <= 0
 c203: d_0_9 + mode_0_9 - z_0_9 <= 0
 c204: d_0_9 + p_0_9 - z_0_9 >= 0
 c205: load_0_9 - 20 z_0_9 <= 0
 c206: p_0_10 - z_0_10 <= 0
 c207: d_0_10 - 20 z_0_10 <= 0
 c208: mode_0_10 - z_0_10 <= 0
 c209: - mode_0_10 + p_0_10 <= 0
 c210: d_0_10 + 20 mode_0_10 - 20 z_0_10 <= 0
 c211: d_0_10 + p_0_10 - z_0_10 >= 0
 c212: load_0_10 - 20 z_0_10 <= 0
 c213: d_0_1 + load_0_1 - p_0_1 + 20 x_0_0_1 <= 20
 c214: d_0_1 + load_0_1 - p_0_1 - 20 x_0_0_1 >= -20
 c215: d_0_2 + load_0_2 - p_0_2 + 20 x_0_0_2 <= 20
 c216: d_0_2 + load_0_2 - p_0_2 - 20 x_0_0_2 >= -20
 c217: d_0_3 + load_0_3 - p_0_3 + 20 x_0_0_3 <= 20
 c218: d_0_3 + load_0_3 - p_0_3 - 20 x_0_0_3 >= -20
 c219: d_0_4 + load_0_4 - p_0_4 + 20 x_0_0_4 <= 20
 c220: d_0_4 + load_0_4 - p_0_4 - 20 x_0_0_4 >= -20
 c221: d_0_5 + load_0_5 - p_0_5 + 20 x_0_0_5 <= 20
 c222: d_0_5 + load_0_5 - p_0_5 - 20 x_0_0_5 >= -20
 c223: d_0_6 + load_0_6 - p_0_6 + 20 x_0_0_6 <= 20
 c224: d_0_6 + load_0_6 - p_0_6 - 20 x_0_0_6 >= -20
 c225: d_0_7 + load_0_7 - p_0_7 + 20 x_0_0_7 <= 20
 c226: d_0_7 + load_0_7 - p_0_7 - 20 x_0_0_7 >= -20
 c227: d_0_8 + load_0_8 - p_0_8 + 20 x_0_0_8 <= 20
 c228: d_0_8 + load_0_8 - p_0_8 - 20 x_0_0_8 >= -20
 c229: d_0_9 + load_0_9 - p_0_9 + 20 x_0_0_9 <= 20
 c230: d_0_9 + load_0_9 - p_0_9 - 20 x_0_0_9 >= -20
 c231: d_0_10 + load_0_10 - p_0_10 + 20 x_0_0_10 <= 20
 c232: d_0_10 + load_0_10 - p_0_10 - 20 x_0_0_10 >= -20
 c233: d_0_2 - load_0_1 + load_0_2 - p_0_2 + 20 x_0_1_2 <= 20
 c234: d_0_2 - load_0_1 + load_0_2 - p_0_2 - 20 x_0_1_2 >= -20
 c235: d_0_3 - load_0_1 + load_0_3 - p_0_3 + 20 x_0_1_3 <= 20
 c236: d_0_3 - load_0_1 + load_0_3 - p_0_3 - 20 x_0_1_3 >= -20
 c237: d_0_4 - load_0_1 + load_0_4 - p_0_4 + 20 x_0_1_4 <= 20
 c238: d_0_4 - load_0_1 + load_0_4 - p_0_4 - 20 x_0_1_4 >= -20
 c239: d_0_5 - load_0_1 + load_0_5 - p_0_5 + 20 x_0_1_5 <= 20
 c240: d_0_5 - load_0_1 + load_0_5 - p_0_5 - 20 x_0_1_5 >= -20
 c241: d_0_6 - load_0_1 + load_0_6 - p_0_6 + 20 x_0_1_6 <= 20
 c242: d_0_6 - load_0_1 + load_0_6 - p_0_6 - 20 x_0_1_6 >= -20
 c243: d_0_7 - load_0_1 + load_0_7 - p_0_7 + 20 x_0_1_7 <= 20
 c244: d_0_7 - load_0_1 + load_0_7 - p_0_7 - 20 x_0_1_7 >= -20
 c245: d_0_8 - load_0_1 + load_0_8 - p_0_8 + 20 x_0_1_8 <= 20
 c246: d_0_8 - load_0_1 + load_0_8 - p_0_8 - 20 x_0_1_8 >= -20
 c247: d_0_9 - load_0_1 + load_0_9 - p_0_9 + 20 x_0_1_9 <= 20
 c248: d_0_9 - load_0_1 + load_0_9 - p_0_9 - 20 x_0_1_9 >= -20
 c249: d_0_10 - load_0_1 + load_0_10 - p_0_10 + 20 x_0_1_10 <= 20
 c250: d_0_10 - load_0_1 + load_0_10 - p_0_10 - 20 x_0_1_10 >= -20
 c251: d_0_1 + load_0_1 - load_0_2 - p_0_1 + 20 x_0_2_1 <= 20
 c252: d_0_1 + load_0_1 - load_0_2 - p_0_1 - 20 x_0_2_1 >= -20
 c253: d_0_3 - load_0_2 + load_0_3 - p_0_3 + 20 x_0_2_3 <= 20
 c254: d_0_3 - load_0_2 + load_0_3 - p_0_3 - 20 x_0_2_3 >= -20
 c255: d_0_4 - load_0_2 + load_0_4 - p_0_4 + 20 x_0_2_4 <= 20
 c256: d_0_4 - load_0_2 + load_0_4 - p_0_4 - 20 x_0_2_4 >= -20
 c257: d_0_5 - load_0_2 + load_0_5 - p_0_5 + 20 x_0_2_5 <= 20
 c258: d_0_5 - load_0_2 + load_0_5 - p_0_5 - 20 x_0_2_5 >= -20
 c259: d_0_6 - load_0_2 + load_0_6 - p_0_6 + 20 x_0_2_6 <= 20
 c260: d_0_6 - load_0_2 + load_0_6 - p_0_6 - 20 x_0_2_6 >= -20
 c261: d_0_7 - load_0_2 + load_0_7 - p_0_7 + 20 x_0_2_7 <= 20
 c262: d_0_7 - load_0_2 + load_0_7 - p_0_7 - 20 x_0_2_7 >= -20
 c263: d_0_8 - load_0_2 + load_0_8 - p_0_8 + 20 x_0_2_8 <= 20
 c264: d_0_8 - load_0_2 + load_0_8 - p_0_8 - 20 x_0_2_8 >= -20
 c265: d_0_9 - load_0_2 + load_0_9 - p_0_9 + 20 x_0_2_9 <= 20
 c266: d_0_9 - load_0_2 + load_0_9 - p_0_9 - 20 x_0_2_9 >= -20
 c267: d_0_10 + load_0_10 - load_0_2 - p_0_10 + 20 x_0_2_10 <= 20
 c268: d_0_10 + load_0_10 - load_0_2 - p_0_10 - 20 x_0_2_10 >= -20
 c269: d_0_1 + load_0_1 - load_0_3 - p_0_1 + 20 x_0_3_1 <= 20
 c270: d_0_1 + load_0_1 - load_0_3 - p_0_1 - 20 x_0_3_1 >= -20
 c271: d_0_2 + load_0_2 - load_0_3 - p_0_2 + 20 x_0_3_2 <= 20
 c272: d_0_2 + load_0_2 - load_0_3 - p_0_2 - 20 x_0_3_2 >= -20
 c273: d_0_4 - load_0_3 + load_0_4 - p_0_4 + 20 x_0_3_4 <= 20
 c274: d_0_4 - load_0_3 + load_0_4 - p_0_4 - 20 x_0_3_4 >= -20
 c275: d_0_5 - load_0_3 + load_0_5 - p_0_5 + 20 x_0_3_5 <= 20
 c276: d_0_5 - load_0_3 + load_0_5 - p_0_5 - 20 x_0_3_5 >= -20
 c277: d_0_6 - load_0_3 + load_0_6 - p_0_6 + 20 x_0_3_6 <= 20
 c278: d_0_6 - load_0_3 + load_0_6 - p_0_6 - 20 x_0_3_6 >= -20
 c279: d_0_7 - load_0_3 + load_0_7 - p_0_7 + 20 x_0_3_7 <= 20
 c280: d_0_7 - load_0_3 + load_0_7 - p_0_7 - 20 x_0_3_7 >= -20
 c281: d_0_8 - load_0_3 + load_0_8 - p_0_8 + 20 x_0_3_8 <= 20
 c282: d_0_8 - load_0_3 + load_0_8 - p_0_8 - 20 x_0_3_8 >= -20
 c283: d_0_9 - load_0_3 + load_0_9 - p_0_9 + 20 x_0_3_9 <= 20
 c284: d_0_9 - load_0_3 + load_0_9 - p_0_9 - 20 x_0_3_9 >= -20
 c285: d_0_10 + load_0_10 - load_0_3 - p_0_10 + 20 x_0_3_10 <= 20
 c286: d_0_10 + load_0_10 - load_0_3 - p_0_10 - 20 x_0_3_10 >= -20
 c287: d_0_1 + load_0_1 - load_0_4 - p_0_1 + 20 x_0_4_1 <= 20
 c288: d_0_1 + load_0_1 - load_0_4 - p_0_1 - 20 x_0_4_1 >= -20
 c289: d_0_2 + load_0_2 - load_0_4 - p_0_2 + 20 x_0_4_2 <= 20
 c290: d_0_2 + load_0_2 - load_0_4 - p_0_2 - 20 x_0_4_2 >= -20
 c291: d_0_3 + load_0_3 - load_0_4 - p_0_3 + 20 x_0_4_3 <= 20
 c292: d_0_3 + load_0_3 - load_0_4 - p_0_3 - 20 x_0_4_3 >= -20
 c293: d_0_5 - load_0_4 + load_0_5 - p_0_5 + 20 x_0_4_5 <= 20
 c294: d_0_5 - load_0_4 + load_0_5 - p_0_5 - 20 x_0_4_5 >= -20
 c295: d_0_6 - load_0_4 + load_0_6 - p_0_6 + 20 x_0_4_6 <= 20
 c296: d_0_6 - load_0_4 + load_0_6 - p_0_6 - 20 x_0_4_6 >= -20
 c297: d_0_7 - load_0_4 + load_0_7 - p_0_7 + 20 x_0_4_7 <= 20
 c298: d_0_7 - load_0_4 + load_0_7 - p_0_7 - 20 x_0_4_7 >= -20
 c299: d_0_8 - load_0_4 + load_0_8 - p_0_8 + 20 x_0_4_8 <= 20
 c300: d_0_8 - load_0_4 + load_0_8 - p_0_8 - 20 x_0_4_8 >= -20
 c301: d_0_9 - load_0_4 + load_0_9 - p_0_9 + 20 x_0_4_9 <= 20
 c302: d_0_9 - load_0_4 + load_0_9 - p_0_9 - 20 x_0_4_9 >= -20
 c303: d_0_10 + load_0_10 - load_0_4 - p_0_10 + 20 x_0_4_10 <= 20
 c304: d_0_10 + load_0_10 - load_0_4 - p_0_10 - 20 x_0_4_10 >= -20
 c305: d_0_1 + load_0_1 - load_0_5 - p_0_1 + 20 x_0_5_1 <= 20
 c306: d_0_1 + load_0_1 - load_0_5 - p_0_1 - 20 x_0_5_1 >= -20
 c307: d_0_2 + load_0_2 - load_0_5 - p_0_2 + 20 x_0_5_2 <= 20
 c308: d_0_2 + load_0_2 - load_0_5 - p_0_2 - 20 x_0_5_2 >= -20
 c309: d_0_3 + load_0_3 - load_0_5 - p_0_3 + 20 x_0_5_3 <= 20
 c310: d_0_3 + load_0_3 - load_0_5 - p_0_3 - 20 x_0_5_3 >= -20
 c311: d_0_4 + load_0_4 - load_0_5 - p_0_4 + 20 x_0_5_4 <= 20
 c312: d_0_4 + load_0_4 - load_0_5 - p_0_4 - 20 x_0_5_4 >= -20
 c313: d_0_6 - load_0_5 + load_0_6 - p_0_6 + 20 x_0_5_6 <= 20
 c314: d_0_6 - load_0_5 + load_0_6 - p_0_6 - 20 x_0_5_6 >= -20
 c315: d_0_7 - load_0_5 + load_0_7 - p_0_7 + 20 x_0_5_7 <= 20
 c316: d_0_7 - load_0_5 + load_0_7 - p_0_7 - 20 x_0_5_7 >= -20
 c317: d_0_8 - load_0_5 + load_0_8 - p_0_8 + 20 x_0_5_8 <= 20
 c318: d_0_8 - load_0_5 + load_0_8 - p_0_8 - 20 x_0_5_8 >= -20
 c319: d_0_9 - load_0_5 + load_0_9 - p_0_9 + 20 x_0_5_9 <= 20
 c320: d_0_9 - load_0_5 + load_0_9 - p_0_9 - 20 x_0_5_9 >= -20
 c321: d_0_10 + load_0_10 - load_0_5 - p_0_10 + 20 x_0_5_10 <= 20
 c322: d_0_10 + load_0_10 - load_0_5 - p_0_10 - 20 x_0_5_10 >= -20
 c323: d_0_1 + load_0_1 - load_0_6 - p_0_1 + 20 x_0_6_1 <= 20
 c324: d_0_1 + load_0_1 - load_0_6 - p_0_1 - 20 x_0_6_1 >= -20
 c325: d_0_2 + load_0_2 - load_0_6 - p_0_2 + 20 x_0_6_2 <= 20
 c326: d_0_2 + load_0_2 - load_0_6 - p_0_2 - 20 x_0_6_2 >= -20
 c327: d_0_3 + load_0_3 - load_0_6 - p_0_3 + 20 x_0_6_3 <= 20
 c328: d_0_3 + load_0_3 - load_0_6 - p_0_3 - 20 x_0_6_3 >= -20
 c329: d_0_4 + load_0_4 - load_0_6 - p_0_4 + 20 x_0_6_4 <= 20
 c330: d_0_4 + load_0_4 - load_0_6 - p_0_4 - 20 x_0_6_4 >= -20
 c331: d_0_5 + load_0_5 - load_0_6 - p_0_5 + 20 x_0_6_5 <= 20
 c332: d_0_5 + load_0_5 - load_0_6 - p_0_5 - 20 x_0_6_5 >= -20
 c333: d_0_7 - load_0_6 + load_0_7 - p_0_7 + 20 x_0_6_7 <= 20
 c334: d_0_7 - load_0_6 + load_0_7 - p_0_7 - 20 x_0_6_7 >= -20
 c335: d_0_8 - load_0_6 + load_0_8 - p_0_8 + 20 x_0_6_8 <= 20
 c336: d_0_8 - load_0_6 + load_0_8 - p_0_8 - 20 x_0_6_8 >= -20
 c337: d_0_9 - load_0_6 + load_0_9 - p_0_9 + 20 x_0_6_9 <= 20
 c338: d_0_9 - load_0_6 + load_0_9 - p_0_9 - 20 x_0_6_9 >= -20
 c339: d_0_10 + load_0_10 - load_0_6 - p_0_10 + 20 x_0_6_10 <= 20
 c340: d_0_10 + load_0_10 - load_0_6 - p_0_10 - 20 x_0_6_10 >= -20
 c341: d_0_1 + load_0_1 - load_0_7 - p_0_1 + 20 x_0_7_1 <= 20
 c342: d_0_1 + load_0_1 - load_0_7 - p_0_1 - 20 x_0_7_1 >= -20
 c343: d_0_2 + load_0_2 - load_0_7 - p_0_2 + 20 x_0_7_2 <= 20
 c344: d_0_2 + load_0_2 - load_0_7 - p_0_2 - 20 x_0_7_2 >= -20
 c345: d_0_3 + load_0_3 - load_0_7 - p_0_3 + 20 x_0_7_3 <= 20
 c346: d_0_3 + load_0_3 - load_0_7 - p_0_3 - 20 x_0_7_3 >= -20
 c347: d_0_4 + load_0_4 - load_0_7 - p_0_4 + 20 x_0_7_4 <= 20
 c348: d_0_4 + load_0_4 - load_0_7 - p_0_4 - 20 x_0_7_4 >= -20
 c349: d_0_5 + load_0_5 - load_0_7 - p_0_5 + 20 x_0_7_5 <= 20
 c350: d_0_5 + load_0_5 - load_0_7 - p_0_5 - 20 x_0_7_5 >= -20
 c351: d_0_6 + load_0_6 - load_0_7 - p_0_6 + 20 x_0_7_6 <= 20
 c352: d_0_6 + load_0_6 - load_0_7 - p_0_6 - 20 x_0_7_6 >= -20
 c353: d_0_8 - load_0_7 + load_0_8 - p_0_8 + 20 x_0_7_8 <= 20
 c354: d_0_8 - load_0_7 + load_0_8 - p_0_8 - 20 x_0_7_8 >= -20
 c355: d_0_9 - load_0_7 + load_0_9 - p_0_9 + 20 x_0_7_9 <= 20
 c356: d_0_9 - load_0_7 + load_0_9 - p_0_9 - 20 x_0_7_9 >= -20
 c357: d_0_10 + load_0_10 - load_0_7 - p_0_10 + 20 x_0_7_10 <= 20
 c358: d_0_10 + load_0_10 - load_0_7 - p_0_10 - 20 x_0_7_10 >= -20
 c359: d_0_1 + load_0_1 - load_0_8 - p_0_1 + 20 x_0_8_1 <= 20
 c360: d_0_1 + load_0_1 - load_0_8 - p_0_1 - 20 x_0_8_1 >= -20
 c361: d_0_2 + load_0_2 - load_0_8 - p_0_2 + 20 x_0_8_2 <= 20
 c362: d_0_2 + load_0_2 - load_0_8 - p_0_2 - 20 x_0_8_2 >= -20
 c363: d_0_3 + load_0_3 - load_0_8 - p_0_3 + 20 x_0_8_3 <= 20
 c364: d_0_3 + load_0_3 - load_0_8 - p_0_3 - 20 x_0_8_3 >= -20
 c365: d_0_4 + load_0_4 - load_0_8 - p_0_4 + 20 x_0_8_4 <= 20
 c366: d_0_4 + load_0_4 - load_0_8 - p_0_4 - 20 x_0_8_4 >= -20
 c367: d_0_5 + load_0_5 - load_0_8 - p_0_5 + 20 x_0_8_5 <= 20
 c368: d_0_5 + load_0_5 - load_0_8 - p_0_5 - 20 x_0_8_5 >= -20
 c369: d_0_6 + load_0_6 - load_0_8 - p_0_6 + 20 x_0_8_6 <= 20
 c370: d_0_6 + load_0_6 - load_0_8 - p_0_6 - 20 x_0_8_6 >= -20
 c371: d_0_7 + load_0_7 - load_0_8 - p_0_7 + 20 x_0_8_7 <= 20
 c372: d_0_7 + load_0_7 - load_0_8 - p_0_7 - 20 x_0_8_7 >= -20
 c373: d_0_9 - load_0_8 + load_0_9 - p_0_9 + 20 x_0_8_9 <= 20
 c374: d_0_9 - load_0_8 + load_0_9 - p_0_9 - 20 x_0_8_9 >= -20
 c375: d_0_10 + load_0_10 - load_0_8 - p_0_10 + 20 x_0_8_10 <= 20
 c376: d_0_10 + load_0_10 - load_0_8 - p_0_10 - 20 x_0_8_10 >= -20
 c377: d_0_1 + load_0_1 - load_0_9 - p_0_1 + 20 x_0_9_1 <= 20
 c378: d_0_1 + load_0_1 - load_0_9 - p_0_1 - 20 x_0_9_1 >= -20
 c379: d_0_2 + load_0_2 - load_0_9 - p_0_2 + 20 x_0_9_2 <= 20
 c380: d_0_2 + load_0_2 - load_0_9 - p_0_2 - 20 x_0_9_2 >= -20
 c381: d_0_3 + load_0_3 - load_0_9 - p_0_3 + 20 x_0_9_3 <= 20
 c382: d_0_3 + load_0_3 - load_0_9 - p_0_3 - 20 x_0_9_3 >= -20
 c383: d_0_4 + load_0_4 - load_0_9 - p_0_4 + 20 x_0_9_4 <= 20
 c384: d_0_4 + load_0_4 - load_0_9 - p_0_4 - 20 x_0_9_4 >= -20
 c385: d_0_5 + load_0_5 - load_0_9 - p_0_5 + 20 x_0_9_5 <= 20
 c386: d_0_5 + load_0_5 - load_0_9 - p_0_5 - 20 x_0_9_5 >= -20
 c387: d_0_6 + load_0_6 - load_0_9 - p_0_6 + 20 x_0_9_6 <= 20
 c388: d_0_6 + load_0_6 - load_0_9 - p_0_6 - 20 x_0_9_6 >= -20
 c389: d_0_7 + load_0_7 - load_0_9 - p_0_7 + 20 x_0_9_7 <= 20
 c390: d_0_7 + load_0_7 - load_0_9 - p_0_7 - 20 x_0_9_7 >= -20
 c391: d_0_8 + load_0_8 - load_0_9 - p_0_8 + 20 x_0_9_8 <= 20
 c392: d_0_8 + load_0_8 - load_0_9 - p_0_8 - 20 x_0_9_8 >= -20
 c393: d_0_10 + load_0_10 - load_0_9 - p_0_10 + 20 x_0_9_10 <= 20
 c394: d_0_10 + load_0_10 - load_0_9 - p_0_10 - 20 x_0_9_10 >= -20
 c395: d_0_1 + load_0_1 - load_0_10 - p_0_1 + 20 x_0_10_1 <= 20
 c396: d_0_1 + load_0_1 - load_0_10 - p_0_1 - 20 x_0_10_1 >= -20
 c397: d_0_2 - load_0_10 + load_0_2 - p_0_2 + 20 x_0_10_2 <= 20
 c398: d_0_2 - load_0_10 + load_0_2 - p_0_2 - 20 x_0_10_2 >= -20
 c399: d_0_3 - load_0_10 + load_0_3 - p_0_3 + 20 x_0_10_3 <= 20
 c400: d_0_3 - load_0_10 + load_0_3 - p_0_3 - 20 x_0_10_3 >= -20
 c401: d_0_4 - load_0_10 + load_0_4 - p_0_4 + 20 x_0_10_4 <= 20
 c402: d_0_4 - load_0_10 + load_0_4 - p_0_4 - 20 x_0_10_4 >= -20
 c403: d_0_5 - load_0_10 + load_0_5 - p_0_5 + 20 x_0_10_5 <= 20
 c404: d_0_5 - load_0_10 + load_0_5 - p_0_5 - 20 x_0_10_5 >= -20
 c405: d_0_6 - load_0_10 + load_0_6 - p_0_6 + 20 x_0_10_6 <= 20
 c406: d_0_6 - load_0_10 + load_0_6 - p_0_6 - 20 x_0_10_6 >= -20
 c407: d_0_7 - load_0_10 + load_0_7 - p_0_7 + 20 x_0_10_7 <= 20
 c408: d_0_7 - load_0_10 + load_0_7 - p_0_7 - 20 x_0_10_7 >= -20
 c409: d_0_8 - load_0_10 + load_0_8 - p_0_8 + 20 x_0_10_8 <= 20
 c410: d_0_8 - load_0_10 + load_0_8 - p_0_8 - 20 x_0_10_8 >= -20
 c411: d_0_9 - load_0_10 + load_0_9 - p_0_9 + 20 x_0_10_9 <= 20
 c412: d_0_9 - load_0_10 + load_0_9 - p_0_9 - 20 x_0_10_9 >= -20
 c413: - d_0_1 - d_0_10 - d_0_2 - d_0_3 - d_0_4 - d_0_5 - d_0_6 - d_0_7 - d_0_8 - d_0_9 + p_0_1 + p_0_10 + p_0_2 + p_0_3 + p_0_4 + p_0_5 + p_0_6 + p_0_7 + p_0_8 + p_0_9 >= 0
 c414: 120 p_0_1 + 120 p_0_10 + 120 p_0_2 + 120 p_0_3 + 120 p_0_4 + 120 p_0_5 + 120 p_0_6 + 120 p_0_7 + 120 p_0_8 + 120 p_0_9 + 286.1514350843189 x_0_0_1 + 287.8100965134804 x_0_0_10 + 236.96789951002026 x_0_0_2 + 259.78250612327628 x_0_0_3 + 274.81594800951035 x_0_0_4 + 173.3891095592985 x_0_0_5 + 253.32265703320982 x_0_0_6 + 243.3867656488186 x_0_0_7 + 243.14121522458564 x_0_0_8 + 273.47846016804664 x_0_0_9 + 287.8100965134804 x_0_10_0 + 55.958720182271072 x_0_10_1 + 431.77246146049691 x_0_10_2 + 493.4807660227886 x_0_10_3 + 61.163920116549065 x_0_10_4 + 422.07159774724033 x_0_10_5 + 479.19754164579331 x_0_10_6 + 66.033821613224674 x_0_10_7 + 444.84307837212651 x_0_10_8 + 526.65523275499493 x_0_10_9 + 286.1514350843189 x_0_1_0 + 55.958720182271072 x_0_1_10 + 399.55165847632475 x_0_1_2 + 512.66633657954424 x_0_1_3 + 114.22286274558623 x_0_1_4 + 401.27068485551155 x_0_1_5 + 499.81409603987549 x_0_1_6 + 108.48592749460602 x_0_1_7 + 413.29382192278831 x_0_1_8 + 541.45281776395097 x_0_1_9 + 236.96789951002026 x_0_2_0 + 399.55165847632475 x_0_2_1 + 431.77246146049691 x_0_2_10 + 432.69264151359181 x_0_2_3 + 449.1729632197401 x_0_2_4 + 96.082430355873228 x_0_2_5 + 435.22120231033654 x_0_2_6 + 417.9750091526351 x_0_2_7 + 14.773171193293301 x_0_2_8 + 418.97941709254764 x_0_2_9 + 259.78250612327628 x_0_3_0 + 512.66633657954424 x_0_3_1 + 493.4807660227886 x_0_3_10 + 432.69264151359181 x_0_3_2 + 454.31266293405298 x_0_3_4 + 337.86885455825137 x_0_3_5 + 19.206240941650197 x_0_3_6 + 431.30089895623422 x_0_3_7 + 430.92316748957859 x_0_3_8 + 52.744148764340729 x_0_3_9 + 274.81594800951035 x_0_4_0 + 114.22286274558623 x_0_4_1 + 61.163920116549065 x_0_4_10 + 449.1729632197401 x_0_4_2 + 454.31266293405298 x_0_4_3 + 426.28651655840105 x_0_4_5 + 438.82167756903317 x_0_4_6 + 32.255893862553826 x_0_4_7 + 461.22610982563151 x_0_4_8 + 491.37299302809419 x_0_4_9 + 173.3891095592985 x_0_5_0 + 401.27068485551155 x_0_5_1 + 422.07159774724033 x_0_5_10 + 96.082430355873228 x_0_5_2 + 337.86885455825137 x_0_5_3 + 426.28651655840105 x_0_5_4 + 341.27926387515066 x_0_5_6 + 394.05064369686198 x_0_5_7 + 93.088139893878974 x_0_5_8 + 322.93091686650899 x_0_5_9 + 253.32265703320982 x_0_6_0 + 499.81409603987549 x_0_6_1 + 479.19754164579331 x_0_6_10 + 435.22120231033654 x_0_6_2 + 19.206240941650197 x_0_6_3 + 438.82167756903317 x_0_6_4 + 341.27926387515066 x_0_6_5 + 416.4292130461854 x_0_6_7 + 434.09628797578608 x_0_6_8 + 71.633555420563724 x_0_6_9 + 243.3867656488186 x_0_7_0 + 108.48592749460602 x_0_7_1 + 66.033821613224674 x_0_7_10 + 417.9750091526351 x_0_7_2 + 431.30089895623422 x_0_7_3 + 32.255893862553826 x_0_7_4 + 394.05064369686198 x_0_7_5 + 416.4292130461854 x_0_7_6 + 429.87286234795675 x_0_7_8 + 466.55804912391477 x_0_7_9 + 243.14121522458564 x_0_8_0 + 413.29382192278831 x_0_8_1 + 444.84307837212651 x_0_8_10 + 14.773171193293301 x_0_8_2 + 430.92316748957859 x_0_8_3 + 461.22610982563151 x_0_8_4 + 93.088139893878974 x_0_8_5 + 434.09628797578608 x_0_8_6 + 429.87286234795675 x_0_8_7 + 415.47417850534742 x_0_8_9 + 273.47846016804664 x_0_9_0 + 541.45281776395097 x_0_9_1 + 526.65523275499493 x_0_9_10 + 418.97941709254764 x_0_9_2 + 52.744148764340729 x_0_9_3 + 491.37299302809419 x_0_9_4 + 322.93091686650899 x_0_9_5 + 71.633555420563724 x_0_9_6 + 466.55804912391477 x_0_9_7 + 415.47417850534742 x_0_9_8 <= 3600
 c415: Y_1 - d_0_1 + p_0_1 = 3
 c416: - 0.029411764705882353 Y_1 + r_1 = 0
 c417: e_1 - r_1 >= -1
 c418: e_1 + r_1 >= 1
 c419: Y_2 - d_0_2 + p_0_2 = 1
 c420: - 0.03125 Y_2 + r_2 = 0
 c421: e_2 - r_2 >= -1
 c422: e_2 + r_2 >= 1
 c423: Y_3 - d_0_3 + p_0_3 = 26
 c424: - 0.5 Y_3 + r_3 = 0
 c425: e_3 - r_3 >= -1
 c426: e_3 + r_3 >= 1
 c427: Y_4 - d_0_4 + p_0_4 = 42
 c428: - 0.10000000000000001 Y_4 + r_4 = 0
 c429: e_4 - r_4 >= -1
 c430: e_4 + r_4 >= 1
 c431: Y_5 - d_0_5 + p_0_5 = 42
 c432: - 0.066666666666666666 Y_5 + r_5 = 0
 c433: e_5 - r_5 >= -1
 c434: e_5 + r_5 >= 1
 c435: Y_6 - d_0_6 + p_0_6 = 26
 c436: - Y_6 + r_6 = 0
 c437: e_6 - r_6 >= -1
 c438: e_6 + r_6 >= 1
 c439: Y_7 - d_0_7 + p_0_7 = 0
 c440: - 0.037037037037037035 Y_7 + r_7 = 0
 c441: e_7 - r_7 >= -1
 c442: e_7 + r_7 >= 1
 c443: Y_8 - d_0_8 + p_0_8 = 1
 c444: - 0.034482758620689655 Y_8 + r_8 = 0
 c445: e_8 - r_8 >= -1
 c446: e_8 + r_8 >= 1
 c447: Y_9 - d_0_9 + p_0_9 = 45
 c448: - 0.066666666666666666 Y_9 + r_9 = 0
 c449: e_9 - r_9 >= -1
 c450: e_9 + r_9 >= 1
 c451: Y_10 - d_0_10 + p_0_10 = 1
 c452: - 0.027777777777777776 Y_10 + r_10 = 0
 c453: e_10 - r_10 >= -1
 c454: e_10 + r_10 >= 1
 c455: h_1_2 - r_1 + r_2 >= 0
 c456: h_1_2 + r_1 - r_2 >= 0
 c457: h_1_3 - r_1 + r_3 >= 0
 c458: h_1_3 + r_1 - r_3 >= 0
 c459: h_1_4 - r_1 + r_4 >= 0
 c460: h_1_4 + r_1 - r_4 >= 0
 c461: h_1_5 - r_1 + r_5 >= 0
 c462: h_1_5 + r_1 - r_5 >= 0
 c463: h_1_6 - r_1 + r_6 >= 0
 c464: h_1_6 + r_1 - r_6 >= 0
 c465: h_1_7 - r_1 + r_7 >= 0
 c466: h_1_7 + r_1 - r_7 >= 0
 c467: h_1_8 - r_1 + r_8 >= 0
 c468: h_1_8 + r_1 - r_8 >= 0
 c469: h_1_9 - r_1 + r_9 >= 0
 c470: h_1_9 + r_1 - r_9 >= 0
 c471: h_1_10 - r_1 + r_10 >= 0
 c472: h_1_10 + r_1 - r_10 >= 0
 c473: h_2_3 - r_2 + r_3 >= 0
 c474: h_2_3 + r_2 - r_3 >= 0
 c475: h_2_4 - r_2 + r_4 >= 0
 c476: h_2_4 + r_2 - r_4 >= 0
 c477: h_2_5 - r_2 + r_5 >= 0
 c478: h_2_5 + r_2 - r_5 >= 0
 c479: h_2_6 - r_2 + r_6 >= 0
 c480: h_2_6 + r_2 - r_6 >= 0
 c481: h_2_7 - r_2 + r_7 >= 0
 c482: h_2_7 + r_2 - r_7 >= 0
 c483: h_2_8 - r_2 + r_8 >= 0
 c484: h_2_8 + r_2 - r_8 >= 0
 c485: h_2_9 - r_2 + r_9 >= 0
 c486: h_2_9 + r_2 - r_9 >= 0
 c487: h_2_10 + r_10 - r_2 >= 0
 c488: h_2_10 - r_10 + r_2 >= 0
 c489: h_3_4 - r_3 + r_4 >= 0
 c490: h_3_4 + r_3 - r_4 >= 0
 c491: h_3_5 - r_3 + r_5 >= 0
 c492: h_3_5 + r_3 - r_5 >= 0
 c493: h_3_6 - r_3 + r_6 >= 0
 c494: h_3_6 + r_3 - r_6 >= 0
 c495: h_3_7 - r_3 + r_7 >= 0
 c496: h_3_7 + r_3 - r_7 >= 0
 c497: h_3_8 - r_3 + r_8 >= 0
 c498: h_3_8 + r_3 - r_8 >= 0
 c499: h_3_9 - r_3 + r_9 >= 0
 c500: h_3_9 + r_3 - r_9 >= 0
 c501: h_3_10 + r_10 - r_3 >= 0
 c502: h_3_10 - r_10 + r_3 >= 0
 c503: h_4_5 - r_4 + r_5 >= 0
 c504: h_4_5 + r_4 - r_5 >= 0
 c505: h_4_6 - r_4 + r_6 >= 0
 c506: h_4_6 + r_4 - r_6 >= 0
 c507: h_4_7 - r_4 + r_7 >= 0
 c508: h_4_7 + r_4 - r_7 >= 0
 c509: h_4_8 - r_4 + r_8 >= 0
 c510: h_4_8 + r_4 - r_8 >= 0
 c511: h_4_9 - r_4 + r_9 >= 0
 c512: h_4_9 + r_4 - r_9 >= 0
 c513: h_4_10 + r_10 - r_4 >= 0
 c514: h_4_10 - r_10 + r_4 >= 0
 c515: h_5_6 - r_5 + r_6 >= 0
 c516: h_5_6 + r_5 - r_6 >= 0
 c517: h_5_7 - r_5 + r_7 >= 0
 c518: h_5_7 + r_5 - r_7 >= 0
 c519: h_5_8 - r_5 + r_8 >= 0
 c520: h_5_8 + r_5 - r_8 >= 0
 c521: h_5_9 - r_5 + r_9 >= 0
 c522: h_5_9 + r_5 - r_9 >= 0
 c523: h_5_10 + r_10 - r_5 >= 0
 c524: h_5_10 - r_10 + r_5 >= 0
 c525: h_6_7 - r_6 + r_7 >= 0
 c526: h_6_7 + r_6 - r_7 >= 0
 c527: h_6_8 - r_6 + r_8 >= 0
 c528: h_6_8 + r_6 - r_8 >= 0
 c529: h_6_9 - r_6 + r_9 >= 0
 c530: h_6_9 + r_6 - r_9 >= 0
 c531: h_6_10 + r_10 - r_6 >= 0
 c532: h_6_10 - r_10 + r_6 >= 0
 c533: h_7_8 - r_7 + r_8 >= 0
 c534: h_7_8 + r_7 - r_8 >= 0
 c535: h_7_9 - r_7 + r_9 >= 0
 c536: h_7_9 + r_7 - r_9 >= 0
 c537: h_7_10 + r_10 - r_7 >= 0
 c538: h_7_10 - r_10 + r_7 >= 0
 c539: h_8_9 - r_8 + r_9 >= 0
 c540: h_8_9 + r_8 - r_9 >= 0
 c541: h_8_10 + r_10 - r_8 >= 0
 c542: h_8_10 - r_10 + r_8 >= 0
 c543: h_9_10 + r_10 - r_9 >= 0
 c544: h_9_10 - r_10 + r_9 >= 0
 c545: Y_1 - bit_1_0 - 2 bit_1_1 - 4 bit_1_2 - 8 bit_1_3 - 16 bit_1_4 - 32 bit_1_5 = 0
 c546: - prod_1_0 - 2 prod_1_1 - 4 prod_1_2 - 8 prod_1_3 - 16 prod_1_4 - 32 prod_1_5 + zprod_1 = 0
 c547: - G + prod_1_0 <= 0
 c548: - bit_1_0 + prod_1_0 <= 0
 c549: - G - bit_1_0 + prod_1_0 >= -1
 c550: - G + prod_1_1 <= 0
 c551: - bit_1_1 + prod_1_1 <= 0
 c552: - G - bit_1_1 + prod_1_1 >= -1
 c553: - G + prod_1_2 <= 0
 c554: - bit_1_2 + prod_1_2 <= 0
 c555: - G - bit_1_2 + prod_1_2 >= -1
 c556: - G + prod_1_3 <= 0
 c557: - bit_1_3 + prod_1_3 <= 0
 c558: - G - bit_1_3 + prod_1_3 >= -1
 c559: - G + prod_1_4 <= 0
 c560: - bit_1_4 + prod_1_4 <= 0
 c561: - G - bit_1_4 + prod_1_4 >= -1
 c562: - G + prod_1_5 <= 0
 c563: - bit_1_5 + prod_1_5 <= 0
 c564: - G - bit_1_5 + prod_1_5 >= -1
 c565: Y_2 - bit_2_0 - 2 bit_2_1 - 4 bit_2_2 - 8 bit_2_3 - 16 bit_2_4 - 32 bit_2_5 = 0
 c566: - prod_2_0 - 2 prod_2_1 - 4 prod_2_2 - 8 prod_2_3 - 16 prod_2_4 - 32 prod_2_5 + zprod_2 = 0
 c567: - G + prod_2_0 <= 0
 c568: - bit_2_0 + prod_2_0 <= 0
 c569: - G - bit_2_0 + prod_2_0 >= -1
 c570: - G + prod_2_1 <= 0
 c571: - bit_2_1 + prod_2_1 <= 0
 c572: - G - bit_2_1 + prod_2_1 >= -1
 c573: - G + prod_2_2 <= 0
 c574: - bit_2_2 + prod_2_2 <= 0
 c575: - G - bit_2_2 + prod_2_2 >= -1
 c576: - G + prod_2_3 <= 0
 c577: - bit_2_3 + prod_2_3 <= 0
 c578: - G - bit_2_3 + prod_2_3 >= -1
 c579: - G + prod_2_4 <= 0
 c580: - bit_2_4 + prod_2_4 <= 0
 c581: - G - bit_2_4 + prod_2_4 >= -1
 c582: - G + prod_2_5 <= 0
 c583: - bit_2_5 + prod_2_5 <= 0
 c584: - G - bit_2_5 + prod_2_5 >= -1
 c585: Y_3 - bit_3_0 - 2 bit_3_1 - 4 bit_3_2 - 8 bit_3_3 - 16 bit_3_4 = 0
 c586: - prod_3_0 - 2 prod_3_1 - 4 prod_3_2 - 8 prod_3_3 - 16 prod_3_4 + zprod_3 = 0
 c587: - G + prod_3_0 <= 0
 c588: - bit_3_0 + prod_3_0 <= 0
 c589: - G - bit_3_0 + prod_3_0 >= -1
 c590: - G + prod_3_1 <= 0
 c591: - bit_3_1 + prod_3_1 <= 0
 c592: - G - bit_3_1 + prod_3_1 >= -1
 c593: - G + prod_3_2 <= 0
 c594: - bit_3_2 + prod_3_2 <= 0
 c595: - G - bit_3_2 + prod_3_2 >= -1
 c596: - G + prod_3_3 <= 0
 c597: - bit_3_3 + prod_3_3 <= 0
 c598: - G - bit_3_3 + prod_3_3 >= -1
 c599: - G + prod_3_4 <= 0
 c600: - bit_3_4 + prod_3_4 <= 0
 c601: - G - bit_3_4 + prod_3_4 >= -1
 c602: Y_4 - bit_4_0 - 2 bit_4_1 - 4 bit_4_2 - 8 bit_4_3 - 16 bit_4_4 - 32 bit_4_5 = 0
 c603: - prod_4_0 - 2 prod_4_1 - 4 prod_4_2 - 8 prod_4_3 - 16 prod_4_4 - 32 prod_4_5 + zprod_4 = 0
 c604: - G + prod_4_0 <= 0
 c605: - bit_4_0 + prod_4_0 <= 0
 c606: - G - bit_4_0 + prod_4_0 >= -1
 c607: - G + prod_4_1 <= 0
 c608: - bit_4_1 + prod_4_1 <= 0
 c609: - G - bit_4_1 + prod_4_1 >= -1
 c610: - G + prod_4_2 <= 0
 c611: - bit_4_2 + prod_4_2 <= 0
 c612: - G - bit_4_2 + prod_4_2 >= -1
 c613: - G + prod_4_3 <= 0
 c614: - bit_4_3 + prod_4_3 <= 0
 c615: - G - bit_4_3 + prod_4_3 >= -1
 c616: - G + prod_4_4 <= 0
 c617: - bit_4_4 + prod_4_4 <= 0
 c618: - G - bit_4_4 + prod_4_4 >= -1
 c619: - G + prod_4_5 <= 0
 c620: - bit_4_5 + prod_4_5 <= 0
 c621: - G - bit_4_5 + prod_4_5 >= -1
 c622: Y_5 - bit_5_0 - 2 bit_5_1 - 4 bit_5_2 - 8 bit_5_3 - 16 bit_5_4 - 32 bit_5_5 = 0
 c623: - prod_5_0 - 2 prod_5_1 - 4 prod_5_2 - 8 prod_5_3 - 16 prod_5_4 - 32 prod_5_5 + zprod_5 = 0
 c624: - G + prod_5_0 <= 0
 c625: - bit_5_0 + prod_5_0 <= 0
 c626: - G - bit_5_0 + prod_5_0 >= -1
 c627: - G + prod_5_1 <= 0
 c628: - bit_5_1 + prod_5_1 <= 0
 c629: - G - bit_5_1 + prod_5_1 >= -1
 c630: - G + prod_5_2 <= 0
 c631: - bit_5_2 + prod_5_2 <= 0
 c632: - G - bit_5_2 + prod_5_2 >= -1
 c633: - G + prod_5_3 <= 0
 c634: - bit_5_3 + prod_5_3 <= 0
 c635: - G - bit_5_3 + prod_5_3 >= -1
 c636: - G + prod_5_4 <= 0
 c637: - bit_5_4 + prod_5_4 <= 0
 c638: - G - bit_5_4 + prod_5_4 >= -1
 c639: - G + prod_5_5 <= 0
 c640: - bit_5_5 + prod_5_5 <= 0
 c641: - G - bit_5_5 + prod_5_5 >= -1
 c642: Y_6 - bit_6_0 - 2 bit_6_1 - 4 bit_6_2 - 8 bit_6_3 - 16 bit_6_4 = 0
 c643: - prod_6_0 - 2 prod_6_1 - 4 prod_6_2 - 8 prod_6_3 - 16 prod_6_4 + zprod_6 = 0
 c644: - G + prod_6_0 <= 0
 c645: - bit_6_0 + prod_6_0 <= 0
 c646: - G - bit_6_0 + prod_6_0 >= -1
 c647: - G + prod_6_1 <= 0
 c648: - bit_6_1 + prod_6_1 <= 0
 c649: - G - bit_6_1 + prod_6_1 >= -1
 c650: - G + prod_6_2 <= 0
 c651: - bit_6_2 + prod_6_2 <= 0
 c652: - G - bit_6_2 + prod_6_2 >= -1
 c653: - G + prod_6_3 <= 0
 c654: - bit_6_3 + prod_6_3 <= 0
 c655: - G - bit_6_3 + prod_6_3 >= -1
 c656: - G + prod_6_4 <= 0
 c657: - bit_6_4 + prod_6_4 <= 0
 c658: - G - bit_6_4 + prod_6_4 >= -1
 c659: Y_7 - bit_7_0 - 2 bit_7_1 - 4 bit_7_2 - 8 bit_7_3 - 16 bit_7_4 - 32 bit_7_5 = 0
 c660: - prod_7_0 - 2 prod_7_1 - 4 prod_7_2 - 8 prod_7_3 - 16 prod_7_4 - 32 prod_7_5 + zprod_7 = 0
 c661: - G + prod_7_0 <= 0
 c662: - bit_7_0 + prod_7_0 <= 0
 c663: - G - bit_7_0 + prod_7_0 >= -1
 c664: - G + prod_7_1 <= 0
 c665: - bit_7_1 + prod_7_1 <= 0
 c666: - G - bit_7_1 + prod_7_1 >= -1
 c667: - G + prod_7_2 <= 0
 c668: - bit_7_2 + prod_7_2 <= 0
 c669: - G - bit_7_2 + prod_7_2 >= -1
 c670: - G + prod_7_3 <= 0
 c671: - bit_7_3 + prod_7_3 <= 0
 c672: - G - bit_7_3 + prod_7_3 >= -1
 c673: - G + prod_7_4 <= 0
 c674: - bit_7_4 + prod_7_4 <= 0
 c675: - G - bit_7_4 + prod_7_4 >= -1
 c676: - G + prod_7_5 <= 0
 c677: - bit_7_5 + prod_7_5 <= 0
 c678: - G - bit_7_5 + prod_7_5 >= -1
 c679: Y_8 - bit_8_0 - 2 bit_8_1 - 4 bit_8_2 - 8 bit_8_3 - 16 bit_8_4 = 0
 c680: - prod_8_0 - 2 prod_8_1 - 4 prod_8_2 - 8 prod_8_3 - 16 prod_8_4 + zprod_8 = 0
 c681: - G + prod_8_0 <= 0
 c682: - bit_8_0 + prod_8_0 <= 0
 c683: - G - bit_8_0 + prod_8_0 >= -1
 c684: - G + prod_8_1 <= 0
 c685: - bit_8_1 + prod_8_1 <= 0
 c686: - G - bit_8_1 + prod_8_1 >= -1
 c687: - G + prod_8_2 <= 0
 c688: - bit_8_2 + prod_8_2 <= 0
 c689: - G - bit_8_2 + prod_8_2 >= -1
 c690: - G + prod_8_3 <= 0
 c691: - bit_8_3 + prod_8_3 <= 0
 c692: - G - bit_8_3 + prod_8_3 >= -1
 c693: - G + prod_8_4 <= 0
 c694: - bit_8_4 + prod_8_4 <= 0
 c695: - G - bit_8_4 + prod_8_4 >= -1
 c696: Y_9 - bit_9_0 - 2 bit_9_1 - 4 bit_9_2 - 8 bit_9_3 - 16 bit_9_4 - 32 bit_9_5 = 0
 c697: - prod_9_0 - 2 prod_9_1 - 4 prod_9_2 - 8 prod_9_3 - 16 prod_9_4 - 32 prod_9_5 + zprod_9 = 0
 c698: - G + prod_9_0 <= 0
 c699: - bit_9_0 + prod_9_0 <= 0
 c700: - G - bit_9_0 + prod_9_0 >= -1
 c701: - G + prod_9_1 <= 0
 c702: - bit_9_1 + prod_9_1 <= 0
 c703: - G - bit_9_1 + prod_9_1 >= -1
 c704: - G + prod_9_2 <= 0
 c705: - bit_9_2 + prod_9_2 <= 0
 c706: - G - bit_9_2 + prod_9_2 >= -1
 c707: - G + prod_9_3 <= 0
 c708: - bit_9_3 + prod_9_3 <= 0
 c709: - G - bit_9_3 + prod_9_3 >= -1
 c710: - G + prod_9_4 <= 0
 c711: - bit_9_4 + prod_9_4 <= 0
 c712: - G - bit_9_4 + prod_9_4 >= -1
 c713: - G + prod_9_5 <= 0
 c714: - bit_9_5 + prod_9_5 <= 0
 c715: - G - bit_9_5 + prod_9_5 >= -1
 c716: Y_10 - bit_10_0 - 2 bit_10_1 - 4 bit_10_2 - 8 bit_10_3 - 16 bit_10_4 - 32 bit_10_5 = 0
 c717: - prod_10_0 - 2 prod_10_1 - 4 prod_10_2 - 8 prod_10_3 - 16 prod_10_4 - 32 prod_10_5 + zprod_10 = 0
 c718: - G + prod_10_0 <= 0
 c719: - bit_10_0 + prod_10_0 <= 0
 c720: - G - bit_10_0 + prod_10_0 >= -1
 c721: - G + prod_10_1 <= 0
 c722: - bit_10_1 + prod_10_1 <= 0
 c723: - G - bit_10_1 + prod_10_1 >= -1
 c724: - G + prod_10_2 <= 0
 c725: - bit_10_2 + prod_10_2 <= 0
 c726: - G - bit_10_2 + prod_10_2 >= -1
 c727: - G + prod_10_3 <= 0
 c728: - bit_10_3 + prod_10_3 <= 0
 c729: - G - bit_10_3 + prod_10_3 >= -1
 c730: - G + prod_10_4 <= 0
 c731: - bit_10_4 + prod_10_4 <= 0
 c732: - G - bit_10_4 + prod_10_4 >= -1
 c733: - G + prod_10_5 <= 0
 c734: - bit_10_5 + prod_10_5 <= 0
 c735: - G - bit_10_5 + prod_10_5 >= -1
 c736: - h_1_10 - h_1_2 - h_1_3 - h_1_4 - h_1_5 - h_1_6 - h_1_7 - h_1_8 - h_1_9 - h_2_10 - h_2_3 - h_2_4 - h_2_5 - h_2_6 - h_2_7 - h_2_8 - h_2_9 - h_3_10 - h_3_4 - h_3_5 - h_3_6 - h_3_7 - h_3_8 - h_3_9 - h_4_10 - h_4_5 - h_4_6 - h_4_7 - h_4_8 - h_4_9 - h_5_10 - h_5_6 - h_5_7 - h_5_8 - h_5_9 - h_6_10 - h_6_7 - h_6_8 - h_6_9 - h_7_10 - h_7_8 - h_7_9 - h_8_10 - h_8_9 - h_9_10 + 0.29411764705882354 zprod_1 + 0.27777777777777779 zprod_10 + 0.3125 zprod_2 + 5 zprod_3 + zprod_4 + 0.66666666666666663 zprod_5 + 10 zprod_6 + 0.37037037037037035 zprod_7 + 0.34482758620689657 zprod_8 + 0.66666666666666663 zprod_9 >= 0
Bounds
 0 <= G <= 1
 0 <= Y_1 <= 39
 0 <= Y_10 <= 46
 0 <= Y_2 <= 35
 0 <= Y_3 <= 28
 0 <= Y_4 <= 43
 0 <= Y_5 <= 47
 0 <= Y_6 <= 29
 0 <= Y_7 <= 36
 0 <= Y_8 <= 30
 0 <= Y_9 <= 46
 0 <= bit_10_0 <= 1
 0 <= bit_10_1 <= 1
 0 <= bit_10_2 <= 1
 0 <= bit_10_3 <= 1
 0 <= bit_10_4 <= 1
 0 <= bit_10_5 <= 1
 0 <= bit_1_0 <= 1
 0 <= bit_1_1 <= 1
 0 <= bit_1_2 <= 1
 0 <= bit_1_3 <= 1
 0 <= bit_1_4 <= 1
 0 <= bit_1_5 <= 1
 0 <= bit_2_0 <= 1
 0 <= bit_2_1 <= 1
 0 <= bit_2_2 <= 1
 0 <= bit_2_3 <= 1
 0 <= bit_2_4 <= 1
 0 <= bit_2_5 <= 1
 0 <= bit_3_0 <= 1
 0 <= bit_3_1 <= 1
 0 <= bit_3_2 <= 1
 0 <= bit_3_3 <= 1
 0 <= bit_3_4 <= 1
 0 <= bit_4_0 <= 1
 0 <= bit_4_1 <= 1
 0 <= bit_4_2 <= 1
 0 <= bit_4_3 <= 1
 0 <= bit_4_4 <= 1
 0 <= bit_4_5 <= 1
 0 <= bit_5_0 <= 1
 0 <= bit_5_1 <= 1
 0 <= bit_5_2 <= 1
 0 <= bit_5_3 <= 1
 0 <= bit_5_4 <= 1
 0 <= bit_5_5 <= 1
 0 <= bit_6_0 <= 1
 0 <= bit_6_1 <= 1
 0 <= bit_6_2 <= 1
 0 <= bit_6_3 <= 1
 0 <= bit_6_4 <= 1
 0 <= bit_7_0 <= 1
 0 <= bit_7_1 <= 1
 0 <= bit_7_2 <= 1
 0 <= bit_7_3 <= 1
 0 <= bit_7_4 <= 1
 0 <= bit_7_5 <= 1
 0 <= bit_8_0 <= 1
 0 <= bit_8_1 <= 1
 0 <= bit_8_2 <= 1
 0 <= bit_8_3 <= 1
 0 <= bit_8_4 <= 1
 0 <= bit_9_0 <= 1
 0 <= bit_9_1 <= 1
 0 <= bit_9_2 <= 1
 0 <= bit_9_3 <= 1
 0 <= bit_9_4 <= 1
 0 <= bit_9_5 <= 1
 0 <= d_0_1 <= 20
 0 <= d_0_10 <= 20
 0 <= d_0_2 <= 20
 0 <= d_0_3 <= 2
 0 <= d_0_4 <= 1
 0 <= d_0_5 <= 5
 0 <= d_0_6 <= 3
 0 <= d_0_7 <= 20
 0 <= d_0_8 <= 20
 0 <= d_0_9 <= 1
 0 <= e_1 <= 1
 0 <= e_10 <= 1
 0 <= e_2 <= 1
 0 <= e_3 <= 13
 0 <= e_4 <= 3.2999999999999998
 0 <= e_5 <= 2.1333333333333333
 0 <= e_6 <= 28
 0 <= e_7 <= 1
 0 <= e_8 <= 1
 0 <= e_9 <= 2.0666666666666669
 0 <= h_1_10 <= 2.4248366013071894
 0 <= h_1_2 <= 2.2408088235294117
 0 <= h_1_3 <= 15.147058823529411
 0 <= h_1_4 <= 5.447058823529412
 0 <= h_1_5 <= 4.280392156862745
 0 <= h_1_6 <= 30.147058823529413
 0 <= h_1_7 <= 2.4803921568627452
 0 <= h_1_8 <= 2.1815415821501016
 0 <= h_1_9 <= 4.2137254901960786
 0 <= h_2_10 <= 2.3715277777777777
 0 <= h_2_3 <= 15.09375
 0 <= h_2_4 <= 5.3937499999999998
 0 <= h_2_5 <= 4.2270833333333329
 0 <= h_2_6 <= 30.09375
 0 <= h_2_7 <= 2.427083333333333
 0 <= h_2_8 <= 2.1282327586206895
 0 <= h_2_9 <= 4.1604166666666664
 0 <= h_3_10 <= 15.277777777777779
 0 <= h_3_4 <= 18.300000000000001
 0 <= h_3_5 <= 17.133333333333333
 0 <= h_3_6 <= 43
 0 <= h_3_7 <= 15.333333333333334
 0 <= h_3_8 <= 15.03448275862069
 0 <= h_3_9 <= 17.066666666666666
 0 <= h_4_10 <= 5.5777777777777775
 0 <= h_4_5 <= 7.4333333333333336
 0 <= h_4_6 <= 33.299999999999997
 0 <= h_4_7 <= 5.6333333333333329
 0 <= h_4_8 <= 5.3344827586206893
 0 <= h_4_9 <= 7.3666666666666671
 0 <= h_5_10 <= 4.4111111111111114
 0 <= h_5_6 <= 32.133333333333333
 0 <= h_5_7 <= 4.4666666666666668
 0 <= h_5_8 <= 4.1678160919540232
 0 <= h_5_9 <= 6.2000000000000002
 0 <= h_6_10 <= 30.277777777777779
 0 <= h_6_7 <= 30.333333333333332
 0 <= h_6_8 <= 30.03448275862069
 0 <= h_6_9 <= 32.06666666666667
 0 <= h_7_10 <= 2.6111111111111107
 0 <= h_7_8 <= 2.367816091954023
 0 <= h_7_9 <= 4.4000000000000004
 0 <= h_8_10 <= 2.3122605363984672
 0 <= h_8_9 <= 4.1011494252873568
 0 <= h_9_10 <= 4.344444444444445
 0 <= load_0_1 <= 20
 0 <= load_0_10 <= 20
 0 <= load_0_2 <= 20
 0 <= load_0_3 <= 20
 0 <= load_0_4 <= 20
 0 <= load_0_5 <= 20
 0 <= load_0_6 <= 20
 0 <= load_0_7 <= 20
 0 <= load_0_8 <= 20
 0 <= load_0_9 <= 20
 0 <= mode_0_1 <= 1
 0 <= mode_0_10 <= 1
 0 <= mode_0_2 <= 1
 0 <= mode_0_3 <= 1
 0 <= mode_0_4 <= 1
 0 <= mode_0_5 <= 1
 0 <= mode_0_6 <= 1
 0 <= mode_0_7 <= 1
 0 <= mode_0_8 <= 1
 0 <= mode_0_9 <= 1
 0 <= ord_0_1 <= 10
 0 <= ord_0_10 <= 10
 0 <= ord_0_2 <= 10
 0 <= ord_0_3 <= 10
 0 <= ord_0_4 <= 10
 0 <= ord_0_5 <= 10
 0 <= ord_0_6 <= 10
 0 <= ord_0_7 <= 10
 0 <= ord_0_8 <= 10
 0 <= ord_0_9 <= 10
 0 <= p_0_1 <= 3
 0 <= p_0_10 <= 1
 0 <= p_0_2 <= 1
 0 <= p_0_3 <= 20
 0 <= p_0_4 <= 20
 0 <= p_0_5 <= 20
 0 <= p_0_6 <= 20
 0 <= p_0_7 <= 0
 0 <= p_0_8 <= 1
 0 <= p_0_9 <= 20
 0 <= prod_10_0 <= 1
 0 <= prod_10_1 <= 1
 0 <= prod_10_2 <= 1
 0 <= prod_10_3 <= 1
 0 <= prod_10_4 <= 1
 0 <= prod_10_5 <= 1
 0 <= prod_1_0 <= 1
 0 <= prod_1_1 <= 1
 0 <= prod_1_2 <= 1
 0 <= prod_1_3 <= 1
 0 <= prod_1_4 <= 1
 0 <= prod_1_5 <= 1
 0 <= prod_2_0 <= 1
 0 <= prod_2_1 <= 1
 0 <= prod_2_2 <= 1
 0 <= prod_2_3 <= 1
 0 <= prod_2_4 <= 1
 0 <= prod_2_5 <= 1
 0 <= prod_3_0 <= 1
 0 <= prod_3_1 <= 1
 0 <= prod_3_2 <= 1
 0 <= prod_3_3 <= 1
 0 <= prod_3_4 <= 1
 0 <= prod_4_0 <= 1
 0 <= prod_4_1 <= 1
 0 <= prod_4_2 <= 1
 0 <= prod_4_3 <= 1
 0 <= prod_4_4 <= 1
 0 <= prod_4_5 <= 1
 0 <= prod_5_0 <= 1
 0 <= prod_5_1 <= 1
 0 <= prod_5_2 <= 1
 0 <= prod_5_3 <= 1
 0 <= prod_5_4 <= 1
 0 <= prod_5_5 <= 1
 0 <= prod_6_0 <= 1
 0 <= prod_6_1 <= 1
 0 <= prod_6_2 <= 1
 0 <= prod_6_3 <= 1
 0 <= prod_6_4 <= 1
 0 <= prod_7_0 <= 1
 0 <= prod_7_1 <= 1
 0 <= prod_7_2 <= 1
 0 <= prod_7_3 <= 1
 0 <= prod_7_4 <= 1
 0 <= prod_7_5 <= 1
 0 <= prod_8_0 <= 1
 0 <= prod_8_1 <= 1
 0 <= prod_8_2 <= 1
 0 <= prod_8_3 <= 1
 0 <= prod_8_4 <= 1
 0 <= prod_9_0 <= 1
 0 <= prod_9_1 <= 1
 0 <= prod_9_2 <= 1
 0 <= prod_9_3 <= 1
 0 <= prod_9_4 <= 1
 0 <= prod_9_5 <= 1
 0 <= r_1 <= 1.1470588235294117
 0 <= r_10 <= 1.2777777777777777
 0 <= r_2 <= 1.09375
 0 <= r_3 <= 14
 0 <= r_4 <= 4.2999999999999998
 0 <= r_5 <= 3.1333333333333333
 0 <= r_6 <= 29
 0 <= r_7 <= 1.3333333333333333
 0 <= r_8 <= 1.0344827586206897
 0 <= r_9 <= 3.0666666666666669
 0 <= x_0_0_1 <= 1
 0 <= x_0_0_10 <= 1
 0 <= x_0_0_2 <= 1
 0 <= x_0_0_3 <= 1
 0 <= x_0_0_4 <= 1
 0 <= x_0_0_5 <= 1
 0 <= x_0_0_6 <= 1
 0 <= x_0_0_7 <= 1
 0 <= x_0_0_8 <= 1
 0 <= x_0_0_9 <= 1
 0 <= x_0_10_0 <= 1
 0 <= x_0_10_1 <= 1
 0 <= x_0_10_2 <= 1
 0 <= x_0_10_3 <= 1
 0 <= x_0_10_4 <= 1
 0 <= x_0_10_5 <= 1
 0 <= x_0_10_6 <= 1
 0 <= x_0_10_7 <= 1
 0 <= x_0_10_8 <= 1
 0 <= x_0_10_9 <= 1
 0 <= x_0_1_0 <= 1
 0 <= x_0_1_10 <= 1
 0 <= x_0_1_2 <= 1
 0 <= x_0_1_3 <= 1
 0 <= x_0_1_4 <= 1
 0 <= x_0_1_5 <= 1
 0 <= x_0_1_6 <= 1
 0 <= x_0_1_7 <= 1
 0 <= x_0_1_8 <= 1
 0 <= x_0_1_9 <= 1
 0 <= x_0_2_0 <= 1
 0 <= x_0_2_1 <= 1
 0 <= x_0_2_10 <= 1
 0 <= x_0_2_3 <= 1
 0 <= x_0_2_4 <= 1
 0 <= x_0_2_5 <= 1
 0 <= x_0_2_6 <= 1
 0 <= x_0_2_7 <= 1
 0 <= x_0_2_8 <= 1
 0 <= x_0_2_9 <= 1
 0 <= x_0_3_0 <= 1
 0 <= x_0_3_1 <= 1
 0 <= x_0_3_10 <= 1
 0 <= x_0_3_2 <= 1
 0 <= x_0_3_4 <= 1
 0 <= x_0_3_5 <= 1
 0 <= x_0_3_6 <= 1
 0 <= x_0_3_7 <= 1
 0 <= x_0_3_8 <= 1
 0 <= x_0_3_9 <= 1
 0 <= x_0_4_0 <= 1
 0 <= x_0_4_1 <= 1
 0 <= x_0_4_10 <= 1
 0 <= x_0_4_2 <= 1
 0 <= x_0_4_3 <= 1
 0 <= x_0_4_5 <= 1
 0 <= x_0_4_6 <= 1
 0 <= x_0_4_7 <= 1
 0 <= x_0_4_8 <= 1
 0 <= x_0_4_9 <= 1
 0 <= x_0_5_0 <= 1
 0 <= x_0_5_1 <= 1
 0 <= x_0_5_10 <= 1
 0 <= x_0_5_2 <= 1
 0 <= x_0_5_3 <= 1
 0 <= x_0_5_4 <= 1
 0 <= x_0_5_6 <= 1
 0 <= x_0_5_7 <= 1
 0 <= x_0_5_8 <= 1
 0 <= x_0_5_9 <= 1
 0 <= x_0_6_0 <= 1
 0 <= x_0_6_1 <= 1
 0 <= x_0_6_10 <= 1
 0 <= x_0_6_2 <= 1
 0 <= x_0_6_3 <= 1
 0 <= x_0_6_4 <= 1
 0 <= x_0_6_5 <= 1
 0 <= x_0_6_7 <= 1
 0 <= x_0_6_8 <= 1
 0 <= x_0_6_9 <= 1
 0 <= x_0_7_0 <= 1
 0 <= x_0_7_1 <= 1
 0 <= x_0_7_10 <= 1
 0 <= x_0_7_2 <= 1
 0 <= x_0_7_3 <= 1
 0 <= x_0_7_4 <= 1
 0 <= x_0_7_5 <= 1
 0 <= x_0_7_6 <= 1
 0 <= x_0_7_8 <= 1
 0 <= x_0_7_9 <= 1
 0 <= x_0_8_0 <= 1
 0 <= x_0_8_1 <= 1
 0 <= x_0_8_10 <= 1
 0 <= x_0_8_2 <= 1
 0 <= x_0_8_3 <= 1
 0 <= x_0_8_4 <= 1
 0 <= x_0_8_5 <= 1
 0 <= x_0_8_6 <= 1
 0 <= x_0_8_7 <= 1
 0 <= x_0_8_9 <= 1
 0 <= x_0_9_0 <= 1
 0 <= x_0_9_1 <= 1
 0 <= x_0_9_10 <= 1
 0 <= x_0_9_2 <= 1
 0 <= x_0_9_3 <= 1
 0 <= x_0_9_4 <= 1
 0 <= x_0_9_5 <= 1
 0 <= x_0_9_6 <= 1
 0 <= x_0_9_7 <= 1
 0 <= x_0_9_8 <= 1
 0 <= z_0_1 <= 1
 0 <= z_0_10 <= 1
 0 <= z_0_2 <= 1
 0 <= z_0_3 <= 1
 0 <= z_0_4 <= 1
 0 <= z_0_5 <= 1
 0 <= z_0_6 <= 1
 0 <= z_0_7 <= 1
 0 <= z_0_8 <= 1
 0 <= z_0_9 <= 1
 0 <= zprod_1 <= 39
 0 <= zprod_10 <= 46
 0 <= zprod_2 <= 35
 0 <= zprod_3 <= 28
 0 <= zprod_4 <= 43
 0 <= zprod_5 <= 47
 0 <= zprod_6 <= 29
 0 <= zprod_7 <= 36
 0 <= zprod_8 <= 30
 0 <= zprod_9 <= 46
Generals
 Y_1
 Y_10
 Y_2
 Y_3
 Y_4
 Y_5
 Y_6
 Y_7
 Y_8
 Y_9
 d_0_1
 d_0_10
 d_0_2
 d_0_3
 d_0_4
 d_0_5
 d_0_6
 d_0_7
 d_0_8
 d_0_9
 load_0_1
 load_0_10
 load_0_2
 load_0_3
 load_0_4
 load_0_5
 load_0_6
 load_0_7
 load_0_8
 load_0_9
 p_0_1
 p_0_10
 p_0_2
 p_0_3
 p_0_4
 p_0_5
 p_0_6
 p_0_7
 p_0_8
 p_0_9
Binaries
 bit_10_0
 bit_10_1
 bit_10_2
 bit_10_3
 bit_10_4
 bit_10_5
 bit_1_0
 bit_1_1
 bit_1_2
 bit_1_3
 bit_1_4
 bit_1_5
 bit_2_0
 bit_2_1
 bit_2_2
 bit_2_3
 bit_2_4
 bit_2_5
 bit_3_0
 bit_3_1
 bit_3_2
 bit_3_3
 bit_3_4
 bit_4_0
 bit_4_1
 bit_4_2
 bit_4_3
 bit_4_4
 bit_4_5
 bit_5_0
 bit_5_1
 bit_5_2
 bit_5_3
 bit_5_4
 bit_5_5
 bit_6_0
 bit_6_1
 bit_6_2
 bit_6_3
 bit_6_4
 bit_7_0
 bit_7_1
 bit_7_2
 bit_7_3
 bit_7_4
 bit_7_5
 bit_8_0
 bit_8_1
 bit_8_2
 bit_8_3
 bit_8_4
 bit_9_0
 bit_9_1
 bit_9_2
 bit_9_3
 bit_9_4
 bit_9_5
 mode_0_1
 mode_0_10
 mode_0_2
 mode_0_3
 mode_0_4
 mode_0_5
 mode_0_6
 mode_0_7
 mode_0_8
 mode_0_9
 x_0_0_1
 x_0_0_10
 x_0_0_2
 x_0_0_3
 x_0_0_4
 x_0_0_5
 x_0_0_6
 x_0_0_7
 x_0_0_8
 x_0_0_9
 x_0_10_0
 x_0_10_1
 x_0_10_2
 x_0_10_3
 x_0_10_4
 x_0_10_5
 x_0_10_6
 x_0_10_7
 x_0_10_8
 x_0_10_9
 x_0_1_0
 x_0_1_10
 x_0_1_2
 x_0_1_3
 x_0_1_4
 x_0_1_5
 x_0_1_6
 x_0_1_7
 x_0_1_8
 x_0_1_9
 x_0_2_0
 x_0_2_1
 x_0_2_10
 x_0_2_3
 x_0_2_4
 x_0_2_5
 x_0_2_6
 x_0_2_7
 x_0_2_8
 x_0_2_9
 x_0_3_0
 x_0_3_1
 x_0_3_10
 x_0_3_2
 x_0_3_4
 x_0_3_5
 x_0_3_6
 x_0_3_7
 x_0_3_8
 x_0_3_9
 x_0_4_0
 x_0_4_1
 x_0_4_10
 x_0_4_2
 x_0_4_3
 x_0_4_5
 x_0_4_6
 x_0_4_7
 x_0_4_8
 x_0_4_9
 x_0_5_0
 x_0_5_1
 x_0_5_10
 x_0_5_2
 x_0_5_3
 x_0_5_4
 x_0_5_6
 x_0_5_7
 x_0_5_8
 x_0_5_9
 x_0_6_0
 x_0_6_1
 x_0_6_10
 x_0_6_2
 x_0_6_3
 x_0_6_4
 x_0_6_5
 x_0_6_7
 x_0_6_8
 x_0_6_9
 x_0_7_0
 x_0_7_1
 x_0_7_10
 x_0_7_2
 x_0_7_3
 x_0_7_4
 x_0_7_5
 x_0_7_6
 x_0_7_8
 x_0_7_9
 x_0_8_0
 x_0_8_1
 x_0_8_10
 x_0_8_2
 x_0_8_3
 x_0_8_4
 x_0_8_5
 x_0_8_6
 x_0_8_7
 x_0_8_9
 x_0_9_0
 x_0_9_1
 x_0_9_10
 x_0_9_2
 x_0_9_3
 x_0_9_4
 x_0_9_5
 x_0_9_6
 x_0_9_7
 x_0_9_8
 z_0_1
 z_0_10
 z_0_2
 z_0_3
 z_0_4
 z_0_5
 z_0_6
 z_0_7
 z_0_8
 z_0_9
End
