\ ExactEBRP compact MILP generated from C++ command-line runner
Minimize
 obj: G + 0.085645200000000005 e_1 + 0.011221199999999999 e_2 + 0.021971399999999999 e_3 + 0.081303749999999994 e_4 + 0.085645200000000005 e_5 + 0.046572599999999999 e_6 + 0.14999999999999999 e_7 + 0.0135111 e_8 + 0.085645200000000005 e_9 + 0.040060499999999992 e_10
Subject To
 c1: x_0_0_1 + x_0_0_10 + x_0_0_2 + x_0_0_3 + x_0_0_4 + x_0_0_5 + x_0_0_6 + x_0_0_7 + x_0_0_8 + x_0_0_9 - x_0_10_0 - x_0_1_0 - x_0_2_0 - x_0_3_0 - x_0_4_0 - x_0_5_0 - x_0_6_0 - x_0_7_0 - x_0_8_0 - x_0_9_0 = 0
 c2: x_0_0_1 + x_0_0_10 + x_0_0_2 + x_0_0_3 + x_0_0_4 + x_0_0_5 + x_0_0_6 + x_0_0_7 + x_0_0_8 + x_0_0_9 <= 1
 c3: x_0_0_1 + x_0_10_1 + x_0_2_1 + x_0_3_1 + x_0_4_1 + x_0_5_1 + x_0_6_1 + x_0_7_1 + x_0_8_1 + x_0_9_1 - z_0_1 = 0
 c4: x_0_1_0 + x_0_1_10 + x_0_1_2 + x_0_1_3 + x_0_1_4 + x_0_1_5 + x_0_1_6 + x_0_1_7 + x_0_1_8 + x_0_1_9 - z_0_1 = 0
 c5: x_0_0_2 + x_0_10_2 + x_0_1_2 + x_0_3_2 + x_0_4_2 + x_0_5_2 + x_0_6_2 + x_0_7_2 + x_0_8_2 + x_0_9_2 - z_0_2 = 0
 c6: x_0_2_0 + x_0_2_1 + x_0_2_10 + x_0_2_3 + x_0_2_4 + x_0_2_5 + x_0_2_6 + x_0_2_7 + x_0_2_8 + x_0_2_9 - z_0_2 = 0
 c7: x_0_0_3 + x_0_10_3 + x_0_1_3 + x_0_2_3 + x_0_4_3 + x_0_5_3 + x_0_6_3 + x_0_7_3 + x_0_8_3 + x_0_9_3 - z_0_3 = 0
 c8: x_0_3_0 + x_0_3_1 + x_0_3_10 + x_0_3_2 + x_0_3_4 + x_0_3_5 + x_0_3_6 + x_0_3_7 + x_0_3_8 + x_0_3_9 - z_0_3 = 0
 c9: x_0_0_4 + x_0_10_4 + x_0_1_4 + x_0_2_4 + x_0_3_4 + x_0_5_4 + x_0_6_4 + x_0_7_4 + x_0_8_4 + x_0_9_4 - z_0_4 = 0
 c10: x_0_4_0 + x_0_4_1 + x_0_4_10 + x_0_4_2 + x_0_4_3 + x_0_4_5 + x_0_4_6 + x_0_4_7 + x_0_4_8 + x_0_4_9 - z_0_4 = 0
 c11: x_0_0_5 + x_0_10_5 + x_0_1_5 + x_0_2_5 + x_0_3_5 + x_0_4_5 + x_0_6_5 + x_0_7_5 + x_0_8_5 + x_0_9_5 - z_0_5 = 0
 c12: x_0_5_0 + x_0_5_1 + x_0_5_10 + x_0_5_2 + x_0_5_3 + x_0_5_4 + x_0_5_6 + x_0_5_7 + x_0_5_8 + x_0_5_9 - z_0_5 = 0
 c13: x_0_0_6 + x_0_10_6 + x_0_1_6 + x_0_2_6 + x_0_3_6 + x_0_4_6 + x_0_5_6 + x_0_7_6 + x_0_8_6 + x_0_9_6 - z_0_6 = 0
 c14: x_0_6_0 + x_0_6_1 + x_0_6_10 + x_0_6_2 + x_0_6_3 + x_0_6_4 + x_0_6_5 + x_0_6_7 + x_0_6_8 + x_0_6_9 - z_0_6 = 0
 c15: x_0_0_7 + x_0_10_7 + x_0_1_7 + x_0_2_7 + x_0_3_7 + x_0_4_7 + x_0_5_7 + x_0_6_7 + x_0_8_7 + x_0_9_7 - z_0_7 = 0
 c16: x_0_7_0 + x_0_7_1 + x_0_7_10 + x_0_7_2 + x_0_7_3 + x_0_7_4 + x_0_7_5 + x_0_7_6 + x_0_7_8 + x_0_7_9 - z_0_7 = 0
 c17: x_0_0_8 + x_0_10_8 + x_0_1_8 + x_0_2_8 + x_0_3_8 + x_0_4_8 + x_0_5_8 + x_0_6_8 + x_0_7_8 + x_0_9_8 - z_0_8 = 0
 c18: x_0_8_0 + x_0_8_1 + x_0_8_10 + x_0_8_2 + x_0_8_3 + x_0_8_4 + x_0_8_5 + x_0_8_6 + x_0_8_7 + x_0_8_9 - z_0_8 = 0
 c19: x_0_0_9 + x_0_10_9 + x_0_1_9 + x_0_2_9 + x_0_3_9 + x_0_4_9 + x_0_5_9 + x_0_6_9 + x_0_7_9 + x_0_8_9 - z_0_9 = 0
 c20: x_0_9_0 + x_0_9_1 + x_0_9_10 + x_0_9_2 + x_0_9_3 + x_0_9_4 + x_0_9_5 + x_0_9_6 + x_0_9_7 + x_0_9_8 - z_0_9 = 0
 c21: x_0_0_10 + x_0_1_10 + x_0_2_10 + x_0_3_10 + x_0_4_10 + x_0_5_10 + x_0_6_10 + x_0_7_10 + x_0_8_10 + x_0_9_10 - z_0_10 = 0
 c22: x_0_10_0 + x_0_10_1 + x_0_10_2 + x_0_10_3 + x_0_10_4 + x_0_10_5 + x_0_10_6 + x_0_10_7 + x_0_10_8 + x_0_10_9 - z_0_10 = 0
 c23: x_1_0_1 + x_1_0_10 + x_1_0_2 + x_1_0_3 + x_1_0_4 + x_1_0_5 + x_1_0_6 + x_1_0_7 + x_1_0_8 + x_1_0_9 - x_1_10_0 - x_1_1_0 - x_1_2_0 - x_1_3_0 - x_1_4_0 - x_1_5_0 - x_1_6_0 - x_1_7_0 - x_1_8_0 - x_1_9_0 = 0
 c24: x_1_0_1 + x_1_0_10 + x_1_0_2 + x_1_0_3 + x_1_0_4 + x_1_0_5 + x_1_0_6 + x_1_0_7 + x_1_0_8 + x_1_0_9 <= 1
 c25: x_1_0_1 + x_1_10_1 + x_1_2_1 + x_1_3_1 + x_1_4_1 + x_1_5_1 + x_1_6_1 + x_1_7_1 + x_1_8_1 + x_1_9_1 - z_1_1 = 0
 c26: x_1_1_0 + x_1_1_10 + x_1_1_2 + x_1_1_3 + x_1_1_4 + x_1_1_5 + x_1_1_6 + x_1_1_7 + x_1_1_8 + x_1_1_9 - z_1_1 = 0
 c27: x_1_0_2 + x_1_10_2 + x_1_1_2 + x_1_3_2 + x_1_4_2 + x_1_5_2 + x_1_6_2 + x_1_7_2 + x_1_8_2 + x_1_9_2 - z_1_2 = 0
 c28: x_1_2_0 + x_1_2_1 + x_1_2_10 + x_1_2_3 + x_1_2_4 + x_1_2_5 + x_1_2_6 + x_1_2_7 + x_1_2_8 + x_1_2_9 - z_1_2 = 0
 c29: x_1_0_3 + x_1_10_3 + x_1_1_3 + x_1_2_3 + x_1_4_3 + x_1_5_3 + x_1_6_3 + x_1_7_3 + x_1_8_3 + x_1_9_3 - z_1_3 = 0
 c30: x_1_3_0 + x_1_3_1 + x_1_3_10 + x_1_3_2 + x_1_3_4 + x_1_3_5 + x_1_3_6 + x_1_3_7 + x_1_3_8 + x_1_3_9 - z_1_3 = 0
 c31: x_1_0_4 + x_1_10_4 + x_1_1_4 + x_1_2_4 + x_1_3_4 + x_1_5_4 + x_1_6_4 + x_1_7_4 + x_1_8_4 + x_1_9_4 - z_1_4 = 0
 c32: x_1_4_0 + x_1_4_1 + x_1_4_10 + x_1_4_2 + x_1_4_3 + x_1_4_5 + x_1_4_6 + x_1_4_7 + x_1_4_8 + x_1_4_9 - z_1_4 = 0
 c33: x_1_0_5 + x_1_10_5 + x_1_1_5 + x_1_2_5 + x_1_3_5 + x_1_4_5 + x_1_6_5 + x_1_7_5 + x_1_8_5 + x_1_9_5 - z_1_5 = 0
 c34: x_1_5_0 + x_1_5_1 + x_1_5_10 + x_1_5_2 + x_1_5_3 + x_1_5_4 + x_1_5_6 + x_1_5_7 + x_1_5_8 + x_1_5_9 - z_1_5 = 0
 c35: x_1_0_6 + x_1_10_6 + x_1_1_6 + x_1_2_6 + x_1_3_6 + x_1_4_6 + x_1_5_6 + x_1_7_6 + x_1_8_6 + x_1_9_6 - z_1_6 = 0
 c36: x_1_6_0 + x_1_6_1 + x_1_6_10 + x_1_6_2 + x_1_6_3 + x_1_6_4 + x_1_6_5 + x_1_6_7 + x_1_6_8 + x_1_6_9 - z_1_6 = 0
 c37: x_1_0_7 + x_1_10_7 + x_1_1_7 + x_1_2_7 + x_1_3_7 + x_1_4_7 + x_1_5_7 + x_1_6_7 + x_1_8_7 + x_1_9_7 - z_1_7 = 0
 c38: x_1_7_0 + x_1_7_1 + x_1_7_10 + x_1_7_2 + x_1_7_3 + x_1_7_4 + x_1_7_5 + x_1_7_6 + x_1_7_8 + x_1_7_9 - z_1_7 = 0
 c39: x_1_0_8 + x_1_10_8 + x_1_1_8 + x_1_2_8 + x_1_3_8 + x_1_4_8 + x_1_5_8 + x_1_6_8 + x_1_7_8 + x_1_9_8 - z_1_8 = 0
 c40: x_1_8_0 + x_1_8_1 + x_1_8_10 + x_1_8_2 + x_1_8_3 + x_1_8_4 + x_1_8_5 + x_1_8_6 + x_1_8_7 + x_1_8_9 - z_1_8 = 0
 c41: x_1_0_9 + x_1_10_9 + x_1_1_9 + x_1_2_9 + x_1_3_9 + x_1_4_9 + x_1_5_9 + x_1_6_9 + x_1_7_9 + x_1_8_9 - z_1_9 = 0
 c42: x_1_9_0 + x_1_9_1 + x_1_9_10 + x_1_9_2 + x_1_9_3 + x_1_9_4 + x_1_9_5 + x_1_9_6 + x_1_9_7 + x_1_9_8 - z_1_9 = 0
 c43: x_1_0_10 + x_1_1_10 + x_1_2_10 + x_1_3_10 + x_1_4_10 + x_1_5_10 + x_1_6_10 + x_1_7_10 + x_1_8_10 + x_1_9_10 - z_1_10 = 0
 c44: x_1_10_0 + x_1_10_1 + x_1_10_2 + x_1_10_3 + x_1_10_4 + x_1_10_5 + x_1_10_6 + x_1_10_7 + x_1_10_8 + x_1_10_9 - z_1_10 = 0
 c45: z_0_1 + z_1_1 <= 1
 c46: z_0_2 + z_1_2 <= 1
 c47: z_0_3 + z_1_3 <= 1
 c48: z_0_4 + z_1_4 <= 1
 c49: z_0_5 + z_1_5 <= 1
 c50: z_0_6 + z_1_6 <= 1
 c51: z_0_7 + z_1_7 <= 1
 c52: z_0_8 + z_1_8 <= 1
 c53: z_0_9 + z_1_9 <= 1
 c54: z_0_10 + z_1_10 <= 1
 c55: ord_0_1 - z_0_1 >= 0
 c56: ord_0_1 - 10 z_0_1 <= 0
 c57: ord_0_2 - z_0_2 >= 0
 c58: ord_0_2 - 10 z_0_2 <= 0
 c59: ord_0_3 - z_0_3 >= 0
 c60: ord_0_3 - 10 z_0_3 <= 0
 c61: ord_0_4 - z_0_4 >= 0
 c62: ord_0_4 - 10 z_0_4 <= 0
 c63: ord_0_5 - z_0_5 >= 0
 c64: ord_0_5 - 10 z_0_5 <= 0
 c65: ord_0_6 - z_0_6 >= 0
 c66: ord_0_6 - 10 z_0_6 <= 0
 c67: ord_0_7 - z_0_7 >= 0
 c68: ord_0_7 - 10 z_0_7 <= 0
 c69: ord_0_8 - z_0_8 >= 0
 c70: ord_0_8 - 10 z_0_8 <= 0
 c71: ord_0_9 - z_0_9 >= 0
 c72: ord_0_9 - 10 z_0_9 <= 0
 c73: ord_0_10 - z_0_10 >= 0
 c74: ord_0_10 - 10 z_0_10 <= 0
 c75: ord_0_1 - ord_0_2 + 10 x_0_1_2 <= 9
 c76: ord_0_1 - ord_0_3 + 10 x_0_1_3 <= 9
 c77: ord_0_1 - ord_0_4 + 10 x_0_1_4 <= 9
 c78: ord_0_1 - ord_0_5 + 10 x_0_1_5 <= 9
 c79: ord_0_1 - ord_0_6 + 10 x_0_1_6 <= 9
 c80: ord_0_1 - ord_0_7 + 10 x_0_1_7 <= 9
 c81: ord_0_1 - ord_0_8 + 10 x_0_1_8 <= 9
 c82: ord_0_1 - ord_0_9 + 10 x_0_1_9 <= 9
 c83: ord_0_1 - ord_0_10 + 10 x_0_1_10 <= 9
 c84: - ord_0_1 + ord_0_2 + 10 x_0_2_1 <= 9
 c85: ord_0_2 - ord_0_3 + 10 x_0_2_3 <= 9
 c86: ord_0_2 - ord_0_4 + 10 x_0_2_4 <= 9
 c87: ord_0_2 - ord_0_5 + 10 x_0_2_5 <= 9
 c88: ord_0_2 - ord_0_6 + 10 x_0_2_6 <= 9
 c89: ord_0_2 - ord_0_7 + 10 x_0_2_7 <= 9
 c90: ord_0_2 - ord_0_8 + 10 x_0_2_8 <= 9
 c91: ord_0_2 - ord_0_9 + 10 x_0_2_9 <= 9
 c92: - ord_0_10 + ord_0_2 + 10 x_0_2_10 <= 9
 c93: - ord_0_1 + ord_0_3 + 10 x_0_3_1 <= 9
 c94: - ord_0_2 + ord_0_3 + 10 x_0_3_2 <= 9
 c95: ord_0_3 - ord_0_4 + 10 x_0_3_4 <= 9
 c96: ord_0_3 - ord_0_5 + 10 x_0_3_5 <= 9
 c97: ord_0_3 - ord_0_6 + 10 x_0_3_6 <= 9
 c98: ord_0_3 - ord_0_7 + 10 x_0_3_7 <= 9
 c99: ord_0_3 - ord_0_8 + 10 x_0_3_8 <= 9
 c100: ord_0_3 - ord_0_9 + 10 x_0_3_9 <= 9
 c101: - ord_0_10 + ord_0_3 + 10 x_0_3_10 <= 9
 c102: - ord_0_1 + ord_0_4 + 10 x_0_4_1 <= 9
 c103: - ord_0_2 + ord_0_4 + 10 x_0_4_2 <= 9
 c104: - ord_0_3 + ord_0_4 + 10 x_0_4_3 <= 9
 c105: ord_0_4 - ord_0_5 + 10 x_0_4_5 <= 9
 c106: ord_0_4 - ord_0_6 + 10 x_0_4_6 <= 9
 c107: ord_0_4 - ord_0_7 + 10 x_0_4_7 <= 9
 c108: ord_0_4 - ord_0_8 + 10 x_0_4_8 <= 9
 c109: ord_0_4 - ord_0_9 + 10 x_0_4_9 <= 9
 c110: - ord_0_10 + ord_0_4 + 10 x_0_4_10 <= 9
 c111: - ord_0_1 + ord_0_5 + 10 x_0_5_1 <= 9
 c112: - ord_0_2 + ord_0_5 + 10 x_0_5_2 <= 9
 c113: - ord_0_3 + ord_0_5 + 10 x_0_5_3 <= 9
 c114: - ord_0_4 + ord_0_5 + 10 x_0_5_4 <= 9
 c115: ord_0_5 - ord_0_6 + 10 x_0_5_6 <= 9
 c116: ord_0_5 - ord_0_7 + 10 x_0_5_7 <= 9
 c117: ord_0_5 - ord_0_8 + 10 x_0_5_8 <= 9
 c118: ord_0_5 - ord_0_9 + 10 x_0_5_9 <= 9
 c119: - ord_0_10 + ord_0_5 + 10 x_0_5_10 <= 9
 c120: - ord_0_1 + ord_0_6 + 10 x_0_6_1 <= 9
 c121: - ord_0_2 + ord_0_6 + 10 x_0_6_2 <= 9
 c122: - ord_0_3 + ord_0_6 + 10 x_0_6_3 <= 9
 c123: - ord_0_4 + ord_0_6 + 10 x_0_6_4 <= 9
 c124: - ord_0_5 + ord_0_6 + 10 x_0_6_5 <= 9
 c125: ord_0_6 - ord_0_7 + 10 x_0_6_7 <= 9
 c126: ord_0_6 - ord_0_8 + 10 x_0_6_8 <= 9
 c127: ord_0_6 - ord_0_9 + 10 x_0_6_9 <= 9
 c128: - ord_0_10 + ord_0_6 + 10 x_0_6_10 <= 9
 c129: - ord_0_1 + ord_0_7 + 10 x_0_7_1 <= 9
 c130: - ord_0_2 + ord_0_7 + 10 x_0_7_2 <= 9
 c131: - ord_0_3 + ord_0_7 + 10 x_0_7_3 <= 9
 c132: - ord_0_4 + ord_0_7 + 10 x_0_7_4 <= 9
 c133: - ord_0_5 + ord_0_7 + 10 x_0_7_5 <= 9
 c134: - ord_0_6 + ord_0_7 + 10 x_0_7_6 <= 9
 c135: ord_0_7 - ord_0_8 + 10 x_0_7_8 <= 9
 c136: ord_0_7 - ord_0_9 + 10 x_0_7_9 <= 9
 c137: - ord_0_10 + ord_0_7 + 10 x_0_7_10 <= 9
 c138: - ord_0_1 + ord_0_8 + 10 x_0_8_1 <= 9
 c139: - ord_0_2 + ord_0_8 + 10 x_0_8_2 <= 9
 c140: - ord_0_3 + ord_0_8 + 10 x_0_8_3 <= 9
 c141: - ord_0_4 + ord_0_8 + 10 x_0_8_4 <= 9
 c142: - ord_0_5 + ord_0_8 + 10 x_0_8_5 <= 9
 c143: - ord_0_6 + ord_0_8 + 10 x_0_8_6 <= 9
 c144: - ord_0_7 + ord_0_8 + 10 x_0_8_7 <= 9
 c145: ord_0_8 - ord_0_9 + 10 x_0_8_9 <= 9
 c146: - ord_0_10 + ord_0_8 + 10 x_0_8_10 <= 9
 c147: - ord_0_1 + ord_0_9 + 10 x_0_9_1 <= 9
 c148: - ord_0_2 + ord_0_9 + 10 x_0_9_2 <= 9
 c149: - ord_0_3 + ord_0_9 + 10 x_0_9_3 <= 9
 c150: - ord_0_4 + ord_0_9 + 10 x_0_9_4 <= 9
 c151: - ord_0_5 + ord_0_9 + 10 x_0_9_5 <= 9
 c152: - ord_0_6 + ord_0_9 + 10 x_0_9_6 <= 9
 c153: - ord_0_7 + ord_0_9 + 10 x_0_9_7 <= 9
 c154: - ord_0_8 + ord_0_9 + 10 x_0_9_8 <= 9
 c155: - ord_0_10 + ord_0_9 + 10 x_0_9_10 <= 9
 c156: - ord_0_1 + ord_0_10 + 10 x_0_10_1 <= 9
 c157: ord_0_10 - ord_0_2 + 10 x_0_10_2 <= 9
 c158: ord_0_10 - ord_0_3 + 10 x_0_10_3 <= 9
 c159: ord_0_10 - ord_0_4 + 10 x_0_10_4 <= 9
 c160: ord_0_10 - ord_0_5 + 10 x_0_10_5 <= 9
 c161: ord_0_10 - ord_0_6 + 10 x_0_10_6 <= 9
 c162: ord_0_10 - ord_0_7 + 10 x_0_10_7 <= 9
 c163: ord_0_10 - ord_0_8 + 10 x_0_10_8 <= 9
 c164: ord_0_10 - ord_0_9 + 10 x_0_10_9 <= 9
 c165: ord_1_1 - z_1_1 >= 0
 c166: ord_1_1 - 10 z_1_1 <= 0
 c167: ord_1_2 - z_1_2 >= 0
 c168: ord_1_2 - 10 z_1_2 <= 0
 c169: ord_1_3 - z_1_3 >= 0
 c170: ord_1_3 - 10 z_1_3 <= 0
 c171: ord_1_4 - z_1_4 >= 0
 c172: ord_1_4 - 10 z_1_4 <= 0
 c173: ord_1_5 - z_1_5 >= 0
 c174: ord_1_5 - 10 z_1_5 <= 0
 c175: ord_1_6 - z_1_6 >= 0
 c176: ord_1_6 - 10 z_1_6 <= 0
 c177: ord_1_7 - z_1_7 >= 0
 c178: ord_1_7 - 10 z_1_7 <= 0
 c179: ord_1_8 - z_1_8 >= 0
 c180: ord_1_8 - 10 z_1_8 <= 0
 c181: ord_1_9 - z_1_9 >= 0
 c182: ord_1_9 - 10 z_1_9 <= 0
 c183: ord_1_10 - z_1_10 >= 0
 c184: ord_1_10 - 10 z_1_10 <= 0
 c185: ord_1_1 - ord_1_2 + 10 x_1_1_2 <= 9
 c186: ord_1_1 - ord_1_3 + 10 x_1_1_3 <= 9
 c187: ord_1_1 - ord_1_4 + 10 x_1_1_4 <= 9
 c188: ord_1_1 - ord_1_5 + 10 x_1_1_5 <= 9
 c189: ord_1_1 - ord_1_6 + 10 x_1_1_6 <= 9
 c190: ord_1_1 - ord_1_7 + 10 x_1_1_7 <= 9
 c191: ord_1_1 - ord_1_8 + 10 x_1_1_8 <= 9
 c192: ord_1_1 - ord_1_9 + 10 x_1_1_9 <= 9
 c193: ord_1_1 - ord_1_10 + 10 x_1_1_10 <= 9
 c194: - ord_1_1 + ord_1_2 + 10 x_1_2_1 <= 9
 c195: ord_1_2 - ord_1_3 + 10 x_1_2_3 <= 9
 c196: ord_1_2 - ord_1_4 + 10 x_1_2_4 <= 9
 c197: ord_1_2 - ord_1_5 + 10 x_1_2_5 <= 9
 c198: ord_1_2 - ord_1_6 + 10 x_1_2_6 <= 9
 c199: ord_1_2 - ord_1_7 + 10 x_1_2_7 <= 9
 c200: ord_1_2 - ord_1_8 + 10 x_1_2_8 <= 9
 c201: ord_1_2 - ord_1_9 + 10 x_1_2_9 <= 9
 c202: - ord_1_10 + ord_1_2 + 10 x_1_2_10 <= 9
 c203: - ord_1_1 + ord_1_3 + 10 x_1_3_1 <= 9
 c204: - ord_1_2 + ord_1_3 + 10 x_1_3_2 <= 9
 c205: ord_1_3 - ord_1_4 + 10 x_1_3_4 <= 9
 c206: ord_1_3 - ord_1_5 + 10 x_1_3_5 <= 9
 c207: ord_1_3 - ord_1_6 + 10 x_1_3_6 <= 9
 c208: ord_1_3 - ord_1_7 + 10 x_1_3_7 <= 9
 c209: ord_1_3 - ord_1_8 + 10 x_1_3_8 <= 9
 c210: ord_1_3 - ord_1_9 + 10 x_1_3_9 <= 9
 c211: - ord_1_10 + ord_1_3 + 10 x_1_3_10 <= 9
 c212: - ord_1_1 + ord_1_4 + 10 x_1_4_1 <= 9
 c213: - ord_1_2 + ord_1_4 + 10 x_1_4_2 <= 9
 c214: - ord_1_3 + ord_1_4 + 10 x_1_4_3 <= 9
 c215: ord_1_4 - ord_1_5 + 10 x_1_4_5 <= 9
 c216: ord_1_4 - ord_1_6 + 10 x_1_4_6 <= 9
 c217: ord_1_4 - ord_1_7 + 10 x_1_4_7 <= 9
 c218: ord_1_4 - ord_1_8 + 10 x_1_4_8 <= 9
 c219: ord_1_4 - ord_1_9 + 10 x_1_4_9 <= 9
 c220: - ord_1_10 + ord_1_4 + 10 x_1_4_10 <= 9
 c221: - ord_1_1 + ord_1_5 + 10 x_1_5_1 <= 9
 c222: - ord_1_2 + ord_1_5 + 10 x_1_5_2 <= 9
 c223: - ord_1_3 + ord_1_5 + 10 x_1_5_3 <= 9
 c224: - ord_1_4 + ord_1_5 + 10 x_1_5_4 <= 9
 c225: ord_1_5 - ord_1_6 + 10 x_1_5_6 <= 9
 c226: ord_1_5 - ord_1_7 + 10 x_1_5_7 <= 9
 c227: ord_1_5 - ord_1_8 + 10 x_1_5_8 <= 9
 c228: ord_1_5 - ord_1_9 + 10 x_1_5_9 <= 9
 c229: - ord_1_10 + ord_1_5 + 10 x_1_5_10 <= 9
 c230: - ord_1_1 + ord_1_6 + 10 x_1_6_1 <= 9
 c231: - ord_1_2 + ord_1_6 + 10 x_1_6_2 <= 9
 c232: - ord_1_3 + ord_1_6 + 10 x_1_6_3 <= 9
 c233: - ord_1_4 + ord_1_6 + 10 x_1_6_4 <= 9
 c234: - ord_1_5 + ord_1_6 + 10 x_1_6_5 <= 9
 c235: ord_1_6 - ord_1_7 + 10 x_1_6_7 <= 9
 c236: ord_1_6 - ord_1_8 + 10 x_1_6_8 <= 9
 c237: ord_1_6 - ord_1_9 + 10 x_1_6_9 <= 9
 c238: - ord_1_10 + ord_1_6 + 10 x_1_6_10 <= 9
 c239: - ord_1_1 + ord_1_7 + 10 x_1_7_1 <= 9
 c240: - ord_1_2 + ord_1_7 + 10 x_1_7_2 <= 9
 c241: - ord_1_3 + ord_1_7 + 10 x_1_7_3 <= 9
 c242: - ord_1_4 + ord_1_7 + 10 x_1_7_4 <= 9
 c243: - ord_1_5 + ord_1_7 + 10 x_1_7_5 <= 9
 c244: - ord_1_6 + ord_1_7 + 10 x_1_7_6 <= 9
 c245: ord_1_7 - ord_1_8 + 10 x_1_7_8 <= 9
 c246: ord_1_7 - ord_1_9 + 10 x_1_7_9 <= 9
 c247: - ord_1_10 + ord_1_7 + 10 x_1_7_10 <= 9
 c248: - ord_1_1 + ord_1_8 + 10 x_1_8_1 <= 9
 c249: - ord_1_2 + ord_1_8 + 10 x_1_8_2 <= 9
 c250: - ord_1_3 + ord_1_8 + 10 x_1_8_3 <= 9
 c251: - ord_1_4 + ord_1_8 + 10 x_1_8_4 <= 9
 c252: - ord_1_5 + ord_1_8 + 10 x_1_8_5 <= 9
 c253: - ord_1_6 + ord_1_8 + 10 x_1_8_6 <= 9
 c254: - ord_1_7 + ord_1_8 + 10 x_1_8_7 <= 9
 c255: ord_1_8 - ord_1_9 + 10 x_1_8_9 <= 9
 c256: - ord_1_10 + ord_1_8 + 10 x_1_8_10 <= 9
 c257: - ord_1_1 + ord_1_9 + 10 x_1_9_1 <= 9
 c258: - ord_1_2 + ord_1_9 + 10 x_1_9_2 <= 9
 c259: - ord_1_3 + ord_1_9 + 10 x_1_9_3 <= 9
 c260: - ord_1_4 + ord_1_9 + 10 x_1_9_4 <= 9
 c261: - ord_1_5 + ord_1_9 + 10 x_1_9_5 <= 9
 c262: - ord_1_6 + ord_1_9 + 10 x_1_9_6 <= 9
 c263: - ord_1_7 + ord_1_9 + 10 x_1_9_7 <= 9
 c264: - ord_1_8 + ord_1_9 + 10 x_1_9_8 <= 9
 c265: - ord_1_10 + ord_1_9 + 10 x_1_9_10 <= 9
 c266: - ord_1_1 + ord_1_10 + 10 x_1_10_1 <= 9
 c267: ord_1_10 - ord_1_2 + 10 x_1_10_2 <= 9
 c268: ord_1_10 - ord_1_3 + 10 x_1_10_3 <= 9
 c269: ord_1_10 - ord_1_4 + 10 x_1_10_4 <= 9
 c270: ord_1_10 - ord_1_5 + 10 x_1_10_5 <= 9
 c271: ord_1_10 - ord_1_6 + 10 x_1_10_6 <= 9
 c272: ord_1_10 - ord_1_7 + 10 x_1_10_7 <= 9
 c273: ord_1_10 - ord_1_8 + 10 x_1_10_8 <= 9
 c274: ord_1_10 - ord_1_9 + 10 x_1_10_9 <= 9
 c275: p_0_1 <= 0
 c276: d_0_1 - 30 z_0_1 <= 0
 c277: mode_0_1 - z_0_1 <= 0
 c278: p_0_1 <= 0
 c279: d_0_1 + 30 mode_0_1 - 30 z_0_1 <= 0
 c280: d_0_1 + p_0_1 - z_0_1 >= 0
 c281: load_0_1 - 30 z_0_1 <= 0
 c282: p_0_2 - 30 z_0_2 <= 0
 c283: d_0_2 - 3 z_0_2 <= 0
 c284: mode_0_2 - z_0_2 <= 0
 c285: - 30 mode_0_2 + p_0_2 <= 0
 c286: d_0_2 + 3 mode_0_2 - 3 z_0_2 <= 0
 c287: d_0_2 + p_0_2 - z_0_2 >= 0
 c288: load_0_2 - 30 z_0_2 <= 0
 c289: p_0_3 - 22 z_0_3 <= 0
 c290: d_0_3 - 6 z_0_3 <= 0
 c291: mode_0_3 - z_0_3 <= 0
 c292: - 22 mode_0_3 + p_0_3 <= 0
 c293: d_0_3 + 6 mode_0_3 - 6 z_0_3 <= 0
 c294: d_0_3 + p_0_3 - z_0_3 >= 0
 c295: load_0_3 - 30 z_0_3 <= 0
 c296: p_0_4 - z_0_4 <= 0
 c297: d_0_4 - 20 z_0_4 <= 0
 c298: mode_0_4 - z_0_4 <= 0
 c299: - mode_0_4 + p_0_4 <= 0
 c300: d_0_4 + 20 mode_0_4 - 20 z_0_4 <= 0
 c301: d_0_4 + p_0_4 - z_0_4 >= 0
 c302: load_0_4 - 30 z_0_4 <= 0
 c303: p_0_5 <= 0
 c304: d_0_5 - 30 z_0_5 <= 0
 c305: mode_0_5 - z_0_5 <= 0
 c306: p_0_5 <= 0
 c307: d_0_5 + 30 mode_0_5 - 30 z_0_5 <= 0
 c308: d_0_5 + p_0_5 - z_0_5 >= 0
 c309: load_0_5 - 30 z_0_5 <= 0
 c310: p_0_6 - 12 z_0_6 <= 0
 c311: d_0_6 - 19 z_0_6 <= 0
 c312: mode_0_6 - z_0_6 <= 0
 c313: - 12 mode_0_6 + p_0_6 <= 0
 c314: d_0_6 + 19 mode_0_6 - 19 z_0_6 <= 0
 c315: d_0_6 + p_0_6 - z_0_6 >= 0
 c316: load_0_6 - 30 z_0_6 <= 0
 c317: p_0_7 - 30 z_0_7 <= 0
 c318: d_0_7 - 2 z_0_7 <= 0
 c319: mode_0_7 - z_0_7 <= 0
 c320: - 30 mode_0_7 + p_0_7 <= 0
 c321: d_0_7 + 2 mode_0_7 - 2 z_0_7 <= 0
 c322: d_0_7 + p_0_7 - z_0_7 >= 0
 c323: load_0_7 - 30 z_0_7 <= 0
 c324: p_0_8 - 12 z_0_8 <= 0
 c325: d_0_8 - 21 z_0_8 <= 0
 c326: mode_0_8 - z_0_8 <= 0
 c327: - 12 mode_0_8 + p_0_8 <= 0
 c328: d_0_8 + 21 mode_0_8 - 21 z_0_8 <= 0
 c329: d_0_8 + p_0_8 - z_0_8 >= 0
 c330: load_0_8 - 30 z_0_8 <= 0
 c331: p_0_9 <= 0
 c332: d_0_9 - 22 z_0_9 <= 0
 c333: mode_0_9 - z_0_9 <= 0
 c334: p_0_9 <= 0
 c335: d_0_9 + 22 mode_0_9 - 22 z_0_9 <= 0
 c336: d_0_9 + p_0_9 - z_0_9 >= 0
 c337: load_0_9 - 30 z_0_9 <= 0
 c338: p_0_10 - 7 z_0_10 <= 0
 c339: d_0_10 - 14 z_0_10 <= 0
 c340: mode_0_10 - z_0_10 <= 0
 c341: - 7 mode_0_10 + p_0_10 <= 0
 c342: d_0_10 + 14 mode_0_10 - 14 z_0_10 <= 0
 c343: d_0_10 + p_0_10 - z_0_10 >= 0
 c344: load_0_10 - 30 z_0_10 <= 0
 c345: d_0_1 + load_0_1 - p_0_1 + 30 x_0_0_1 <= 30
 c346: d_0_1 + load_0_1 - p_0_1 - 30 x_0_0_1 >= -30
 c347: d_0_2 + load_0_2 - p_0_2 + 30 x_0_0_2 <= 30
 c348: d_0_2 + load_0_2 - p_0_2 - 30 x_0_0_2 >= -30
 c349: d_0_3 + load_0_3 - p_0_3 + 30 x_0_0_3 <= 30
 c350: d_0_3 + load_0_3 - p_0_3 - 30 x_0_0_3 >= -30
 c351: d_0_4 + load_0_4 - p_0_4 + 30 x_0_0_4 <= 30
 c352: d_0_4 + load_0_4 - p_0_4 - 30 x_0_0_4 >= -30
 c353: d_0_5 + load_0_5 - p_0_5 + 30 x_0_0_5 <= 30
 c354: d_0_5 + load_0_5 - p_0_5 - 30 x_0_0_5 >= -30
 c355: d_0_6 + load_0_6 - p_0_6 + 30 x_0_0_6 <= 30
 c356: d_0_6 + load_0_6 - p_0_6 - 30 x_0_0_6 >= -30
 c357: d_0_7 + load_0_7 - p_0_7 + 30 x_0_0_7 <= 30
 c358: d_0_7 + load_0_7 - p_0_7 - 30 x_0_0_7 >= -30
 c359: d_0_8 + load_0_8 - p_0_8 + 30 x_0_0_8 <= 30
 c360: d_0_8 + load_0_8 - p_0_8 - 30 x_0_0_8 >= -30
 c361: d_0_9 + load_0_9 - p_0_9 + 30 x_0_0_9 <= 30
 c362: d_0_9 + load_0_9 - p_0_9 - 30 x_0_0_9 >= -30
 c363: d_0_10 + load_0_10 - p_0_10 + 30 x_0_0_10 <= 30
 c364: d_0_10 + load_0_10 - p_0_10 - 30 x_0_0_10 >= -30
 c365: d_0_2 - load_0_1 + load_0_2 - p_0_2 + 30 x_0_1_2 <= 30
 c366: d_0_2 - load_0_1 + load_0_2 - p_0_2 - 30 x_0_1_2 >= -30
 c367: d_0_3 - load_0_1 + load_0_3 - p_0_3 + 30 x_0_1_3 <= 30
 c368: d_0_3 - load_0_1 + load_0_3 - p_0_3 - 30 x_0_1_3 >= -30
 c369: d_0_4 - load_0_1 + load_0_4 - p_0_4 + 30 x_0_1_4 <= 30
 c370: d_0_4 - load_0_1 + load_0_4 - p_0_4 - 30 x_0_1_4 >= -30
 c371: d_0_5 - load_0_1 + load_0_5 - p_0_5 + 30 x_0_1_5 <= 30
 c372: d_0_5 - load_0_1 + load_0_5 - p_0_5 - 30 x_0_1_5 >= -30
 c373: d_0_6 - load_0_1 + load_0_6 - p_0_6 + 30 x_0_1_6 <= 30
 c374: d_0_6 - load_0_1 + load_0_6 - p_0_6 - 30 x_0_1_6 >= -30
 c375: d_0_7 - load_0_1 + load_0_7 - p_0_7 + 30 x_0_1_7 <= 30
 c376: d_0_7 - load_0_1 + load_0_7 - p_0_7 - 30 x_0_1_7 >= -30
 c377: d_0_8 - load_0_1 + load_0_8 - p_0_8 + 30 x_0_1_8 <= 30
 c378: d_0_8 - load_0_1 + load_0_8 - p_0_8 - 30 x_0_1_8 >= -30
 c379: d_0_9 - load_0_1 + load_0_9 - p_0_9 + 30 x_0_1_9 <= 30
 c380: d_0_9 - load_0_1 + load_0_9 - p_0_9 - 30 x_0_1_9 >= -30
 c381: d_0_10 - load_0_1 + load_0_10 - p_0_10 + 30 x_0_1_10 <= 30
 c382: d_0_10 - load_0_1 + load_0_10 - p_0_10 - 30 x_0_1_10 >= -30
 c383: d_0_1 + load_0_1 - load_0_2 - p_0_1 + 30 x_0_2_1 <= 30
 c384: d_0_1 + load_0_1 - load_0_2 - p_0_1 - 30 x_0_2_1 >= -30
 c385: d_0_3 - load_0_2 + load_0_3 - p_0_3 + 30 x_0_2_3 <= 30
 c386: d_0_3 - load_0_2 + load_0_3 - p_0_3 - 30 x_0_2_3 >= -30
 c387: d_0_4 - load_0_2 + load_0_4 - p_0_4 + 30 x_0_2_4 <= 30
 c388: d_0_4 - load_0_2 + load_0_4 - p_0_4 - 30 x_0_2_4 >= -30
 c389: d_0_5 - load_0_2 + load_0_5 - p_0_5 + 30 x_0_2_5 <= 30
 c390: d_0_5 - load_0_2 + load_0_5 - p_0_5 - 30 x_0_2_5 >= -30
 c391: d_0_6 - load_0_2 + load_0_6 - p_0_6 + 30 x_0_2_6 <= 30
 c392: d_0_6 - load_0_2 + load_0_6 - p_0_6 - 30 x_0_2_6 >= -30
 c393: d_0_7 - load_0_2 + load_0_7 - p_0_7 + 30 x_0_2_7 <= 30
 c394: d_0_7 - load_0_2 + load_0_7 - p_0_7 - 30 x_0_2_7 >= -30
 c395: d_0_8 - load_0_2 + load_0_8 - p_0_8 + 30 x_0_2_8 <= 30
 c396: d_0_8 - load_0_2 + load_0_8 - p_0_8 - 30 x_0_2_8 >= -30
 c397: d_0_9 - load_0_2 + load_0_9 - p_0_9 + 30 x_0_2_9 <= 30
 c398: d_0_9 - load_0_2 + load_0_9 - p_0_9 - 30 x_0_2_9 >= -30
 c399: d_0_10 + load_0_10 - load_0_2 - p_0_10 + 30 x_0_2_10 <= 30
 c400: d_0_10 + load_0_10 - load_0_2 - p_0_10 - 30 x_0_2_10 >= -30
 c401: d_0_1 + load_0_1 - load_0_3 - p_0_1 + 30 x_0_3_1 <= 30
 c402: d_0_1 + load_0_1 - load_0_3 - p_0_1 - 30 x_0_3_1 >= -30
 c403: d_0_2 + load_0_2 - load_0_3 - p_0_2 + 30 x_0_3_2 <= 30
 c404: d_0_2 + load_0_2 - load_0_3 - p_0_2 - 30 x_0_3_2 >= -30
 c405: d_0_4 - load_0_3 + load_0_4 - p_0_4 + 30 x_0_3_4 <= 30
 c406: d_0_4 - load_0_3 + load_0_4 - p_0_4 - 30 x_0_3_4 >= -30
 c407: d_0_5 - load_0_3 + load_0_5 - p_0_5 + 30 x_0_3_5 <= 30
 c408: d_0_5 - load_0_3 + load_0_5 - p_0_5 - 30 x_0_3_5 >= -30
 c409: d_0_6 - load_0_3 + load_0_6 - p_0_6 + 30 x_0_3_6 <= 30
 c410: d_0_6 - load_0_3 + load_0_6 - p_0_6 - 30 x_0_3_6 >= -30
 c411: d_0_7 - load_0_3 + load_0_7 - p_0_7 + 30 x_0_3_7 <= 30
 c412: d_0_7 - load_0_3 + load_0_7 - p_0_7 - 30 x_0_3_7 >= -30
 c413: d_0_8 - load_0_3 + load_0_8 - p_0_8 + 30 x_0_3_8 <= 30
 c414: d_0_8 - load_0_3 + load_0_8 - p_0_8 - 30 x_0_3_8 >= -30
 c415: d_0_9 - load_0_3 + load_0_9 - p_0_9 + 30 x_0_3_9 <= 30
 c416: d_0_9 - load_0_3 + load_0_9 - p_0_9 - 30 x_0_3_9 >= -30
 c417: d_0_10 + load_0_10 - load_0_3 - p_0_10 + 30 x_0_3_10 <= 30
 c418: d_0_10 + load_0_10 - load_0_3 - p_0_10 - 30 x_0_3_10 >= -30
 c419: d_0_1 + load_0_1 - load_0_4 - p_0_1 + 30 x_0_4_1 <= 30
 c420: d_0_1 + load_0_1 - load_0_4 - p_0_1 - 30 x_0_4_1 >= -30
 c421: d_0_2 + load_0_2 - load_0_4 - p_0_2 + 30 x_0_4_2 <= 30
 c422: d_0_2 + load_0_2 - load_0_4 - p_0_2 - 30 x_0_4_2 >= -30
 c423: d_0_3 + load_0_3 - load_0_4 - p_0_3 + 30 x_0_4_3 <= 30
 c424: d_0_3 + load_0_3 - load_0_4 - p_0_3 - 30 x_0_4_3 >= -30
 c425: d_0_5 - load_0_4 + load_0_5 - p_0_5 + 30 x_0_4_5 <= 30
 c426: d_0_5 - load_0_4 + load_0_5 - p_0_5 - 30 x_0_4_5 >= -30
 c427: d_0_6 - load_0_4 + load_0_6 - p_0_6 + 30 x_0_4_6 <= 30
 c428: d_0_6 - load_0_4 + load_0_6 - p_0_6 - 30 x_0_4_6 >= -30
 c429: d_0_7 - load_0_4 + load_0_7 - p_0_7 + 30 x_0_4_7 <= 30
 c430: d_0_7 - load_0_4 + load_0_7 - p_0_7 - 30 x_0_4_7 >= -30
 c431: d_0_8 - load_0_4 + load_0_8 - p_0_8 + 30 x_0_4_8 <= 30
 c432: d_0_8 - load_0_4 + load_0_8 - p_0_8 - 30 x_0_4_8 >= -30
 c433: d_0_9 - load_0_4 + load_0_9 - p_0_9 + 30 x_0_4_9 <= 30
 c434: d_0_9 - load_0_4 + load_0_9 - p_0_9 - 30 x_0_4_9 >= -30
 c435: d_0_10 + load_0_10 - load_0_4 - p_0_10 + 30 x_0_4_10 <= 30
 c436: d_0_10 + load_0_10 - load_0_4 - p_0_10 - 30 x_0_4_10 >= -30
 c437: d_0_1 + load_0_1 - load_0_5 - p_0_1 + 30 x_0_5_1 <= 30
 c438: d_0_1 + load_0_1 - load_0_5 - p_0_1 - 30 x_0_5_1 >= -30
 c439: d_0_2 + load_0_2 - load_0_5 - p_0_2 + 30 x_0_5_2 <= 30
 c440: d_0_2 + load_0_2 - load_0_5 - p_0_2 - 30 x_0_5_2 >= -30
 c441: d_0_3 + load_0_3 - load_0_5 - p_0_3 + 30 x_0_5_3 <= 30
 c442: d_0_3 + load_0_3 - load_0_5 - p_0_3 - 30 x_0_5_3 >= -30
 c443: d_0_4 + load_0_4 - load_0_5 - p_0_4 + 30 x_0_5_4 <= 30
 c444: d_0_4 + load_0_4 - load_0_5 - p_0_4 - 30 x_0_5_4 >= -30
 c445: d_0_6 - load_0_5 + load_0_6 - p_0_6 + 30 x_0_5_6 <= 30
 c446: d_0_6 - load_0_5 + load_0_6 - p_0_6 - 30 x_0_5_6 >= -30
 c447: d_0_7 - load_0_5 + load_0_7 - p_0_7 + 30 x_0_5_7 <= 30
 c448: d_0_7 - load_0_5 + load_0_7 - p_0_7 - 30 x_0_5_7 >= -30
 c449: d_0_8 - load_0_5 + load_0_8 - p_0_8 + 30 x_0_5_8 <= 30
 c450: d_0_8 - load_0_5 + load_0_8 - p_0_8 - 30 x_0_5_8 >= -30
 c451: d_0_9 - load_0_5 + load_0_9 - p_0_9 + 30 x_0_5_9 <= 30
 c452: d_0_9 - load_0_5 + load_0_9 - p_0_9 - 30 x_0_5_9 >= -30
 c453: d_0_10 + load_0_10 - load_0_5 - p_0_10 + 30 x_0_5_10 <= 30
 c454: d_0_10 + load_0_10 - load_0_5 - p_0_10 - 30 x_0_5_10 >= -30
 c455: d_0_1 + load_0_1 - load_0_6 - p_0_1 + 30 x_0_6_1 <= 30
 c456: d_0_1 + load_0_1 - load_0_6 - p_0_1 - 30 x_0_6_1 >= -30
 c457: d_0_2 + load_0_2 - load_0_6 - p_0_2 + 30 x_0_6_2 <= 30
 c458: d_0_2 + load_0_2 - load_0_6 - p_0_2 - 30 x_0_6_2 >= -30
 c459: d_0_3 + load_0_3 - load_0_6 - p_0_3 + 30 x_0_6_3 <= 30
 c460: d_0_3 + load_0_3 - load_0_6 - p_0_3 - 30 x_0_6_3 >= -30
 c461: d_0_4 + load_0_4 - load_0_6 - p_0_4 + 30 x_0_6_4 <= 30
 c462: d_0_4 + load_0_4 - load_0_6 - p_0_4 - 30 x_0_6_4 >= -30
 c463: d_0_5 + load_0_5 - load_0_6 - p_0_5 + 30 x_0_6_5 <= 30
 c464: d_0_5 + load_0_5 - load_0_6 - p_0_5 - 30 x_0_6_5 >= -30
 c465: d_0_7 - load_0_6 + load_0_7 - p_0_7 + 30 x_0_6_7 <= 30
 c466: d_0_7 - load_0_6 + load_0_7 - p_0_7 - 30 x_0_6_7 >= -30
 c467: d_0_8 - load_0_6 + load_0_8 - p_0_8 + 30 x_0_6_8 <= 30
 c468: d_0_8 - load_0_6 + load_0_8 - p_0_8 - 30 x_0_6_8 >= -30
 c469: d_0_9 - load_0_6 + load_0_9 - p_0_9 + 30 x_0_6_9 <= 30
 c470: d_0_9 - load_0_6 + load_0_9 - p_0_9 - 30 x_0_6_9 >= -30
 c471: d_0_10 + load_0_10 - load_0_6 - p_0_10 + 30 x_0_6_10 <= 30
 c472: d_0_10 + load_0_10 - load_0_6 - p_0_10 - 30 x_0_6_10 >= -30
 c473: d_0_1 + load_0_1 - load_0_7 - p_0_1 + 30 x_0_7_1 <= 30
 c474: d_0_1 + load_0_1 - load_0_7 - p_0_1 - 30 x_0_7_1 >= -30
 c475: d_0_2 + load_0_2 - load_0_7 - p_0_2 + 30 x_0_7_2 <= 30
 c476: d_0_2 + load_0_2 - load_0_7 - p_0_2 - 30 x_0_7_2 >= -30
 c477: d_0_3 + load_0_3 - load_0_7 - p_0_3 + 30 x_0_7_3 <= 30
 c478: d_0_3 + load_0_3 - load_0_7 - p_0_3 - 30 x_0_7_3 >= -30
 c479: d_0_4 + load_0_4 - load_0_7 - p_0_4 + 30 x_0_7_4 <= 30
 c480: d_0_4 + load_0_4 - load_0_7 - p_0_4 - 30 x_0_7_4 >= -30
 c481: d_0_5 + load_0_5 - load_0_7 - p_0_5 + 30 x_0_7_5 <= 30
 c482: d_0_5 + load_0_5 - load_0_7 - p_0_5 - 30 x_0_7_5 >= -30
 c483: d_0_6 + load_0_6 - load_0_7 - p_0_6 + 30 x_0_7_6 <= 30
 c484: d_0_6 + load_0_6 - load_0_7 - p_0_6 - 30 x_0_7_6 >= -30
 c485: d_0_8 - load_0_7 + load_0_8 - p_0_8 + 30 x_0_7_8 <= 30
 c486: d_0_8 - load_0_7 + load_0_8 - p_0_8 - 30 x_0_7_8 >= -30
 c487: d_0_9 - load_0_7 + load_0_9 - p_0_9 + 30 x_0_7_9 <= 30
 c488: d_0_9 - load_0_7 + load_0_9 - p_0_9 - 30 x_0_7_9 >= -30
 c489: d_0_10 + load_0_10 - load_0_7 - p_0_10 + 30 x_0_7_10 <= 30
 c490: d_0_10 + load_0_10 - load_0_7 - p_0_10 - 30 x_0_7_10 >= -30
 c491: d_0_1 + load_0_1 - load_0_8 - p_0_1 + 30 x_0_8_1 <= 30
 c492: d_0_1 + load_0_1 - load_0_8 - p_0_1 - 30 x_0_8_1 >= -30
 c493: d_0_2 + load_0_2 - load_0_8 - p_0_2 + 30 x_0_8_2 <= 30
 c494: d_0_2 + load_0_2 - load_0_8 - p_0_2 - 30 x_0_8_2 >= -30
 c495: d_0_3 + load_0_3 - load_0_8 - p_0_3 + 30 x_0_8_3 <= 30
 c496: d_0_3 + load_0_3 - load_0_8 - p_0_3 - 30 x_0_8_3 >= -30
 c497: d_0_4 + load_0_4 - load_0_8 - p_0_4 + 30 x_0_8_4 <= 30
 c498: d_0_4 + load_0_4 - load_0_8 - p_0_4 - 30 x_0_8_4 >= -30
 c499: d_0_5 + load_0_5 - load_0_8 - p_0_5 + 30 x_0_8_5 <= 30
 c500: d_0_5 + load_0_5 - load_0_8 - p_0_5 - 30 x_0_8_5 >= -30
 c501: d_0_6 + load_0_6 - load_0_8 - p_0_6 + 30 x_0_8_6 <= 30
 c502: d_0_6 + load_0_6 - load_0_8 - p_0_6 - 30 x_0_8_6 >= -30
 c503: d_0_7 + load_0_7 - load_0_8 - p_0_7 + 30 x_0_8_7 <= 30
 c504: d_0_7 + load_0_7 - load_0_8 - p_0_7 - 30 x_0_8_7 >= -30
 c505: d_0_9 - load_0_8 + load_0_9 - p_0_9 + 30 x_0_8_9 <= 30
 c506: d_0_9 - load_0_8 + load_0_9 - p_0_9 - 30 x_0_8_9 >= -30
 c507: d_0_10 + load_0_10 - load_0_8 - p_0_10 + 30 x_0_8_10 <= 30
 c508: d_0_10 + load_0_10 - load_0_8 - p_0_10 - 30 x_0_8_10 >= -30
 c509: d_0_1 + load_0_1 - load_0_9 - p_0_1 + 30 x_0_9_1 <= 30
 c510: d_0_1 + load_0_1 - load_0_9 - p_0_1 - 30 x_0_9_1 >= -30
 c511: d_0_2 + load_0_2 - load_0_9 - p_0_2 + 30 x_0_9_2 <= 30
 c512: d_0_2 + load_0_2 - load_0_9 - p_0_2 - 30 x_0_9_2 >= -30
 c513: d_0_3 + load_0_3 - load_0_9 - p_0_3 + 30 x_0_9_3 <= 30
 c514: d_0_3 + load_0_3 - load_0_9 - p_0_3 - 30 x_0_9_3 >= -30
 c515: d_0_4 + load_0_4 - load_0_9 - p_0_4 + 30 x_0_9_4 <= 30
 c516: d_0_4 + load_0_4 - load_0_9 - p_0_4 - 30 x_0_9_4 >= -30
 c517: d_0_5 + load_0_5 - load_0_9 - p_0_5 + 30 x_0_9_5 <= 30
 c518: d_0_5 + load_0_5 - load_0_9 - p_0_5 - 30 x_0_9_5 >= -30
 c519: d_0_6 + load_0_6 - load_0_9 - p_0_6 + 30 x_0_9_6 <= 30
 c520: d_0_6 + load_0_6 - load_0_9 - p_0_6 - 30 x_0_9_6 >= -30
 c521: d_0_7 + load_0_7 - load_0_9 - p_0_7 + 30 x_0_9_7 <= 30
 c522: d_0_7 + load_0_7 - load_0_9 - p_0_7 - 30 x_0_9_7 >= -30
 c523: d_0_8 + load_0_8 - load_0_9 - p_0_8 + 30 x_0_9_8 <= 30
 c524: d_0_8 + load_0_8 - load_0_9 - p_0_8 - 30 x_0_9_8 >= -30
 c525: d_0_10 + load_0_10 - load_0_9 - p_0_10 + 30 x_0_9_10 <= 30
 c526: d_0_10 + load_0_10 - load_0_9 - p_0_10 - 30 x_0_9_10 >= -30
 c527: d_0_1 + load_0_1 - load_0_10 - p_0_1 + 30 x_0_10_1 <= 30
 c528: d_0_1 + load_0_1 - load_0_10 - p_0_1 - 30 x_0_10_1 >= -30
 c529: d_0_2 - load_0_10 + load_0_2 - p_0_2 + 30 x_0_10_2 <= 30
 c530: d_0_2 - load_0_10 + load_0_2 - p_0_2 - 30 x_0_10_2 >= -30
 c531: d_0_3 - load_0_10 + load_0_3 - p_0_3 + 30 x_0_10_3 <= 30
 c532: d_0_3 - load_0_10 + load_0_3 - p_0_3 - 30 x_0_10_3 >= -30
 c533: d_0_4 - load_0_10 + load_0_4 - p_0_4 + 30 x_0_10_4 <= 30
 c534: d_0_4 - load_0_10 + load_0_4 - p_0_4 - 30 x_0_10_4 >= -30
 c535: d_0_5 - load_0_10 + load_0_5 - p_0_5 + 30 x_0_10_5 <= 30
 c536: d_0_5 - load_0_10 + load_0_5 - p_0_5 - 30 x_0_10_5 >= -30
 c537: d_0_6 - load_0_10 + load_0_6 - p_0_6 + 30 x_0_10_6 <= 30
 c538: d_0_6 - load_0_10 + load_0_6 - p_0_6 - 30 x_0_10_6 >= -30
 c539: d_0_7 - load_0_10 + load_0_7 - p_0_7 + 30 x_0_10_7 <= 30
 c540: d_0_7 - load_0_10 + load_0_7 - p_0_7 - 30 x_0_10_7 >= -30
 c541: d_0_8 - load_0_10 + load_0_8 - p_0_8 + 30 x_0_10_8 <= 30
 c542: d_0_8 - load_0_10 + load_0_8 - p_0_8 - 30 x_0_10_8 >= -30
 c543: d_0_9 - load_0_10 + load_0_9 - p_0_9 + 30 x_0_10_9 <= 30
 c544: d_0_9 - load_0_10 + load_0_9 - p_0_9 - 30 x_0_10_9 >= -30
 c545: - d_0_1 - d_0_10 - d_0_2 - d_0_3 - d_0_4 - d_0_5 - d_0_6 - d_0_7 - d_0_8 - d_0_9 + p_0_1 + p_0_10 + p_0_2 + p_0_3 + p_0_4 + p_0_5 + p_0_6 + p_0_7 + p_0_8 + p_0_9 >= 0
 c546: 120 p_0_1 + 120 p_0_10 + 120 p_0_2 + 120 p_0_3 + 120 p_0_4 + 120 p_0_5 + 120 p_0_6 + 120 p_0_7 + 120 p_0_8 + 120 p_0_9 + 327.40639740961916 x_0_0_1 + 249.82640481040789 x_0_0_10 + 157.38537107927718 x_0_0_2 + 313.02971730838107 x_0_0_3 + 336.63428799663399 x_0_0_4 + 214.79409454436208 x_0_0_5 + 355.5008942768884 x_0_0_6 + 296.38985374281668 x_0_0_7 + 265.5794614716105 x_0_0_8 + 358.40608854080318 x_0_0_9 + 249.82640481040789 x_0_10_0 + 114.83802431008276 x_0_10_1 + 379.29134503712908 x_0_10_2 + 463.477511626168 x_0_10_3 + 91.379696344077203 x_0_10_4 + 403.01128937535719 x_0_10_5 + 523.62501589074316 x_0_10_6 + 48.924758349126847 x_0_10_7 + 484.88824110942943 x_0_10_8 + 502.39497095255098 x_0_10_9 + 327.40639740961916 x_0_1_0 + 114.83802431008276 x_0_1_10 + 426.69939375574774 x_0_1_2 + 574.13522746978208 x_0_1_3 + 66.496171084342834 x_0_1_4 + 430.36743935319095 x_0_1_5 + 632.72667999054295 x_0_1_6 + 81.334774987204867 x_0_1_7 + 522.749802058103 x_0_1_8 + 614.23749570602729 x_0_1_9 + 157.38537107927718 x_0_2_0 + 426.69939375574774 x_0_2_1 + 379.29134503712908 x_0_2_10 + 402.6016070181193 x_0_2_3 + 454.83538882980861 x_0_2_4 + 76.884758750010263 x_0_2_5 + 424.73258306628736 x_0_2_6 + 419.74971800769839 x_0_2_7 + 109.24290769756692 x_0_2_8 + 445.78837650398867 x_0_2_9 + 313.02971730838107 x_0_3_0 + 574.13522746978208 x_0_3_1 + 463.477511626168 x_0_3_10 + 402.6016070181193 x_0_3_2 + 551.08542273476701 x_0_3_4 + 479.25601799505824 x_0_3_5 + 64.630687506683046 x_0_3_6 + 509.78852557122178 x_0_3_7 + 472.70910935541878 x_0_3_8 + 45.402006935672063 x_0_3_9 + 336.63428799663399 x_0_4_0 + 66.496171084342834 x_0_4_1 + 91.379696344077203 x_0_4_10 + 454.83538882980861 x_0_4_2 + 551.08542273476701 x_0_4_3 + 468.39988854383614 x_0_4_5 + 612.23921611694334 x_0_4_6 + 42.501753166472902 x_0_4_7 + 556.45760323977618 x_0_4_8 + 588.69820724088811 x_0_4_9 + 214.79409454436208 x_0_5_0 + 430.36743935319095 x_0_5_1 + 403.01128937535719 x_0_5_10 + 76.884758750010263 x_0_5_2 + 479.25601799505824 x_0_5_3 + 468.39988854383614 x_0_5_4 + 501.4902738343651 x_0_5_6 + 437.85845130988741 x_0_5_7 + 98.038614526201343 x_0_5_8 + 522.58644611810075 x_0_5_9 + 355.5008942768884 x_0_6_0 + 632.72667999054295 x_0_6_1 + 523.62501589074316 x_0_6_10 + 424.73258306628736 x_0_6_2 + 64.630687506683046 x_0_6_3 + 612.23921611694334 x_0_6_4 + 501.4902738343651 x_0_6_5 + 570.58812640244844 x_0_6_7 + 482.36635677481326 x_0_6_8 + 53.827978123790984 x_0_6_9 + 296.38985374281668 x_0_7_0 + 81.334774987204867 x_0_7_1 + 48.924758349126847 x_0_7_10 + 419.74971800769839 x_0_7_2 + 509.78852557122178 x_0_7_3 + 42.501753166472902 x_0_7_4 + 437.85845130988741 x_0_7_5 + 570.58812640244844 x_0_7_6 + 523.32342829594154 x_0_7_8 + 547.90301776840249 x_0_7_9 + 265.5794614716105 x_0_8_0 + 522.749802058103 x_0_8_1 + 484.88824110942943 x_0_8_10 + 109.24290769756692 x_0_8_2 + 472.70910935541878 x_0_8_3 + 556.45760323977618 x_0_8_4 + 98.038614526201343 x_0_8_5 + 482.36635677481326 x_0_8_6 + 523.32342829594154 x_0_8_7 + 512.54467565764492 x_0_8_9 + 358.40608854080318 x_0_9_0 + 614.23749570602729 x_0_9_1 + 502.39497095255098 x_0_9_10 + 445.78837650398867 x_0_9_2 + 45.402006935672063 x_0_9_3 + 588.69820724088811 x_0_9_4 + 522.58644611810075 x_0_9_5 + 53.827978123790984 x_0_9_6 + 547.90301776840249 x_0_9_7 + 512.54467565764492 x_0_9_8 <= 2400
 c547: p_1_1 <= 0
 c548: d_1_1 - 30 z_1_1 <= 0
 c549: mode_1_1 - z_1_1 <= 0
 c550: p_1_1 <= 0
 c551: d_1_1 + 30 mode_1_1 - 30 z_1_1 <= 0
 c552: d_1_1 + p_1_1 - z_1_1 >= 0
 c553: load_1_1 - 30 z_1_1 <= 0
 c554: p_1_2 - 30 z_1_2 <= 0
 c555: d_1_2 - 3 z_1_2 <= 0
 c556: mode_1_2 - z_1_2 <= 0
 c557: - 30 mode_1_2 + p_1_2 <= 0
 c558: d_1_2 + 3 mode_1_2 - 3 z_1_2 <= 0
 c559: d_1_2 + p_1_2 - z_1_2 >= 0
 c560: load_1_2 - 30 z_1_2 <= 0
 c561: p_1_3 - 22 z_1_3 <= 0
 c562: d_1_3 - 6 z_1_3 <= 0
 c563: mode_1_3 - z_1_3 <= 0
 c564: - 22 mode_1_3 + p_1_3 <= 0
 c565: d_1_3 + 6 mode_1_3 - 6 z_1_3 <= 0
 c566: d_1_3 + p_1_3 - z_1_3 >= 0
 c567: load_1_3 - 30 z_1_3 <= 0
 c568: p_1_4 - z_1_4 <= 0
 c569: d_1_4 - 20 z_1_4 <= 0
 c570: mode_1_4 - z_1_4 <= 0
 c571: - mode_1_4 + p_1_4 <= 0
 c572: d_1_4 + 20 mode_1_4 - 20 z_1_4 <= 0
 c573: d_1_4 + p_1_4 - z_1_4 >= 0
 c574: load_1_4 - 30 z_1_4 <= 0
 c575: p_1_5 <= 0
 c576: d_1_5 - 30 z_1_5 <= 0
 c577: mode_1_5 - z_1_5 <= 0
 c578: p_1_5 <= 0
 c579: d_1_5 + 30 mode_1_5 - 30 z_1_5 <= 0
 c580: d_1_5 + p_1_5 - z_1_5 >= 0
 c581: load_1_5 - 30 z_1_5 <= 0
 c582: p_1_6 - 12 z_1_6 <= 0
 c583: d_1_6 - 19 z_1_6 <= 0
 c584: mode_1_6 - z_1_6 <= 0
 c585: - 12 mode_1_6 + p_1_6 <= 0
 c586: d_1_6 + 19 mode_1_6 - 19 z_1_6 <= 0
 c587: d_1_6 + p_1_6 - z_1_6 >= 0
 c588: load_1_6 - 30 z_1_6 <= 0
 c589: p_1_7 - 30 z_1_7 <= 0
 c590: d_1_7 - 2 z_1_7 <= 0
 c591: mode_1_7 - z_1_7 <= 0
 c592: - 30 mode_1_7 + p_1_7 <= 0
 c593: d_1_7 + 2 mode_1_7 - 2 z_1_7 <= 0
 c594: d_1_7 + p_1_7 - z_1_7 >= 0
 c595: load_1_7 - 30 z_1_7 <= 0
 c596: p_1_8 - 12 z_1_8 <= 0
 c597: d_1_8 - 21 z_1_8 <= 0
 c598: mode_1_8 - z_1_8 <= 0
 c599: - 12 mode_1_8 + p_1_8 <= 0
 c600: d_1_8 + 21 mode_1_8 - 21 z_1_8 <= 0
 c601: d_1_8 + p_1_8 - z_1_8 >= 0
 c602: load_1_8 - 30 z_1_8 <= 0
 c603: p_1_9 <= 0
 c604: d_1_9 - 22 z_1_9 <= 0
 c605: mode_1_9 - z_1_9 <= 0
 c606: p_1_9 <= 0
 c607: d_1_9 + 22 mode_1_9 - 22 z_1_9 <= 0
 c608: d_1_9 + p_1_9 - z_1_9 >= 0
 c609: load_1_9 - 30 z_1_9 <= 0
 c610: p_1_10 - 7 z_1_10 <= 0
 c611: d_1_10 - 14 z_1_10 <= 0
 c612: mode_1_10 - z_1_10 <= 0
 c613: - 7 mode_1_10 + p_1_10 <= 0
 c614: d_1_10 + 14 mode_1_10 - 14 z_1_10 <= 0
 c615: d_1_10 + p_1_10 - z_1_10 >= 0
 c616: load_1_10 - 30 z_1_10 <= 0
 c617: d_1_1 + load_1_1 - p_1_1 + 30 x_1_0_1 <= 30
 c618: d_1_1 + load_1_1 - p_1_1 - 30 x_1_0_1 >= -30
 c619: d_1_2 + load_1_2 - p_1_2 + 30 x_1_0_2 <= 30
 c620: d_1_2 + load_1_2 - p_1_2 - 30 x_1_0_2 >= -30
 c621: d_1_3 + load_1_3 - p_1_3 + 30 x_1_0_3 <= 30
 c622: d_1_3 + load_1_3 - p_1_3 - 30 x_1_0_3 >= -30
 c623: d_1_4 + load_1_4 - p_1_4 + 30 x_1_0_4 <= 30
 c624: d_1_4 + load_1_4 - p_1_4 - 30 x_1_0_4 >= -30
 c625: d_1_5 + load_1_5 - p_1_5 + 30 x_1_0_5 <= 30
 c626: d_1_5 + load_1_5 - p_1_5 - 30 x_1_0_5 >= -30
 c627: d_1_6 + load_1_6 - p_1_6 + 30 x_1_0_6 <= 30
 c628: d_1_6 + load_1_6 - p_1_6 - 30 x_1_0_6 >= -30
 c629: d_1_7 + load_1_7 - p_1_7 + 30 x_1_0_7 <= 30
 c630: d_1_7 + load_1_7 - p_1_7 - 30 x_1_0_7 >= -30
 c631: d_1_8 + load_1_8 - p_1_8 + 30 x_1_0_8 <= 30
 c632: d_1_8 + load_1_8 - p_1_8 - 30 x_1_0_8 >= -30
 c633: d_1_9 + load_1_9 - p_1_9 + 30 x_1_0_9 <= 30
 c634: d_1_9 + load_1_9 - p_1_9 - 30 x_1_0_9 >= -30
 c635: d_1_10 + load_1_10 - p_1_10 + 30 x_1_0_10 <= 30
 c636: d_1_10 + load_1_10 - p_1_10 - 30 x_1_0_10 >= -30
 c637: d_1_2 - load_1_1 + load_1_2 - p_1_2 + 30 x_1_1_2 <= 30
 c638: d_1_2 - load_1_1 + load_1_2 - p_1_2 - 30 x_1_1_2 >= -30
 c639: d_1_3 - load_1_1 + load_1_3 - p_1_3 + 30 x_1_1_3 <= 30
 c640: d_1_3 - load_1_1 + load_1_3 - p_1_3 - 30 x_1_1_3 >= -30
 c641: d_1_4 - load_1_1 + load_1_4 - p_1_4 + 30 x_1_1_4 <= 30
 c642: d_1_4 - load_1_1 + load_1_4 - p_1_4 - 30 x_1_1_4 >= -30
 c643: d_1_5 - load_1_1 + load_1_5 - p_1_5 + 30 x_1_1_5 <= 30
 c644: d_1_5 - load_1_1 + load_1_5 - p_1_5 - 30 x_1_1_5 >= -30
 c645: d_1_6 - load_1_1 + load_1_6 - p_1_6 + 30 x_1_1_6 <= 30
 c646: d_1_6 - load_1_1 + load_1_6 - p_1_6 - 30 x_1_1_6 >= -30
 c647: d_1_7 - load_1_1 + load_1_7 - p_1_7 + 30 x_1_1_7 <= 30
 c648: d_1_7 - load_1_1 + load_1_7 - p_1_7 - 30 x_1_1_7 >= -30
 c649: d_1_8 - load_1_1 + load_1_8 - p_1_8 + 30 x_1_1_8 <= 30
 c650: d_1_8 - load_1_1 + load_1_8 - p_1_8 - 30 x_1_1_8 >= -30
 c651: d_1_9 - load_1_1 + load_1_9 - p_1_9 + 30 x_1_1_9 <= 30
 c652: d_1_9 - load_1_1 + load_1_9 - p_1_9 - 30 x_1_1_9 >= -30
 c653: d_1_10 - load_1_1 + load_1_10 - p_1_10 + 30 x_1_1_10 <= 30
 c654: d_1_10 - load_1_1 + load_1_10 - p_1_10 - 30 x_1_1_10 >= -30
 c655: d_1_1 + load_1_1 - load_1_2 - p_1_1 + 30 x_1_2_1 <= 30
 c656: d_1_1 + load_1_1 - load_1_2 - p_1_1 - 30 x_1_2_1 >= -30
 c657: d_1_3 - load_1_2 + load_1_3 - p_1_3 + 30 x_1_2_3 <= 30
 c658: d_1_3 - load_1_2 + load_1_3 - p_1_3 - 30 x_1_2_3 >= -30
 c659: d_1_4 - load_1_2 + load_1_4 - p_1_4 + 30 x_1_2_4 <= 30
 c660: d_1_4 - load_1_2 + load_1_4 - p_1_4 - 30 x_1_2_4 >= -30
 c661: d_1_5 - load_1_2 + load_1_5 - p_1_5 + 30 x_1_2_5 <= 30
 c662: d_1_5 - load_1_2 + load_1_5 - p_1_5 - 30 x_1_2_5 >= -30
 c663: d_1_6 - load_1_2 + load_1_6 - p_1_6 + 30 x_1_2_6 <= 30
 c664: d_1_6 - load_1_2 + load_1_6 - p_1_6 - 30 x_1_2_6 >= -30
 c665: d_1_7 - load_1_2 + load_1_7 - p_1_7 + 30 x_1_2_7 <= 30
 c666: d_1_7 - load_1_2 + load_1_7 - p_1_7 - 30 x_1_2_7 >= -30
 c667: d_1_8 - load_1_2 + load_1_8 - p_1_8 + 30 x_1_2_8 <= 30
 c668: d_1_8 - load_1_2 + load_1_8 - p_1_8 - 30 x_1_2_8 >= -30
 c669: d_1_9 - load_1_2 + load_1_9 - p_1_9 + 30 x_1_2_9 <= 30
 c670: d_1_9 - load_1_2 + load_1_9 - p_1_9 - 30 x_1_2_9 >= -30
 c671: d_1_10 + load_1_10 - load_1_2 - p_1_10 + 30 x_1_2_10 <= 30
 c672: d_1_10 + load_1_10 - load_1_2 - p_1_10 - 30 x_1_2_10 >= -30
 c673: d_1_1 + load_1_1 - load_1_3 - p_1_1 + 30 x_1_3_1 <= 30
 c674: d_1_1 + load_1_1 - load_1_3 - p_1_1 - 30 x_1_3_1 >= -30
 c675: d_1_2 + load_1_2 - load_1_3 - p_1_2 + 30 x_1_3_2 <= 30
 c676: d_1_2 + load_1_2 - load_1_3 - p_1_2 - 30 x_1_3_2 >= -30
 c677: d_1_4 - load_1_3 + load_1_4 - p_1_4 + 30 x_1_3_4 <= 30
 c678: d_1_4 - load_1_3 + load_1_4 - p_1_4 - 30 x_1_3_4 >= -30
 c679: d_1_5 - load_1_3 + load_1_5 - p_1_5 + 30 x_1_3_5 <= 30
 c680: d_1_5 - load_1_3 + load_1_5 - p_1_5 - 30 x_1_3_5 >= -30
 c681: d_1_6 - load_1_3 + load_1_6 - p_1_6 + 30 x_1_3_6 <= 30
 c682: d_1_6 - load_1_3 + load_1_6 - p_1_6 - 30 x_1_3_6 >= -30
 c683: d_1_7 - load_1_3 + load_1_7 - p_1_7 + 30 x_1_3_7 <= 30
 c684: d_1_7 - load_1_3 + load_1_7 - p_1_7 - 30 x_1_3_7 >= -30
 c685: d_1_8 - load_1_3 + load_1_8 - p_1_8 + 30 x_1_3_8 <= 30
 c686: d_1_8 - load_1_3 + load_1_8 - p_1_8 - 30 x_1_3_8 >= -30
 c687: d_1_9 - load_1_3 + load_1_9 - p_1_9 + 30 x_1_3_9 <= 30
 c688: d_1_9 - load_1_3 + load_1_9 - p_1_9 - 30 x_1_3_9 >= -30
 c689: d_1_10 + load_1_10 - load_1_3 - p_1_10 + 30 x_1_3_10 <= 30
 c690: d_1_10 + load_1_10 - load_1_3 - p_1_10 - 30 x_1_3_10 >= -30
 c691: d_1_1 + load_1_1 - load_1_4 - p_1_1 + 30 x_1_4_1 <= 30
 c692: d_1_1 + load_1_1 - load_1_4 - p_1_1 - 30 x_1_4_1 >= -30
 c693: d_1_2 + load_1_2 - load_1_4 - p_1_2 + 30 x_1_4_2 <= 30
 c694: d_1_2 + load_1_2 - load_1_4 - p_1_2 - 30 x_1_4_2 >= -30
 c695: d_1_3 + load_1_3 - load_1_4 - p_1_3 + 30 x_1_4_3 <= 30
 c696: d_1_3 + load_1_3 - load_1_4 - p_1_3 - 30 x_1_4_3 >= -30
 c697: d_1_5 - load_1_4 + load_1_5 - p_1_5 + 30 x_1_4_5 <= 30
 c698: d_1_5 - load_1_4 + load_1_5 - p_1_5 - 30 x_1_4_5 >= -30
 c699: d_1_6 - load_1_4 + load_1_6 - p_1_6 + 30 x_1_4_6 <= 30
 c700: d_1_6 - load_1_4 + load_1_6 - p_1_6 - 30 x_1_4_6 >= -30
 c701: d_1_7 - load_1_4 + load_1_7 - p_1_7 + 30 x_1_4_7 <= 30
 c702: d_1_7 - load_1_4 + load_1_7 - p_1_7 - 30 x_1_4_7 >= -30
 c703: d_1_8 - load_1_4 + load_1_8 - p_1_8 + 30 x_1_4_8 <= 30
 c704: d_1_8 - load_1_4 + load_1_8 - p_1_8 - 30 x_1_4_8 >= -30
 c705: d_1_9 - load_1_4 + load_1_9 - p_1_9 + 30 x_1_4_9 <= 30
 c706: d_1_9 - load_1_4 + load_1_9 - p_1_9 - 30 x_1_4_9 >= -30
 c707: d_1_10 + load_1_10 - load_1_4 - p_1_10 + 30 x_1_4_10 <= 30
 c708: d_1_10 + load_1_10 - load_1_4 - p_1_10 - 30 x_1_4_10 >= -30
 c709: d_1_1 + load_1_1 - load_1_5 - p_1_1 + 30 x_1_5_1 <= 30
 c710: d_1_1 + load_1_1 - load_1_5 - p_1_1 - 30 x_1_5_1 >= -30
 c711: d_1_2 + load_1_2 - load_1_5 - p_1_2 + 30 x_1_5_2 <= 30
 c712: d_1_2 + load_1_2 - load_1_5 - p_1_2 - 30 x_1_5_2 >= -30
 c713: d_1_3 + load_1_3 - load_1_5 - p_1_3 + 30 x_1_5_3 <= 30
 c714: d_1_3 + load_1_3 - load_1_5 - p_1_3 - 30 x_1_5_3 >= -30
 c715: d_1_4 + load_1_4 - load_1_5 - p_1_4 + 30 x_1_5_4 <= 30
 c716: d_1_4 + load_1_4 - load_1_5 - p_1_4 - 30 x_1_5_4 >= -30
 c717: d_1_6 - load_1_5 + load_1_6 - p_1_6 + 30 x_1_5_6 <= 30
 c718: d_1_6 - load_1_5 + load_1_6 - p_1_6 - 30 x_1_5_6 >= -30
 c719: d_1_7 - load_1_5 + load_1_7 - p_1_7 + 30 x_1_5_7 <= 30
 c720: d_1_7 - load_1_5 + load_1_7 - p_1_7 - 30 x_1_5_7 >= -30
 c721: d_1_8 - load_1_5 + load_1_8 - p_1_8 + 30 x_1_5_8 <= 30
 c722: d_1_8 - load_1_5 + load_1_8 - p_1_8 - 30 x_1_5_8 >= -30
 c723: d_1_9 - load_1_5 + load_1_9 - p_1_9 + 30 x_1_5_9 <= 30
 c724: d_1_9 - load_1_5 + load_1_9 - p_1_9 - 30 x_1_5_9 >= -30
 c725: d_1_10 + load_1_10 - load_1_5 - p_1_10 + 30 x_1_5_10 <= 30
 c726: d_1_10 + load_1_10 - load_1_5 - p_1_10 - 30 x_1_5_10 >= -30
 c727: d_1_1 + load_1_1 - load_1_6 - p_1_1 + 30 x_1_6_1 <= 30
 c728: d_1_1 + load_1_1 - load_1_6 - p_1_1 - 30 x_1_6_1 >= -30
 c729: d_1_2 + load_1_2 - load_1_6 - p_1_2 + 30 x_1_6_2 <= 30
 c730: d_1_2 + load_1_2 - load_1_6 - p_1_2 - 30 x_1_6_2 >= -30
 c731: d_1_3 + load_1_3 - load_1_6 - p_1_3 + 30 x_1_6_3 <= 30
 c732: d_1_3 + load_1_3 - load_1_6 - p_1_3 - 30 x_1_6_3 >= -30
 c733: d_1_4 + load_1_4 - load_1_6 - p_1_4 + 30 x_1_6_4 <= 30
 c734: d_1_4 + load_1_4 - load_1_6 - p_1_4 - 30 x_1_6_4 >= -30
 c735: d_1_5 + load_1_5 - load_1_6 - p_1_5 + 30 x_1_6_5 <= 30
 c736: d_1_5 + load_1_5 - load_1_6 - p_1_5 - 30 x_1_6_5 >= -30
 c737: d_1_7 - load_1_6 + load_1_7 - p_1_7 + 30 x_1_6_7 <= 30
 c738: d_1_7 - load_1_6 + load_1_7 - p_1_7 - 30 x_1_6_7 >= -30
 c739: d_1_8 - load_1_6 + load_1_8 - p_1_8 + 30 x_1_6_8 <= 30
 c740: d_1_8 - load_1_6 + load_1_8 - p_1_8 - 30 x_1_6_8 >= -30
 c741: d_1_9 - load_1_6 + load_1_9 - p_1_9 + 30 x_1_6_9 <= 30
 c742: d_1_9 - load_1_6 + load_1_9 - p_1_9 - 30 x_1_6_9 >= -30
 c743: d_1_10 + load_1_10 - load_1_6 - p_1_10 + 30 x_1_6_10 <= 30
 c744: d_1_10 + load_1_10 - load_1_6 - p_1_10 - 30 x_1_6_10 >= -30
 c745: d_1_1 + load_1_1 - load_1_7 - p_1_1 + 30 x_1_7_1 <= 30
 c746: d_1_1 + load_1_1 - load_1_7 - p_1_1 - 30 x_1_7_1 >= -30
 c747: d_1_2 + load_1_2 - load_1_7 - p_1_2 + 30 x_1_7_2 <= 30
 c748: d_1_2 + load_1_2 - load_1_7 - p_1_2 - 30 x_1_7_2 >= -30
 c749: d_1_3 + load_1_3 - load_1_7 - p_1_3 + 30 x_1_7_3 <= 30
 c750: d_1_3 + load_1_3 - load_1_7 - p_1_3 - 30 x_1_7_3 >= -30
 c751: d_1_4 + load_1_4 - load_1_7 - p_1_4 + 30 x_1_7_4 <= 30
 c752: d_1_4 + load_1_4 - load_1_7 - p_1_4 - 30 x_1_7_4 >= -30
 c753: d_1_5 + load_1_5 - load_1_7 - p_1_5 + 30 x_1_7_5 <= 30
 c754: d_1_5 + load_1_5 - load_1_7 - p_1_5 - 30 x_1_7_5 >= -30
 c755: d_1_6 + load_1_6 - load_1_7 - p_1_6 + 30 x_1_7_6 <= 30
 c756: d_1_6 + load_1_6 - load_1_7 - p_1_6 - 30 x_1_7_6 >= -30
 c757: d_1_8 - load_1_7 + load_1_8 - p_1_8 + 30 x_1_7_8 <= 30
 c758: d_1_8 - load_1_7 + load_1_8 - p_1_8 - 30 x_1_7_8 >= -30
 c759: d_1_9 - load_1_7 + load_1_9 - p_1_9 + 30 x_1_7_9 <= 30
 c760: d_1_9 - load_1_7 + load_1_9 - p_1_9 - 30 x_1_7_9 >= -30
 c761: d_1_10 + load_1_10 - load_1_7 - p_1_10 + 30 x_1_7_10 <= 30
 c762: d_1_10 + load_1_10 - load_1_7 - p_1_10 - 30 x_1_7_10 >= -30
 c763: d_1_1 + load_1_1 - load_1_8 - p_1_1 + 30 x_1_8_1 <= 30
 c764: d_1_1 + load_1_1 - load_1_8 - p_1_1 - 30 x_1_8_1 >= -30
 c765: d_1_2 + load_1_2 - load_1_8 - p_1_2 + 30 x_1_8_2 <= 30
 c766: d_1_2 + load_1_2 - load_1_8 - p_1_2 - 30 x_1_8_2 >= -30
 c767: d_1_3 + load_1_3 - load_1_8 - p_1_3 + 30 x_1_8_3 <= 30
 c768: d_1_3 + load_1_3 - load_1_8 - p_1_3 - 30 x_1_8_3 >= -30
 c769: d_1_4 + load_1_4 - load_1_8 - p_1_4 + 30 x_1_8_4 <= 30
 c770: d_1_4 + load_1_4 - load_1_8 - p_1_4 - 30 x_1_8_4 >= -30
 c771: d_1_5 + load_1_5 - load_1_8 - p_1_5 + 30 x_1_8_5 <= 30
 c772: d_1_5 + load_1_5 - load_1_8 - p_1_5 - 30 x_1_8_5 >= -30
 c773: d_1_6 + load_1_6 - load_1_8 - p_1_6 + 30 x_1_8_6 <= 30
 c774: d_1_6 + load_1_6 - load_1_8 - p_1_6 - 30 x_1_8_6 >= -30
 c775: d_1_7 + load_1_7 - load_1_8 - p_1_7 + 30 x_1_8_7 <= 30
 c776: d_1_7 + load_1_7 - load_1_8 - p_1_7 - 30 x_1_8_7 >= -30
 c777: d_1_9 - load_1_8 + load_1_9 - p_1_9 + 30 x_1_8_9 <= 30
 c778: d_1_9 - load_1_8 + load_1_9 - p_1_9 - 30 x_1_8_9 >= -30
 c779: d_1_10 + load_1_10 - load_1_8 - p_1_10 + 30 x_1_8_10 <= 30
 c780: d_1_10 + load_1_10 - load_1_8 - p_1_10 - 30 x_1_8_10 >= -30
 c781: d_1_1 + load_1_1 - load_1_9 - p_1_1 + 30 x_1_9_1 <= 30
 c782: d_1_1 + load_1_1 - load_1_9 - p_1_1 - 30 x_1_9_1 >= -30
 c783: d_1_2 + load_1_2 - load_1_9 - p_1_2 + 30 x_1_9_2 <= 30
 c784: d_1_2 + load_1_2 - load_1_9 - p_1_2 - 30 x_1_9_2 >= -30
 c785: d_1_3 + load_1_3 - load_1_9 - p_1_3 + 30 x_1_9_3 <= 30
 c786: d_1_3 + load_1_3 - load_1_9 - p_1_3 - 30 x_1_9_3 >= -30
 c787: d_1_4 + load_1_4 - load_1_9 - p_1_4 + 30 x_1_9_4 <= 30
 c788: d_1_4 + load_1_4 - load_1_9 - p_1_4 - 30 x_1_9_4 >= -30
 c789: d_1_5 + load_1_5 - load_1_9 - p_1_5 + 30 x_1_9_5 <= 30
 c790: d_1_5 + load_1_5 - load_1_9 - p_1_5 - 30 x_1_9_5 >= -30
 c791: d_1_6 + load_1_6 - load_1_9 - p_1_6 + 30 x_1_9_6 <= 30
 c792: d_1_6 + load_1_6 - load_1_9 - p_1_6 - 30 x_1_9_6 >= -30
 c793: d_1_7 + load_1_7 - load_1_9 - p_1_7 + 30 x_1_9_7 <= 30
 c794: d_1_7 + load_1_7 - load_1_9 - p_1_7 - 30 x_1_9_7 >= -30
 c795: d_1_8 + load_1_8 - load_1_9 - p_1_8 + 30 x_1_9_8 <= 30
 c796: d_1_8 + load_1_8 - load_1_9 - p_1_8 - 30 x_1_9_8 >= -30
 c797: d_1_10 + load_1_10 - load_1_9 - p_1_10 + 30 x_1_9_10 <= 30
 c798: d_1_10 + load_1_10 - load_1_9 - p_1_10 - 30 x_1_9_10 >= -30
 c799: d_1_1 + load_1_1 - load_1_10 - p_1_1 + 30 x_1_10_1 <= 30
 c800: d_1_1 + load_1_1 - load_1_10 - p_1_1 - 30 x_1_10_1 >= -30
 c801: d_1_2 - load_1_10 + load_1_2 - p_1_2 + 30 x_1_10_2 <= 30
 c802: d_1_2 - load_1_10 + load_1_2 - p_1_2 - 30 x_1_10_2 >= -30
 c803: d_1_3 - load_1_10 + load_1_3 - p_1_3 + 30 x_1_10_3 <= 30
 c804: d_1_3 - load_1_10 + load_1_3 - p_1_3 - 30 x_1_10_3 >= -30
 c805: d_1_4 - load_1_10 + load_1_4 - p_1_4 + 30 x_1_10_4 <= 30
 c806: d_1_4 - load_1_10 + load_1_4 - p_1_4 - 30 x_1_10_4 >= -30
 c807: d_1_5 - load_1_10 + load_1_5 - p_1_5 + 30 x_1_10_5 <= 30
 c808: d_1_5 - load_1_10 + load_1_5 - p_1_5 - 30 x_1_10_5 >= -30
 c809: d_1_6 - load_1_10 + load_1_6 - p_1_6 + 30 x_1_10_6 <= 30
 c810: d_1_6 - load_1_10 + load_1_6 - p_1_6 - 30 x_1_10_6 >= -30
 c811: d_1_7 - load_1_10 + load_1_7 - p_1_7 + 30 x_1_10_7 <= 30
 c812: d_1_7 - load_1_10 + load_1_7 - p_1_7 - 30 x_1_10_7 >= -30
 c813: d_1_8 - load_1_10 + load_1_8 - p_1_8 + 30 x_1_10_8 <= 30
 c814: d_1_8 - load_1_10 + load_1_8 - p_1_8 - 30 x_1_10_8 >= -30
 c815: d_1_9 - load_1_10 + load_1_9 - p_1_9 + 30 x_1_10_9 <= 30
 c816: d_1_9 - load_1_10 + load_1_9 - p_1_9 - 30 x_1_10_9 >= -30
 c817: - d_1_1 - d_1_10 - d_1_2 - d_1_3 - d_1_4 - d_1_5 - d_1_6 - d_1_7 - d_1_8 - d_1_9 + p_1_1 + p_1_10 + p_1_2 + p_1_3 + p_1_4 + p_1_5 + p_1_6 + p_1_7 + p_1_8 + p_1_9 >= 0
 c818: 120 p_1_1 + 120 p_1_10 + 120 p_1_2 + 120 p_1_3 + 120 p_1_4 + 120 p_1_5 + 120 p_1_6 + 120 p_1_7 + 120 p_1_8 + 120 p_1_9 + 327.40639740961916 x_1_0_1 + 249.82640481040789 x_1_0_10 + 157.38537107927718 x_1_0_2 + 313.02971730838107 x_1_0_3 + 336.63428799663399 x_1_0_4 + 214.79409454436208 x_1_0_5 + 355.5008942768884 x_1_0_6 + 296.38985374281668 x_1_0_7 + 265.5794614716105 x_1_0_8 + 358.40608854080318 x_1_0_9 + 249.82640481040789 x_1_10_0 + 114.83802431008276 x_1_10_1 + 379.29134503712908 x_1_10_2 + 463.477511626168 x_1_10_3 + 91.379696344077203 x_1_10_4 + 403.01128937535719 x_1_10_5 + 523.62501589074316 x_1_10_6 + 48.924758349126847 x_1_10_7 + 484.88824110942943 x_1_10_8 + 502.39497095255098 x_1_10_9 + 327.40639740961916 x_1_1_0 + 114.83802431008276 x_1_1_10 + 426.69939375574774 x_1_1_2 + 574.13522746978208 x_1_1_3 + 66.496171084342834 x_1_1_4 + 430.36743935319095 x_1_1_5 + 632.72667999054295 x_1_1_6 + 81.334774987204867 x_1_1_7 + 522.749802058103 x_1_1_8 + 614.23749570602729 x_1_1_9 + 157.38537107927718 x_1_2_0 + 426.69939375574774 x_1_2_1 + 379.29134503712908 x_1_2_10 + 402.6016070181193 x_1_2_3 + 454.83538882980861 x_1_2_4 + 76.884758750010263 x_1_2_5 + 424.73258306628736 x_1_2_6 + 419.74971800769839 x_1_2_7 + 109.24290769756692 x_1_2_8 + 445.78837650398867 x_1_2_9 + 313.02971730838107 x_1_3_0 + 574.13522746978208 x_1_3_1 + 463.477511626168 x_1_3_10 + 402.6016070181193 x_1_3_2 + 551.08542273476701 x_1_3_4 + 479.25601799505824 x_1_3_5 + 64.630687506683046 x_1_3_6 + 509.78852557122178 x_1_3_7 + 472.70910935541878 x_1_3_8 + 45.402006935672063 x_1_3_9 + 336.63428799663399 x_1_4_0 + 66.496171084342834 x_1_4_1 + 91.379696344077203 x_1_4_10 + 454.83538882980861 x_1_4_2 + 551.08542273476701 x_1_4_3 + 468.39988854383614 x_1_4_5 + 612.23921611694334 x_1_4_6 + 42.501753166472902 x_1_4_7 + 556.45760323977618 x_1_4_8 + 588.69820724088811 x_1_4_9 + 214.79409454436208 x_1_5_0 + 430.36743935319095 x_1_5_1 + 403.01128937535719 x_1_5_10 + 76.884758750010263 x_1_5_2 + 479.25601799505824 x_1_5_3 + 468.39988854383614 x_1_5_4 + 501.4902738343651 x_1_5_6 + 437.85845130988741 x_1_5_7 + 98.038614526201343 x_1_5_8 + 522.58644611810075 x_1_5_9 + 355.5008942768884 x_1_6_0 + 632.72667999054295 x_1_6_1 + 523.62501589074316 x_1_6_10 + 424.73258306628736 x_1_6_2 + 64.630687506683046 x_1_6_3 + 612.23921611694334 x_1_6_4 + 501.4902738343651 x_1_6_5 + 570.58812640244844 x_1_6_7 + 482.36635677481326 x_1_6_8 + 53.827978123790984 x_1_6_9 + 296.38985374281668 x_1_7_0 + 81.334774987204867 x_1_7_1 + 48.924758349126847 x_1_7_10 + 419.74971800769839 x_1_7_2 + 509.78852557122178 x_1_7_3 + 42.501753166472902 x_1_7_4 + 437.85845130988741 x_1_7_5 + 570.58812640244844 x_1_7_6 + 523.32342829594154 x_1_7_8 + 547.90301776840249 x_1_7_9 + 265.5794614716105 x_1_8_0 + 522.749802058103 x_1_8_1 + 484.88824110942943 x_1_8_10 + 109.24290769756692 x_1_8_2 + 472.70910935541878 x_1_8_3 + 556.45760323977618 x_1_8_4 + 98.038614526201343 x_1_8_5 + 482.36635677481326 x_1_8_6 + 523.32342829594154 x_1_8_7 + 512.54467565764492 x_1_8_9 + 358.40608854080318 x_1_9_0 + 614.23749570602729 x_1_9_1 + 502.39497095255098 x_1_9_10 + 445.78837650398867 x_1_9_2 + 45.402006935672063 x_1_9_3 + 588.69820724088811 x_1_9_4 + 522.58644611810075 x_1_9_5 + 53.827978123790984 x_1_9_6 + 547.90301776840249 x_1_9_7 + 512.54467565764492 x_1_9_8 <= 2400
 c819: Y_1 - d_0_1 - d_1_1 + p_0_1 + p_1_1 = 0
 c820: - 0.024390243902439025 Y_1 + r_1 = 0
 c821: e_1 - r_1 >= -1
 c822: e_1 + r_1 >= 1
 c823: Y_2 - d_0_2 - d_1_2 + p_0_2 + p_1_2 = 44
 c824: - 0.023809523809523808 Y_2 + r_2 = 0
 c825: e_2 - r_2 >= -1
 c826: e_2 + r_2 >= 1
 c827: Y_3 - d_0_3 - d_1_3 + p_0_3 + p_1_3 = 22
 c828: - 0.037037037037037035 Y_3 + r_3 = 0
 c829: e_3 - r_3 >= -1
 c830: e_3 + r_3 >= 1
 c831: Y_4 - d_0_4 - d_1_4 + p_0_4 + p_1_4 = 1
 c832: - 0.055555555555555552 Y_4 + r_4 = 0
 c833: e_4 - r_4 >= -1
 c834: e_4 + r_4 >= 1
 c835: Y_5 - d_0_5 - d_1_5 + p_0_5 + p_1_5 = 0
 c836: - 0.33333333333333331 Y_5 + r_5 = 0
 c837: e_5 - r_5 >= -1
 c838: e_5 + r_5 >= 1
 c839: Y_6 - d_0_6 - d_1_6 + p_0_6 + p_1_6 = 12
 c840: - 0.041666666666666664 Y_6 + r_6 = 0
 c841: e_6 - r_6 >= -1
 c842: e_6 + r_6 >= 1
 c843: Y_7 - d_0_7 - d_1_7 + p_0_7 + p_1_7 = 48
 c844: - 0.058823529411764705 Y_7 + r_7 = 0
 c845: e_7 - r_7 >= -1
 c846: e_7 + r_7 >= 1
 c847: Y_8 - d_0_8 - d_1_8 + p_0_8 + p_1_8 = 12
 c848: - 0.076923076923076927 Y_8 + r_8 = 0
 c849: e_8 - r_8 >= -1
 c850: e_8 + r_8 >= 1
 c851: Y_9 - d_0_9 - d_1_9 + p_0_9 + p_1_9 = 0
 c852: - 0.25 Y_9 + r_9 = 0
 c853: e_9 - r_9 >= -1
 c854: e_9 + r_9 >= 1
 c855: Y_10 - d_0_10 - d_1_10 + p_0_10 + p_1_10 = 7
 c856: - 0.083333333333333329 Y_10 + r_10 = 0
 c857: e_10 - r_10 >= -1
 c858: e_10 + r_10 >= 1
 c859: h_1_2 - r_1 + r_2 >= 0
 c860: h_1_2 + r_1 - r_2 >= 0
 c861: h_1_3 - r_1 + r_3 >= 0
 c862: h_1_3 + r_1 - r_3 >= 0
 c863: h_1_4 - r_1 + r_4 >= 0
 c864: h_1_4 + r_1 - r_4 >= 0
 c865: h_1_5 - r_1 + r_5 >= 0
 c866: h_1_5 + r_1 - r_5 >= 0
 c867: h_1_6 - r_1 + r_6 >= 0
 c868: h_1_6 + r_1 - r_6 >= 0
 c869: h_1_7 - r_1 + r_7 >= 0
 c870: h_1_7 + r_1 - r_7 >= 0
 c871: h_1_8 - r_1 + r_8 >= 0
 c872: h_1_8 + r_1 - r_8 >= 0
 c873: h_1_9 - r_1 + r_9 >= 0
 c874: h_1_9 + r_1 - r_9 >= 0
 c875: h_1_10 - r_1 + r_10 >= 0
 c876: h_1_10 + r_1 - r_10 >= 0
 c877: h_2_3 - r_2 + r_3 >= 0
 c878: h_2_3 + r_2 - r_3 >= 0
 c879: h_2_4 - r_2 + r_4 >= 0
 c880: h_2_4 + r_2 - r_4 >= 0
 c881: h_2_5 - r_2 + r_5 >= 0
 c882: h_2_5 + r_2 - r_5 >= 0
 c883: h_2_6 - r_2 + r_6 >= 0
 c884: h_2_6 + r_2 - r_6 >= 0
 c885: h_2_7 - r_2 + r_7 >= 0
 c886: h_2_7 + r_2 - r_7 >= 0
 c887: h_2_8 - r_2 + r_8 >= 0
 c888: h_2_8 + r_2 - r_8 >= 0
 c889: h_2_9 - r_2 + r_9 >= 0
 c890: h_2_9 + r_2 - r_9 >= 0
 c891: h_2_10 + r_10 - r_2 >= 0
 c892: h_2_10 - r_10 + r_2 >= 0
 c893: h_3_4 - r_3 + r_4 >= 0
 c894: h_3_4 + r_3 - r_4 >= 0
 c895: h_3_5 - r_3 + r_5 >= 0
 c896: h_3_5 + r_3 - r_5 >= 0
 c897: h_3_6 - r_3 + r_6 >= 0
 c898: h_3_6 + r_3 - r_6 >= 0
 c899: h_3_7 - r_3 + r_7 >= 0
 c900: h_3_7 + r_3 - r_7 >= 0
 c901: h_3_8 - r_3 + r_8 >= 0
 c902: h_3_8 + r_3 - r_8 >= 0
 c903: h_3_9 - r_3 + r_9 >= 0
 c904: h_3_9 + r_3 - r_9 >= 0
 c905: h_3_10 + r_10 - r_3 >= 0
 c906: h_3_10 - r_10 + r_3 >= 0
 c907: h_4_5 - r_4 + r_5 >= 0
 c908: h_4_5 + r_4 - r_5 >= 0
 c909: h_4_6 - r_4 + r_6 >= 0
 c910: h_4_6 + r_4 - r_6 >= 0
 c911: h_4_7 - r_4 + r_7 >= 0
 c912: h_4_7 + r_4 - r_7 >= 0
 c913: h_4_8 - r_4 + r_8 >= 0
 c914: h_4_8 + r_4 - r_8 >= 0
 c915: h_4_9 - r_4 + r_9 >= 0
 c916: h_4_9 + r_4 - r_9 >= 0
 c917: h_4_10 + r_10 - r_4 >= 0
 c918: h_4_10 - r_10 + r_4 >= 0
 c919: h_5_6 - r_5 + r_6 >= 0
 c920: h_5_6 + r_5 - r_6 >= 0
 c921: h_5_7 - r_5 + r_7 >= 0
 c922: h_5_7 + r_5 - r_7 >= 0
 c923: h_5_8 - r_5 + r_8 >= 0
 c924: h_5_8 + r_5 - r_8 >= 0
 c925: h_5_9 - r_5 + r_9 >= 0
 c926: h_5_9 + r_5 - r_9 >= 0
 c927: h_5_10 + r_10 - r_5 >= 0
 c928: h_5_10 - r_10 + r_5 >= 0
 c929: h_6_7 - r_6 + r_7 >= 0
 c930: h_6_7 + r_6 - r_7 >= 0
 c931: h_6_8 - r_6 + r_8 >= 0
 c932: h_6_8 + r_6 - r_8 >= 0
 c933: h_6_9 - r_6 + r_9 >= 0
 c934: h_6_9 + r_6 - r_9 >= 0
 c935: h_6_10 + r_10 - r_6 >= 0
 c936: h_6_10 - r_10 + r_6 >= 0
 c937: h_7_8 - r_7 + r_8 >= 0
 c938: h_7_8 + r_7 - r_8 >= 0
 c939: h_7_9 - r_7 + r_9 >= 0
 c940: h_7_9 + r_7 - r_9 >= 0
 c941: h_7_10 + r_10 - r_7 >= 0
 c942: h_7_10 - r_10 + r_7 >= 0
 c943: h_8_9 - r_8 + r_9 >= 0
 c944: h_8_9 + r_8 - r_9 >= 0
 c945: h_8_10 + r_10 - r_8 >= 0
 c946: h_8_10 - r_10 + r_8 >= 0
 c947: h_9_10 + r_10 - r_9 >= 0
 c948: h_9_10 - r_10 + r_9 >= 0
 c949: Y_1 - bit_1_0 - 2 bit_1_1 - 4 bit_1_2 - 8 bit_1_3 - 16 bit_1_4 - 32 bit_1_5 = 0
 c950: - prod_1_0 - 2 prod_1_1 - 4 prod_1_2 - 8 prod_1_3 - 16 prod_1_4 - 32 prod_1_5 + zprod_1 = 0
 c951: - G + prod_1_0 <= 0
 c952: - bit_1_0 + prod_1_0 <= 0
 c953: - G - bit_1_0 + prod_1_0 >= -1
 c954: - G + prod_1_1 <= 0
 c955: - bit_1_1 + prod_1_1 <= 0
 c956: - G - bit_1_1 + prod_1_1 >= -1
 c957: - G + prod_1_2 <= 0
 c958: - bit_1_2 + prod_1_2 <= 0
 c959: - G - bit_1_2 + prod_1_2 >= -1
 c960: - G + prod_1_3 <= 0
 c961: - bit_1_3 + prod_1_3 <= 0
 c962: - G - bit_1_3 + prod_1_3 >= -1
 c963: - G + prod_1_4 <= 0
 c964: - bit_1_4 + prod_1_4 <= 0
 c965: - G - bit_1_4 + prod_1_4 >= -1
 c966: - G + prod_1_5 <= 0
 c967: - bit_1_5 + prod_1_5 <= 0
 c968: - G - bit_1_5 + prod_1_5 >= -1
 c969: Y_2 - bit_2_0 - 2 bit_2_1 - 4 bit_2_2 - 8 bit_2_3 - 16 bit_2_4 - 32 bit_2_5 = 0
 c970: - prod_2_0 - 2 prod_2_1 - 4 prod_2_2 - 8 prod_2_3 - 16 prod_2_4 - 32 prod_2_5 + zprod_2 = 0
 c971: - G + prod_2_0 <= 0
 c972: - bit_2_0 + prod_2_0 <= 0
 c973: - G - bit_2_0 + prod_2_0 >= -1
 c974: - G + prod_2_1 <= 0
 c975: - bit_2_1 + prod_2_1 <= 0
 c976: - G - bit_2_1 + prod_2_1 >= -1
 c977: - G + prod_2_2 <= 0
 c978: - bit_2_2 + prod_2_2 <= 0
 c979: - G - bit_2_2 + prod_2_2 >= -1
 c980: - G + prod_2_3 <= 0
 c981: - bit_2_3 + prod_2_3 <= 0
 c982: - G - bit_2_3 + prod_2_3 >= -1
 c983: - G + prod_2_4 <= 0
 c984: - bit_2_4 + prod_2_4 <= 0
 c985: - G - bit_2_4 + prod_2_4 >= -1
 c986: - G + prod_2_5 <= 0
 c987: - bit_2_5 + prod_2_5 <= 0
 c988: - G - bit_2_5 + prod_2_5 >= -1
 c989: Y_3 - bit_3_0 - 2 bit_3_1 - 4 bit_3_2 - 8 bit_3_3 - 16 bit_3_4 = 0
 c990: - prod_3_0 - 2 prod_3_1 - 4 prod_3_2 - 8 prod_3_3 - 16 prod_3_4 + zprod_3 = 0
 c991: - G + prod_3_0 <= 0
 c992: - bit_3_0 + prod_3_0 <= 0
 c993: - G - bit_3_0 + prod_3_0 >= -1
 c994: - G + prod_3_1 <= 0
 c995: - bit_3_1 + prod_3_1 <= 0
 c996: - G - bit_3_1 + prod_3_1 >= -1
 c997: - G + prod_3_2 <= 0
 c998: - bit_3_2 + prod_3_2 <= 0
 c999: - G - bit_3_2 + prod_3_2 >= -1
 c1000: - G + prod_3_3 <= 0
 c1001: - bit_3_3 + prod_3_3 <= 0
 c1002: - G - bit_3_3 + prod_3_3 >= -1
 c1003: - G + prod_3_4 <= 0
 c1004: - bit_3_4 + prod_3_4 <= 0
 c1005: - G - bit_3_4 + prod_3_4 >= -1
 c1006: Y_4 - bit_4_0 - 2 bit_4_1 - 4 bit_4_2 - 8 bit_4_3 - 16 bit_4_4 = 0
 c1007: - prod_4_0 - 2 prod_4_1 - 4 prod_4_2 - 8 prod_4_3 - 16 prod_4_4 + zprod_4 = 0
 c1008: - G + prod_4_0 <= 0
 c1009: - bit_4_0 + prod_4_0 <= 0
 c1010: - G - bit_4_0 + prod_4_0 >= -1
 c1011: - G + prod_4_1 <= 0
 c1012: - bit_4_1 + prod_4_1 <= 0
 c1013: - G - bit_4_1 + prod_4_1 >= -1
 c1014: - G + prod_4_2 <= 0
 c1015: - bit_4_2 + prod_4_2 <= 0
 c1016: - G - bit_4_2 + prod_4_2 >= -1
 c1017: - G + prod_4_3 <= 0
 c1018: - bit_4_3 + prod_4_3 <= 0
 c1019: - G - bit_4_3 + prod_4_3 >= -1
 c1020: - G + prod_4_4 <= 0
 c1021: - bit_4_4 + prod_4_4 <= 0
 c1022: - G - bit_4_4 + prod_4_4 >= -1
 c1023: Y_5 - bit_5_0 - 2 bit_5_1 - 4 bit_5_2 - 8 bit_5_3 - 16 bit_5_4 - 32 bit_5_5 = 0
 c1024: - prod_5_0 - 2 prod_5_1 - 4 prod_5_2 - 8 prod_5_3 - 16 prod_5_4 - 32 prod_5_5 + zprod_5 = 0
 c1025: - G + prod_5_0 <= 0
 c1026: - bit_5_0 + prod_5_0 <= 0
 c1027: - G - bit_5_0 + prod_5_0 >= -1
 c1028: - G + prod_5_1 <= 0
 c1029: - bit_5_1 + prod_5_1 <= 0
 c1030: - G - bit_5_1 + prod_5_1 >= -1
 c1031: - G + prod_5_2 <= 0
 c1032: - bit_5_2 + prod_5_2 <= 0
 c1033: - G - bit_5_2 + prod_5_2 >= -1
 c1034: - G + prod_5_3 <= 0
 c1035: - bit_5_3 + prod_5_3 <= 0
 c1036: - G - bit_5_3 + prod_5_3 >= -1
 c1037: - G + prod_5_4 <= 0
 c1038: - bit_5_4 + prod_5_4 <= 0
 c1039: - G - bit_5_4 + prod_5_4 >= -1
 c1040: - G + prod_5_5 <= 0
 c1041: - bit_5_5 + prod_5_5 <= 0
 c1042: - G - bit_5_5 + prod_5_5 >= -1
 c1043: Y_6 - bit_6_0 - 2 bit_6_1 - 4 bit_6_2 - 8 bit_6_3 - 16 bit_6_4 = 0
 c1044: - prod_6_0 - 2 prod_6_1 - 4 prod_6_2 - 8 prod_6_3 - 16 prod_6_4 + zprod_6 = 0
 c1045: - G + prod_6_0 <= 0
 c1046: - bit_6_0 + prod_6_0 <= 0
 c1047: - G - bit_6_0 + prod_6_0 >= -1
 c1048: - G + prod_6_1 <= 0
 c1049: - bit_6_1 + prod_6_1 <= 0
 c1050: - G - bit_6_1 + prod_6_1 >= -1
 c1051: - G + prod_6_2 <= 0
 c1052: - bit_6_2 + prod_6_2 <= 0
 c1053: - G - bit_6_2 + prod_6_2 >= -1
 c1054: - G + prod_6_3 <= 0
 c1055: - bit_6_3 + prod_6_3 <= 0
 c1056: - G - bit_6_3 + prod_6_3 >= -1
 c1057: - G + prod_6_4 <= 0
 c1058: - bit_6_4 + prod_6_4 <= 0
 c1059: - G - bit_6_4 + prod_6_4 >= -1
 c1060: Y_7 - bit_7_0 - 2 bit_7_1 - 4 bit_7_2 - 8 bit_7_3 - 16 bit_7_4 - 32 bit_7_5 = 0
 c1061: - prod_7_0 - 2 prod_7_1 - 4 prod_7_2 - 8 prod_7_3 - 16 prod_7_4 - 32 prod_7_5 + zprod_7 = 0
 c1062: - G + prod_7_0 <= 0
 c1063: - bit_7_0 + prod_7_0 <= 0
 c1064: - G - bit_7_0 + prod_7_0 >= -1
 c1065: - G + prod_7_1 <= 0
 c1066: - bit_7_1 + prod_7_1 <= 0
 c1067: - G - bit_7_1 + prod_7_1 >= -1
 c1068: - G + prod_7_2 <= 0
 c1069: - bit_7_2 + prod_7_2 <= 0
 c1070: - G - bit_7_2 + prod_7_2 >= -1
 c1071: - G + prod_7_3 <= 0
 c1072: - bit_7_3 + prod_7_3 <= 0
 c1073: - G - bit_7_3 + prod_7_3 >= -1
 c1074: - G + prod_7_4 <= 0
 c1075: - bit_7_4 + prod_7_4 <= 0
 c1076: - G - bit_7_4 + prod_7_4 >= -1
 c1077: - G + prod_7_5 <= 0
 c1078: - bit_7_5 + prod_7_5 <= 0
 c1079: - G - bit_7_5 + prod_7_5 >= -1
 c1080: Y_8 - bit_8_0 - 2 bit_8_1 - 4 bit_8_2 - 8 bit_8_3 - 16 bit_8_4 - 32 bit_8_5 = 0
 c1081: - prod_8_0 - 2 prod_8_1 - 4 prod_8_2 - 8 prod_8_3 - 16 prod_8_4 - 32 prod_8_5 + zprod_8 = 0
 c1082: - G + prod_8_0 <= 0
 c1083: - bit_8_0 + prod_8_0 <= 0
 c1084: - G - bit_8_0 + prod_8_0 >= -1
 c1085: - G + prod_8_1 <= 0
 c1086: - bit_8_1 + prod_8_1 <= 0
 c1087: - G - bit_8_1 + prod_8_1 >= -1
 c1088: - G + prod_8_2 <= 0
 c1089: - bit_8_2 + prod_8_2 <= 0
 c1090: - G - bit_8_2 + prod_8_2 >= -1
 c1091: - G + prod_8_3 <= 0
 c1092: - bit_8_3 + prod_8_3 <= 0
 c1093: - G - bit_8_3 + prod_8_3 >= -1
 c1094: - G + prod_8_4 <= 0
 c1095: - bit_8_4 + prod_8_4 <= 0
 c1096: - G - bit_8_4 + prod_8_4 >= -1
 c1097: - G + prod_8_5 <= 0
 c1098: - bit_8_5 + prod_8_5 <= 0
 c1099: - G - bit_8_5 + prod_8_5 >= -1
 c1100: Y_9 - bit_9_0 - 2 bit_9_1 - 4 bit_9_2 - 8 bit_9_3 - 16 bit_9_4 = 0
 c1101: - prod_9_0 - 2 prod_9_1 - 4 prod_9_2 - 8 prod_9_3 - 16 prod_9_4 + zprod_9 = 0
 c1102: - G + prod_9_0 <= 0
 c1103: - bit_9_0 + prod_9_0 <= 0
 c1104: - G - bit_9_0 + prod_9_0 >= -1
 c1105: - G + prod_9_1 <= 0
 c1106: - bit_9_1 + prod_9_1 <= 0
 c1107: - G - bit_9_1 + prod_9_1 >= -1
 c1108: - G + prod_9_2 <= 0
 c1109: - bit_9_2 + prod_9_2 <= 0
 c1110: - G - bit_9_2 + prod_9_2 >= -1
 c1111: - G + prod_9_3 <= 0
 c1112: - bit_9_3 + prod_9_3 <= 0
 c1113: - G - bit_9_3 + prod_9_3 >= -1
 c1114: - G + prod_9_4 <= 0
 c1115: - bit_9_4 + prod_9_4 <= 0
 c1116: - G - bit_9_4 + prod_9_4 >= -1
 c1117: Y_10 - bit_10_0 - 2 bit_10_1 - 4 bit_10_2 - 8 bit_10_3 - 16 bit_10_4 = 0
 c1118: - prod_10_0 - 2 prod_10_1 - 4 prod_10_2 - 8 prod_10_3 - 16 prod_10_4 + zprod_10 = 0
 c1119: - G + prod_10_0 <= 0
 c1120: - bit_10_0 + prod_10_0 <= 0
 c1121: - G - bit_10_0 + prod_10_0 >= -1
 c1122: - G + prod_10_1 <= 0
 c1123: - bit_10_1 + prod_10_1 <= 0
 c1124: - G - bit_10_1 + prod_10_1 >= -1
 c1125: - G + prod_10_2 <= 0
 c1126: - bit_10_2 + prod_10_2 <= 0
 c1127: - G - bit_10_2 + prod_10_2 >= -1
 c1128: - G + prod_10_3 <= 0
 c1129: - bit_10_3 + prod_10_3 <= 0
 c1130: - G - bit_10_3 + prod_10_3 >= -1
 c1131: - G + prod_10_4 <= 0
 c1132: - bit_10_4 + prod_10_4 <= 0
 c1133: - G - bit_10_4 + prod_10_4 >= -1
 c1134: - h_1_10 - h_1_2 - h_1_3 - h_1_4 - h_1_5 - h_1_6 - h_1_7 - h_1_8 - h_1_9 - h_2_10 - h_2_3 - h_2_4 - h_2_5 - h_2_6 - h_2_7 - h_2_8 - h_2_9 - h_3_10 - h_3_4 - h_3_5 - h_3_6 - h_3_7 - h_3_8 - h_3_9 - h_4_10 - h_4_5 - h_4_6 - h_4_7 - h_4_8 - h_4_9 - h_5_10 - h_5_6 - h_5_7 - h_5_8 - h_5_9 - h_6_10 - h_6_7 - h_6_8 - h_6_9 - h_7_10 - h_7_8 - h_7_9 - h_8_10 - h_8_9 - h_9_10 + 0.24390243902439024 zprod_1 + 0.83333333333333337 zprod_10 + 0.23809523809523808 zprod_2 + 0.37037037037037035 zprod_3 + 0.55555555555555558 zprod_4 + 3.3333333333333335 zprod_5 + 0.41666666666666669 zprod_6 + 0.58823529411764708 zprod_7 + 0.76923076923076927 zprod_8 + 2.5 zprod_9 >= 0
Bounds
 0 <= G <= 1
 0 <= Y_1 <= 43
 0 <= Y_10 <= 21
 0 <= Y_2 <= 47
 0 <= Y_3 <= 28
 0 <= Y_4 <= 21
 0 <= Y_5 <= 34
 0 <= Y_6 <= 31
 0 <= Y_7 <= 50
 0 <= Y_8 <= 33
 0 <= Y_9 <= 22
 0 <= bit_10_0 <= 1
 0 <= bit_10_1 <= 1
 0 <= bit_10_2 <= 1
 0 <= bit_10_3 <= 1
 0 <= bit_10_4 <= 1
 0 <= bit_1_0 <= 1
 0 <= bit_1_1 <= 1
 0 <= bit_1_2 <= 1
 0 <= bit_1_3 <= 1
 0 <= bit_1_4 <= 1
 0 <= bit_1_5 <= 1
 0 <= bit_2_0 <= 1
 0 <= bit_2_1 <= 1
 0 <= bit_2_2 <= 1
 0 <= bit_2_3 <= 1
 0 <= bit_2_4 <= 1
 0 <= bit_2_5 <= 1
 0 <= bit_3_0 <= 1
 0 <= bit_3_1 <= 1
 0 <= bit_3_2 <= 1
 0 <= bit_3_3 <= 1
 0 <= bit_3_4 <= 1
 0 <= bit_4_0 <= 1
 0 <= bit_4_1 <= 1
 0 <= bit_4_2 <= 1
 0 <= bit_4_3 <= 1
 0 <= bit_4_4 <= 1
 0 <= bit_5_0 <= 1
 0 <= bit_5_1 <= 1
 0 <= bit_5_2 <= 1
 0 <= bit_5_3 <= 1
 0 <= bit_5_4 <= 1
 0 <= bit_5_5 <= 1
 0 <= bit_6_0 <= 1
 0 <= bit_6_1 <= 1
 0 <= bit_6_2 <= 1
 0 <= bit_6_3 <= 1
 0 <= bit_6_4 <= 1
 0 <= bit_7_0 <= 1
 0 <= bit_7_1 <= 1
 0 <= bit_7_2 <= 1
 0 <= bit_7_3 <= 1
 0 <= bit_7_4 <= 1
 0 <= bit_7_5 <= 1
 0 <= bit_8_0 <= 1
 0 <= bit_8_1 <= 1
 0 <= bit_8_2 <= 1
 0 <= bit_8_3 <= 1
 0 <= bit_8_4 <= 1
 0 <= bit_8_5 <= 1
 0 <= bit_9_0 <= 1
 0 <= bit_9_1 <= 1
 0 <= bit_9_2 <= 1
 0 <= bit_9_3 <= 1
 0 <= bit_9_4 <= 1
 0 <= d_0_1 <= 30
 0 <= d_0_10 <= 14
 0 <= d_0_2 <= 3
 0 <= d_0_3 <= 6
 0 <= d_0_4 <= 20
 0 <= d_0_5 <= 30
 0 <= d_0_6 <= 19
 0 <= d_0_7 <= 2
 0 <= d_0_8 <= 21
 0 <= d_0_9 <= 22
 0 <= d_1_1 <= 30
 0 <= d_1_10 <= 14
 0 <= d_1_2 <= 3
 0 <= d_1_3 <= 6
 0 <= d_1_4 <= 20
 0 <= d_1_5 <= 30
 0 <= d_1_6 <= 19
 0 <= d_1_7 <= 2
 0 <= d_1_8 <= 21
 0 <= d_1_9 <= 22
 0 <= e_1 <= 1
 0 <= e_10 <= 1
 0 <= e_2 <= 1
 0 <= e_3 <= 1
 0 <= e_4 <= 1
 0 <= e_5 <= 10.333333333333334
 0 <= e_6 <= 1
 0 <= e_7 <= 1.9411764705882355
 0 <= e_8 <= 1.5384615384615383
 0 <= e_9 <= 4.5
 0 <= h_1_10 <= 2.7987804878048781
 0 <= h_1_2 <= 2.1678281068524972
 0 <= h_1_3 <= 2.0858175248419153
 0 <= h_1_4 <= 2.2154471544715451
 0 <= h_1_5 <= 12.382113821138212
 0 <= h_1_6 <= 2.3404471544715451
 0 <= h_1_7 <= 3.9899569583931136
 0 <= h_1_8 <= 3.5872420262664164
 0 <= h_1_9 <= 6.5487804878048781
 0 <= h_2_10 <= 2.8690476190476191
 0 <= h_2_3 <= 2.1560846560846558
 0 <= h_2_4 <= 2.2857142857142856
 0 <= h_2_5 <= 12.452380952380953
 0 <= h_2_6 <= 2.4107142857142856
 0 <= h_2_7 <= 4.0602240896358541
 0 <= h_2_8 <= 3.6575091575091574
 0 <= h_2_9 <= 6.6190476190476186
 0 <= h_3_10 <= 2.7870370370370372
 0 <= h_3_4 <= 2.2037037037037037
 0 <= h_3_5 <= 12.37037037037037
 0 <= h_3_6 <= 2.3287037037037037
 0 <= h_3_7 <= 3.9782135076252727
 0 <= h_3_8 <= 3.5754985754985755
 0 <= h_3_9 <= 6.5370370370370372
 0 <= h_4_10 <= 2.916666666666667
 0 <= h_4_5 <= 12.5
 0 <= h_4_6 <= 2.4583333333333335
 0 <= h_4_7 <= 4.1078431372549025
 0 <= h_4_8 <= 3.7051282051282053
 0 <= h_4_9 <= 6.666666666666667
 0 <= h_5_10 <= 13.083333333333334
 0 <= h_5_6 <= 12.625
 0 <= h_5_7 <= 14.274509803921569
 0 <= h_5_8 <= 13.871794871794872
 0 <= h_5_9 <= 16.833333333333336
 0 <= h_6_10 <= 3.041666666666667
 0 <= h_6_7 <= 4.2328431372549025
 0 <= h_6_8 <= 3.8301282051282053
 0 <= h_6_9 <= 6.791666666666667
 0 <= h_7_10 <= 4.6911764705882355
 0 <= h_7_8 <= 5.4796380090497738
 0 <= h_7_9 <= 8.4411764705882355
 0 <= h_8_10 <= 4.2884615384615383
 0 <= h_8_9 <= 8.0384615384615383
 0 <= h_9_10 <= 7.25
 0 <= load_0_1 <= 30
 0 <= load_0_10 <= 30
 0 <= load_0_2 <= 30
 0 <= load_0_3 <= 30
 0 <= load_0_4 <= 30
 0 <= load_0_5 <= 30
 0 <= load_0_6 <= 30
 0 <= load_0_7 <= 30
 0 <= load_0_8 <= 30
 0 <= load_0_9 <= 30
 0 <= load_1_1 <= 30
 0 <= load_1_10 <= 30
 0 <= load_1_2 <= 30
 0 <= load_1_3 <= 30
 0 <= load_1_4 <= 30
 0 <= load_1_5 <= 30
 0 <= load_1_6 <= 30
 0 <= load_1_7 <= 30
 0 <= load_1_8 <= 30
 0 <= load_1_9 <= 30
 0 <= mode_0_1 <= 1
 0 <= mode_0_10 <= 1
 0 <= mode_0_2 <= 1
 0 <= mode_0_3 <= 1
 0 <= mode_0_4 <= 1
 0 <= mode_0_5 <= 1
 0 <= mode_0_6 <= 1
 0 <= mode_0_7 <= 1
 0 <= mode_0_8 <= 1
 0 <= mode_0_9 <= 1
 0 <= mode_1_1 <= 1
 0 <= mode_1_10 <= 1
 0 <= mode_1_2 <= 1
 0 <= mode_1_3 <= 1
 0 <= mode_1_4 <= 1
 0 <= mode_1_5 <= 1
 0 <= mode_1_6 <= 1
 0 <= mode_1_7 <= 1
 0 <= mode_1_8 <= 1
 0 <= mode_1_9 <= 1
 0 <= ord_0_1 <= 10
 0 <= ord_0_10 <= 10
 0 <= ord_0_2 <= 10
 0 <= ord_0_3 <= 10
 0 <= ord_0_4 <= 10
 0 <= ord_0_5 <= 10
 0 <= ord_0_6 <= 10
 0 <= ord_0_7 <= 10
 0 <= ord_0_8 <= 10
 0 <= ord_0_9 <= 10
 0 <= ord_1_1 <= 10
 0 <= ord_1_10 <= 10
 0 <= ord_1_2 <= 10
 0 <= ord_1_3 <= 10
 0 <= ord_1_4 <= 10
 0 <= ord_1_5 <= 10
 0 <= ord_1_6 <= 10
 0 <= ord_1_7 <= 10
 0 <= ord_1_8 <= 10
 0 <= ord_1_9 <= 10
 0 <= p_0_1 <= 0
 0 <= p_0_10 <= 7
 0 <= p_0_2 <= 30
 0 <= p_0_3 <= 22
 0 <= p_0_4 <= 1
 0 <= p_0_5 <= 0
 0 <= p_0_6 <= 12
 0 <= p_0_7 <= 30
 0 <= p_0_8 <= 12
 0 <= p_0_9 <= 0
 0 <= p_1_1 <= 0
 0 <= p_1_10 <= 7
 0 <= p_1_2 <= 30
 0 <= p_1_3 <= 22
 0 <= p_1_4 <= 1
 0 <= p_1_5 <= 0
 0 <= p_1_6 <= 12
 0 <= p_1_7 <= 30
 0 <= p_1_8 <= 12
 0 <= p_1_9 <= 0
 0 <= prod_10_0 <= 1
 0 <= prod_10_1 <= 1
 0 <= prod_10_2 <= 1
 0 <= prod_10_3 <= 1
 0 <= prod_10_4 <= 1
 0 <= prod_1_0 <= 1
 0 <= prod_1_1 <= 1
 0 <= prod_1_2 <= 1
 0 <= prod_1_3 <= 1
 0 <= prod_1_4 <= 1
 0 <= prod_1_5 <= 1
 0 <= prod_2_0 <= 1
 0 <= prod_2_1 <= 1
 0 <= prod_2_2 <= 1
 0 <= prod_2_3 <= 1
 0 <= prod_2_4 <= 1
 0 <= prod_2_5 <= 1
 0 <= prod_3_0 <= 1
 0 <= prod_3_1 <= 1
 0 <= prod_3_2 <= 1
 0 <= prod_3_3 <= 1
 0 <= prod_3_4 <= 1
 0 <= prod_4_0 <= 1
 0 <= prod_4_1 <= 1
 0 <= prod_4_2 <= 1
 0 <= prod_4_3 <= 1
 0 <= prod_4_4 <= 1
 0 <= prod_5_0 <= 1
 0 <= prod_5_1 <= 1
 0 <= prod_5_2 <= 1
 0 <= prod_5_3 <= 1
 0 <= prod_5_4 <= 1
 0 <= prod_5_5 <= 1
 0 <= prod_6_0 <= 1
 0 <= prod_6_1 <= 1
 0 <= prod_6_2 <= 1
 0 <= prod_6_3 <= 1
 0 <= prod_6_4 <= 1
 0 <= prod_7_0 <= 1
 0 <= prod_7_1 <= 1
 0 <= prod_7_2 <= 1
 0 <= prod_7_3 <= 1
 0 <= prod_7_4 <= 1
 0 <= prod_7_5 <= 1
 0 <= prod_8_0 <= 1
 0 <= prod_8_1 <= 1
 0 <= prod_8_2 <= 1
 0 <= prod_8_3 <= 1
 0 <= prod_8_4 <= 1
 0 <= prod_8_5 <= 1
 0 <= prod_9_0 <= 1
 0 <= prod_9_1 <= 1
 0 <= prod_9_2 <= 1
 0 <= prod_9_3 <= 1
 0 <= prod_9_4 <= 1
 0 <= r_1 <= 1.0487804878048781
 0 <= r_10 <= 1.75
 0 <= r_2 <= 1.1190476190476191
 0 <= r_3 <= 1.037037037037037
 0 <= r_4 <= 1.1666666666666667
 0 <= r_5 <= 11.333333333333334
 0 <= r_6 <= 1.2916666666666667
 0 <= r_7 <= 2.9411764705882355
 0 <= r_8 <= 2.5384615384615383
 0 <= r_9 <= 5.5
 0 <= x_0_0_1 <= 1
 0 <= x_0_0_10 <= 1
 0 <= x_0_0_2 <= 1
 0 <= x_0_0_3 <= 1
 0 <= x_0_0_4 <= 1
 0 <= x_0_0_5 <= 1
 0 <= x_0_0_6 <= 1
 0 <= x_0_0_7 <= 1
 0 <= x_0_0_8 <= 1
 0 <= x_0_0_9 <= 1
 0 <= x_0_10_0 <= 1
 0 <= x_0_10_1 <= 1
 0 <= x_0_10_2 <= 1
 0 <= x_0_10_3 <= 1
 0 <= x_0_10_4 <= 1
 0 <= x_0_10_5 <= 1
 0 <= x_0_10_6 <= 1
 0 <= x_0_10_7 <= 1
 0 <= x_0_10_8 <= 1
 0 <= x_0_10_9 <= 1
 0 <= x_0_1_0 <= 1
 0 <= x_0_1_10 <= 1
 0 <= x_0_1_2 <= 1
 0 <= x_0_1_3 <= 1
 0 <= x_0_1_4 <= 1
 0 <= x_0_1_5 <= 1
 0 <= x_0_1_6 <= 1
 0 <= x_0_1_7 <= 1
 0 <= x_0_1_8 <= 1
 0 <= x_0_1_9 <= 1
 0 <= x_0_2_0 <= 1
 0 <= x_0_2_1 <= 1
 0 <= x_0_2_10 <= 1
 0 <= x_0_2_3 <= 1
 0 <= x_0_2_4 <= 1
 0 <= x_0_2_5 <= 1
 0 <= x_0_2_6 <= 1
 0 <= x_0_2_7 <= 1
 0 <= x_0_2_8 <= 1
 0 <= x_0_2_9 <= 1
 0 <= x_0_3_0 <= 1
 0 <= x_0_3_1 <= 1
 0 <= x_0_3_10 <= 1
 0 <= x_0_3_2 <= 1
 0 <= x_0_3_4 <= 1
 0 <= x_0_3_5 <= 1
 0 <= x_0_3_6 <= 1
 0 <= x_0_3_7 <= 1
 0 <= x_0_3_8 <= 1
 0 <= x_0_3_9 <= 1
 0 <= x_0_4_0 <= 1
 0 <= x_0_4_1 <= 1
 0 <= x_0_4_10 <= 1
 0 <= x_0_4_2 <= 1
 0 <= x_0_4_3 <= 1
 0 <= x_0_4_5 <= 1
 0 <= x_0_4_6 <= 1
 0 <= x_0_4_7 <= 1
 0 <= x_0_4_8 <= 1
 0 <= x_0_4_9 <= 1
 0 <= x_0_5_0 <= 1
 0 <= x_0_5_1 <= 1
 0 <= x_0_5_10 <= 1
 0 <= x_0_5_2 <= 1
 0 <= x_0_5_3 <= 1
 0 <= x_0_5_4 <= 1
 0 <= x_0_5_6 <= 1
 0 <= x_0_5_7 <= 1
 0 <= x_0_5_8 <= 1
 0 <= x_0_5_9 <= 1
 0 <= x_0_6_0 <= 1
 0 <= x_0_6_1 <= 1
 0 <= x_0_6_10 <= 1
 0 <= x_0_6_2 <= 1
 0 <= x_0_6_3 <= 1
 0 <= x_0_6_4 <= 1
 0 <= x_0_6_5 <= 1
 0 <= x_0_6_7 <= 1
 0 <= x_0_6_8 <= 1
 0 <= x_0_6_9 <= 1
 0 <= x_0_7_0 <= 1
 0 <= x_0_7_1 <= 1
 0 <= x_0_7_10 <= 1
 0 <= x_0_7_2 <= 1
 0 <= x_0_7_3 <= 1
 0 <= x_0_7_4 <= 1
 0 <= x_0_7_5 <= 1
 0 <= x_0_7_6 <= 1
 0 <= x_0_7_8 <= 1
 0 <= x_0_7_9 <= 1
 0 <= x_0_8_0 <= 1
 0 <= x_0_8_1 <= 1
 0 <= x_0_8_10 <= 1
 0 <= x_0_8_2 <= 1
 0 <= x_0_8_3 <= 1
 0 <= x_0_8_4 <= 1
 0 <= x_0_8_5 <= 1
 0 <= x_0_8_6 <= 1
 0 <= x_0_8_7 <= 1
 0 <= x_0_8_9 <= 1
 0 <= x_0_9_0 <= 1
 0 <= x_0_9_1 <= 1
 0 <= x_0_9_10 <= 1
 0 <= x_0_9_2 <= 1
 0 <= x_0_9_3 <= 1
 0 <= x_0_9_4 <= 1
 0 <= x_0_9_5 <= 1
 0 <= x_0_9_6 <= 1
 0 <= x_0_9_7 <= 1
 0 <= x_0_9_8 <= 1
 0 <= x_1_0_1 <= 1
 0 <= x_1_0_10 <= 1
 0 <= x_1_0_2 <= 1
 0 <= x_1_0_3 <= 1
 0 <= x_1_0_4 <= 1
 0 <= x_1_0_5 <= 1
 0 <= x_1_0_6 <= 1
 0 <= x_1_0_7 <= 1
 0 <= x_1_0_8 <= 1
 0 <= x_1_0_9 <= 1
 0 <= x_1_10_0 <= 1
 0 <= x_1_10_1 <= 1
 0 <= x_1_10_2 <= 1
 0 <= x_1_10_3 <= 1
 0 <= x_1_10_4 <= 1
 0 <= x_1_10_5 <= 1
 0 <= x_1_10_6 <= 1
 0 <= x_1_10_7 <= 1
 0 <= x_1_10_8 <= 1
 0 <= x_1_10_9 <= 1
 0 <= x_1_1_0 <= 1
 0 <= x_1_1_10 <= 1
 0 <= x_1_1_2 <= 1
 0 <= x_1_1_3 <= 1
 0 <= x_1_1_4 <= 1
 0 <= x_1_1_5 <= 1
 0 <= x_1_1_6 <= 1
 0 <= x_1_1_7 <= 1
 0 <= x_1_1_8 <= 1
 0 <= x_1_1_9 <= 1
 0 <= x_1_2_0 <= 1
 0 <= x_1_2_1 <= 1
 0 <= x_1_2_10 <= 1
 0 <= x_1_2_3 <= 1
 0 <= x_1_2_4 <= 1
 0 <= x_1_2_5 <= 1
 0 <= x_1_2_6 <= 1
 0 <= x_1_2_7 <= 1
 0 <= x_1_2_8 <= 1
 0 <= x_1_2_9 <= 1
 0 <= x_1_3_0 <= 1
 0 <= x_1_3_1 <= 1
 0 <= x_1_3_10 <= 1
 0 <= x_1_3_2 <= 1
 0 <= x_1_3_4 <= 1
 0 <= x_1_3_5 <= 1
 0 <= x_1_3_6 <= 1
 0 <= x_1_3_7 <= 1
 0 <= x_1_3_8 <= 1
 0 <= x_1_3_9 <= 1
 0 <= x_1_4_0 <= 1
 0 <= x_1_4_1 <= 1
 0 <= x_1_4_10 <= 1
 0 <= x_1_4_2 <= 1
 0 <= x_1_4_3 <= 1
 0 <= x_1_4_5 <= 1
 0 <= x_1_4_6 <= 1
 0 <= x_1_4_7 <= 1
 0 <= x_1_4_8 <= 1
 0 <= x_1_4_9 <= 1
 0 <= x_1_5_0 <= 1
 0 <= x_1_5_1 <= 1
 0 <= x_1_5_10 <= 1
 0 <= x_1_5_2 <= 1
 0 <= x_1_5_3 <= 1
 0 <= x_1_5_4 <= 1
 0 <= x_1_5_6 <= 1
 0 <= x_1_5_7 <= 1
 0 <= x_1_5_8 <= 1
 0 <= x_1_5_9 <= 1
 0 <= x_1_6_0 <= 1
 0 <= x_1_6_1 <= 1
 0 <= x_1_6_10 <= 1
 0 <= x_1_6_2 <= 1
 0 <= x_1_6_3 <= 1
 0 <= x_1_6_4 <= 1
 0 <= x_1_6_5 <= 1
 0 <= x_1_6_7 <= 1
 0 <= x_1_6_8 <= 1
 0 <= x_1_6_9 <= 1
 0 <= x_1_7_0 <= 1
 0 <= x_1_7_1 <= 1
 0 <= x_1_7_10 <= 1
 0 <= x_1_7_2 <= 1
 0 <= x_1_7_3 <= 1
 0 <= x_1_7_4 <= 1
 0 <= x_1_7_5 <= 1
 0 <= x_1_7_6 <= 1
 0 <= x_1_7_8 <= 1
 0 <= x_1_7_9 <= 1
 0 <= x_1_8_0 <= 1
 0 <= x_1_8_1 <= 1
 0 <= x_1_8_10 <= 1
 0 <= x_1_8_2 <= 1
 0 <= x_1_8_3 <= 1
 0 <= x_1_8_4 <= 1
 0 <= x_1_8_5 <= 1
 0 <= x_1_8_6 <= 1
 0 <= x_1_8_7 <= 1
 0 <= x_1_8_9 <= 1
 0 <= x_1_9_0 <= 1
 0 <= x_1_9_1 <= 1
 0 <= x_1_9_10 <= 1
 0 <= x_1_9_2 <= 1
 0 <= x_1_9_3 <= 1
 0 <= x_1_9_4 <= 1
 0 <= x_1_9_5 <= 1
 0 <= x_1_9_6 <= 1
 0 <= x_1_9_7 <= 1
 0 <= x_1_9_8 <= 1
 0 <= z_0_1 <= 1
 0 <= z_0_10 <= 1
 0 <= z_0_2 <= 1
 0 <= z_0_3 <= 1
 0 <= z_0_4 <= 1
 0 <= z_0_5 <= 1
 0 <= z_0_6 <= 1
 0 <= z_0_7 <= 1
 0 <= z_0_8 <= 1
 0 <= z_0_9 <= 1
 0 <= z_1_1 <= 1
 0 <= z_1_10 <= 1
 0 <= z_1_2 <= 1
 0 <= z_1_3 <= 1
 0 <= z_1_4 <= 1
 0 <= z_1_5 <= 1
 0 <= z_1_6 <= 1
 0 <= z_1_7 <= 1
 0 <= z_1_8 <= 1
 0 <= z_1_9 <= 1
 0 <= zprod_1 <= 43
 0 <= zprod_10 <= 21
 0 <= zprod_2 <= 47
 0 <= zprod_3 <= 28
 0 <= zprod_4 <= 21
 0 <= zprod_5 <= 34
 0 <= zprod_6 <= 31
 0 <= zprod_7 <= 50
 0 <= zprod_8 <= 33
 0 <= zprod_9 <= 22
Generals
 Y_1
 Y_10
 Y_2
 Y_3
 Y_4
 Y_5
 Y_6
 Y_7
 Y_8
 Y_9
 d_0_1
 d_0_10
 d_0_2
 d_0_3
 d_0_4
 d_0_5
 d_0_6
 d_0_7
 d_0_8
 d_0_9
 d_1_1
 d_1_10
 d_1_2
 d_1_3
 d_1_4
 d_1_5
 d_1_6
 d_1_7
 d_1_8
 d_1_9
 load_0_1
 load_0_10
 load_0_2
 load_0_3
 load_0_4
 load_0_5
 load_0_6
 load_0_7
 load_0_8
 load_0_9
 load_1_1
 load_1_10
 load_1_2
 load_1_3
 load_1_4
 load_1_5
 load_1_6
 load_1_7
 load_1_8
 load_1_9
 p_0_1
 p_0_10
 p_0_2
 p_0_3
 p_0_4
 p_0_5
 p_0_6
 p_0_7
 p_0_8
 p_0_9
 p_1_1
 p_1_10
 p_1_2
 p_1_3
 p_1_4
 p_1_5
 p_1_6
 p_1_7
 p_1_8
 p_1_9
Binaries
 bit_10_0
 bit_10_1
 bit_10_2
 bit_10_3
 bit_10_4
 bit_1_0
 bit_1_1
 bit_1_2
 bit_1_3
 bit_1_4
 bit_1_5
 bit_2_0
 bit_2_1
 bit_2_2
 bit_2_3
 bit_2_4
 bit_2_5
 bit_3_0
 bit_3_1
 bit_3_2
 bit_3_3
 bit_3_4
 bit_4_0
 bit_4_1
 bit_4_2
 bit_4_3
 bit_4_4
 bit_5_0
 bit_5_1
 bit_5_2
 bit_5_3
 bit_5_4
 bit_5_5
 bit_6_0
 bit_6_1
 bit_6_2
 bit_6_3
 bit_6_4
 bit_7_0
 bit_7_1
 bit_7_2
 bit_7_3
 bit_7_4
 bit_7_5
 bit_8_0
 bit_8_1
 bit_8_2
 bit_8_3
 bit_8_4
 bit_8_5
 bit_9_0
 bit_9_1
 bit_9_2
 bit_9_3
 bit_9_4
 mode_0_1
 mode_0_10
 mode_0_2
 mode_0_3
 mode_0_4
 mode_0_5
 mode_0_6
 mode_0_7
 mode_0_8
 mode_0_9
 mode_1_1
 mode_1_10
 mode_1_2
 mode_1_3
 mode_1_4
 mode_1_5
 mode_1_6
 mode_1_7
 mode_1_8
 mode_1_9
 x_0_0_1
 x_0_0_10
 x_0_0_2
 x_0_0_3
 x_0_0_4
 x_0_0_5
 x_0_0_6
 x_0_0_7
 x_0_0_8
 x_0_0_9
 x_0_10_0
 x_0_10_1
 x_0_10_2
 x_0_10_3
 x_0_10_4
 x_0_10_5
 x_0_10_6
 x_0_10_7
 x_0_10_8
 x_0_10_9
 x_0_1_0
 x_0_1_10
 x_0_1_2
 x_0_1_3
 x_0_1_4
 x_0_1_5
 x_0_1_6
 x_0_1_7
 x_0_1_8
 x_0_1_9
 x_0_2_0
 x_0_2_1
 x_0_2_10
 x_0_2_3
 x_0_2_4
 x_0_2_5
 x_0_2_6
 x_0_2_7
 x_0_2_8
 x_0_2_9
 x_0_3_0
 x_0_3_1
 x_0_3_10
 x_0_3_2
 x_0_3_4
 x_0_3_5
 x_0_3_6
 x_0_3_7
 x_0_3_8
 x_0_3_9
 x_0_4_0
 x_0_4_1
 x_0_4_10
 x_0_4_2
 x_0_4_3
 x_0_4_5
 x_0_4_6
 x_0_4_7
 x_0_4_8
 x_0_4_9
 x_0_5_0
 x_0_5_1
 x_0_5_10
 x_0_5_2
 x_0_5_3
 x_0_5_4
 x_0_5_6
 x_0_5_7
 x_0_5_8
 x_0_5_9
 x_0_6_0
 x_0_6_1
 x_0_6_10
 x_0_6_2
 x_0_6_3
 x_0_6_4
 x_0_6_5
 x_0_6_7
 x_0_6_8
 x_0_6_9
 x_0_7_0
 x_0_7_1
 x_0_7_10
 x_0_7_2
 x_0_7_3
 x_0_7_4
 x_0_7_5
 x_0_7_6
 x_0_7_8
 x_0_7_9
 x_0_8_0
 x_0_8_1
 x_0_8_10
 x_0_8_2
 x_0_8_3
 x_0_8_4
 x_0_8_5
 x_0_8_6
 x_0_8_7
 x_0_8_9
 x_0_9_0
 x_0_9_1
 x_0_9_10
 x_0_9_2
 x_0_9_3
 x_0_9_4
 x_0_9_5
 x_0_9_6
 x_0_9_7
 x_0_9_8
 x_1_0_1
 x_1_0_10
 x_1_0_2
 x_1_0_3
 x_1_0_4
 x_1_0_5
 x_1_0_6
 x_1_0_7
 x_1_0_8
 x_1_0_9
 x_1_10_0
 x_1_10_1
 x_1_10_2
 x_1_10_3
 x_1_10_4
 x_1_10_5
 x_1_10_6
 x_1_10_7
 x_1_10_8
 x_1_10_9
 x_1_1_0
 x_1_1_10
 x_1_1_2
 x_1_1_3
 x_1_1_4
 x_1_1_5
 x_1_1_6
 x_1_1_7
 x_1_1_8
 x_1_1_9
 x_1_2_0
 x_1_2_1
 x_1_2_10
 x_1_2_3
 x_1_2_4
 x_1_2_5
 x_1_2_6
 x_1_2_7
 x_1_2_8
 x_1_2_9
 x_1_3_0
 x_1_3_1
 x_1_3_10
 x_1_3_2
 x_1_3_4
 x_1_3_5
 x_1_3_6
 x_1_3_7
 x_1_3_8
 x_1_3_9
 x_1_4_0
 x_1_4_1
 x_1_4_10
 x_1_4_2
 x_1_4_3
 x_1_4_5
 x_1_4_6
 x_1_4_7
 x_1_4_8
 x_1_4_9
 x_1_5_0
 x_1_5_1
 x_1_5_10
 x_1_5_2
 x_1_5_3
 x_1_5_4
 x_1_5_6
 x_1_5_7
 x_1_5_8
 x_1_5_9
 x_1_6_0
 x_1_6_1
 x_1_6_10
 x_1_6_2
 x_1_6_3
 x_1_6_4
 x_1_6_5
 x_1_6_7
 x_1_6_8
 x_1_6_9
 x_1_7_0
 x_1_7_1
 x_1_7_10
 x_1_7_2
 x_1_7_3
 x_1_7_4
 x_1_7_5
 x_1_7_6
 x_1_7_8
 x_1_7_9
 x_1_8_0
 x_1_8_1
 x_1_8_10
 x_1_8_2
 x_1_8_3
 x_1_8_4
 x_1_8_5
 x_1_8_6
 x_1_8_7
 x_1_8_9
 x_1_9_0
 x_1_9_1
 x_1_9_10
 x_1_9_2
 x_1_9_3
 x_1_9_4
 x_1_9_5
 x_1_9_6
 x_1_9_7
 x_1_9_8
 z_0_1
 z_0_10
 z_0_2
 z_0_3
 z_0_4
 z_0_5
 z_0_6
 z_0_7
 z_0_8
 z_0_9
 z_1_1
 z_1_10
 z_1_2
 z_1_3
 z_1_4
 z_1_5
 z_1_6
 z_1_7
 z_1_8
 z_1_9
End
