\ ExactEBRP compact MILP generated from C++ command-line runner
Minimize
 obj: G + 0.14999999999999999 e_1 + 0.14999999999999999 e_2 + 0.14999999999999999 e_3
Subject To
 c1: h_1_2 + h_1_3 + h_2_3 - 0.625 r_1 - 0.625 r_2 - 0.625 r_3 <= 0
 c2: h_1_2 + h_1_3 + h_2_3 >= 0
 c3: 2 h_1_2 - 0.625 r_1 - 0.625 r_2 - 0.625 r_3 <= 0
 c4: 2 h_1_3 - 0.625 r_1 - 0.625 r_2 - 0.625 r_3 <= 0
 c5: 2 h_2_3 - 0.625 r_1 - 0.625 r_2 - 0.625 r_3 <= 0
 c6: r_1 - r_2 <= 1.09375
 c7: - r_1 + r_2 <= 1.09375
 c8: r_1 - r_3 <= 1.09375
 c9: - r_1 + r_3 <= 1.09375
 c10: r_2 - r_3 <= 1.09375
 c11: - r_2 + r_3 <= 1.09375
 c12: 1.375 r_1 - 2.625 r_2 - 0.625 r_3 <= 0
 c13: - 2.625 r_1 + 1.375 r_2 - 0.625 r_3 <= 0
 c14: 1.375 r_1 - 0.625 r_2 - 2.625 r_3 <= 0
 c15: - 2.625 r_1 - 0.625 r_2 + 1.375 r_3 <= 0
 c16: - 0.625 r_1 + 1.375 r_2 - 2.625 r_3 <= 0
 c17: - 0.625 r_1 - 2.625 r_2 + 1.375 r_3 <= 0
 c18: G + 0.14999999999999999 e_1 + 0.14999999999999999 e_2 + 0.14999999999999999 e_3 <= 0.20833333333333331
 c19: 1.575 e_1 + 1.575 e_2 + 1.575 e_3 + h_1_2 + h_1_3 + h_2_3 <= 2.1875
 c20: e_1 + e_2 + e_3 >= 0.5
 c21: e_1 <= 1.3888888888888888
 c22: e_2 <= 1.3888888888888888
 c23: e_3 <= 1.3888888888888888
 c24: W_SP - 1.5 e_1 - 1.5 e_2 - 1.5 e_3 - 0.5 r_1 - 0.5 r_2 - 0.5 r_3 >= -0.75
 c25: W_SP - 3.5 e_1 - 3.5 e_2 - 3.5 e_3 - 1.5 r_1 - 1.5 r_2 - 1.5 r_3 >= -5.25
 c26: W_SP - 3.5 e_1 - 3.5 e_2 - 3.5 e_3 - 0.5 r_1 - 0.5 r_2 - 0.5 r_3 <= -1.75
 c27: W_SP - 1.5 e_1 - 1.5 e_2 - 1.5 e_3 - 1.5 r_1 - 1.5 r_2 - 1.5 r_3 <= -2.25
 c28: 0.44999999999999996 W_SP + h_1_2 + h_1_3 + h_2_3 - 0.625 r_1 - 0.625 r_2 - 0.625 r_3 <= 0
 c29: x_0_0_1 + x_0_0_2 + x_0_0_3 - x_0_1_0 - x_0_2_0 - x_0_3_0 = 0
 c30: x_0_0_1 + x_0_0_2 + x_0_0_3 <= 1
 c31: x_0_0_1 + x_0_2_1 + x_0_3_1 - z_0_1 = 0
 c32: x_0_1_0 + x_0_1_2 + x_0_1_3 - z_0_1 = 0
 c33: x_0_0_2 + x_0_1_2 + x_0_3_2 - z_0_2 = 0
 c34: x_0_2_0 + x_0_2_1 + x_0_2_3 - z_0_2 = 0
 c35: x_0_0_3 + x_0_1_3 + x_0_2_3 - z_0_3 = 0
 c36: x_0_3_0 + x_0_3_1 + x_0_3_2 - z_0_3 = 0
 c37: x_1_0_1 + x_1_0_2 + x_1_0_3 - x_1_1_0 - x_1_2_0 - x_1_3_0 = 0
 c38: x_1_0_1 + x_1_0_2 + x_1_0_3 <= 1
 c39: x_1_0_1 + x_1_2_1 + x_1_3_1 - z_1_1 = 0
 c40: x_1_1_0 + x_1_1_2 + x_1_1_3 - z_1_1 = 0
 c41: x_1_0_2 + x_1_1_2 + x_1_3_2 - z_1_2 = 0
 c42: x_1_2_0 + x_1_2_1 + x_1_2_3 - z_1_2 = 0
 c43: x_1_0_3 + x_1_1_3 + x_1_2_3 - z_1_3 = 0
 c44: x_1_3_0 + x_1_3_1 + x_1_3_2 - z_1_3 = 0
 c45: conn_0_0_1 - 3 x_0_0_1 <= 0
 c46: conn_0_0_2 - 3 x_0_0_2 <= 0
 c47: conn_0_0_3 - 3 x_0_0_3 <= 0
 c48: conn_0_1_0 - 3 x_0_1_0 <= 0
 c49: conn_0_1_2 - 3 x_0_1_2 <= 0
 c50: conn_0_1_3 - 3 x_0_1_3 <= 0
 c51: conn_0_2_0 - 3 x_0_2_0 <= 0
 c52: conn_0_2_1 - 3 x_0_2_1 <= 0
 c53: conn_0_2_3 - 3 x_0_2_3 <= 0
 c54: conn_0_3_0 - 3 x_0_3_0 <= 0
 c55: conn_0_3_1 - 3 x_0_3_1 <= 0
 c56: conn_0_3_2 - 3 x_0_3_2 <= 0
 c57: conn_0_0_1 - conn_0_1_0 - conn_0_1_2 - conn_0_1_3 + conn_0_2_1 + conn_0_3_1 - z_0_1 = 0
 c58: conn_0_0_2 + conn_0_1_2 - conn_0_2_0 - conn_0_2_1 - conn_0_2_3 + conn_0_3_2 - z_0_2 = 0
 c59: conn_0_0_3 + conn_0_1_3 + conn_0_2_3 - conn_0_3_0 - conn_0_3_1 - conn_0_3_2 - z_0_3 = 0
 c60: conn_0_0_1 + conn_0_0_2 + conn_0_0_3 - conn_0_1_0 - conn_0_2_0 - conn_0_3_0 - z_0_1 - z_0_2 - z_0_3 = 0
 c61: conn_1_0_1 - 3 x_1_0_1 <= 0
 c62: conn_1_0_2 - 3 x_1_0_2 <= 0
 c63: conn_1_0_3 - 3 x_1_0_3 <= 0
 c64: conn_1_1_0 - 3 x_1_1_0 <= 0
 c65: conn_1_1_2 - 3 x_1_1_2 <= 0
 c66: conn_1_1_3 - 3 x_1_1_3 <= 0
 c67: conn_1_2_0 - 3 x_1_2_0 <= 0
 c68: conn_1_2_1 - 3 x_1_2_1 <= 0
 c69: conn_1_2_3 - 3 x_1_2_3 <= 0
 c70: conn_1_3_0 - 3 x_1_3_0 <= 0
 c71: conn_1_3_1 - 3 x_1_3_1 <= 0
 c72: conn_1_3_2 - 3 x_1_3_2 <= 0
 c73: conn_1_0_1 - conn_1_1_0 - conn_1_1_2 - conn_1_1_3 + conn_1_2_1 + conn_1_3_1 - z_1_1 = 0
 c74: conn_1_0_2 + conn_1_1_2 - conn_1_2_0 - conn_1_2_1 - conn_1_2_3 + conn_1_3_2 - z_1_2 = 0
 c75: conn_1_0_3 + conn_1_1_3 + conn_1_2_3 - conn_1_3_0 - conn_1_3_1 - conn_1_3_2 - z_1_3 = 0
 c76: conn_1_0_1 + conn_1_0_2 + conn_1_0_3 - conn_1_1_0 - conn_1_2_0 - conn_1_3_0 - z_1_1 - z_1_2 - z_1_3 = 0
 c77: z_0_1 + z_1_1 <= 1
 c78: z_0_2 + z_1_2 <= 1
 c79: z_0_3 + z_1_3 <= 1
 c80: Y_1 + Y_2 + Y_3 <= 6
 c81: Y_1 + Y_2 + Y_3 >= 0
 c82: z_0_2 <= 0
 c83: z_0_3 <= 0
 c84: z_1_2 <= 0
 c85: z_1_3 <= 0
 c86: d_0_1 <= 0
 c87: d_0_2 <= 0
 c88: d_0_3 <= 0
 c89: d_1_1 <= 0
 c90: d_1_2 <= 0
 c91: d_1_3 <= 0
 c92: ord_0_1 - z_0_1 >= 0
 c93: ord_0_1 - 3 z_0_1 <= 0
 c94: ord_0_2 - z_0_2 >= 0
 c95: ord_0_2 - 3 z_0_2 <= 0
 c96: ord_0_3 - z_0_3 >= 0
 c97: ord_0_3 - 3 z_0_3 <= 0
 c98: ord_0_1 - ord_0_2 + 3 x_0_1_2 <= 2
 c99: ord_0_1 - ord_0_3 + 3 x_0_1_3 <= 2
 c100: - ord_0_1 + ord_0_2 + 3 x_0_2_1 <= 2
 c101: ord_0_2 - ord_0_3 + 3 x_0_2_3 <= 2
 c102: - ord_0_1 + ord_0_3 + 3 x_0_3_1 <= 2
 c103: - ord_0_2 + ord_0_3 + 3 x_0_3_2 <= 2
 c104: ord_1_1 - z_1_1 >= 0
 c105: ord_1_1 - 3 z_1_1 <= 0
 c106: ord_1_2 - z_1_2 >= 0
 c107: ord_1_2 - 3 z_1_2 <= 0
 c108: ord_1_3 - z_1_3 >= 0
 c109: ord_1_3 - 3 z_1_3 <= 0
 c110: ord_1_1 - ord_1_2 + 3 x_1_1_2 <= 2
 c111: ord_1_1 - ord_1_3 + 3 x_1_1_3 <= 2
 c112: - ord_1_1 + ord_1_2 + 3 x_1_2_1 <= 2
 c113: ord_1_2 - ord_1_3 + 3 x_1_2_3 <= 2
 c114: - ord_1_1 + ord_1_3 + 3 x_1_3_1 <= 2
 c115: - ord_1_2 + ord_1_3 + 3 x_1_3_2 <= 2
 c116: p_0_1 - 3 z_0_1 <= 0
 c117: d_0_1 - z_0_1 <= 0
 c118: mode_0_1 - z_0_1 <= 0
 c119: - 3 mode_0_1 + p_0_1 <= 0
 c120: d_0_1 + mode_0_1 - z_0_1 <= 0
 c121: d_0_1 + p_0_1 - z_0_1 >= 0
 c122: load_0_1 - 3 z_0_1 <= 0
 c123: p_0_2 - z_0_2 <= 0
 c124: d_0_2 - 3 z_0_2 <= 0
 c125: mode_0_2 - z_0_2 <= 0
 c126: - mode_0_2 + p_0_2 <= 0
 c127: d_0_2 + 3 mode_0_2 - 3 z_0_2 <= 0
 c128: d_0_2 + p_0_2 - z_0_2 >= 0
 c129: load_0_2 - 3 z_0_2 <= 0
 c130: p_0_3 - 2 z_0_3 <= 0
 c131: d_0_3 - 2 z_0_3 <= 0
 c132: mode_0_3 - z_0_3 <= 0
 c133: - 2 mode_0_3 + p_0_3 <= 0
 c134: d_0_3 + 2 mode_0_3 - 2 z_0_3 <= 0
 c135: d_0_3 + p_0_3 - z_0_3 >= 0
 c136: load_0_3 - 3 z_0_3 <= 0
 c137: d_0_1 + load_0_1 - p_0_1 + 3 x_0_0_1 <= 3
 c138: d_0_1 + load_0_1 - p_0_1 - 3 x_0_0_1 >= -3
 c139: d_0_2 + load_0_2 - p_0_2 + 3 x_0_0_2 <= 3
 c140: d_0_2 + load_0_2 - p_0_2 - 3 x_0_0_2 >= -3
 c141: d_0_3 + load_0_3 - p_0_3 + 3 x_0_0_3 <= 3
 c142: d_0_3 + load_0_3 - p_0_3 - 3 x_0_0_3 >= -3
 c143: d_0_2 - load_0_1 + load_0_2 - p_0_2 + 3 x_0_1_2 <= 3
 c144: d_0_2 - load_0_1 + load_0_2 - p_0_2 - 3 x_0_1_2 >= -3
 c145: d_0_3 - load_0_1 + load_0_3 - p_0_3 + 3 x_0_1_3 <= 3
 c146: d_0_3 - load_0_1 + load_0_3 - p_0_3 - 3 x_0_1_3 >= -3
 c147: d_0_1 + load_0_1 - load_0_2 - p_0_1 + 3 x_0_2_1 <= 3
 c148: d_0_1 + load_0_1 - load_0_2 - p_0_1 - 3 x_0_2_1 >= -3
 c149: d_0_3 - load_0_2 + load_0_3 - p_0_3 + 3 x_0_2_3 <= 3
 c150: d_0_3 - load_0_2 + load_0_3 - p_0_3 - 3 x_0_2_3 >= -3
 c151: d_0_1 + load_0_1 - load_0_3 - p_0_1 + 3 x_0_3_1 <= 3
 c152: d_0_1 + load_0_1 - load_0_3 - p_0_1 - 3 x_0_3_1 >= -3
 c153: d_0_2 + load_0_2 - load_0_3 - p_0_2 + 3 x_0_3_2 <= 3
 c154: d_0_2 + load_0_2 - load_0_3 - p_0_2 - 3 x_0_3_2 >= -3
 c155: - d_0_1 - d_0_2 - d_0_3 + p_0_1 + p_0_2 + p_0_3 >= 0
 c156: 1.5 x_0_0_1 + 3 x_0_0_2 + 4.5 x_0_0_3 + 1.5 x_0_1_0 + 1.5 x_0_1_2 + 3 x_0_1_3 + 3 x_0_2_0 + 1.5 x_0_2_1 + 1.5 x_0_2_3 + 4.5 x_0_3_0 + 3 x_0_3_1 + 1.5 x_0_3_2 <= 3
 c157: p_1_1 - 3 z_1_1 <= 0
 c158: d_1_1 - z_1_1 <= 0
 c159: mode_1_1 - z_1_1 <= 0
 c160: - 3 mode_1_1 + p_1_1 <= 0
 c161: d_1_1 + mode_1_1 - z_1_1 <= 0
 c162: d_1_1 + p_1_1 - z_1_1 >= 0
 c163: load_1_1 - 3 z_1_1 <= 0
 c164: p_1_2 - z_1_2 <= 0
 c165: d_1_2 - 3 z_1_2 <= 0
 c166: mode_1_2 - z_1_2 <= 0
 c167: - mode_1_2 + p_1_2 <= 0
 c168: d_1_2 + 3 mode_1_2 - 3 z_1_2 <= 0
 c169: d_1_2 + p_1_2 - z_1_2 >= 0
 c170: load_1_2 - 3 z_1_2 <= 0
 c171: p_1_3 - 2 z_1_3 <= 0
 c172: d_1_3 - 2 z_1_3 <= 0
 c173: mode_1_3 - z_1_3 <= 0
 c174: - 2 mode_1_3 + p_1_3 <= 0
 c175: d_1_3 + 2 mode_1_3 - 2 z_1_3 <= 0
 c176: d_1_3 + p_1_3 - z_1_3 >= 0
 c177: load_1_3 - 3 z_1_3 <= 0
 c178: d_1_1 + load_1_1 - p_1_1 + 3 x_1_0_1 <= 3
 c179: d_1_1 + load_1_1 - p_1_1 - 3 x_1_0_1 >= -3
 c180: d_1_2 + load_1_2 - p_1_2 + 3 x_1_0_2 <= 3
 c181: d_1_2 + load_1_2 - p_1_2 - 3 x_1_0_2 >= -3
 c182: d_1_3 + load_1_3 - p_1_3 + 3 x_1_0_3 <= 3
 c183: d_1_3 + load_1_3 - p_1_3 - 3 x_1_0_3 >= -3
 c184: d_1_2 - load_1_1 + load_1_2 - p_1_2 + 3 x_1_1_2 <= 3
 c185: d_1_2 - load_1_1 + load_1_2 - p_1_2 - 3 x_1_1_2 >= -3
 c186: d_1_3 - load_1_1 + load_1_3 - p_1_3 + 3 x_1_1_3 <= 3
 c187: d_1_3 - load_1_1 + load_1_3 - p_1_3 - 3 x_1_1_3 >= -3
 c188: d_1_1 + load_1_1 - load_1_2 - p_1_1 + 3 x_1_2_1 <= 3
 c189: d_1_1 + load_1_1 - load_1_2 - p_1_1 - 3 x_1_2_1 >= -3
 c190: d_1_3 - load_1_2 + load_1_3 - p_1_3 + 3 x_1_2_3 <= 3
 c191: d_1_3 - load_1_2 + load_1_3 - p_1_3 - 3 x_1_2_3 >= -3
 c192: d_1_1 + load_1_1 - load_1_3 - p_1_1 + 3 x_1_3_1 <= 3
 c193: d_1_1 + load_1_1 - load_1_3 - p_1_1 - 3 x_1_3_1 >= -3
 c194: d_1_2 + load_1_2 - load_1_3 - p_1_2 + 3 x_1_3_2 <= 3
 c195: d_1_2 + load_1_2 - load_1_3 - p_1_2 - 3 x_1_3_2 >= -3
 c196: - d_1_1 - d_1_2 - d_1_3 + p_1_1 + p_1_2 + p_1_3 >= 0
 c197: 1.5 x_1_0_1 + 3 x_1_0_2 + 4.5 x_1_0_3 + 1.5 x_1_1_0 + 1.5 x_1_1_2 + 3 x_1_1_3 + 3 x_1_2_0 + 1.5 x_1_2_1 + 1.5 x_1_2_3 + 4.5 x_1_3_0 + 3 x_1_3_1 + 1.5 x_1_3_2 <= 3
 c198: z_0_1 + z_0_2 <= 1
 c199: z_0_1 + z_0_3 <= 1
 c200: z_0_2 + z_0_3 <= 1
 c201: z_0_1 + z_0_2 + z_0_3 <= 2
 c202: z_1_1 + z_1_2 <= 1
 c203: z_1_1 + z_1_3 <= 1
 c204: z_1_2 + z_1_3 <= 1
 c205: z_1_1 + z_1_2 + z_1_3 <= 2
 c206: z_0_1 + z_0_2 + z_0_3 - z_1_1 - z_1_2 - z_1_3 >= 0
 c207: Y_1 - d_0_1 - d_1_1 + p_0_1 + p_1_1 = 3
 c208: - 0.5 Y_1 + r_1 = 0
 c209: e_1 - r_1 >= -1
 c210: e_1 + r_1 >= 1
 c211: Y_2 - d_0_2 - d_1_2 + p_0_2 + p_1_2 = 1
 c212: - 0.5 Y_2 + r_2 = 0
 c213: e_2 - r_2 >= -1
 c214: e_2 + r_2 >= 1
 c215: Y_3 - d_0_3 - d_1_3 + p_0_3 + p_1_3 = 2
 c216: - 0.5 Y_3 + r_3 = 0
 c217: e_3 - r_3 >= -1
 c218: e_3 + r_3 >= 1
 c219: Y_1 - z_0_1 - z_1_1 <= 3
 c220: - Y_1 - 3 z_0_1 - 3 z_1_1 <= -3
 c221: Y_2 - 3 z_0_2 - 3 z_1_2 <= 1
 c222: - Y_2 - z_0_2 - z_1_2 <= -1
 c223: Y_3 - 2 z_0_3 - 2 z_1_3 <= 2
 c224: - Y_3 - 2 z_0_3 - 2 z_1_3 <= -2
 c225: 0 G <= 6
 c226: h_1_2 - r_1 + r_2 >= 0
 c227: h_1_2 + r_1 - r_2 >= 0
 c228: h_1_3 - r_1 + r_3 >= 0
 c229: h_1_3 + r_1 - r_3 >= 0
 c230: h_2_3 - r_2 + r_3 >= 0
 c231: h_2_3 + r_2 - r_3 >= 0
 c232: state_g_1_0 >= 0
 c233: - 0.20833333333333331 state_1_0 + state_g_1_0 <= 0
 c234: state_g_1_1 >= 0
 c235: - 0.20833333333333331 state_1_1 + state_g_1_1 <= 0
 c236: state_g_1_2 >= 0
 c237: - 0.20833333333333331 state_1_2 + state_g_1_2 <= 0
 c238: state_g_1_3 >= 0
 c239: - 0.20833333333333331 state_1_3 + state_g_1_3 <= 0
 c240: state_g_1_4 >= 0
 c241: - 0.20833333333333331 state_1_4 + state_g_1_4 <= 0
 c242: state_1_0 + state_1_1 + state_1_2 + state_1_3 + state_1_4 = 1
 c243: Y_1 - state_1_1 - 2 state_1_2 - 3 state_1_3 - 4 state_1_4 = 0
 c244: - G + state_g_1_0 + state_g_1_1 + state_g_1_2 + state_g_1_3 + state_g_1_4 = 0
 c245: - state_g_1_1 - 2 state_g_1_2 - 3 state_g_1_3 - 4 state_g_1_4 + zprod_1 = 0
 c246: state_g_2_1 >= 0
 c247: - 0.20833333333333331 state_2_1 + state_g_2_1 <= 0
 c248: state_2_1 = 1
 c249: Y_2 - state_2_1 = 0
 c250: - G + state_g_2_1 = 0
 c251: - state_g_2_1 + zprod_2 = 0
 c252: state_g_3_2 >= 0
 c253: - 0.20833333333333331 state_3_2 + state_g_3_2 <= 0
 c254: state_3_2 = 1
 c255: Y_3 - 2 state_3_2 = 0
 c256: - G + state_g_3_2 = 0
 c257: - 2 state_g_3_2 + zprod_3 = 0
 c258: - h_1_2 - h_1_3 - h_2_3 + 1.5 zprod_1 + 1.5 zprod_2 + 1.5 zprod_3 >= 0
Bounds
 0 <= G <= 0.20833333333333331
 0.75 <= W_SP <= 5.25
 0 <= Y_1 <= 4
 1 <= Y_2 <= 1
 2 <= Y_3 <= 2
 0 <= conn_0_0_1 <= 3
 0 <= conn_0_0_2 <= 3
 0 <= conn_0_0_3 <= 3
 0 <= conn_0_1_0 <= 3
 0 <= conn_0_1_2 <= 3
 0 <= conn_0_1_3 <= 3
 0 <= conn_0_2_0 <= 3
 0 <= conn_0_2_1 <= 3
 0 <= conn_0_2_3 <= 3
 0 <= conn_0_3_0 <= 3
 0 <= conn_0_3_1 <= 3
 0 <= conn_0_3_2 <= 3
 0 <= conn_1_0_1 <= 3
 0 <= conn_1_0_2 <= 3
 0 <= conn_1_0_3 <= 3
 0 <= conn_1_1_0 <= 3
 0 <= conn_1_1_2 <= 3
 0 <= conn_1_1_3 <= 3
 0 <= conn_1_2_0 <= 3
 0 <= conn_1_2_1 <= 3
 0 <= conn_1_2_3 <= 3
 0 <= conn_1_3_0 <= 3
 0 <= conn_1_3_1 <= 3
 0 <= conn_1_3_2 <= 3
 0 <= d_0_1 <= 1
 0 <= d_0_2 <= 3
 0 <= d_0_3 <= 2
 0 <= d_1_1 <= 1
 0 <= d_1_2 <= 3
 0 <= d_1_3 <= 2
 0 <= e_1 <= 1
 0 <= e_2 <= 1
 0 <= e_3 <= 1
 0 <= h_1_2 <= 4
 0 <= h_1_3 <= 4
 0 <= h_2_3 <= 4
 0 <= load_0_1 <= 3
 0 <= load_0_2 <= 3
 0 <= load_0_3 <= 3
 0 <= load_1_1 <= 3
 0 <= load_1_2 <= 3
 0 <= load_1_3 <= 3
 0 <= mode_0_1 <= 1
 0 <= mode_0_2 <= 1
 0 <= mode_0_3 <= 1
 0 <= mode_1_1 <= 1
 0 <= mode_1_2 <= 1
 0 <= mode_1_3 <= 1
 0 <= ord_0_1 <= 3
 0 <= ord_0_2 <= 3
 0 <= ord_0_3 <= 3
 0 <= ord_1_1 <= 3
 0 <= ord_1_2 <= 3
 0 <= ord_1_3 <= 3
 0 <= p_0_1 <= 3
 0 <= p_0_2 <= 1
 0 <= p_0_3 <= 2
 0 <= p_1_1 <= 3
 0 <= p_1_2 <= 1
 0 <= p_1_3 <= 2
 0 <= r_1 <= 2
 0 <= r_2 <= 2
 0 <= r_3 <= 2
 0 <= r_max <= 2
 0 <= r_min <= 2
 0 <= state_1_0 <= 1
 0 <= state_1_1 <= 1
 0 <= state_1_2 <= 1
 0 <= state_1_3 <= 1
 0 <= state_1_4 <= 1
 0 <= state_2_1 <= 1
 0 <= state_3_2 <= 1
 0 <= state_g_1_0 <= 0.20833333333333331
 0 <= state_g_1_1 <= 0.20833333333333331
 0 <= state_g_1_2 <= 0.20833333333333331
 0 <= state_g_1_3 <= 0.20833333333333331
 0 <= state_g_1_4 <= 0.20833333333333331
 0 <= state_g_2_1 <= 0.20833333333333331
 0 <= state_g_3_2 <= 0.20833333333333331
 0 <= x_0_0_1 <= 1
 0 <= x_0_0_2 <= 1
 0 <= x_0_0_3 <= 1
 0 <= x_0_1_0 <= 1
 0 <= x_0_1_2 <= 1
 0 <= x_0_1_3 <= 1
 0 <= x_0_2_0 <= 1
 0 <= x_0_2_1 <= 1
 0 <= x_0_2_3 <= 1
 0 <= x_0_3_0 <= 1
 0 <= x_0_3_1 <= 1
 0 <= x_0_3_2 <= 1
 0 <= x_1_0_1 <= 1
 0 <= x_1_0_2 <= 1
 0 <= x_1_0_3 <= 1
 0 <= x_1_1_0 <= 1
 0 <= x_1_1_2 <= 1
 0 <= x_1_1_3 <= 1
 0 <= x_1_2_0 <= 1
 0 <= x_1_2_1 <= 1
 0 <= x_1_2_3 <= 1
 0 <= x_1_3_0 <= 1
 0 <= x_1_3_1 <= 1
 0 <= x_1_3_2 <= 1
 0 <= z_0_1 <= 1
 0 <= z_0_2 <= 1
 0 <= z_0_3 <= 1
 0 <= z_1_1 <= 1
 0 <= z_1_2 <= 1
 0 <= z_1_3 <= 1
 0 <= zprod_1 <= 4
 0 <= zprod_2 <= 4
 0 <= zprod_3 <= 4
Generals
 Y_1
 Y_2
 Y_3
 d_0_1
 d_0_2
 d_0_3
 d_1_1
 d_1_2
 d_1_3
 load_0_1
 load_0_2
 load_0_3
 load_1_1
 load_1_2
 load_1_3
 p_0_1
 p_0_2
 p_0_3
 p_1_1
 p_1_2
 p_1_3
Binaries
 mode_0_1
 mode_0_2
 mode_0_3
 mode_1_1
 mode_1_2
 mode_1_3
 state_1_0
 state_1_1
 state_1_2
 state_1_3
 state_1_4
 state_2_1
 state_3_2
 x_0_0_1
 x_0_0_2
 x_0_0_3
 x_0_1_0
 x_0_1_2
 x_0_1_3
 x_0_2_0
 x_0_2_1
 x_0_2_3
 x_0_3_0
 x_0_3_1
 x_0_3_2
 x_1_0_1
 x_1_0_2
 x_1_0_3
 x_1_1_0
 x_1_1_2
 x_1_1_3
 x_1_2_0
 x_1_2_1
 x_1_2_3
 x_1_3_0
 x_1_3_1
 x_1_3_2
 z_0_1
 z_0_2
 z_0_3
 z_1_1
 z_1_2
 z_1_3
End
