\ ExactEBRP compact MILP generated from C++ command-line runner
Minimize
 obj: G + 0.021869700000000002 e_1 + 0.014358299999999999 e_2 + 0.011355899999999999 e_3 + 0.009023999999999999 e_4 + 0.010643400000000001 e_5 + 0.0080987999999999997 e_6 + 0.14999999999999999 e_7 + 0.012430800000000001 e_8 + 0.0091763999999999995 e_9 + 0.0151203 e_10
Subject To
 c1: h_1_10 + h_1_2 + h_1_3 + h_1_4 + h_1_5 + h_1_6 + h_1_7 + h_1_8 + h_1_9 + h_2_10 + h_2_3 + h_2_4 + h_2_5 + h_2_6 + h_2_7 + h_2_8 + h_2_9 + h_3_10 + h_3_4 + h_3_5 + h_3_6 + h_3_7 + h_3_8 + h_3_9 + h_4_10 + h_4_5 + h_4_6 + h_4_7 + h_4_8 + h_4_9 + h_5_10 + h_5_6 + h_5_7 + h_5_8 + h_5_9 + h_6_10 + h_6_7 + h_6_8 + h_6_9 + h_7_10 + h_7_8 + h_7_9 + h_8_10 + h_8_9 + h_9_10 - 3.375 r_1 - 3.375 r_10 - 3.375 r_2 - 3.375 r_3 - 3.375 r_4 - 3.375 r_5 - 3.375 r_6 - 3.375 r_7 - 3.375 r_8 - 3.375 r_9 <= 0
 c2: h_1_10 + h_1_2 + h_1_3 + h_1_4 + h_1_5 + h_1_6 + h_1_7 + h_1_8 + h_1_9 + h_2_10 + h_2_3 + h_2_4 + h_2_5 + h_2_6 + h_2_7 + h_2_8 + h_2_9 + h_3_10 + h_3_4 + h_3_5 + h_3_6 + h_3_7 + h_3_8 + h_3_9 + h_4_10 + h_4_5 + h_4_6 + h_4_7 + h_4_8 + h_4_9 + h_5_10 + h_5_6 + h_5_7 + h_5_8 + h_5_9 + h_6_10 + h_6_7 + h_6_8 + h_6_9 + h_7_10 + h_7_8 + h_7_9 + h_8_10 + h_8_9 + h_9_10 - 2.25 r_1 - 2.25 r_10 - 2.25 r_2 - 2.25 r_3 - 2.25 r_4 - 2.25 r_5 - 2.25 r_6 - 2.25 r_7 - 2.25 r_8 - 2.25 r_9 >= 0
 c3: - 0.22500000000000001 bit_1_0 + prod_1_0 >= 0
 c4: - 0.33750000000000002 bit_1_0 + prod_1_0 <= 0
 c5: - G - 0.33750000000000002 bit_1_0 + prod_1_0 >= -0.33750000000000002
 c6: - G - 0.22500000000000001 bit_1_0 + prod_1_0 <= -0.22500000000000001
 c7: - 0.22500000000000001 bit_1_1 + prod_1_1 >= 0
 c8: - 0.33750000000000002 bit_1_1 + prod_1_1 <= 0
 c9: - G - 0.33750000000000002 bit_1_1 + prod_1_1 >= -0.33750000000000002
 c10: - G - 0.22500000000000001 bit_1_1 + prod_1_1 <= -0.22500000000000001
 c11: - 0.22500000000000001 bit_1_2 + prod_1_2 >= 0
 c12: - 0.33750000000000002 bit_1_2 + prod_1_2 <= 0
 c13: - G - 0.33750000000000002 bit_1_2 + prod_1_2 >= -0.33750000000000002
 c14: - G - 0.22500000000000001 bit_1_2 + prod_1_2 <= -0.22500000000000001
 c15: - 0.22500000000000001 bit_1_3 + prod_1_3 >= 0
 c16: - 0.33750000000000002 bit_1_3 + prod_1_3 <= 0
 c17: - G - 0.33750000000000002 bit_1_3 + prod_1_3 >= -0.33750000000000002
 c18: - G - 0.22500000000000001 bit_1_3 + prod_1_3 <= -0.22500000000000001
 c19: - 0.22500000000000001 bit_1_4 + prod_1_4 >= 0
 c20: - 0.33750000000000002 bit_1_4 + prod_1_4 <= 0
 c21: - G - 0.33750000000000002 bit_1_4 + prod_1_4 >= -0.33750000000000002
 c22: - G - 0.22500000000000001 bit_1_4 + prod_1_4 <= -0.22500000000000001
 c23: - 0.22500000000000001 bit_1_5 + prod_1_5 >= 0
 c24: - 0.33750000000000002 bit_1_5 + prod_1_5 <= 0
 c25: - G - 0.33750000000000002 bit_1_5 + prod_1_5 >= -0.33750000000000002
 c26: - G - 0.22500000000000001 bit_1_5 + prod_1_5 <= -0.22500000000000001
 c27: - 0.22500000000000001 bit_2_0 + prod_2_0 >= 0
 c28: - 0.33750000000000002 bit_2_0 + prod_2_0 <= 0
 c29: - G - 0.33750000000000002 bit_2_0 + prod_2_0 >= -0.33750000000000002
 c30: - G - 0.22500000000000001 bit_2_0 + prod_2_0 <= -0.22500000000000001
 c31: - 0.22500000000000001 bit_2_1 + prod_2_1 >= 0
 c32: - 0.33750000000000002 bit_2_1 + prod_2_1 <= 0
 c33: - G - 0.33750000000000002 bit_2_1 + prod_2_1 >= -0.33750000000000002
 c34: - G - 0.22500000000000001 bit_2_1 + prod_2_1 <= -0.22500000000000001
 c35: - 0.22500000000000001 bit_2_2 + prod_2_2 >= 0
 c36: - 0.33750000000000002 bit_2_2 + prod_2_2 <= 0
 c37: - G - 0.33750000000000002 bit_2_2 + prod_2_2 >= -0.33750000000000002
 c38: - G - 0.22500000000000001 bit_2_2 + prod_2_2 <= -0.22500000000000001
 c39: - 0.22500000000000001 bit_2_3 + prod_2_3 >= 0
 c40: - 0.33750000000000002 bit_2_3 + prod_2_3 <= 0
 c41: - G - 0.33750000000000002 bit_2_3 + prod_2_3 >= -0.33750000000000002
 c42: - G - 0.22500000000000001 bit_2_3 + prod_2_3 <= -0.22500000000000001
 c43: - 0.22500000000000001 bit_2_4 + prod_2_4 >= 0
 c44: - 0.33750000000000002 bit_2_4 + prod_2_4 <= 0
 c45: - G - 0.33750000000000002 bit_2_4 + prod_2_4 >= -0.33750000000000002
 c46: - G - 0.22500000000000001 bit_2_4 + prod_2_4 <= -0.22500000000000001
 c47: - 0.22500000000000001 bit_2_5 + prod_2_5 >= 0
 c48: - 0.33750000000000002 bit_2_5 + prod_2_5 <= 0
 c49: - G - 0.33750000000000002 bit_2_5 + prod_2_5 >= -0.33750000000000002
 c50: - G - 0.22500000000000001 bit_2_5 + prod_2_5 <= -0.22500000000000001
 c51: - 0.22500000000000001 bit_3_0 + prod_3_0 >= 0
 c52: - 0.33750000000000002 bit_3_0 + prod_3_0 <= 0
 c53: - G - 0.33750000000000002 bit_3_0 + prod_3_0 >= -0.33750000000000002
 c54: - G - 0.22500000000000001 bit_3_0 + prod_3_0 <= -0.22500000000000001
 c55: - 0.22500000000000001 bit_3_1 + prod_3_1 >= 0
 c56: - 0.33750000000000002 bit_3_1 + prod_3_1 <= 0
 c57: - G - 0.33750000000000002 bit_3_1 + prod_3_1 >= -0.33750000000000002
 c58: - G - 0.22500000000000001 bit_3_1 + prod_3_1 <= -0.22500000000000001
 c59: - 0.22500000000000001 bit_3_2 + prod_3_2 >= 0
 c60: - 0.33750000000000002 bit_3_2 + prod_3_2 <= 0
 c61: - G - 0.33750000000000002 bit_3_2 + prod_3_2 >= -0.33750000000000002
 c62: - G - 0.22500000000000001 bit_3_2 + prod_3_2 <= -0.22500000000000001
 c63: - 0.22500000000000001 bit_3_3 + prod_3_3 >= 0
 c64: - 0.33750000000000002 bit_3_3 + prod_3_3 <= 0
 c65: - G - 0.33750000000000002 bit_3_3 + prod_3_3 >= -0.33750000000000002
 c66: - G - 0.22500000000000001 bit_3_3 + prod_3_3 <= -0.22500000000000001
 c67: - 0.22500000000000001 bit_3_4 + prod_3_4 >= 0
 c68: - 0.33750000000000002 bit_3_4 + prod_3_4 <= 0
 c69: - G - 0.33750000000000002 bit_3_4 + prod_3_4 >= -0.33750000000000002
 c70: - G - 0.22500000000000001 bit_3_4 + prod_3_4 <= -0.22500000000000001
 c71: - 0.22500000000000001 bit_3_5 + prod_3_5 >= 0
 c72: - 0.33750000000000002 bit_3_5 + prod_3_5 <= 0
 c73: - G - 0.33750000000000002 bit_3_5 + prod_3_5 >= -0.33750000000000002
 c74: - G - 0.22500000000000001 bit_3_5 + prod_3_5 <= -0.22500000000000001
 c75: - 0.22500000000000001 bit_4_0 + prod_4_0 >= 0
 c76: - 0.33750000000000002 bit_4_0 + prod_4_0 <= 0
 c77: - G - 0.33750000000000002 bit_4_0 + prod_4_0 >= -0.33750000000000002
 c78: - G - 0.22500000000000001 bit_4_0 + prod_4_0 <= -0.22500000000000001
 c79: - 0.22500000000000001 bit_4_1 + prod_4_1 >= 0
 c80: - 0.33750000000000002 bit_4_1 + prod_4_1 <= 0
 c81: - G - 0.33750000000000002 bit_4_1 + prod_4_1 >= -0.33750000000000002
 c82: - G - 0.22500000000000001 bit_4_1 + prod_4_1 <= -0.22500000000000001
 c83: - 0.22500000000000001 bit_4_2 + prod_4_2 >= 0
 c84: - 0.33750000000000002 bit_4_2 + prod_4_2 <= 0
 c85: - G - 0.33750000000000002 bit_4_2 + prod_4_2 >= -0.33750000000000002
 c86: - G - 0.22500000000000001 bit_4_2 + prod_4_2 <= -0.22500000000000001
 c87: - 0.22500000000000001 bit_4_3 + prod_4_3 >= 0
 c88: - 0.33750000000000002 bit_4_3 + prod_4_3 <= 0
 c89: - G - 0.33750000000000002 bit_4_3 + prod_4_3 >= -0.33750000000000002
 c90: - G - 0.22500000000000001 bit_4_3 + prod_4_3 <= -0.22500000000000001
 c91: - 0.22500000000000001 bit_4_4 + prod_4_4 >= 0
 c92: - 0.33750000000000002 bit_4_4 + prod_4_4 <= 0
 c93: - G - 0.33750000000000002 bit_4_4 + prod_4_4 >= -0.33750000000000002
 c94: - G - 0.22500000000000001 bit_4_4 + prod_4_4 <= -0.22500000000000001
 c95: - 0.22500000000000001 bit_4_5 + prod_4_5 >= 0
 c96: - 0.33750000000000002 bit_4_5 + prod_4_5 <= 0
 c97: - G - 0.33750000000000002 bit_4_5 + prod_4_5 >= -0.33750000000000002
 c98: - G - 0.22500000000000001 bit_4_5 + prod_4_5 <= -0.22500000000000001
 c99: - 0.22500000000000001 bit_5_0 + prod_5_0 >= 0
 c100: - 0.33750000000000002 bit_5_0 + prod_5_0 <= 0
 c101: - G - 0.33750000000000002 bit_5_0 + prod_5_0 >= -0.33750000000000002
 c102: - G - 0.22500000000000001 bit_5_0 + prod_5_0 <= -0.22500000000000001
 c103: - 0.22500000000000001 bit_5_1 + prod_5_1 >= 0
 c104: - 0.33750000000000002 bit_5_1 + prod_5_1 <= 0
 c105: - G - 0.33750000000000002 bit_5_1 + prod_5_1 >= -0.33750000000000002
 c106: - G - 0.22500000000000001 bit_5_1 + prod_5_1 <= -0.22500000000000001
 c107: - 0.22500000000000001 bit_5_2 + prod_5_2 >= 0
 c108: - 0.33750000000000002 bit_5_2 + prod_5_2 <= 0
 c109: - G - 0.33750000000000002 bit_5_2 + prod_5_2 >= -0.33750000000000002
 c110: - G - 0.22500000000000001 bit_5_2 + prod_5_2 <= -0.22500000000000001
 c111: - 0.22500000000000001 bit_5_3 + prod_5_3 >= 0
 c112: - 0.33750000000000002 bit_5_3 + prod_5_3 <= 0
 c113: - G - 0.33750000000000002 bit_5_3 + prod_5_3 >= -0.33750000000000002
 c114: - G - 0.22500000000000001 bit_5_3 + prod_5_3 <= -0.22500000000000001
 c115: - 0.22500000000000001 bit_5_4 + prod_5_4 >= 0
 c116: - 0.33750000000000002 bit_5_4 + prod_5_4 <= 0
 c117: - G - 0.33750000000000002 bit_5_4 + prod_5_4 >= -0.33750000000000002
 c118: - G - 0.22500000000000001 bit_5_4 + prod_5_4 <= -0.22500000000000001
 c119: - 0.22500000000000001 bit_5_5 + prod_5_5 >= 0
 c120: - 0.33750000000000002 bit_5_5 + prod_5_5 <= 0
 c121: - G - 0.33750000000000002 bit_5_5 + prod_5_5 >= -0.33750000000000002
 c122: - G - 0.22500000000000001 bit_5_5 + prod_5_5 <= -0.22500000000000001
 c123: - 0.22500000000000001 bit_6_0 + prod_6_0 >= 0
 c124: - 0.33750000000000002 bit_6_0 + prod_6_0 <= 0
 c125: - G - 0.33750000000000002 bit_6_0 + prod_6_0 >= -0.33750000000000002
 c126: - G - 0.22500000000000001 bit_6_0 + prod_6_0 <= -0.22500000000000001
 c127: - 0.22500000000000001 bit_6_1 + prod_6_1 >= 0
 c128: - 0.33750000000000002 bit_6_1 + prod_6_1 <= 0
 c129: - G - 0.33750000000000002 bit_6_1 + prod_6_1 >= -0.33750000000000002
 c130: - G - 0.22500000000000001 bit_6_1 + prod_6_1 <= -0.22500000000000001
 c131: - 0.22500000000000001 bit_6_2 + prod_6_2 >= 0
 c132: - 0.33750000000000002 bit_6_2 + prod_6_2 <= 0
 c133: - G - 0.33750000000000002 bit_6_2 + prod_6_2 >= -0.33750000000000002
 c134: - G - 0.22500000000000001 bit_6_2 + prod_6_2 <= -0.22500000000000001
 c135: - 0.22500000000000001 bit_6_3 + prod_6_3 >= 0
 c136: - 0.33750000000000002 bit_6_3 + prod_6_3 <= 0
 c137: - G - 0.33750000000000002 bit_6_3 + prod_6_3 >= -0.33750000000000002
 c138: - G - 0.22500000000000001 bit_6_3 + prod_6_3 <= -0.22500000000000001
 c139: - 0.22500000000000001 bit_6_4 + prod_6_4 >= 0
 c140: - 0.33750000000000002 bit_6_4 + prod_6_4 <= 0
 c141: - G - 0.33750000000000002 bit_6_4 + prod_6_4 >= -0.33750000000000002
 c142: - G - 0.22500000000000001 bit_6_4 + prod_6_4 <= -0.22500000000000001
 c143: - 0.22500000000000001 bit_7_0 + prod_7_0 >= 0
 c144: - 0.33750000000000002 bit_7_0 + prod_7_0 <= 0
 c145: - G - 0.33750000000000002 bit_7_0 + prod_7_0 >= -0.33750000000000002
 c146: - G - 0.22500000000000001 bit_7_0 + prod_7_0 <= -0.22500000000000001
 c147: - 0.22500000000000001 bit_7_1 + prod_7_1 >= 0
 c148: - 0.33750000000000002 bit_7_1 + prod_7_1 <= 0
 c149: - G - 0.33750000000000002 bit_7_1 + prod_7_1 >= -0.33750000000000002
 c150: - G - 0.22500000000000001 bit_7_1 + prod_7_1 <= -0.22500000000000001
 c151: - 0.22500000000000001 bit_7_2 + prod_7_2 >= 0
 c152: - 0.33750000000000002 bit_7_2 + prod_7_2 <= 0
 c153: - G - 0.33750000000000002 bit_7_2 + prod_7_2 >= -0.33750000000000002
 c154: - G - 0.22500000000000001 bit_7_2 + prod_7_2 <= -0.22500000000000001
 c155: - 0.22500000000000001 bit_7_3 + prod_7_3 >= 0
 c156: - 0.33750000000000002 bit_7_3 + prod_7_3 <= 0
 c157: - G - 0.33750000000000002 bit_7_3 + prod_7_3 >= -0.33750000000000002
 c158: - G - 0.22500000000000001 bit_7_3 + prod_7_3 <= -0.22500000000000001
 c159: - 0.22500000000000001 bit_7_4 + prod_7_4 >= 0
 c160: - 0.33750000000000002 bit_7_4 + prod_7_4 <= 0
 c161: - G - 0.33750000000000002 bit_7_4 + prod_7_4 >= -0.33750000000000002
 c162: - G - 0.22500000000000001 bit_7_4 + prod_7_4 <= -0.22500000000000001
 c163: - 0.22500000000000001 bit_8_0 + prod_8_0 >= 0
 c164: - 0.33750000000000002 bit_8_0 + prod_8_0 <= 0
 c165: - G - 0.33750000000000002 bit_8_0 + prod_8_0 >= -0.33750000000000002
 c166: - G - 0.22500000000000001 bit_8_0 + prod_8_0 <= -0.22500000000000001
 c167: - 0.22500000000000001 bit_8_1 + prod_8_1 >= 0
 c168: - 0.33750000000000002 bit_8_1 + prod_8_1 <= 0
 c169: - G - 0.33750000000000002 bit_8_1 + prod_8_1 >= -0.33750000000000002
 c170: - G - 0.22500000000000001 bit_8_1 + prod_8_1 <= -0.22500000000000001
 c171: - 0.22500000000000001 bit_8_2 + prod_8_2 >= 0
 c172: - 0.33750000000000002 bit_8_2 + prod_8_2 <= 0
 c173: - G - 0.33750000000000002 bit_8_2 + prod_8_2 >= -0.33750000000000002
 c174: - G - 0.22500000000000001 bit_8_2 + prod_8_2 <= -0.22500000000000001
 c175: - 0.22500000000000001 bit_8_3 + prod_8_3 >= 0
 c176: - 0.33750000000000002 bit_8_3 + prod_8_3 <= 0
 c177: - G - 0.33750000000000002 bit_8_3 + prod_8_3 >= -0.33750000000000002
 c178: - G - 0.22500000000000001 bit_8_3 + prod_8_3 <= -0.22500000000000001
 c179: - 0.22500000000000001 bit_8_4 + prod_8_4 >= 0
 c180: - 0.33750000000000002 bit_8_4 + prod_8_4 <= 0
 c181: - G - 0.33750000000000002 bit_8_4 + prod_8_4 >= -0.33750000000000002
 c182: - G - 0.22500000000000001 bit_8_4 + prod_8_4 <= -0.22500000000000001
 c183: - 0.22500000000000001 bit_8_5 + prod_8_5 >= 0
 c184: - 0.33750000000000002 bit_8_5 + prod_8_5 <= 0
 c185: - G - 0.33750000000000002 bit_8_5 + prod_8_5 >= -0.33750000000000002
 c186: - G - 0.22500000000000001 bit_8_5 + prod_8_5 <= -0.22500000000000001
 c187: - 0.22500000000000001 bit_9_0 + prod_9_0 >= 0
 c188: - 0.33750000000000002 bit_9_0 + prod_9_0 <= 0
 c189: - G - 0.33750000000000002 bit_9_0 + prod_9_0 >= -0.33750000000000002
 c190: - G - 0.22500000000000001 bit_9_0 + prod_9_0 <= -0.22500000000000001
 c191: - 0.22500000000000001 bit_9_1 + prod_9_1 >= 0
 c192: - 0.33750000000000002 bit_9_1 + prod_9_1 <= 0
 c193: - G - 0.33750000000000002 bit_9_1 + prod_9_1 >= -0.33750000000000002
 c194: - G - 0.22500000000000001 bit_9_1 + prod_9_1 <= -0.22500000000000001
 c195: - 0.22500000000000001 bit_9_2 + prod_9_2 >= 0
 c196: - 0.33750000000000002 bit_9_2 + prod_9_2 <= 0
 c197: - G - 0.33750000000000002 bit_9_2 + prod_9_2 >= -0.33750000000000002
 c198: - G - 0.22500000000000001 bit_9_2 + prod_9_2 <= -0.22500000000000001
 c199: - 0.22500000000000001 bit_9_3 + prod_9_3 >= 0
 c200: - 0.33750000000000002 bit_9_3 + prod_9_3 <= 0
 c201: - G - 0.33750000000000002 bit_9_3 + prod_9_3 >= -0.33750000000000002
 c202: - G - 0.22500000000000001 bit_9_3 + prod_9_3 <= -0.22500000000000001
 c203: - 0.22500000000000001 bit_9_4 + prod_9_4 >= 0
 c204: - 0.33750000000000002 bit_9_4 + prod_9_4 <= 0
 c205: - G - 0.33750000000000002 bit_9_4 + prod_9_4 >= -0.33750000000000002
 c206: - G - 0.22500000000000001 bit_9_4 + prod_9_4 <= -0.22500000000000001
 c207: - 0.22500000000000001 bit_10_0 + prod_10_0 >= 0
 c208: - 0.33750000000000002 bit_10_0 + prod_10_0 <= 0
 c209: - G - 0.33750000000000002 bit_10_0 + prod_10_0 >= -0.33750000000000002
 c210: - G - 0.22500000000000001 bit_10_0 + prod_10_0 <= -0.22500000000000001
 c211: - 0.22500000000000001 bit_10_1 + prod_10_1 >= 0
 c212: - 0.33750000000000002 bit_10_1 + prod_10_1 <= 0
 c213: - G - 0.33750000000000002 bit_10_1 + prod_10_1 >= -0.33750000000000002
 c214: - G - 0.22500000000000001 bit_10_1 + prod_10_1 <= -0.22500000000000001
 c215: - 0.22500000000000001 bit_10_2 + prod_10_2 >= 0
 c216: - 0.33750000000000002 bit_10_2 + prod_10_2 <= 0
 c217: - G - 0.33750000000000002 bit_10_2 + prod_10_2 >= -0.33750000000000002
 c218: - G - 0.22500000000000001 bit_10_2 + prod_10_2 <= -0.22500000000000001
 c219: - 0.22500000000000001 bit_10_3 + prod_10_3 >= 0
 c220: - 0.33750000000000002 bit_10_3 + prod_10_3 <= 0
 c221: - G - 0.33750000000000002 bit_10_3 + prod_10_3 >= -0.33750000000000002
 c222: - G - 0.22500000000000001 bit_10_3 + prod_10_3 <= -0.22500000000000001
 c223: - 0.22500000000000001 bit_10_4 + prod_10_4 >= 0
 c224: - 0.33750000000000002 bit_10_4 + prod_10_4 <= 0
 c225: - G - 0.33750000000000002 bit_10_4 + prod_10_4 >= -0.33750000000000002
 c226: - G - 0.22500000000000001 bit_10_4 + prod_10_4 <= -0.22500000000000001
 c227: - 0.22500000000000001 bit_10_5 + prod_10_5 >= 0
 c228: - 0.33750000000000002 bit_10_5 + prod_10_5 <= 0
 c229: - G - 0.33750000000000002 bit_10_5 + prod_10_5 >= -0.33750000000000002
 c230: - G - 0.22500000000000001 bit_10_5 + prod_10_5 <= -0.22500000000000001
 c231: 9 h_1_2 - 3.375 r_1 - 3.375 r_10 - 3.375 r_2 - 3.375 r_3 - 3.375 r_4 - 3.375 r_5 - 3.375 r_6 - 3.375 r_7 - 3.375 r_8 - 3.375 r_9 <= 0
 c232: 9 h_1_3 - 3.375 r_1 - 3.375 r_10 - 3.375 r_2 - 3.375 r_3 - 3.375 r_4 - 3.375 r_5 - 3.375 r_6 - 3.375 r_7 - 3.375 r_8 - 3.375 r_9 <= 0
 c233: 9 h_1_4 - 3.375 r_1 - 3.375 r_10 - 3.375 r_2 - 3.375 r_3 - 3.375 r_4 - 3.375 r_5 - 3.375 r_6 - 3.375 r_7 - 3.375 r_8 - 3.375 r_9 <= 0
 c234: 9 h_1_5 - 3.375 r_1 - 3.375 r_10 - 3.375 r_2 - 3.375 r_3 - 3.375 r_4 - 3.375 r_5 - 3.375 r_6 - 3.375 r_7 - 3.375 r_8 - 3.375 r_9 <= 0
 c235: 9 h_1_6 - 3.375 r_1 - 3.375 r_10 - 3.375 r_2 - 3.375 r_3 - 3.375 r_4 - 3.375 r_5 - 3.375 r_6 - 3.375 r_7 - 3.375 r_8 - 3.375 r_9 <= 0
 c236: 9 h_1_7 - 3.375 r_1 - 3.375 r_10 - 3.375 r_2 - 3.375 r_3 - 3.375 r_4 - 3.375 r_5 - 3.375 r_6 - 3.375 r_7 - 3.375 r_8 - 3.375 r_9 <= 0
 c237: 9 h_1_8 - 3.375 r_1 - 3.375 r_10 - 3.375 r_2 - 3.375 r_3 - 3.375 r_4 - 3.375 r_5 - 3.375 r_6 - 3.375 r_7 - 3.375 r_8 - 3.375 r_9 <= 0
 c238: 9 h_1_9 - 3.375 r_1 - 3.375 r_10 - 3.375 r_2 - 3.375 r_3 - 3.375 r_4 - 3.375 r_5 - 3.375 r_6 - 3.375 r_7 - 3.375 r_8 - 3.375 r_9 <= 0
 c239: 9 h_1_10 - 3.375 r_1 - 3.375 r_10 - 3.375 r_2 - 3.375 r_3 - 3.375 r_4 - 3.375 r_5 - 3.375 r_6 - 3.375 r_7 - 3.375 r_8 - 3.375 r_9 <= 0
 c240: 9 h_2_3 - 3.375 r_1 - 3.375 r_10 - 3.375 r_2 - 3.375 r_3 - 3.375 r_4 - 3.375 r_5 - 3.375 r_6 - 3.375 r_7 - 3.375 r_8 - 3.375 r_9 <= 0
 c241: 9 h_2_4 - 3.375 r_1 - 3.375 r_10 - 3.375 r_2 - 3.375 r_3 - 3.375 r_4 - 3.375 r_5 - 3.375 r_6 - 3.375 r_7 - 3.375 r_8 - 3.375 r_9 <= 0
 c242: 9 h_2_5 - 3.375 r_1 - 3.375 r_10 - 3.375 r_2 - 3.375 r_3 - 3.375 r_4 - 3.375 r_5 - 3.375 r_6 - 3.375 r_7 - 3.375 r_8 - 3.375 r_9 <= 0
 c243: 9 h_2_6 - 3.375 r_1 - 3.375 r_10 - 3.375 r_2 - 3.375 r_3 - 3.375 r_4 - 3.375 r_5 - 3.375 r_6 - 3.375 r_7 - 3.375 r_8 - 3.375 r_9 <= 0
 c244: 9 h_2_7 - 3.375 r_1 - 3.375 r_10 - 3.375 r_2 - 3.375 r_3 - 3.375 r_4 - 3.375 r_5 - 3.375 r_6 - 3.375 r_7 - 3.375 r_8 - 3.375 r_9 <= 0
 c245: 9 h_2_8 - 3.375 r_1 - 3.375 r_10 - 3.375 r_2 - 3.375 r_3 - 3.375 r_4 - 3.375 r_5 - 3.375 r_6 - 3.375 r_7 - 3.375 r_8 - 3.375 r_9 <= 0
 c246: 9 h_2_9 - 3.375 r_1 - 3.375 r_10 - 3.375 r_2 - 3.375 r_3 - 3.375 r_4 - 3.375 r_5 - 3.375 r_6 - 3.375 r_7 - 3.375 r_8 - 3.375 r_9 <= 0
 c247: 9 h_2_10 - 3.375 r_1 - 3.375 r_10 - 3.375 r_2 - 3.375 r_3 - 3.375 r_4 - 3.375 r_5 - 3.375 r_6 - 3.375 r_7 - 3.375 r_8 - 3.375 r_9 <= 0
 c248: 9 h_3_4 - 3.375 r_1 - 3.375 r_10 - 3.375 r_2 - 3.375 r_3 - 3.375 r_4 - 3.375 r_5 - 3.375 r_6 - 3.375 r_7 - 3.375 r_8 - 3.375 r_9 <= 0
 c249: 9 h_3_5 - 3.375 r_1 - 3.375 r_10 - 3.375 r_2 - 3.375 r_3 - 3.375 r_4 - 3.375 r_5 - 3.375 r_6 - 3.375 r_7 - 3.375 r_8 - 3.375 r_9 <= 0
 c250: 9 h_3_6 - 3.375 r_1 - 3.375 r_10 - 3.375 r_2 - 3.375 r_3 - 3.375 r_4 - 3.375 r_5 - 3.375 r_6 - 3.375 r_7 - 3.375 r_8 - 3.375 r_9 <= 0
 c251: 9 h_3_7 - 3.375 r_1 - 3.375 r_10 - 3.375 r_2 - 3.375 r_3 - 3.375 r_4 - 3.375 r_5 - 3.375 r_6 - 3.375 r_7 - 3.375 r_8 - 3.375 r_9 <= 0
 c252: 9 h_3_8 - 3.375 r_1 - 3.375 r_10 - 3.375 r_2 - 3.375 r_3 - 3.375 r_4 - 3.375 r_5 - 3.375 r_6 - 3.375 r_7 - 3.375 r_8 - 3.375 r_9 <= 0
 c253: 9 h_3_9 - 3.375 r_1 - 3.375 r_10 - 3.375 r_2 - 3.375 r_3 - 3.375 r_4 - 3.375 r_5 - 3.375 r_6 - 3.375 r_7 - 3.375 r_8 - 3.375 r_9 <= 0
 c254: 9 h_3_10 - 3.375 r_1 - 3.375 r_10 - 3.375 r_2 - 3.375 r_3 - 3.375 r_4 - 3.375 r_5 - 3.375 r_6 - 3.375 r_7 - 3.375 r_8 - 3.375 r_9 <= 0
 c255: 9 h_4_5 - 3.375 r_1 - 3.375 r_10 - 3.375 r_2 - 3.375 r_3 - 3.375 r_4 - 3.375 r_5 - 3.375 r_6 - 3.375 r_7 - 3.375 r_8 - 3.375 r_9 <= 0
 c256: 9 h_4_6 - 3.375 r_1 - 3.375 r_10 - 3.375 r_2 - 3.375 r_3 - 3.375 r_4 - 3.375 r_5 - 3.375 r_6 - 3.375 r_7 - 3.375 r_8 - 3.375 r_9 <= 0
 c257: 9 h_4_7 - 3.375 r_1 - 3.375 r_10 - 3.375 r_2 - 3.375 r_3 - 3.375 r_4 - 3.375 r_5 - 3.375 r_6 - 3.375 r_7 - 3.375 r_8 - 3.375 r_9 <= 0
 c258: 9 h_4_8 - 3.375 r_1 - 3.375 r_10 - 3.375 r_2 - 3.375 r_3 - 3.375 r_4 - 3.375 r_5 - 3.375 r_6 - 3.375 r_7 - 3.375 r_8 - 3.375 r_9 <= 0
 c259: 9 h_4_9 - 3.375 r_1 - 3.375 r_10 - 3.375 r_2 - 3.375 r_3 - 3.375 r_4 - 3.375 r_5 - 3.375 r_6 - 3.375 r_7 - 3.375 r_8 - 3.375 r_9 <= 0
 c260: 9 h_4_10 - 3.375 r_1 - 3.375 r_10 - 3.375 r_2 - 3.375 r_3 - 3.375 r_4 - 3.375 r_5 - 3.375 r_6 - 3.375 r_7 - 3.375 r_8 - 3.375 r_9 <= 0
 c261: 9 h_5_6 - 3.375 r_1 - 3.375 r_10 - 3.375 r_2 - 3.375 r_3 - 3.375 r_4 - 3.375 r_5 - 3.375 r_6 - 3.375 r_7 - 3.375 r_8 - 3.375 r_9 <= 0
 c262: 9 h_5_7 - 3.375 r_1 - 3.375 r_10 - 3.375 r_2 - 3.375 r_3 - 3.375 r_4 - 3.375 r_5 - 3.375 r_6 - 3.375 r_7 - 3.375 r_8 - 3.375 r_9 <= 0
 c263: 9 h_5_8 - 3.375 r_1 - 3.375 r_10 - 3.375 r_2 - 3.375 r_3 - 3.375 r_4 - 3.375 r_5 - 3.375 r_6 - 3.375 r_7 - 3.375 r_8 - 3.375 r_9 <= 0
 c264: 9 h_5_9 - 3.375 r_1 - 3.375 r_10 - 3.375 r_2 - 3.375 r_3 - 3.375 r_4 - 3.375 r_5 - 3.375 r_6 - 3.375 r_7 - 3.375 r_8 - 3.375 r_9 <= 0
 c265: 9 h_5_10 - 3.375 r_1 - 3.375 r_10 - 3.375 r_2 - 3.375 r_3 - 3.375 r_4 - 3.375 r_5 - 3.375 r_6 - 3.375 r_7 - 3.375 r_8 - 3.375 r_9 <= 0
 c266: 9 h_6_7 - 3.375 r_1 - 3.375 r_10 - 3.375 r_2 - 3.375 r_3 - 3.375 r_4 - 3.375 r_5 - 3.375 r_6 - 3.375 r_7 - 3.375 r_8 - 3.375 r_9 <= 0
 c267: 9 h_6_8 - 3.375 r_1 - 3.375 r_10 - 3.375 r_2 - 3.375 r_3 - 3.375 r_4 - 3.375 r_5 - 3.375 r_6 - 3.375 r_7 - 3.375 r_8 - 3.375 r_9 <= 0
 c268: 9 h_6_9 - 3.375 r_1 - 3.375 r_10 - 3.375 r_2 - 3.375 r_3 - 3.375 r_4 - 3.375 r_5 - 3.375 r_6 - 3.375 r_7 - 3.375 r_8 - 3.375 r_9 <= 0
 c269: 9 h_6_10 - 3.375 r_1 - 3.375 r_10 - 3.375 r_2 - 3.375 r_3 - 3.375 r_4 - 3.375 r_5 - 3.375 r_6 - 3.375 r_7 - 3.375 r_8 - 3.375 r_9 <= 0
 c270: 9 h_7_8 - 3.375 r_1 - 3.375 r_10 - 3.375 r_2 - 3.375 r_3 - 3.375 r_4 - 3.375 r_5 - 3.375 r_6 - 3.375 r_7 - 3.375 r_8 - 3.375 r_9 <= 0
 c271: 9 h_7_9 - 3.375 r_1 - 3.375 r_10 - 3.375 r_2 - 3.375 r_3 - 3.375 r_4 - 3.375 r_5 - 3.375 r_6 - 3.375 r_7 - 3.375 r_8 - 3.375 r_9 <= 0
 c272: 9 h_7_10 - 3.375 r_1 - 3.375 r_10 - 3.375 r_2 - 3.375 r_3 - 3.375 r_4 - 3.375 r_5 - 3.375 r_6 - 3.375 r_7 - 3.375 r_8 - 3.375 r_9 <= 0
 c273: 9 h_8_9 - 3.375 r_1 - 3.375 r_10 - 3.375 r_2 - 3.375 r_3 - 3.375 r_4 - 3.375 r_5 - 3.375 r_6 - 3.375 r_7 - 3.375 r_8 - 3.375 r_9 <= 0
 c274: 9 h_8_10 - 3.375 r_1 - 3.375 r_10 - 3.375 r_2 - 3.375 r_3 - 3.375 r_4 - 3.375 r_5 - 3.375 r_6 - 3.375 r_7 - 3.375 r_8 - 3.375 r_9 <= 0
 c275: 9 h_9_10 - 3.375 r_1 - 3.375 r_10 - 3.375 r_2 - 3.375 r_3 - 3.375 r_4 - 3.375 r_5 - 3.375 r_6 - 3.375 r_7 - 3.375 r_8 - 3.375 r_9 <= 0
 c276: - d_0_7 + p_0_7 >= 13
 c277: r_1 - r_2 <= 8.4782266997708184
 c278: - r_1 + r_2 <= 8.4782266997708184
 c279: r_1 - r_3 <= 8.4782266997708184
 c280: - r_1 + r_3 <= 8.4782266997708184
 c281: r_1 - r_4 <= 8.4782266997708184
 c282: - r_1 + r_4 <= 8.4782266997708184
 c283: r_1 - r_5 <= 8.4782266997708184
 c284: - r_1 + r_5 <= 8.4782266997708184
 c285: r_1 - r_6 <= 8.4782266997708184
 c286: - r_1 + r_6 <= 8.4782266997708184
 c287: r_1 - r_7 <= 8.4782266997708184
 c288: - r_1 + r_7 <= 8.4782266997708184
 c289: r_1 - r_8 <= 8.4782266997708184
 c290: - r_1 + r_8 <= 8.4782266997708184
 c291: r_1 - r_9 <= 8.4782266997708184
 c292: - r_1 + r_9 <= 8.4782266997708184
 c293: r_1 - r_10 <= 8.4782266997708184
 c294: - r_1 + r_10 <= 8.4782266997708184
 c295: r_2 - r_3 <= 8.4782266997708184
 c296: - r_2 + r_3 <= 8.4782266997708184
 c297: r_2 - r_4 <= 8.4782266997708184
 c298: - r_2 + r_4 <= 8.4782266997708184
 c299: r_2 - r_5 <= 8.4782266997708184
 c300: - r_2 + r_5 <= 8.4782266997708184
 c301: r_2 - r_6 <= 8.4782266997708184
 c302: - r_2 + r_6 <= 8.4782266997708184
 c303: r_2 - r_7 <= 8.4782266997708184
 c304: - r_2 + r_7 <= 8.4782266997708184
 c305: r_2 - r_8 <= 8.4782266997708184
 c306: - r_2 + r_8 <= 8.4782266997708184
 c307: r_2 - r_9 <= 8.4782266997708184
 c308: - r_2 + r_9 <= 8.4782266997708184
 c309: - r_10 + r_2 <= 8.4782266997708184
 c310: r_10 - r_2 <= 8.4782266997708184
 c311: r_3 - r_4 <= 8.4782266997708184
 c312: - r_3 + r_4 <= 8.4782266997708184
 c313: r_3 - r_5 <= 8.4782266997708184
 c314: - r_3 + r_5 <= 8.4782266997708184
 c315: r_3 - r_6 <= 8.4782266997708184
 c316: - r_3 + r_6 <= 8.4782266997708184
 c317: r_3 - r_7 <= 8.4782266997708184
 c318: - r_3 + r_7 <= 8.4782266997708184
 c319: r_3 - r_8 <= 8.4782266997708184
 c320: - r_3 + r_8 <= 8.4782266997708184
 c321: r_3 - r_9 <= 8.4782266997708184
 c322: - r_3 + r_9 <= 8.4782266997708184
 c323: - r_10 + r_3 <= 8.4782266997708184
 c324: r_10 - r_3 <= 8.4782266997708184
 c325: r_4 - r_5 <= 8.4782266997708184
 c326: - r_4 + r_5 <= 8.4782266997708184
 c327: r_4 - r_6 <= 8.4782266997708184
 c328: - r_4 + r_6 <= 8.4782266997708184
 c329: r_4 - r_7 <= 8.4782266997708184
 c330: - r_4 + r_7 <= 8.4782266997708184
 c331: r_4 - r_8 <= 8.4782266997708184
 c332: - r_4 + r_8 <= 8.4782266997708184
 c333: r_4 - r_9 <= 8.4782266997708184
 c334: - r_4 + r_9 <= 8.4782266997708184
 c335: - r_10 + r_4 <= 8.4782266997708184
 c336: r_10 - r_4 <= 8.4782266997708184
 c337: r_5 - r_6 <= 8.4782266997708184
 c338: - r_5 + r_6 <= 8.4782266997708184
 c339: r_5 - r_7 <= 8.4782266997708184
 c340: - r_5 + r_7 <= 8.4782266997708184
 c341: r_5 - r_8 <= 8.4782266997708184
 c342: - r_5 + r_8 <= 8.4782266997708184
 c343: r_5 - r_9 <= 8.4782266997708184
 c344: - r_5 + r_9 <= 8.4782266997708184
 c345: - r_10 + r_5 <= 8.4782266997708184
 c346: r_10 - r_5 <= 8.4782266997708184
 c347: r_6 - r_7 <= 8.4782266997708184
 c348: - r_6 + r_7 <= 8.4782266997708184
 c349: r_6 - r_8 <= 8.4782266997708184
 c350: - r_6 + r_8 <= 8.4782266997708184
 c351: r_6 - r_9 <= 8.4782266997708184
 c352: - r_6 + r_9 <= 8.4782266997708184
 c353: - r_10 + r_6 <= 8.4782266997708184
 c354: r_10 - r_6 <= 8.4782266997708184
 c355: r_7 - r_8 <= 8.4782266997708184
 c356: - r_7 + r_8 <= 8.4782266997708184
 c357: r_7 - r_9 <= 8.4782266997708184
 c358: - r_7 + r_9 <= 8.4782266997708184
 c359: - r_10 + r_7 <= 8.4782266997708184
 c360: r_10 - r_7 <= 8.4782266997708184
 c361: r_8 - r_9 <= 8.4782266997708184
 c362: - r_8 + r_9 <= 8.4782266997708184
 c363: - r_10 + r_8 <= 8.4782266997708184
 c364: r_10 - r_8 <= 8.4782266997708184
 c365: - r_10 + r_9 <= 8.4782266997708184
 c366: r_10 - r_9 <= 8.4782266997708184
 c367: 5.625 r_1 - 3.375 r_10 - 12.375 r_2 - 3.375 r_3 - 3.375 r_4 - 3.375 r_5 - 3.375 r_6 - 3.375 r_7 - 3.375 r_8 - 3.375 r_9 <= 0
 c368: - 12.375 r_1 - 3.375 r_10 + 5.625 r_2 - 3.375 r_3 - 3.375 r_4 - 3.375 r_5 - 3.375 r_6 - 3.375 r_7 - 3.375 r_8 - 3.375 r_9 <= 0
 c369: 5.625 r_1 - 3.375 r_10 - 3.375 r_2 - 12.375 r_3 - 3.375 r_4 - 3.375 r_5 - 3.375 r_6 - 3.375 r_7 - 3.375 r_8 - 3.375 r_9 <= 0
 c370: - 12.375 r_1 - 3.375 r_10 - 3.375 r_2 + 5.625 r_3 - 3.375 r_4 - 3.375 r_5 - 3.375 r_6 - 3.375 r_7 - 3.375 r_8 - 3.375 r_9 <= 0
 c371: 5.625 r_1 - 3.375 r_10 - 3.375 r_2 - 3.375 r_3 - 12.375 r_4 - 3.375 r_5 - 3.375 r_6 - 3.375 r_7 - 3.375 r_8 - 3.375 r_9 <= 0
 c372: - 12.375 r_1 - 3.375 r_10 - 3.375 r_2 - 3.375 r_3 + 5.625 r_4 - 3.375 r_5 - 3.375 r_6 - 3.375 r_7 - 3.375 r_8 - 3.375 r_9 <= 0
 c373: 5.625 r_1 - 3.375 r_10 - 3.375 r_2 - 3.375 r_3 - 3.375 r_4 - 12.375 r_5 - 3.375 r_6 - 3.375 r_7 - 3.375 r_8 - 3.375 r_9 <= 0
 c374: - 12.375 r_1 - 3.375 r_10 - 3.375 r_2 - 3.375 r_3 - 3.375 r_4 + 5.625 r_5 - 3.375 r_6 - 3.375 r_7 - 3.375 r_8 - 3.375 r_9 <= 0
 c375: 5.625 r_1 - 3.375 r_10 - 3.375 r_2 - 3.375 r_3 - 3.375 r_4 - 3.375 r_5 - 12.375 r_6 - 3.375 r_7 - 3.375 r_8 - 3.375 r_9 <= 0
 c376: - 12.375 r_1 - 3.375 r_10 - 3.375 r_2 - 3.375 r_3 - 3.375 r_4 - 3.375 r_5 + 5.625 r_6 - 3.375 r_7 - 3.375 r_8 - 3.375 r_9 <= 0
 c377: 5.625 r_1 - 3.375 r_10 - 3.375 r_2 - 3.375 r_3 - 3.375 r_4 - 3.375 r_5 - 3.375 r_6 - 12.375 r_7 - 3.375 r_8 - 3.375 r_9 <= 0
 c378: - 12.375 r_1 - 3.375 r_10 - 3.375 r_2 - 3.375 r_3 - 3.375 r_4 - 3.375 r_5 - 3.375 r_6 + 5.625 r_7 - 3.375 r_8 - 3.375 r_9 <= 0
 c379: 5.625 r_1 - 3.375 r_10 - 3.375 r_2 - 3.375 r_3 - 3.375 r_4 - 3.375 r_5 - 3.375 r_6 - 3.375 r_7 - 12.375 r_8 - 3.375 r_9 <= 0
 c380: - 12.375 r_1 - 3.375 r_10 - 3.375 r_2 - 3.375 r_3 - 3.375 r_4 - 3.375 r_5 - 3.375 r_6 - 3.375 r_7 + 5.625 r_8 - 3.375 r_9 <= 0
 c381: 5.625 r_1 - 3.375 r_10 - 3.375 r_2 - 3.375 r_3 - 3.375 r_4 - 3.375 r_5 - 3.375 r_6 - 3.375 r_7 - 3.375 r_8 - 12.375 r_9 <= 0
 c382: - 12.375 r_1 - 3.375 r_10 - 3.375 r_2 - 3.375 r_3 - 3.375 r_4 - 3.375 r_5 - 3.375 r_6 - 3.375 r_7 - 3.375 r_8 + 5.625 r_9 <= 0
 c383: 5.625 r_1 - 12.375 r_10 - 3.375 r_2 - 3.375 r_3 - 3.375 r_4 - 3.375 r_5 - 3.375 r_6 - 3.375 r_7 - 3.375 r_8 - 3.375 r_9 <= 0
 c384: - 12.375 r_1 + 5.625 r_10 - 3.375 r_2 - 3.375 r_3 - 3.375 r_4 - 3.375 r_5 - 3.375 r_6 - 3.375 r_7 - 3.375 r_8 - 3.375 r_9 <= 0
 c385: - 3.375 r_1 - 3.375 r_10 + 5.625 r_2 - 12.375 r_3 - 3.375 r_4 - 3.375 r_5 - 3.375 r_6 - 3.375 r_7 - 3.375 r_8 - 3.375 r_9 <= 0
 c386: - 3.375 r_1 - 3.375 r_10 - 12.375 r_2 + 5.625 r_3 - 3.375 r_4 - 3.375 r_5 - 3.375 r_6 - 3.375 r_7 - 3.375 r_8 - 3.375 r_9 <= 0
 c387: - 3.375 r_1 - 3.375 r_10 + 5.625 r_2 - 3.375 r_3 - 12.375 r_4 - 3.375 r_5 - 3.375 r_6 - 3.375 r_7 - 3.375 r_8 - 3.375 r_9 <= 0
 c388: - 3.375 r_1 - 3.375 r_10 - 12.375 r_2 - 3.375 r_3 + 5.625 r_4 - 3.375 r_5 - 3.375 r_6 - 3.375 r_7 - 3.375 r_8 - 3.375 r_9 <= 0
 c389: - 3.375 r_1 - 3.375 r_10 + 5.625 r_2 - 3.375 r_3 - 3.375 r_4 - 12.375 r_5 - 3.375 r_6 - 3.375 r_7 - 3.375 r_8 - 3.375 r_9 <= 0
 c390: - 3.375 r_1 - 3.375 r_10 - 12.375 r_2 - 3.375 r_3 - 3.375 r_4 + 5.625 r_5 - 3.375 r_6 - 3.375 r_7 - 3.375 r_8 - 3.375 r_9 <= 0
 c391: - 3.375 r_1 - 3.375 r_10 + 5.625 r_2 - 3.375 r_3 - 3.375 r_4 - 3.375 r_5 - 12.375 r_6 - 3.375 r_7 - 3.375 r_8 - 3.375 r_9 <= 0
 c392: - 3.375 r_1 - 3.375 r_10 - 12.375 r_2 - 3.375 r_3 - 3.375 r_4 - 3.375 r_5 + 5.625 r_6 - 3.375 r_7 - 3.375 r_8 - 3.375 r_9 <= 0
 c393: - 3.375 r_1 - 3.375 r_10 + 5.625 r_2 - 3.375 r_3 - 3.375 r_4 - 3.375 r_5 - 3.375 r_6 - 12.375 r_7 - 3.375 r_8 - 3.375 r_9 <= 0
 c394: - 3.375 r_1 - 3.375 r_10 - 12.375 r_2 - 3.375 r_3 - 3.375 r_4 - 3.375 r_5 - 3.375 r_6 + 5.625 r_7 - 3.375 r_8 - 3.375 r_9 <= 0
 c395: - 3.375 r_1 - 3.375 r_10 + 5.625 r_2 - 3.375 r_3 - 3.375 r_4 - 3.375 r_5 - 3.375 r_6 - 3.375 r_7 - 12.375 r_8 - 3.375 r_9 <= 0
 c396: - 3.375 r_1 - 3.375 r_10 - 12.375 r_2 - 3.375 r_3 - 3.375 r_4 - 3.375 r_5 - 3.375 r_6 - 3.375 r_7 + 5.625 r_8 - 3.375 r_9 <= 0
 c397: - 3.375 r_1 - 3.375 r_10 + 5.625 r_2 - 3.375 r_3 - 3.375 r_4 - 3.375 r_5 - 3.375 r_6 - 3.375 r_7 - 3.375 r_8 - 12.375 r_9 <= 0
 c398: - 3.375 r_1 - 3.375 r_10 - 12.375 r_2 - 3.375 r_3 - 3.375 r_4 - 3.375 r_5 - 3.375 r_6 - 3.375 r_7 - 3.375 r_8 + 5.625 r_9 <= 0
 c399: - 3.375 r_1 - 12.375 r_10 + 5.625 r_2 - 3.375 r_3 - 3.375 r_4 - 3.375 r_5 - 3.375 r_6 - 3.375 r_7 - 3.375 r_8 - 3.375 r_9 <= 0
 c400: - 3.375 r_1 + 5.625 r_10 - 12.375 r_2 - 3.375 r_3 - 3.375 r_4 - 3.375 r_5 - 3.375 r_6 - 3.375 r_7 - 3.375 r_8 - 3.375 r_9 <= 0
 c401: - 3.375 r_1 - 3.375 r_10 - 3.375 r_2 + 5.625 r_3 - 12.375 r_4 - 3.375 r_5 - 3.375 r_6 - 3.375 r_7 - 3.375 r_8 - 3.375 r_9 <= 0
 c402: - 3.375 r_1 - 3.375 r_10 - 3.375 r_2 - 12.375 r_3 + 5.625 r_4 - 3.375 r_5 - 3.375 r_6 - 3.375 r_7 - 3.375 r_8 - 3.375 r_9 <= 0
 c403: - 3.375 r_1 - 3.375 r_10 - 3.375 r_2 + 5.625 r_3 - 3.375 r_4 - 12.375 r_5 - 3.375 r_6 - 3.375 r_7 - 3.375 r_8 - 3.375 r_9 <= 0
 c404: - 3.375 r_1 - 3.375 r_10 - 3.375 r_2 - 12.375 r_3 - 3.375 r_4 + 5.625 r_5 - 3.375 r_6 - 3.375 r_7 - 3.375 r_8 - 3.375 r_9 <= 0
 c405: - 3.375 r_1 - 3.375 r_10 - 3.375 r_2 + 5.625 r_3 - 3.375 r_4 - 3.375 r_5 - 12.375 r_6 - 3.375 r_7 - 3.375 r_8 - 3.375 r_9 <= 0
 c406: - 3.375 r_1 - 3.375 r_10 - 3.375 r_2 - 12.375 r_3 - 3.375 r_4 - 3.375 r_5 + 5.625 r_6 - 3.375 r_7 - 3.375 r_8 - 3.375 r_9 <= 0
 c407: - 3.375 r_1 - 3.375 r_10 - 3.375 r_2 + 5.625 r_3 - 3.375 r_4 - 3.375 r_5 - 3.375 r_6 - 12.375 r_7 - 3.375 r_8 - 3.375 r_9 <= 0
 c408: - 3.375 r_1 - 3.375 r_10 - 3.375 r_2 - 12.375 r_3 - 3.375 r_4 - 3.375 r_5 - 3.375 r_6 + 5.625 r_7 - 3.375 r_8 - 3.375 r_9 <= 0
 c409: - 3.375 r_1 - 3.375 r_10 - 3.375 r_2 + 5.625 r_3 - 3.375 r_4 - 3.375 r_5 - 3.375 r_6 - 3.375 r_7 - 12.375 r_8 - 3.375 r_9 <= 0
 c410: - 3.375 r_1 - 3.375 r_10 - 3.375 r_2 - 12.375 r_3 - 3.375 r_4 - 3.375 r_5 - 3.375 r_6 - 3.375 r_7 + 5.625 r_8 - 3.375 r_9 <= 0
 c411: - 3.375 r_1 - 3.375 r_10 - 3.375 r_2 + 5.625 r_3 - 3.375 r_4 - 3.375 r_5 - 3.375 r_6 - 3.375 r_7 - 3.375 r_8 - 12.375 r_9 <= 0
 c412: - 3.375 r_1 - 3.375 r_10 - 3.375 r_2 - 12.375 r_3 - 3.375 r_4 - 3.375 r_5 - 3.375 r_6 - 3.375 r_7 - 3.375 r_8 + 5.625 r_9 <= 0
 c413: - 3.375 r_1 - 12.375 r_10 - 3.375 r_2 + 5.625 r_3 - 3.375 r_4 - 3.375 r_5 - 3.375 r_6 - 3.375 r_7 - 3.375 r_8 - 3.375 r_9 <= 0
 c414: - 3.375 r_1 + 5.625 r_10 - 3.375 r_2 - 12.375 r_3 - 3.375 r_4 - 3.375 r_5 - 3.375 r_6 - 3.375 r_7 - 3.375 r_8 - 3.375 r_9 <= 0
 c415: - 3.375 r_1 - 3.375 r_10 - 3.375 r_2 - 3.375 r_3 + 5.625 r_4 - 12.375 r_5 - 3.375 r_6 - 3.375 r_7 - 3.375 r_8 - 3.375 r_9 <= 0
 c416: - 3.375 r_1 - 3.375 r_10 - 3.375 r_2 - 3.375 r_3 - 12.375 r_4 + 5.625 r_5 - 3.375 r_6 - 3.375 r_7 - 3.375 r_8 - 3.375 r_9 <= 0
 c417: - 3.375 r_1 - 3.375 r_10 - 3.375 r_2 - 3.375 r_3 + 5.625 r_4 - 3.375 r_5 - 12.375 r_6 - 3.375 r_7 - 3.375 r_8 - 3.375 r_9 <= 0
 c418: - 3.375 r_1 - 3.375 r_10 - 3.375 r_2 - 3.375 r_3 - 12.375 r_4 - 3.375 r_5 + 5.625 r_6 - 3.375 r_7 - 3.375 r_8 - 3.375 r_9 <= 0
 c419: - 3.375 r_1 - 3.375 r_10 - 3.375 r_2 - 3.375 r_3 + 5.625 r_4 - 3.375 r_5 - 3.375 r_6 - 12.375 r_7 - 3.375 r_8 - 3.375 r_9 <= 0
 c420: - 3.375 r_1 - 3.375 r_10 - 3.375 r_2 - 3.375 r_3 - 12.375 r_4 - 3.375 r_5 - 3.375 r_6 + 5.625 r_7 - 3.375 r_8 - 3.375 r_9 <= 0
 c421: - 3.375 r_1 - 3.375 r_10 - 3.375 r_2 - 3.375 r_3 + 5.625 r_4 - 3.375 r_5 - 3.375 r_6 - 3.375 r_7 - 12.375 r_8 - 3.375 r_9 <= 0
 c422: - 3.375 r_1 - 3.375 r_10 - 3.375 r_2 - 3.375 r_3 - 12.375 r_4 - 3.375 r_5 - 3.375 r_6 - 3.375 r_7 + 5.625 r_8 - 3.375 r_9 <= 0
 c423: - 3.375 r_1 - 3.375 r_10 - 3.375 r_2 - 3.375 r_3 + 5.625 r_4 - 3.375 r_5 - 3.375 r_6 - 3.375 r_7 - 3.375 r_8 - 12.375 r_9 <= 0
 c424: - 3.375 r_1 - 3.375 r_10 - 3.375 r_2 - 3.375 r_3 - 12.375 r_4 - 3.375 r_5 - 3.375 r_6 - 3.375 r_7 - 3.375 r_8 + 5.625 r_9 <= 0
 c425: - 3.375 r_1 - 12.375 r_10 - 3.375 r_2 - 3.375 r_3 + 5.625 r_4 - 3.375 r_5 - 3.375 r_6 - 3.375 r_7 - 3.375 r_8 - 3.375 r_9 <= 0
 c426: - 3.375 r_1 + 5.625 r_10 - 3.375 r_2 - 3.375 r_3 - 12.375 r_4 - 3.375 r_5 - 3.375 r_6 - 3.375 r_7 - 3.375 r_8 - 3.375 r_9 <= 0
 c427: - 3.375 r_1 - 3.375 r_10 - 3.375 r_2 - 3.375 r_3 - 3.375 r_4 + 5.625 r_5 - 12.375 r_6 - 3.375 r_7 - 3.375 r_8 - 3.375 r_9 <= 0
 c428: - 3.375 r_1 - 3.375 r_10 - 3.375 r_2 - 3.375 r_3 - 3.375 r_4 - 12.375 r_5 + 5.625 r_6 - 3.375 r_7 - 3.375 r_8 - 3.375 r_9 <= 0
 c429: - 3.375 r_1 - 3.375 r_10 - 3.375 r_2 - 3.375 r_3 - 3.375 r_4 + 5.625 r_5 - 3.375 r_6 - 12.375 r_7 - 3.375 r_8 - 3.375 r_9 <= 0
 c430: - 3.375 r_1 - 3.375 r_10 - 3.375 r_2 - 3.375 r_3 - 3.375 r_4 - 12.375 r_5 - 3.375 r_6 + 5.625 r_7 - 3.375 r_8 - 3.375 r_9 <= 0
 c431: - 3.375 r_1 - 3.375 r_10 - 3.375 r_2 - 3.375 r_3 - 3.375 r_4 + 5.625 r_5 - 3.375 r_6 - 3.375 r_7 - 12.375 r_8 - 3.375 r_9 <= 0
 c432: - 3.375 r_1 - 3.375 r_10 - 3.375 r_2 - 3.375 r_3 - 3.375 r_4 - 12.375 r_5 - 3.375 r_6 - 3.375 r_7 + 5.625 r_8 - 3.375 r_9 <= 0
 c433: - 3.375 r_1 - 3.375 r_10 - 3.375 r_2 - 3.375 r_3 - 3.375 r_4 + 5.625 r_5 - 3.375 r_6 - 3.375 r_7 - 3.375 r_8 - 12.375 r_9 <= 0
 c434: - 3.375 r_1 - 3.375 r_10 - 3.375 r_2 - 3.375 r_3 - 3.375 r_4 - 12.375 r_5 - 3.375 r_6 - 3.375 r_7 - 3.375 r_8 + 5.625 r_9 <= 0
 c435: - 3.375 r_1 - 12.375 r_10 - 3.375 r_2 - 3.375 r_3 - 3.375 r_4 + 5.625 r_5 - 3.375 r_6 - 3.375 r_7 - 3.375 r_8 - 3.375 r_9 <= 0
 c436: - 3.375 r_1 + 5.625 r_10 - 3.375 r_2 - 3.375 r_3 - 3.375 r_4 - 12.375 r_5 - 3.375 r_6 - 3.375 r_7 - 3.375 r_8 - 3.375 r_9 <= 0
 c437: - 3.375 r_1 - 3.375 r_10 - 3.375 r_2 - 3.375 r_3 - 3.375 r_4 - 3.375 r_5 + 5.625 r_6 - 12.375 r_7 - 3.375 r_8 - 3.375 r_9 <= 0
 c438: - 3.375 r_1 - 3.375 r_10 - 3.375 r_2 - 3.375 r_3 - 3.375 r_4 - 3.375 r_5 - 12.375 r_6 + 5.625 r_7 - 3.375 r_8 - 3.375 r_9 <= 0
 c439: - 3.375 r_1 - 3.375 r_10 - 3.375 r_2 - 3.375 r_3 - 3.375 r_4 - 3.375 r_5 + 5.625 r_6 - 3.375 r_7 - 12.375 r_8 - 3.375 r_9 <= 0
 c440: - 3.375 r_1 - 3.375 r_10 - 3.375 r_2 - 3.375 r_3 - 3.375 r_4 - 3.375 r_5 - 12.375 r_6 - 3.375 r_7 + 5.625 r_8 - 3.375 r_9 <= 0
 c441: - 3.375 r_1 - 3.375 r_10 - 3.375 r_2 - 3.375 r_3 - 3.375 r_4 - 3.375 r_5 + 5.625 r_6 - 3.375 r_7 - 3.375 r_8 - 12.375 r_9 <= 0
 c442: - 3.375 r_1 - 3.375 r_10 - 3.375 r_2 - 3.375 r_3 - 3.375 r_4 - 3.375 r_5 - 12.375 r_6 - 3.375 r_7 - 3.375 r_8 + 5.625 r_9 <= 0
 c443: - 3.375 r_1 - 12.375 r_10 - 3.375 r_2 - 3.375 r_3 - 3.375 r_4 - 3.375 r_5 + 5.625 r_6 - 3.375 r_7 - 3.375 r_8 - 3.375 r_9 <= 0
 c444: - 3.375 r_1 + 5.625 r_10 - 3.375 r_2 - 3.375 r_3 - 3.375 r_4 - 3.375 r_5 - 12.375 r_6 - 3.375 r_7 - 3.375 r_8 - 3.375 r_9 <= 0
 c445: - 3.375 r_1 - 3.375 r_10 - 3.375 r_2 - 3.375 r_3 - 3.375 r_4 - 3.375 r_5 - 3.375 r_6 + 5.625 r_7 - 12.375 r_8 - 3.375 r_9 <= 0
 c446: - 3.375 r_1 - 3.375 r_10 - 3.375 r_2 - 3.375 r_3 - 3.375 r_4 - 3.375 r_5 - 3.375 r_6 - 12.375 r_7 + 5.625 r_8 - 3.375 r_9 <= 0
 c447: - 3.375 r_1 - 3.375 r_10 - 3.375 r_2 - 3.375 r_3 - 3.375 r_4 - 3.375 r_5 - 3.375 r_6 + 5.625 r_7 - 3.375 r_8 - 12.375 r_9 <= 0
 c448: - 3.375 r_1 - 3.375 r_10 - 3.375 r_2 - 3.375 r_3 - 3.375 r_4 - 3.375 r_5 - 3.375 r_6 - 12.375 r_7 - 3.375 r_8 + 5.625 r_9 <= 0
 c449: - 3.375 r_1 - 12.375 r_10 - 3.375 r_2 - 3.375 r_3 - 3.375 r_4 - 3.375 r_5 - 3.375 r_6 + 5.625 r_7 - 3.375 r_8 - 3.375 r_9 <= 0
 c450: - 3.375 r_1 + 5.625 r_10 - 3.375 r_2 - 3.375 r_3 - 3.375 r_4 - 3.375 r_5 - 3.375 r_6 - 12.375 r_7 - 3.375 r_8 - 3.375 r_9 <= 0
 c451: - 3.375 r_1 - 3.375 r_10 - 3.375 r_2 - 3.375 r_3 - 3.375 r_4 - 3.375 r_5 - 3.375 r_6 - 3.375 r_7 + 5.625 r_8 - 12.375 r_9 <= 0
 c452: - 3.375 r_1 - 3.375 r_10 - 3.375 r_2 - 3.375 r_3 - 3.375 r_4 - 3.375 r_5 - 3.375 r_6 - 3.375 r_7 - 12.375 r_8 + 5.625 r_9 <= 0
 c453: - 3.375 r_1 - 12.375 r_10 - 3.375 r_2 - 3.375 r_3 - 3.375 r_4 - 3.375 r_5 - 3.375 r_6 - 3.375 r_7 + 5.625 r_8 - 3.375 r_9 <= 0
 c454: - 3.375 r_1 + 5.625 r_10 - 3.375 r_2 - 3.375 r_3 - 3.375 r_4 - 3.375 r_5 - 3.375 r_6 - 3.375 r_7 - 12.375 r_8 - 3.375 r_9 <= 0
 c455: - 3.375 r_1 - 12.375 r_10 - 3.375 r_2 - 3.375 r_3 - 3.375 r_4 - 3.375 r_5 - 3.375 r_6 - 3.375 r_7 - 3.375 r_8 + 5.625 r_9 <= 0
 c456: - 3.375 r_1 + 5.625 r_10 - 3.375 r_2 - 3.375 r_3 - 3.375 r_4 - 3.375 r_5 - 3.375 r_6 - 3.375 r_7 - 3.375 r_8 - 12.375 r_9 <= 0
 c457: G + 0.021869700000000002 e_1 + 0.0151203 e_10 + 0.014358299999999999 e_2 + 0.011355899999999999 e_3 + 0.009023999999999999 e_4 + 0.010643400000000001 e_5 + 0.0080987999999999997 e_6 + 0.14999999999999999 e_7 + 0.012430800000000001 e_8 + 0.0091763999999999995 e_9 <= 0.92819616684535156
 c458: 4.9444339854927435 e_1 + 3.4184888311611923 e_10 + 3.2462112646218491 e_2 + 2.5674105221313983 e_3 + 2.0402004730328498 e_4 + 2.4063242148357529 e_5 + 1.831025663896104 e_6 + 33.912906799083274 e_7 + 2.8104304122536292 e_8 + 2.0746559863407183 e_9 + h_1_10 + h_1_2 + h_1_3 + h_1_4 + h_1_5 + h_1_6 + h_1_7 + h_1_8 + h_1_9 + h_2_10 + h_2_3 + h_2_4 + h_2_5 + h_2_6 + h_2_7 + h_2_8 + h_2_9 + h_3_10 + h_3_4 + h_3_5 + h_3_6 + h_3_7 + h_3_8 + h_3_9 + h_4_10 + h_4_5 + h_4_6 + h_4_7 + h_4_8 + h_4_9 + h_5_10 + h_5_6 + h_5_7 + h_5_8 + h_5_9 + h_6_10 + h_6_7 + h_6_8 + h_6_9 + h_7_10 + h_7_8 + h_7_9 + h_8_10 + h_8_9 + h_9_10 <= 209.8522006499517
 c459: 0.14579800000000001 e_1 + 0.100802 e_10 + 0.095722000000000002 e_2 + 0.075705999999999996 e_3 + 0.060159999999999998 e_4 + 0.070956000000000005 e_5 + 0.053991999999999998 e_6 + e_7 + 0.082872000000000001 e_8 + 0.061176000000000001 e_9 >= 3.0481998607486629
 c460: e_1 <= 32.153900915209242
 c461: e_2 <= 48.974890261754638
 c462: e_3 <= 61.923420146826906
 c463: e_4 <= 77.925107141550484
 c464: e_5 <= 66.068753109471743
 c465: e_6 <= 86.827204875457056
 c466: e_7 <= 4.6879744456356773
 c467: e_8 <= 56.568858548552917
 c468: e_9 <= 76.630940983975364
 c469: e_10 <= 46.506760239238083
 c470: W_SP - 0.93494387610389618 e_1 - 0.64640264337662334 e_10 - 0.61382664857142855 e_2 - 0.48547209896103893 e_3 - 0.38578185974025969 e_4 - 0.45501226129870131 e_5 - 0.34622895896103895 e_6 - 6.4125974025974024 e_7 - 0.53142477194805193 e_8 - 0.39229705870129872 e_9 - 3.0481998607486629 r_1 - 3.0481998607486629 r_10 - 3.0481998607486629 r_2 - 3.0481998607486629 r_3 - 3.0481998607486629 r_4 - 3.0481998607486629 r_5 - 3.0481998607486629 r_6 - 3.0481998607486629 r_7 - 3.0481998607486629 r_8 - 3.0481998607486629 r_9 >= -19.546878509634638
 c471: W_SP - 3.2962893236618291 e_1 - 2.2789925541074614 e_10 - 2.164140843081233 e_2 - 1.7116070147542655 e_3 - 1.3601336486885665 e_4 - 1.6042161432238353 e_5 - 1.2206837759307361 e_6 - 22.608604532722183 e_7 - 1.8736202748357527 e_8 - 1.3831039908938123 e_9 - 5.2196574218181819 r_1 - 5.2196574218181819 r_10 - 5.2196574218181819 r_2 - 5.2196574218181819 r_3 - 5.2196574218181819 r_4 - 5.2196574218181819 r_5 - 5.2196574218181819 r_6 - 5.2196574218181819 r_7 - 5.2196574218181819 r_8 - 5.2196574218181819 r_9 >= -118.00917044617553
 c472: W_SP - 3.2962893236618291 e_1 - 2.2789925541074614 e_10 - 2.164140843081233 e_2 - 1.7116070147542655 e_3 - 1.3601336486885665 e_4 - 1.6042161432238353 e_5 - 1.2206837759307361 e_6 - 22.608604532722183 e_7 - 1.8736202748357527 e_8 - 1.3831039908938123 e_9 - 3.0481998607486629 r_1 - 3.0481998607486629 r_10 - 3.0481998607486629 r_2 - 3.0481998607486629 r_3 - 3.0481998607486629 r_4 - 3.0481998607486629 r_5 - 3.0481998607486629 r_6 - 3.0481998607486629 r_7 - 3.0481998607486629 r_8 - 3.0481998607486629 r_9 <= -68.915545188365343
 c473: W_SP - 0.93494387610389618 e_1 - 0.64640264337662334 e_10 - 0.61382664857142855 e_2 - 0.48547209896103893 e_3 - 0.38578185974025969 e_4 - 0.45501226129870131 e_5 - 0.34622895896103895 e_6 - 6.4125974025974024 e_7 - 0.53142477194805193 e_8 - 0.39229705870129872 e_9 - 5.2196574218181819 r_1 - 5.2196574218181819 r_10 - 5.2196574218181819 r_2 - 5.2196574218181819 r_3 - 5.2196574218181819 r_4 - 5.2196574218181819 r_5 - 5.2196574218181819 r_6 - 5.2196574218181819 r_7 - 5.2196574218181819 r_8 - 5.2196574218181819 r_9 <= -33.471561625599527
 c474: 1.5 W_SP + h_1_10 + h_1_2 + h_1_3 + h_1_4 + h_1_5 + h_1_6 + h_1_7 + h_1_8 + h_1_9 + h_2_10 + h_2_3 + h_2_4 + h_2_5 + h_2_6 + h_2_7 + h_2_8 + h_2_9 + h_3_10 + h_3_4 + h_3_5 + h_3_6 + h_3_7 + h_3_8 + h_3_9 + h_4_10 + h_4_5 + h_4_6 + h_4_7 + h_4_8 + h_4_9 + h_5_10 + h_5_6 + h_5_7 + h_5_8 + h_5_9 + h_6_10 + h_6_7 + h_6_8 + h_6_9 + h_7_10 + h_7_8 + h_7_9 + h_8_10 + h_8_9 + h_9_10 - 9.2819616684535156 r_1 - 9.2819616684535156 r_10 - 9.2819616684535156 r_2 - 9.2819616684535156 r_3 - 9.2819616684535156 r_4 - 9.2819616684535156 r_5 - 9.2819616684535156 r_6 - 9.2819616684535156 r_7 - 9.2819616684535156 r_8 - 9.2819616684535156 r_9 <= 0
 c475: x_0_0_1 + x_0_0_10 + x_0_0_2 + x_0_0_3 + x_0_0_4 + x_0_0_5 + x_0_0_6 + x_0_0_7 + x_0_0_8 + x_0_0_9 - x_0_10_0 - x_0_1_0 - x_0_2_0 - x_0_3_0 - x_0_4_0 - x_0_5_0 - x_0_6_0 - x_0_7_0 - x_0_8_0 - x_0_9_0 = 0
 c476: x_0_0_1 + x_0_0_10 + x_0_0_2 + x_0_0_3 + x_0_0_4 + x_0_0_5 + x_0_0_6 + x_0_0_7 + x_0_0_8 + x_0_0_9 <= 1
 c477: x_0_0_1 + x_0_10_1 + x_0_2_1 + x_0_3_1 + x_0_4_1 + x_0_5_1 + x_0_6_1 + x_0_7_1 + x_0_8_1 + x_0_9_1 - z_0_1 = 0
 c478: x_0_1_0 + x_0_1_10 + x_0_1_2 + x_0_1_3 + x_0_1_4 + x_0_1_5 + x_0_1_6 + x_0_1_7 + x_0_1_8 + x_0_1_9 - z_0_1 = 0
 c479: x_0_0_2 + x_0_10_2 + x_0_1_2 + x_0_3_2 + x_0_4_2 + x_0_5_2 + x_0_6_2 + x_0_7_2 + x_0_8_2 + x_0_9_2 - z_0_2 = 0
 c480: x_0_2_0 + x_0_2_1 + x_0_2_10 + x_0_2_3 + x_0_2_4 + x_0_2_5 + x_0_2_6 + x_0_2_7 + x_0_2_8 + x_0_2_9 - z_0_2 = 0
 c481: x_0_0_3 + x_0_10_3 + x_0_1_3 + x_0_2_3 + x_0_4_3 + x_0_5_3 + x_0_6_3 + x_0_7_3 + x_0_8_3 + x_0_9_3 - z_0_3 = 0
 c482: x_0_3_0 + x_0_3_1 + x_0_3_10 + x_0_3_2 + x_0_3_4 + x_0_3_5 + x_0_3_6 + x_0_3_7 + x_0_3_8 + x_0_3_9 - z_0_3 = 0
 c483: x_0_0_4 + x_0_10_4 + x_0_1_4 + x_0_2_4 + x_0_3_4 + x_0_5_4 + x_0_6_4 + x_0_7_4 + x_0_8_4 + x_0_9_4 - z_0_4 = 0
 c484: x_0_4_0 + x_0_4_1 + x_0_4_10 + x_0_4_2 + x_0_4_3 + x_0_4_5 + x_0_4_6 + x_0_4_7 + x_0_4_8 + x_0_4_9 - z_0_4 = 0
 c485: x_0_0_5 + x_0_10_5 + x_0_1_5 + x_0_2_5 + x_0_3_5 + x_0_4_5 + x_0_6_5 + x_0_7_5 + x_0_8_5 + x_0_9_5 - z_0_5 = 0
 c486: x_0_5_0 + x_0_5_1 + x_0_5_10 + x_0_5_2 + x_0_5_3 + x_0_5_4 + x_0_5_6 + x_0_5_7 + x_0_5_8 + x_0_5_9 - z_0_5 = 0
 c487: x_0_0_6 + x_0_10_6 + x_0_1_6 + x_0_2_6 + x_0_3_6 + x_0_4_6 + x_0_5_6 + x_0_7_6 + x_0_8_6 + x_0_9_6 - z_0_6 = 0
 c488: x_0_6_0 + x_0_6_1 + x_0_6_10 + x_0_6_2 + x_0_6_3 + x_0_6_4 + x_0_6_5 + x_0_6_7 + x_0_6_8 + x_0_6_9 - z_0_6 = 0
 c489: x_0_0_7 + x_0_10_7 + x_0_1_7 + x_0_2_7 + x_0_3_7 + x_0_4_7 + x_0_5_7 + x_0_6_7 + x_0_8_7 + x_0_9_7 - z_0_7 = 0
 c490: x_0_7_0 + x_0_7_1 + x_0_7_10 + x_0_7_2 + x_0_7_3 + x_0_7_4 + x_0_7_5 + x_0_7_6 + x_0_7_8 + x_0_7_9 - z_0_7 = 0
 c491: x_0_0_8 + x_0_10_8 + x_0_1_8 + x_0_2_8 + x_0_3_8 + x_0_4_8 + x_0_5_8 + x_0_6_8 + x_0_7_8 + x_0_9_8 - z_0_8 = 0
 c492: x_0_8_0 + x_0_8_1 + x_0_8_10 + x_0_8_2 + x_0_8_3 + x_0_8_4 + x_0_8_5 + x_0_8_6 + x_0_8_7 + x_0_8_9 - z_0_8 = 0
 c493: x_0_0_9 + x_0_10_9 + x_0_1_9 + x_0_2_9 + x_0_3_9 + x_0_4_9 + x_0_5_9 + x_0_6_9 + x_0_7_9 + x_0_8_9 - z_0_9 = 0
 c494: x_0_9_0 + x_0_9_1 + x_0_9_10 + x_0_9_2 + x_0_9_3 + x_0_9_4 + x_0_9_5 + x_0_9_6 + x_0_9_7 + x_0_9_8 - z_0_9 = 0
 c495: x_0_0_10 + x_0_1_10 + x_0_2_10 + x_0_3_10 + x_0_4_10 + x_0_5_10 + x_0_6_10 + x_0_7_10 + x_0_8_10 + x_0_9_10 - z_0_10 = 0
 c496: x_0_10_0 + x_0_10_1 + x_0_10_2 + x_0_10_3 + x_0_10_4 + x_0_10_5 + x_0_10_6 + x_0_10_7 + x_0_10_8 + x_0_10_9 - z_0_10 = 0
 c497: conn_0_0_1 - 10 x_0_0_1 <= 0
 c498: conn_0_0_2 - 10 x_0_0_2 <= 0
 c499: conn_0_0_3 - 10 x_0_0_3 <= 0
 c500: conn_0_0_4 - 10 x_0_0_4 <= 0
 c501: conn_0_0_5 - 10 x_0_0_5 <= 0
 c502: conn_0_0_6 - 10 x_0_0_6 <= 0
 c503: conn_0_0_7 - 10 x_0_0_7 <= 0
 c504: conn_0_0_8 - 10 x_0_0_8 <= 0
 c505: conn_0_0_9 - 10 x_0_0_9 <= 0
 c506: conn_0_0_10 - 10 x_0_0_10 <= 0
 c507: conn_0_1_0 - 10 x_0_1_0 <= 0
 c508: conn_0_1_2 - 10 x_0_1_2 <= 0
 c509: conn_0_1_3 - 10 x_0_1_3 <= 0
 c510: conn_0_1_4 - 10 x_0_1_4 <= 0
 c511: conn_0_1_5 - 10 x_0_1_5 <= 0
 c512: conn_0_1_6 - 10 x_0_1_6 <= 0
 c513: conn_0_1_7 - 10 x_0_1_7 <= 0
 c514: conn_0_1_8 - 10 x_0_1_8 <= 0
 c515: conn_0_1_9 - 10 x_0_1_9 <= 0
 c516: conn_0_1_10 - 10 x_0_1_10 <= 0
 c517: conn_0_2_0 - 10 x_0_2_0 <= 0
 c518: conn_0_2_1 - 10 x_0_2_1 <= 0
 c519: conn_0_2_3 - 10 x_0_2_3 <= 0
 c520: conn_0_2_4 - 10 x_0_2_4 <= 0
 c521: conn_0_2_5 - 10 x_0_2_5 <= 0
 c522: conn_0_2_6 - 10 x_0_2_6 <= 0
 c523: conn_0_2_7 - 10 x_0_2_7 <= 0
 c524: conn_0_2_8 - 10 x_0_2_8 <= 0
 c525: conn_0_2_9 - 10 x_0_2_9 <= 0
 c526: conn_0_2_10 - 10 x_0_2_10 <= 0
 c527: conn_0_3_0 - 10 x_0_3_0 <= 0
 c528: conn_0_3_1 - 10 x_0_3_1 <= 0
 c529: conn_0_3_2 - 10 x_0_3_2 <= 0
 c530: conn_0_3_4 - 10 x_0_3_4 <= 0
 c531: conn_0_3_5 - 10 x_0_3_5 <= 0
 c532: conn_0_3_6 - 10 x_0_3_6 <= 0
 c533: conn_0_3_7 - 10 x_0_3_7 <= 0
 c534: conn_0_3_8 - 10 x_0_3_8 <= 0
 c535: conn_0_3_9 - 10 x_0_3_9 <= 0
 c536: conn_0_3_10 - 10 x_0_3_10 <= 0
 c537: conn_0_4_0 - 10 x_0_4_0 <= 0
 c538: conn_0_4_1 - 10 x_0_4_1 <= 0
 c539: conn_0_4_2 - 10 x_0_4_2 <= 0
 c540: conn_0_4_3 - 10 x_0_4_3 <= 0
 c541: conn_0_4_5 - 10 x_0_4_5 <= 0
 c542: conn_0_4_6 - 10 x_0_4_6 <= 0
 c543: conn_0_4_7 - 10 x_0_4_7 <= 0
 c544: conn_0_4_8 - 10 x_0_4_8 <= 0
 c545: conn_0_4_9 - 10 x_0_4_9 <= 0
 c546: conn_0_4_10 - 10 x_0_4_10 <= 0
 c547: conn_0_5_0 - 10 x_0_5_0 <= 0
 c548: conn_0_5_1 - 10 x_0_5_1 <= 0
 c549: conn_0_5_2 - 10 x_0_5_2 <= 0
 c550: conn_0_5_3 - 10 x_0_5_3 <= 0
 c551: conn_0_5_4 - 10 x_0_5_4 <= 0
 c552: conn_0_5_6 - 10 x_0_5_6 <= 0
 c553: conn_0_5_7 - 10 x_0_5_7 <= 0
 c554: conn_0_5_8 - 10 x_0_5_8 <= 0
 c555: conn_0_5_9 - 10 x_0_5_9 <= 0
 c556: conn_0_5_10 - 10 x_0_5_10 <= 0
 c557: conn_0_6_0 - 10 x_0_6_0 <= 0
 c558: conn_0_6_1 - 10 x_0_6_1 <= 0
 c559: conn_0_6_2 - 10 x_0_6_2 <= 0
 c560: conn_0_6_3 - 10 x_0_6_3 <= 0
 c561: conn_0_6_4 - 10 x_0_6_4 <= 0
 c562: conn_0_6_5 - 10 x_0_6_5 <= 0
 c563: conn_0_6_7 - 10 x_0_6_7 <= 0
 c564: conn_0_6_8 - 10 x_0_6_8 <= 0
 c565: conn_0_6_9 - 10 x_0_6_9 <= 0
 c566: conn_0_6_10 - 10 x_0_6_10 <= 0
 c567: conn_0_7_0 - 10 x_0_7_0 <= 0
 c568: conn_0_7_1 - 10 x_0_7_1 <= 0
 c569: conn_0_7_2 - 10 x_0_7_2 <= 0
 c570: conn_0_7_3 - 10 x_0_7_3 <= 0
 c571: conn_0_7_4 - 10 x_0_7_4 <= 0
 c572: conn_0_7_5 - 10 x_0_7_5 <= 0
 c573: conn_0_7_6 - 10 x_0_7_6 <= 0
 c574: conn_0_7_8 - 10 x_0_7_8 <= 0
 c575: conn_0_7_9 - 10 x_0_7_9 <= 0
 c576: conn_0_7_10 - 10 x_0_7_10 <= 0
 c577: conn_0_8_0 - 10 x_0_8_0 <= 0
 c578: conn_0_8_1 - 10 x_0_8_1 <= 0
 c579: conn_0_8_2 - 10 x_0_8_2 <= 0
 c580: conn_0_8_3 - 10 x_0_8_3 <= 0
 c581: conn_0_8_4 - 10 x_0_8_4 <= 0
 c582: conn_0_8_5 - 10 x_0_8_5 <= 0
 c583: conn_0_8_6 - 10 x_0_8_6 <= 0
 c584: conn_0_8_7 - 10 x_0_8_7 <= 0
 c585: conn_0_8_9 - 10 x_0_8_9 <= 0
 c586: conn_0_8_10 - 10 x_0_8_10 <= 0
 c587: conn_0_9_0 - 10 x_0_9_0 <= 0
 c588: conn_0_9_1 - 10 x_0_9_1 <= 0
 c589: conn_0_9_2 - 10 x_0_9_2 <= 0
 c590: conn_0_9_3 - 10 x_0_9_3 <= 0
 c591: conn_0_9_4 - 10 x_0_9_4 <= 0
 c592: conn_0_9_5 - 10 x_0_9_5 <= 0
 c593: conn_0_9_6 - 10 x_0_9_6 <= 0
 c594: conn_0_9_7 - 10 x_0_9_7 <= 0
 c595: conn_0_9_8 - 10 x_0_9_8 <= 0
 c596: conn_0_9_10 - 10 x_0_9_10 <= 0
 c597: conn_0_10_0 - 10 x_0_10_0 <= 0
 c598: conn_0_10_1 - 10 x_0_10_1 <= 0
 c599: conn_0_10_2 - 10 x_0_10_2 <= 0
 c600: conn_0_10_3 - 10 x_0_10_3 <= 0
 c601: conn_0_10_4 - 10 x_0_10_4 <= 0
 c602: conn_0_10_5 - 10 x_0_10_5 <= 0
 c603: conn_0_10_6 - 10 x_0_10_6 <= 0
 c604: conn_0_10_7 - 10 x_0_10_7 <= 0
 c605: conn_0_10_8 - 10 x_0_10_8 <= 0
 c606: conn_0_10_9 - 10 x_0_10_9 <= 0
 c607: conn_0_0_1 + conn_0_10_1 - conn_0_1_0 - conn_0_1_10 - conn_0_1_2 - conn_0_1_3 - conn_0_1_4 - conn_0_1_5 - conn_0_1_6 - conn_0_1_7 - conn_0_1_8 - conn_0_1_9 + conn_0_2_1 + conn_0_3_1 + conn_0_4_1 + conn_0_5_1 + conn_0_6_1 + conn_0_7_1 + conn_0_8_1 + conn_0_9_1 - z_0_1 = 0
 c608: conn_0_0_2 + conn_0_10_2 + conn_0_1_2 - conn_0_2_0 - conn_0_2_1 - conn_0_2_10 - conn_0_2_3 - conn_0_2_4 - conn_0_2_5 - conn_0_2_6 - conn_0_2_7 - conn_0_2_8 - conn_0_2_9 + conn_0_3_2 + conn_0_4_2 + conn_0_5_2 + conn_0_6_2 + conn_0_7_2 + conn_0_8_2 + conn_0_9_2 - z_0_2 = 0
 c609: conn_0_0_3 + conn_0_10_3 + conn_0_1_3 + conn_0_2_3 - conn_0_3_0 - conn_0_3_1 - conn_0_3_10 - conn_0_3_2 - conn_0_3_4 - conn_0_3_5 - conn_0_3_6 - conn_0_3_7 - conn_0_3_8 - conn_0_3_9 + conn_0_4_3 + conn_0_5_3 + conn_0_6_3 + conn_0_7_3 + conn_0_8_3 + conn_0_9_3 - z_0_3 = 0
 c610: conn_0_0_4 + conn_0_10_4 + conn_0_1_4 + conn_0_2_4 + conn_0_3_4 - conn_0_4_0 - conn_0_4_1 - conn_0_4_10 - conn_0_4_2 - conn_0_4_3 - conn_0_4_5 - conn_0_4_6 - conn_0_4_7 - conn_0_4_8 - conn_0_4_9 + conn_0_5_4 + conn_0_6_4 + conn_0_7_4 + conn_0_8_4 + conn_0_9_4 - z_0_4 = 0
 c611: conn_0_0_5 + conn_0_10_5 + conn_0_1_5 + conn_0_2_5 + conn_0_3_5 + conn_0_4_5 - conn_0_5_0 - conn_0_5_1 - conn_0_5_10 - conn_0_5_2 - conn_0_5_3 - conn_0_5_4 - conn_0_5_6 - conn_0_5_7 - conn_0_5_8 - conn_0_5_9 + conn_0_6_5 + conn_0_7_5 + conn_0_8_5 + conn_0_9_5 - z_0_5 = 0
 c612: conn_0_0_6 + conn_0_10_6 + conn_0_1_6 + conn_0_2_6 + conn_0_3_6 + conn_0_4_6 + conn_0_5_6 - conn_0_6_0 - conn_0_6_1 - conn_0_6_10 - conn_0_6_2 - conn_0_6_3 - conn_0_6_4 - conn_0_6_5 - conn_0_6_7 - conn_0_6_8 - conn_0_6_9 + conn_0_7_6 + conn_0_8_6 + conn_0_9_6 - z_0_6 = 0
 c613: conn_0_0_7 + conn_0_10_7 + conn_0_1_7 + conn_0_2_7 + conn_0_3_7 + conn_0_4_7 + conn_0_5_7 + conn_0_6_7 - conn_0_7_0 - conn_0_7_1 - conn_0_7_10 - conn_0_7_2 - conn_0_7_3 - conn_0_7_4 - conn_0_7_5 - conn_0_7_6 - conn_0_7_8 - conn_0_7_9 + conn_0_8_7 + conn_0_9_7 - z_0_7 = 0
 c614: conn_0_0_8 + conn_0_10_8 + conn_0_1_8 + conn_0_2_8 + conn_0_3_8 + conn_0_4_8 + conn_0_5_8 + conn_0_6_8 + conn_0_7_8 - conn_0_8_0 - conn_0_8_1 - conn_0_8_10 - conn_0_8_2 - conn_0_8_3 - conn_0_8_4 - conn_0_8_5 - conn_0_8_6 - conn_0_8_7 - conn_0_8_9 + conn_0_9_8 - z_0_8 = 0
 c615: conn_0_0_9 + conn_0_10_9 + conn_0_1_9 + conn_0_2_9 + conn_0_3_9 + conn_0_4_9 + conn_0_5_9 + conn_0_6_9 + conn_0_7_9 + conn_0_8_9 - conn_0_9_0 - conn_0_9_1 - conn_0_9_10 - conn_0_9_2 - conn_0_9_3 - conn_0_9_4 - conn_0_9_5 - conn_0_9_6 - conn_0_9_7 - conn_0_9_8 - z_0_9 = 0
 c616: conn_0_0_10 - conn_0_10_0 - conn_0_10_1 - conn_0_10_2 - conn_0_10_3 - conn_0_10_4 - conn_0_10_5 - conn_0_10_6 - conn_0_10_7 - conn_0_10_8 - conn_0_10_9 + conn_0_1_10 + conn_0_2_10 + conn_0_3_10 + conn_0_4_10 + conn_0_5_10 + conn_0_6_10 + conn_0_7_10 + conn_0_8_10 + conn_0_9_10 - z_0_10 = 0
 c617: conn_0_0_1 + conn_0_0_10 + conn_0_0_2 + conn_0_0_3 + conn_0_0_4 + conn_0_0_5 + conn_0_0_6 + conn_0_0_7 + conn_0_0_8 + conn_0_0_9 - conn_0_10_0 - conn_0_1_0 - conn_0_2_0 - conn_0_3_0 - conn_0_4_0 - conn_0_5_0 - conn_0_6_0 - conn_0_7_0 - conn_0_8_0 - conn_0_9_0 - z_0_1 - z_0_10 - z_0_2 - z_0_3 - z_0_4 - z_0_5 - z_0_6 - z_0_7 - z_0_8 - z_0_9 = 0
 c618: z_0_1 <= 1
 c619: z_0_2 <= 1
 c620: z_0_3 <= 1
 c621: z_0_4 <= 1
 c622: z_0_5 <= 1
 c623: z_0_6 <= 1
 c624: z_0_7 <= 1
 c625: z_0_8 <= 1
 c626: z_0_9 <= 1
 c627: z_0_10 <= 1
 c628: Y_1 + Y_10 + Y_2 + Y_3 + Y_4 + Y_5 + Y_6 + Y_7 + Y_8 + Y_9 <= 174
 c629: Y_1 + Y_10 + Y_2 + Y_3 + Y_4 + Y_5 + Y_6 + Y_7 + Y_8 + Y_9 >= 154
 c630: d_0_1 - p_0_10 - p_0_2 - p_0_3 - p_0_4 - p_0_5 - p_0_6 - p_0_7 - p_0_8 - p_0_9 <= 0
 c631: d_0_2 - p_0_1 - p_0_10 - p_0_3 - p_0_4 - p_0_5 - p_0_6 - p_0_7 - p_0_8 - p_0_9 <= 0
 c632: d_0_3 - p_0_1 - p_0_10 - p_0_2 - p_0_4 - p_0_5 - p_0_6 - p_0_7 - p_0_8 - p_0_9 <= 0
 c633: d_0_4 - p_0_1 - p_0_10 - p_0_2 - p_0_3 - p_0_5 - p_0_6 - p_0_7 - p_0_8 - p_0_9 <= 0
 c634: d_0_5 - p_0_1 - p_0_10 - p_0_2 - p_0_3 - p_0_4 - p_0_6 - p_0_7 - p_0_8 - p_0_9 <= 0
 c635: d_0_6 - p_0_1 - p_0_10 - p_0_2 - p_0_3 - p_0_4 - p_0_5 - p_0_7 - p_0_8 - p_0_9 <= 0
 c636: d_0_7 - p_0_1 - p_0_10 - p_0_2 - p_0_3 - p_0_4 - p_0_5 - p_0_6 - p_0_8 - p_0_9 <= 0
 c637: d_0_8 - p_0_1 - p_0_10 - p_0_2 - p_0_3 - p_0_4 - p_0_5 - p_0_6 - p_0_7 - p_0_9 <= 0
 c638: d_0_9 - p_0_1 - p_0_10 - p_0_2 - p_0_3 - p_0_4 - p_0_5 - p_0_6 - p_0_7 - p_0_8 <= 0
 c639: d_0_10 - p_0_1 - p_0_2 - p_0_3 - p_0_4 - p_0_5 - p_0_6 - p_0_7 - p_0_8 - p_0_9 <= 0
 c640: ord_0_1 - z_0_1 >= 0
 c641: ord_0_1 - 10 z_0_1 <= 0
 c642: ord_0_2 - z_0_2 >= 0
 c643: ord_0_2 - 10 z_0_2 <= 0
 c644: ord_0_3 - z_0_3 >= 0
 c645: ord_0_3 - 10 z_0_3 <= 0
 c646: ord_0_4 - z_0_4 >= 0
 c647: ord_0_4 - 10 z_0_4 <= 0
 c648: ord_0_5 - z_0_5 >= 0
 c649: ord_0_5 - 10 z_0_5 <= 0
 c650: ord_0_6 - z_0_6 >= 0
 c651: ord_0_6 - 10 z_0_6 <= 0
 c652: ord_0_7 - z_0_7 >= 0
 c653: ord_0_7 - 10 z_0_7 <= 0
 c654: ord_0_8 - z_0_8 >= 0
 c655: ord_0_8 - 10 z_0_8 <= 0
 c656: ord_0_9 - z_0_9 >= 0
 c657: ord_0_9 - 10 z_0_9 <= 0
 c658: ord_0_10 - z_0_10 >= 0
 c659: ord_0_10 - 10 z_0_10 <= 0
 c660: ord_0_1 - ord_0_2 + 10 x_0_1_2 <= 9
 c661: ord_0_1 - ord_0_3 + 10 x_0_1_3 <= 9
 c662: ord_0_1 - ord_0_4 + 10 x_0_1_4 <= 9
 c663: ord_0_1 - ord_0_5 + 10 x_0_1_5 <= 9
 c664: ord_0_1 - ord_0_6 + 10 x_0_1_6 <= 9
 c665: ord_0_1 - ord_0_7 + 10 x_0_1_7 <= 9
 c666: ord_0_1 - ord_0_8 + 10 x_0_1_8 <= 9
 c667: ord_0_1 - ord_0_9 + 10 x_0_1_9 <= 9
 c668: ord_0_1 - ord_0_10 + 10 x_0_1_10 <= 9
 c669: - ord_0_1 + ord_0_2 + 10 x_0_2_1 <= 9
 c670: ord_0_2 - ord_0_3 + 10 x_0_2_3 <= 9
 c671: ord_0_2 - ord_0_4 + 10 x_0_2_4 <= 9
 c672: ord_0_2 - ord_0_5 + 10 x_0_2_5 <= 9
 c673: ord_0_2 - ord_0_6 + 10 x_0_2_6 <= 9
 c674: ord_0_2 - ord_0_7 + 10 x_0_2_7 <= 9
 c675: ord_0_2 - ord_0_8 + 10 x_0_2_8 <= 9
 c676: ord_0_2 - ord_0_9 + 10 x_0_2_9 <= 9
 c677: - ord_0_10 + ord_0_2 + 10 x_0_2_10 <= 9
 c678: - ord_0_1 + ord_0_3 + 10 x_0_3_1 <= 9
 c679: - ord_0_2 + ord_0_3 + 10 x_0_3_2 <= 9
 c680: ord_0_3 - ord_0_4 + 10 x_0_3_4 <= 9
 c681: ord_0_3 - ord_0_5 + 10 x_0_3_5 <= 9
 c682: ord_0_3 - ord_0_6 + 10 x_0_3_6 <= 9
 c683: ord_0_3 - ord_0_7 + 10 x_0_3_7 <= 9
 c684: ord_0_3 - ord_0_8 + 10 x_0_3_8 <= 9
 c685: ord_0_3 - ord_0_9 + 10 x_0_3_9 <= 9
 c686: - ord_0_10 + ord_0_3 + 10 x_0_3_10 <= 9
 c687: - ord_0_1 + ord_0_4 + 10 x_0_4_1 <= 9
 c688: - ord_0_2 + ord_0_4 + 10 x_0_4_2 <= 9
 c689: - ord_0_3 + ord_0_4 + 10 x_0_4_3 <= 9
 c690: ord_0_4 - ord_0_5 + 10 x_0_4_5 <= 9
 c691: ord_0_4 - ord_0_6 + 10 x_0_4_6 <= 9
 c692: ord_0_4 - ord_0_7 + 10 x_0_4_7 <= 9
 c693: ord_0_4 - ord_0_8 + 10 x_0_4_8 <= 9
 c694: ord_0_4 - ord_0_9 + 10 x_0_4_9 <= 9
 c695: - ord_0_10 + ord_0_4 + 10 x_0_4_10 <= 9
 c696: - ord_0_1 + ord_0_5 + 10 x_0_5_1 <= 9
 c697: - ord_0_2 + ord_0_5 + 10 x_0_5_2 <= 9
 c698: - ord_0_3 + ord_0_5 + 10 x_0_5_3 <= 9
 c699: - ord_0_4 + ord_0_5 + 10 x_0_5_4 <= 9
 c700: ord_0_5 - ord_0_6 + 10 x_0_5_6 <= 9
 c701: ord_0_5 - ord_0_7 + 10 x_0_5_7 <= 9
 c702: ord_0_5 - ord_0_8 + 10 x_0_5_8 <= 9
 c703: ord_0_5 - ord_0_9 + 10 x_0_5_9 <= 9
 c704: - ord_0_10 + ord_0_5 + 10 x_0_5_10 <= 9
 c705: - ord_0_1 + ord_0_6 + 10 x_0_6_1 <= 9
 c706: - ord_0_2 + ord_0_6 + 10 x_0_6_2 <= 9
 c707: - ord_0_3 + ord_0_6 + 10 x_0_6_3 <= 9
 c708: - ord_0_4 + ord_0_6 + 10 x_0_6_4 <= 9
 c709: - ord_0_5 + ord_0_6 + 10 x_0_6_5 <= 9
 c710: ord_0_6 - ord_0_7 + 10 x_0_6_7 <= 9
 c711: ord_0_6 - ord_0_8 + 10 x_0_6_8 <= 9
 c712: ord_0_6 - ord_0_9 + 10 x_0_6_9 <= 9
 c713: - ord_0_10 + ord_0_6 + 10 x_0_6_10 <= 9
 c714: - ord_0_1 + ord_0_7 + 10 x_0_7_1 <= 9
 c715: - ord_0_2 + ord_0_7 + 10 x_0_7_2 <= 9
 c716: - ord_0_3 + ord_0_7 + 10 x_0_7_3 <= 9
 c717: - ord_0_4 + ord_0_7 + 10 x_0_7_4 <= 9
 c718: - ord_0_5 + ord_0_7 + 10 x_0_7_5 <= 9
 c719: - ord_0_6 + ord_0_7 + 10 x_0_7_6 <= 9
 c720: ord_0_7 - ord_0_8 + 10 x_0_7_8 <= 9
 c721: ord_0_7 - ord_0_9 + 10 x_0_7_9 <= 9
 c722: - ord_0_10 + ord_0_7 + 10 x_0_7_10 <= 9
 c723: - ord_0_1 + ord_0_8 + 10 x_0_8_1 <= 9
 c724: - ord_0_2 + ord_0_8 + 10 x_0_8_2 <= 9
 c725: - ord_0_3 + ord_0_8 + 10 x_0_8_3 <= 9
 c726: - ord_0_4 + ord_0_8 + 10 x_0_8_4 <= 9
 c727: - ord_0_5 + ord_0_8 + 10 x_0_8_5 <= 9
 c728: - ord_0_6 + ord_0_8 + 10 x_0_8_6 <= 9
 c729: - ord_0_7 + ord_0_8 + 10 x_0_8_7 <= 9
 c730: ord_0_8 - ord_0_9 + 10 x_0_8_9 <= 9
 c731: - ord_0_10 + ord_0_8 + 10 x_0_8_10 <= 9
 c732: - ord_0_1 + ord_0_9 + 10 x_0_9_1 <= 9
 c733: - ord_0_2 + ord_0_9 + 10 x_0_9_2 <= 9
 c734: - ord_0_3 + ord_0_9 + 10 x_0_9_3 <= 9
 c735: - ord_0_4 + ord_0_9 + 10 x_0_9_4 <= 9
 c736: - ord_0_5 + ord_0_9 + 10 x_0_9_5 <= 9
 c737: - ord_0_6 + ord_0_9 + 10 x_0_9_6 <= 9
 c738: - ord_0_7 + ord_0_9 + 10 x_0_9_7 <= 9
 c739: - ord_0_8 + ord_0_9 + 10 x_0_9_8 <= 9
 c740: - ord_0_10 + ord_0_9 + 10 x_0_9_10 <= 9
 c741: - ord_0_1 + ord_0_10 + 10 x_0_10_1 <= 9
 c742: ord_0_10 - ord_0_2 + 10 x_0_10_2 <= 9
 c743: ord_0_10 - ord_0_3 + 10 x_0_10_3 <= 9
 c744: ord_0_10 - ord_0_4 + 10 x_0_10_4 <= 9
 c745: ord_0_10 - ord_0_5 + 10 x_0_10_5 <= 9
 c746: ord_0_10 - ord_0_6 + 10 x_0_10_6 <= 9
 c747: ord_0_10 - ord_0_7 + 10 x_0_10_7 <= 9
 c748: ord_0_10 - ord_0_8 + 10 x_0_10_8 <= 9
 c749: ord_0_10 - ord_0_9 + 10 x_0_10_9 <= 9
 c750: p_0_1 - 19 z_0_1 <= 0
 c751: d_0_1 - 13 z_0_1 <= 0
 c752: mode_0_1 - z_0_1 <= 0
 c753: - 19 mode_0_1 + p_0_1 <= 0
 c754: d_0_1 + 13 mode_0_1 - 13 z_0_1 <= 0
 c755: d_0_1 + p_0_1 - z_0_1 >= 0
 c756: load_0_1 - 20 z_0_1 <= 0
 c757: p_0_2 - 20 z_0_2 <= 0
 c758: d_0_2 - 8 z_0_2 <= 0
 c759: mode_0_2 - z_0_2 <= 0
 c760: - 20 mode_0_2 + p_0_2 <= 0
 c761: d_0_2 + 8 mode_0_2 - 8 z_0_2 <= 0
 c762: d_0_2 + p_0_2 - z_0_2 >= 0
 c763: load_0_2 - 20 z_0_2 <= 0
 c764: p_0_3 - 20 z_0_3 <= 0
 c765: d_0_3 - 20 z_0_3 <= 0
 c766: mode_0_3 - z_0_3 <= 0
 c767: - 20 mode_0_3 + p_0_3 <= 0
 c768: d_0_3 + 20 mode_0_3 - 20 z_0_3 <= 0
 c769: d_0_3 + p_0_3 - z_0_3 >= 0
 c770: load_0_3 - 20 z_0_3 <= 0
 c771: p_0_4 - 9 z_0_4 <= 0
 c772: d_0_4 - 20 z_0_4 <= 0
 c773: mode_0_4 - z_0_4 <= 0
 c774: - 9 mode_0_4 + p_0_4 <= 0
 c775: d_0_4 + 20 mode_0_4 - 20 z_0_4 <= 0
 c776: d_0_4 + p_0_4 - z_0_4 >= 0
 c777: load_0_4 - 20 z_0_4 <= 0
 c778: p_0_5 - 15 z_0_5 <= 0
 c779: d_0_5 - 20 z_0_5 <= 0
 c780: mode_0_5 - z_0_5 <= 0
 c781: - 15 mode_0_5 + p_0_5 <= 0
 c782: d_0_5 + 20 mode_0_5 - 20 z_0_5 <= 0
 c783: d_0_5 + p_0_5 - z_0_5 >= 0
 c784: load_0_5 - 20 z_0_5 <= 0
 c785: p_0_6 - 20 z_0_6 <= 0
 c786: d_0_6 - 3 z_0_6 <= 0
 c787: mode_0_6 - z_0_6 <= 0
 c788: - 20 mode_0_6 + p_0_6 <= 0
 c789: d_0_6 + 3 mode_0_6 - 3 z_0_6 <= 0
 c790: d_0_6 + p_0_6 - z_0_6 >= 0
 c791: load_0_6 - 20 z_0_6 <= 0
 c792: p_0_7 - 18 z_0_7 <= 0
 c793: d_0_7 - 6 z_0_7 <= 0
 c794: mode_0_7 - z_0_7 <= 0
 c795: - 18 mode_0_7 + p_0_7 <= 0
 c796: d_0_7 + 6 mode_0_7 - 6 z_0_7 <= 0
 c797: d_0_7 + p_0_7 - z_0_7 >= 0
 c798: load_0_7 - 20 z_0_7 <= 0
 c799: p_0_8 - 14 z_0_8 <= 0
 c800: d_0_8 - 20 z_0_8 <= 0
 c801: mode_0_8 - z_0_8 <= 0
 c802: - 14 mode_0_8 + p_0_8 <= 0
 c803: d_0_8 + 20 mode_0_8 - 20 z_0_8 <= 0
 c804: d_0_8 + p_0_8 - z_0_8 >= 0
 c805: load_0_8 - 20 z_0_8 <= 0
 c806: p_0_9 - 4 z_0_9 <= 0
 c807: d_0_9 - 19 z_0_9 <= 0
 c808: mode_0_9 - z_0_9 <= 0
 c809: - 4 mode_0_9 + p_0_9 <= 0
 c810: d_0_9 + 19 mode_0_9 - 19 z_0_9 <= 0
 c811: d_0_9 + p_0_9 - z_0_9 >= 0
 c812: load_0_9 - 20 z_0_9 <= 0
 c813: p_0_10 - 2 z_0_10 <= 0
 c814: d_0_10 - 20 z_0_10 <= 0
 c815: mode_0_10 - z_0_10 <= 0
 c816: - 2 mode_0_10 + p_0_10 <= 0
 c817: d_0_10 + 20 mode_0_10 - 20 z_0_10 <= 0
 c818: d_0_10 + p_0_10 - z_0_10 >= 0
 c819: load_0_10 - 20 z_0_10 <= 0
 c820: d_0_1 + load_0_1 - p_0_1 + 20 x_0_0_1 <= 20
 c821: d_0_1 + load_0_1 - p_0_1 - 20 x_0_0_1 >= -20
 c822: d_0_2 + load_0_2 - p_0_2 + 20 x_0_0_2 <= 20
 c823: d_0_2 + load_0_2 - p_0_2 - 20 x_0_0_2 >= -20
 c824: d_0_3 + load_0_3 - p_0_3 + 20 x_0_0_3 <= 20
 c825: d_0_3 + load_0_3 - p_0_3 - 20 x_0_0_3 >= -20
 c826: d_0_4 + load_0_4 - p_0_4 + 20 x_0_0_4 <= 20
 c827: d_0_4 + load_0_4 - p_0_4 - 20 x_0_0_4 >= -20
 c828: d_0_5 + load_0_5 - p_0_5 + 20 x_0_0_5 <= 20
 c829: d_0_5 + load_0_5 - p_0_5 - 20 x_0_0_5 >= -20
 c830: d_0_6 + load_0_6 - p_0_6 + 20 x_0_0_6 <= 20
 c831: d_0_6 + load_0_6 - p_0_6 - 20 x_0_0_6 >= -20
 c832: d_0_7 + load_0_7 - p_0_7 + 20 x_0_0_7 <= 20
 c833: d_0_7 + load_0_7 - p_0_7 - 20 x_0_0_7 >= -20
 c834: d_0_8 + load_0_8 - p_0_8 + 20 x_0_0_8 <= 20
 c835: d_0_8 + load_0_8 - p_0_8 - 20 x_0_0_8 >= -20
 c836: d_0_9 + load_0_9 - p_0_9 + 20 x_0_0_9 <= 20
 c837: d_0_9 + load_0_9 - p_0_9 - 20 x_0_0_9 >= -20
 c838: d_0_10 + load_0_10 - p_0_10 + 20 x_0_0_10 <= 20
 c839: d_0_10 + load_0_10 - p_0_10 - 20 x_0_0_10 >= -20
 c840: d_0_2 - load_0_1 + load_0_2 - p_0_2 + 20 x_0_1_2 <= 20
 c841: d_0_2 - load_0_1 + load_0_2 - p_0_2 - 20 x_0_1_2 >= -20
 c842: d_0_3 - load_0_1 + load_0_3 - p_0_3 + 20 x_0_1_3 <= 20
 c843: d_0_3 - load_0_1 + load_0_3 - p_0_3 - 20 x_0_1_3 >= -20
 c844: d_0_4 - load_0_1 + load_0_4 - p_0_4 + 20 x_0_1_4 <= 20
 c845: d_0_4 - load_0_1 + load_0_4 - p_0_4 - 20 x_0_1_4 >= -20
 c846: d_0_5 - load_0_1 + load_0_5 - p_0_5 + 20 x_0_1_5 <= 20
 c847: d_0_5 - load_0_1 + load_0_5 - p_0_5 - 20 x_0_1_5 >= -20
 c848: d_0_6 - load_0_1 + load_0_6 - p_0_6 + 20 x_0_1_6 <= 20
 c849: d_0_6 - load_0_1 + load_0_6 - p_0_6 - 20 x_0_1_6 >= -20
 c850: d_0_7 - load_0_1 + load_0_7 - p_0_7 + 20 x_0_1_7 <= 20
 c851: d_0_7 - load_0_1 + load_0_7 - p_0_7 - 20 x_0_1_7 >= -20
 c852: d_0_8 - load_0_1 + load_0_8 - p_0_8 + 20 x_0_1_8 <= 20
 c853: d_0_8 - load_0_1 + load_0_8 - p_0_8 - 20 x_0_1_8 >= -20
 c854: d_0_9 - load_0_1 + load_0_9 - p_0_9 + 20 x_0_1_9 <= 20
 c855: d_0_9 - load_0_1 + load_0_9 - p_0_9 - 20 x_0_1_9 >= -20
 c856: d_0_10 - load_0_1 + load_0_10 - p_0_10 + 20 x_0_1_10 <= 20
 c857: d_0_10 - load_0_1 + load_0_10 - p_0_10 - 20 x_0_1_10 >= -20
 c858: d_0_1 + load_0_1 - load_0_2 - p_0_1 + 20 x_0_2_1 <= 20
 c859: d_0_1 + load_0_1 - load_0_2 - p_0_1 - 20 x_0_2_1 >= -20
 c860: d_0_3 - load_0_2 + load_0_3 - p_0_3 + 20 x_0_2_3 <= 20
 c861: d_0_3 - load_0_2 + load_0_3 - p_0_3 - 20 x_0_2_3 >= -20
 c862: d_0_4 - load_0_2 + load_0_4 - p_0_4 + 20 x_0_2_4 <= 20
 c863: d_0_4 - load_0_2 + load_0_4 - p_0_4 - 20 x_0_2_4 >= -20
 c864: d_0_5 - load_0_2 + load_0_5 - p_0_5 + 20 x_0_2_5 <= 20
 c865: d_0_5 - load_0_2 + load_0_5 - p_0_5 - 20 x_0_2_5 >= -20
 c866: d_0_6 - load_0_2 + load_0_6 - p_0_6 + 20 x_0_2_6 <= 20
 c867: d_0_6 - load_0_2 + load_0_6 - p_0_6 - 20 x_0_2_6 >= -20
 c868: d_0_7 - load_0_2 + load_0_7 - p_0_7 + 20 x_0_2_7 <= 20
 c869: d_0_7 - load_0_2 + load_0_7 - p_0_7 - 20 x_0_2_7 >= -20
 c870: d_0_8 - load_0_2 + load_0_8 - p_0_8 + 20 x_0_2_8 <= 20
 c871: d_0_8 - load_0_2 + load_0_8 - p_0_8 - 20 x_0_2_8 >= -20
 c872: d_0_9 - load_0_2 + load_0_9 - p_0_9 + 20 x_0_2_9 <= 20
 c873: d_0_9 - load_0_2 + load_0_9 - p_0_9 - 20 x_0_2_9 >= -20
 c874: d_0_10 + load_0_10 - load_0_2 - p_0_10 + 20 x_0_2_10 <= 20
 c875: d_0_10 + load_0_10 - load_0_2 - p_0_10 - 20 x_0_2_10 >= -20
 c876: d_0_1 + load_0_1 - load_0_3 - p_0_1 + 20 x_0_3_1 <= 20
 c877: d_0_1 + load_0_1 - load_0_3 - p_0_1 - 20 x_0_3_1 >= -20
 c878: d_0_2 + load_0_2 - load_0_3 - p_0_2 + 20 x_0_3_2 <= 20
 c879: d_0_2 + load_0_2 - load_0_3 - p_0_2 - 20 x_0_3_2 >= -20
 c880: d_0_4 - load_0_3 + load_0_4 - p_0_4 + 20 x_0_3_4 <= 20
 c881: d_0_4 - load_0_3 + load_0_4 - p_0_4 - 20 x_0_3_4 >= -20
 c882: d_0_5 - load_0_3 + load_0_5 - p_0_5 + 20 x_0_3_5 <= 20
 c883: d_0_5 - load_0_3 + load_0_5 - p_0_5 - 20 x_0_3_5 >= -20
 c884: d_0_6 - load_0_3 + load_0_6 - p_0_6 + 20 x_0_3_6 <= 20
 c885: d_0_6 - load_0_3 + load_0_6 - p_0_6 - 20 x_0_3_6 >= -20
 c886: d_0_7 - load_0_3 + load_0_7 - p_0_7 + 20 x_0_3_7 <= 20
 c887: d_0_7 - load_0_3 + load_0_7 - p_0_7 - 20 x_0_3_7 >= -20
 c888: d_0_8 - load_0_3 + load_0_8 - p_0_8 + 20 x_0_3_8 <= 20
 c889: d_0_8 - load_0_3 + load_0_8 - p_0_8 - 20 x_0_3_8 >= -20
 c890: d_0_9 - load_0_3 + load_0_9 - p_0_9 + 20 x_0_3_9 <= 20
 c891: d_0_9 - load_0_3 + load_0_9 - p_0_9 - 20 x_0_3_9 >= -20
 c892: d_0_10 + load_0_10 - load_0_3 - p_0_10 + 20 x_0_3_10 <= 20
 c893: d_0_10 + load_0_10 - load_0_3 - p_0_10 - 20 x_0_3_10 >= -20
 c894: d_0_1 + load_0_1 - load_0_4 - p_0_1 + 20 x_0_4_1 <= 20
 c895: d_0_1 + load_0_1 - load_0_4 - p_0_1 - 20 x_0_4_1 >= -20
 c896: d_0_2 + load_0_2 - load_0_4 - p_0_2 + 20 x_0_4_2 <= 20
 c897: d_0_2 + load_0_2 - load_0_4 - p_0_2 - 20 x_0_4_2 >= -20
 c898: d_0_3 + load_0_3 - load_0_4 - p_0_3 + 20 x_0_4_3 <= 20
 c899: d_0_3 + load_0_3 - load_0_4 - p_0_3 - 20 x_0_4_3 >= -20
 c900: d_0_5 - load_0_4 + load_0_5 - p_0_5 + 20 x_0_4_5 <= 20
 c901: d_0_5 - load_0_4 + load_0_5 - p_0_5 - 20 x_0_4_5 >= -20
 c902: d_0_6 - load_0_4 + load_0_6 - p_0_6 + 20 x_0_4_6 <= 20
 c903: d_0_6 - load_0_4 + load_0_6 - p_0_6 - 20 x_0_4_6 >= -20
 c904: d_0_7 - load_0_4 + load_0_7 - p_0_7 + 20 x_0_4_7 <= 20
 c905: d_0_7 - load_0_4 + load_0_7 - p_0_7 - 20 x_0_4_7 >= -20
 c906: d_0_8 - load_0_4 + load_0_8 - p_0_8 + 20 x_0_4_8 <= 20
 c907: d_0_8 - load_0_4 + load_0_8 - p_0_8 - 20 x_0_4_8 >= -20
 c908: d_0_9 - load_0_4 + load_0_9 - p_0_9 + 20 x_0_4_9 <= 20
 c909: d_0_9 - load_0_4 + load_0_9 - p_0_9 - 20 x_0_4_9 >= -20
 c910: d_0_10 + load_0_10 - load_0_4 - p_0_10 + 20 x_0_4_10 <= 20
 c911: d_0_10 + load_0_10 - load_0_4 - p_0_10 - 20 x_0_4_10 >= -20
 c912: d_0_1 + load_0_1 - load_0_5 - p_0_1 + 20 x_0_5_1 <= 20
 c913: d_0_1 + load_0_1 - load_0_5 - p_0_1 - 20 x_0_5_1 >= -20
 c914: d_0_2 + load_0_2 - load_0_5 - p_0_2 + 20 x_0_5_2 <= 20
 c915: d_0_2 + load_0_2 - load_0_5 - p_0_2 - 20 x_0_5_2 >= -20
 c916: d_0_3 + load_0_3 - load_0_5 - p_0_3 + 20 x_0_5_3 <= 20
 c917: d_0_3 + load_0_3 - load_0_5 - p_0_3 - 20 x_0_5_3 >= -20
 c918: d_0_4 + load_0_4 - load_0_5 - p_0_4 + 20 x_0_5_4 <= 20
 c919: d_0_4 + load_0_4 - load_0_5 - p_0_4 - 20 x_0_5_4 >= -20
 c920: d_0_6 - load_0_5 + load_0_6 - p_0_6 + 20 x_0_5_6 <= 20
 c921: d_0_6 - load_0_5 + load_0_6 - p_0_6 - 20 x_0_5_6 >= -20
 c922: d_0_7 - load_0_5 + load_0_7 - p_0_7 + 20 x_0_5_7 <= 20
 c923: d_0_7 - load_0_5 + load_0_7 - p_0_7 - 20 x_0_5_7 >= -20
 c924: d_0_8 - load_0_5 + load_0_8 - p_0_8 + 20 x_0_5_8 <= 20
 c925: d_0_8 - load_0_5 + load_0_8 - p_0_8 - 20 x_0_5_8 >= -20
 c926: d_0_9 - load_0_5 + load_0_9 - p_0_9 + 20 x_0_5_9 <= 20
 c927: d_0_9 - load_0_5 + load_0_9 - p_0_9 - 20 x_0_5_9 >= -20
 c928: d_0_10 + load_0_10 - load_0_5 - p_0_10 + 20 x_0_5_10 <= 20
 c929: d_0_10 + load_0_10 - load_0_5 - p_0_10 - 20 x_0_5_10 >= -20
 c930: d_0_1 + load_0_1 - load_0_6 - p_0_1 + 20 x_0_6_1 <= 20
 c931: d_0_1 + load_0_1 - load_0_6 - p_0_1 - 20 x_0_6_1 >= -20
 c932: d_0_2 + load_0_2 - load_0_6 - p_0_2 + 20 x_0_6_2 <= 20
 c933: d_0_2 + load_0_2 - load_0_6 - p_0_2 - 20 x_0_6_2 >= -20
 c934: d_0_3 + load_0_3 - load_0_6 - p_0_3 + 20 x_0_6_3 <= 20
 c935: d_0_3 + load_0_3 - load_0_6 - p_0_3 - 20 x_0_6_3 >= -20
 c936: d_0_4 + load_0_4 - load_0_6 - p_0_4 + 20 x_0_6_4 <= 20
 c937: d_0_4 + load_0_4 - load_0_6 - p_0_4 - 20 x_0_6_4 >= -20
 c938: d_0_5 + load_0_5 - load_0_6 - p_0_5 + 20 x_0_6_5 <= 20
 c939: d_0_5 + load_0_5 - load_0_6 - p_0_5 - 20 x_0_6_5 >= -20
 c940: d_0_7 - load_0_6 + load_0_7 - p_0_7 + 20 x_0_6_7 <= 20
 c941: d_0_7 - load_0_6 + load_0_7 - p_0_7 - 20 x_0_6_7 >= -20
 c942: d_0_8 - load_0_6 + load_0_8 - p_0_8 + 20 x_0_6_8 <= 20
 c943: d_0_8 - load_0_6 + load_0_8 - p_0_8 - 20 x_0_6_8 >= -20
 c944: d_0_9 - load_0_6 + load_0_9 - p_0_9 + 20 x_0_6_9 <= 20
 c945: d_0_9 - load_0_6 + load_0_9 - p_0_9 - 20 x_0_6_9 >= -20
 c946: d_0_10 + load_0_10 - load_0_6 - p_0_10 + 20 x_0_6_10 <= 20
 c947: d_0_10 + load_0_10 - load_0_6 - p_0_10 - 20 x_0_6_10 >= -20
 c948: d_0_1 + load_0_1 - load_0_7 - p_0_1 + 20 x_0_7_1 <= 20
 c949: d_0_1 + load_0_1 - load_0_7 - p_0_1 - 20 x_0_7_1 >= -20
 c950: d_0_2 + load_0_2 - load_0_7 - p_0_2 + 20 x_0_7_2 <= 20
 c951: d_0_2 + load_0_2 - load_0_7 - p_0_2 - 20 x_0_7_2 >= -20
 c952: d_0_3 + load_0_3 - load_0_7 - p_0_3 + 20 x_0_7_3 <= 20
 c953: d_0_3 + load_0_3 - load_0_7 - p_0_3 - 20 x_0_7_3 >= -20
 c954: d_0_4 + load_0_4 - load_0_7 - p_0_4 + 20 x_0_7_4 <= 20
 c955: d_0_4 + load_0_4 - load_0_7 - p_0_4 - 20 x_0_7_4 >= -20
 c956: d_0_5 + load_0_5 - load_0_7 - p_0_5 + 20 x_0_7_5 <= 20
 c957: d_0_5 + load_0_5 - load_0_7 - p_0_5 - 20 x_0_7_5 >= -20
 c958: d_0_6 + load_0_6 - load_0_7 - p_0_6 + 20 x_0_7_6 <= 20
 c959: d_0_6 + load_0_6 - load_0_7 - p_0_6 - 20 x_0_7_6 >= -20
 c960: d_0_8 - load_0_7 + load_0_8 - p_0_8 + 20 x_0_7_8 <= 20
 c961: d_0_8 - load_0_7 + load_0_8 - p_0_8 - 20 x_0_7_8 >= -20
 c962: d_0_9 - load_0_7 + load_0_9 - p_0_9 + 20 x_0_7_9 <= 20
 c963: d_0_9 - load_0_7 + load_0_9 - p_0_9 - 20 x_0_7_9 >= -20
 c964: d_0_10 + load_0_10 - load_0_7 - p_0_10 + 20 x_0_7_10 <= 20
 c965: d_0_10 + load_0_10 - load_0_7 - p_0_10 - 20 x_0_7_10 >= -20
 c966: d_0_1 + load_0_1 - load_0_8 - p_0_1 + 20 x_0_8_1 <= 20
 c967: d_0_1 + load_0_1 - load_0_8 - p_0_1 - 20 x_0_8_1 >= -20
 c968: d_0_2 + load_0_2 - load_0_8 - p_0_2 + 20 x_0_8_2 <= 20
 c969: d_0_2 + load_0_2 - load_0_8 - p_0_2 - 20 x_0_8_2 >= -20
 c970: d_0_3 + load_0_3 - load_0_8 - p_0_3 + 20 x_0_8_3 <= 20
 c971: d_0_3 + load_0_3 - load_0_8 - p_0_3 - 20 x_0_8_3 >= -20
 c972: d_0_4 + load_0_4 - load_0_8 - p_0_4 + 20 x_0_8_4 <= 20
 c973: d_0_4 + load_0_4 - load_0_8 - p_0_4 - 20 x_0_8_4 >= -20
 c974: d_0_5 + load_0_5 - load_0_8 - p_0_5 + 20 x_0_8_5 <= 20
 c975: d_0_5 + load_0_5 - load_0_8 - p_0_5 - 20 x_0_8_5 >= -20
 c976: d_0_6 + load_0_6 - load_0_8 - p_0_6 + 20 x_0_8_6 <= 20
 c977: d_0_6 + load_0_6 - load_0_8 - p_0_6 - 20 x_0_8_6 >= -20
 c978: d_0_7 + load_0_7 - load_0_8 - p_0_7 + 20 x_0_8_7 <= 20
 c979: d_0_7 + load_0_7 - load_0_8 - p_0_7 - 20 x_0_8_7 >= -20
 c980: d_0_9 - load_0_8 + load_0_9 - p_0_9 + 20 x_0_8_9 <= 20
 c981: d_0_9 - load_0_8 + load_0_9 - p_0_9 - 20 x_0_8_9 >= -20
 c982: d_0_10 + load_0_10 - load_0_8 - p_0_10 + 20 x_0_8_10 <= 20
 c983: d_0_10 + load_0_10 - load_0_8 - p_0_10 - 20 x_0_8_10 >= -20
 c984: d_0_1 + load_0_1 - load_0_9 - p_0_1 + 20 x_0_9_1 <= 20
 c985: d_0_1 + load_0_1 - load_0_9 - p_0_1 - 20 x_0_9_1 >= -20
 c986: d_0_2 + load_0_2 - load_0_9 - p_0_2 + 20 x_0_9_2 <= 20
 c987: d_0_2 + load_0_2 - load_0_9 - p_0_2 - 20 x_0_9_2 >= -20
 c988: d_0_3 + load_0_3 - load_0_9 - p_0_3 + 20 x_0_9_3 <= 20
 c989: d_0_3 + load_0_3 - load_0_9 - p_0_3 - 20 x_0_9_3 >= -20
 c990: d_0_4 + load_0_4 - load_0_9 - p_0_4 + 20 x_0_9_4 <= 20
 c991: d_0_4 + load_0_4 - load_0_9 - p_0_4 - 20 x_0_9_4 >= -20
 c992: d_0_5 + load_0_5 - load_0_9 - p_0_5 + 20 x_0_9_5 <= 20
 c993: d_0_5 + load_0_5 - load_0_9 - p_0_5 - 20 x_0_9_5 >= -20
 c994: d_0_6 + load_0_6 - load_0_9 - p_0_6 + 20 x_0_9_6 <= 20
 c995: d_0_6 + load_0_6 - load_0_9 - p_0_6 - 20 x_0_9_6 >= -20
 c996: d_0_7 + load_0_7 - load_0_9 - p_0_7 + 20 x_0_9_7 <= 20
 c997: d_0_7 + load_0_7 - load_0_9 - p_0_7 - 20 x_0_9_7 >= -20
 c998: d_0_8 + load_0_8 - load_0_9 - p_0_8 + 20 x_0_9_8 <= 20
 c999: d_0_8 + load_0_8 - load_0_9 - p_0_8 - 20 x_0_9_8 >= -20
 c1000: d_0_10 + load_0_10 - load_0_9 - p_0_10 + 20 x_0_9_10 <= 20
 c1001: d_0_10 + load_0_10 - load_0_9 - p_0_10 - 20 x_0_9_10 >= -20
 c1002: d_0_1 + load_0_1 - load_0_10 - p_0_1 + 20 x_0_10_1 <= 20
 c1003: d_0_1 + load_0_1 - load_0_10 - p_0_1 - 20 x_0_10_1 >= -20
 c1004: d_0_2 - load_0_10 + load_0_2 - p_0_2 + 20 x_0_10_2 <= 20
 c1005: d_0_2 - load_0_10 + load_0_2 - p_0_2 - 20 x_0_10_2 >= -20
 c1006: d_0_3 - load_0_10 + load_0_3 - p_0_3 + 20 x_0_10_3 <= 20
 c1007: d_0_3 - load_0_10 + load_0_3 - p_0_3 - 20 x_0_10_3 >= -20
 c1008: d_0_4 - load_0_10 + load_0_4 - p_0_4 + 20 x_0_10_4 <= 20
 c1009: d_0_4 - load_0_10 + load_0_4 - p_0_4 - 20 x_0_10_4 >= -20
 c1010: d_0_5 - load_0_10 + load_0_5 - p_0_5 + 20 x_0_10_5 <= 20
 c1011: d_0_5 - load_0_10 + load_0_5 - p_0_5 - 20 x_0_10_5 >= -20
 c1012: d_0_6 - load_0_10 + load_0_6 - p_0_6 + 20 x_0_10_6 <= 20
 c1013: d_0_6 - load_0_10 + load_0_6 - p_0_6 - 20 x_0_10_6 >= -20
 c1014: d_0_7 - load_0_10 + load_0_7 - p_0_7 + 20 x_0_10_7 <= 20
 c1015: d_0_7 - load_0_10 + load_0_7 - p_0_7 - 20 x_0_10_7 >= -20
 c1016: d_0_8 - load_0_10 + load_0_8 - p_0_8 + 20 x_0_10_8 <= 20
 c1017: d_0_8 - load_0_10 + load_0_8 - p_0_8 - 20 x_0_10_8 >= -20
 c1018: d_0_9 - load_0_10 + load_0_9 - p_0_9 + 20 x_0_10_9 <= 20
 c1019: d_0_9 - load_0_10 + load_0_9 - p_0_9 - 20 x_0_10_9 >= -20
 c1020: - d_0_1 - d_0_10 - d_0_2 - d_0_3 - d_0_4 - d_0_5 - d_0_6 - d_0_7 - d_0_8 - d_0_9 + p_0_1 + p_0_10 + p_0_2 + p_0_3 + p_0_4 + p_0_5 + p_0_6 + p_0_7 + p_0_8 + p_0_9 >= 0
 c1021: 120 p_0_1 + 120 p_0_10 + 120 p_0_2 + 120 p_0_3 + 120 p_0_4 + 120 p_0_5 + 120 p_0_6 + 120 p_0_7 + 120 p_0_8 + 120 p_0_9 + 305.15521216232281 x_0_0_1 + 264.88743558566074 x_0_0_10 + 179.56692366790435 x_0_0_2 + 330.38229503252586 x_0_0_3 + 240.12810252029908 x_0_0_4 + 174.1953160461693 x_0_0_5 + 272.88475207614295 x_0_0_6 + 314.9876898598456 x_0_0_7 + 164.69217405678077 x_0_0_8 + 279.51362866308892 x_0_0_9 + 264.88743558566074 x_0_10_0 + 52.994533235946257 x_0_10_1 + 404.17962212909407 x_0_10_2 + 485.58436158444101 x_0_10_3 + 42.466030869227382 x_0_10_4 + 386.46366049385529 x_0_10_5 + 498.08389606818599 x_0_10_6 + 79.682181184051103 x_0_10_7 + 392.78254670038103 x_0_10_8 + 473.6306865555876 x_0_10_9 + 305.15521216232281 x_0_1_0 + 52.994533235946257 x_0_1_10 + 429.98651913177622 x_0_1_2 + 538.45923288198821 x_0_1_3 + 95.315182850423966 x_0_1_4 + 410.37847943641731 x_0_1_5 + 547.69024555195369 x_0_1_6 + 30.650073800939619 x_0_1_7 + 419.77146791449712 x_0_1_8 + 525.26344660777852 x_0_1_9 + 179.56692366790435 x_0_2_0 + 429.98651913177622 x_0_2_1 + 404.17962212909407 x_0_2_10 + 450.65841255255094 x_0_2_3 + 392.01985501014241 x_0_2_4 + 24.915847879183904 x_0_2_5 + 338.12955787880901 x_0_2_6 + 428.66137603841213 x_0_2_7 + 15.137677761166719 x_0_2_8 + 378.79285388138896 x_0_2_9 + 330.38229503252586 x_0_3_0 + 538.45923288198821 x_0_3_1 + 485.58436158444101 x_0_3_10 + 450.65841255255094 x_0_3_2 + 443.88505243007711 x_0_3_4 + 460.7319421776678 x_0_3_5 + 150.91223393445958 x_0_3_6 + 562.13430297391278 x_0_3_7 + 437.4192614647086 x_0_3_8 + 81.67734110641787 x_0_3_9 + 240.12810252029908 x_0_4_0 + 95.315182850423966 x_0_4_1 + 42.466030869227382 x_0_4_10 + 392.01985501014241 x_0_4_2 + 443.88505243007711 x_0_4_3 + 376.24139823321428 x_0_4_5 + 461.02363777687401 x_0_4_6 + 121.944130515472 x_0_4_7 + 379.65492612395457 x_0_4_8 + 433.99213098131094 x_0_4_9 + 174.1953160461693 x_0_5_0 + 410.37847943641731 x_0_5_1 + 386.46366049385529 x_0_5_10 + 24.915847879183904 x_0_5_2 + 460.7319421776678 x_0_5_3 + 376.24139823321428 x_0_5_4 + 353.75318468232553 x_0_5_6 + 407.98420986517203 x_0_5_7 + 27.738553883362965 x_0_5_8 + 391.03158522305461 x_0_5_9 + 272.88475207614295 x_0_6_0 + 547.69024555195369 x_0_6_1 + 498.08389606818599 x_0_6_10 + 338.12955787880901 x_0_6_2 + 150.91223393445958 x_0_6_3 + 461.02363777687401 x_0_6_4 + 353.75318468232553 x_0_6_5 + 565.23043772332323 x_0_6_7 + 327.28400317654956 x_0_6_8 + 71.448934569453442 x_0_6_9 + 314.9876898598456 x_0_7_0 + 30.650073800939619 x_0_7_1 + 79.682181184051103 x_0_7_10 + 428.66137603841213 x_0_7_2 + 562.13430297391278 x_0_7_3 + 121.944130515472 x_0_7_4 + 407.98420986517203 x_0_7_5 + 565.23043772332323 x_0_7_6 + 419.27887041822038 x_0_7_8 + 545.80600079857629 x_0_7_9 + 164.69217405678077 x_0_8_0 + 419.77146791449712 x_0_8_1 + 392.78254670038103 x_0_8_10 + 15.137677761166719 x_0_8_2 + 437.4192614647086 x_0_8_3 + 379.65492612395457 x_0_8_4 + 27.738553883362965 x_0_8_5 + 327.28400317654956 x_0_8_6 + 419.27887041822038 x_0_8_7 + 366.32857145403972 x_0_8_9 + 279.51362866308892 x_0_9_0 + 525.26344660777852 x_0_9_1 + 473.6306865555876 x_0_9_10 + 378.79285388138896 x_0_9_2 + 81.67734110641787 x_0_9_3 + 433.99213098131094 x_0_9_4 + 391.03158522305461 x_0_9_5 + 71.448934569453442 x_0_9_6 + 545.80600079857629 x_0_9_7 + 366.32857145403972 x_0_9_8 <= 2400
 c1022: 120 p_0_1 + 100000 z_0_1 <= 101789.68957567535
 c1023: 120 p_0_2 + 100000 z_0_2 <= 102040.8661526642
 c1024: 120 p_0_1 + 120 p_0_2 + 100000 z_0_1 + 100000 z_0_2 <= 201485.29134503799
 c1025: 120 p_0_3 + 100000 z_0_3 <= 101739.23540993495
 c1026: 120 p_0_1 + 120 p_0_3 + 100000 z_0_1 + 100000 z_0_3 <= 201226.00325992316
 c1027: 120 p_0_2 + 120 p_0_3 + 100000 z_0_2 + 100000 z_0_3 <= 201439.39236874701
 c1028: 120 p_0_1 + 120 p_0_2 + 120 p_0_3 + 100000 z_0_1 + 100000 z_0_2 + 100000 z_0_3 <= 300926.16021873523
 c1029: 120 p_0_4 + 100000 z_0_4 <= 101919.7437949594
 c1030: 120 p_0_1 + 120 p_0_4 + 100000 z_0_1 + 100000 z_0_4 <= 201759.40150246696
 c1031: 120 p_0_2 + 120 p_0_4 + 100000 z_0_2 + 100000 z_0_4 <= 201588.28511880166
 c1032: 120 p_0_1 + 120 p_0_2 + 120 p_0_4 + 100000 z_0_1 + 100000 z_0_2 + 100000 z_0_4 <= 301455.00327182957
 c1033: 120 p_0_3 + 120 p_0_4 + 100000 z_0_3 + 100000 z_0_4 <= 201385.6045500171
 c1034: 120 p_0_1 + 120 p_0_3 + 120 p_0_4 + 100000 z_0_1 + 100000 z_0_3 + 100000 z_0_4 <= 301225.26225752465
 c1035: 120 p_0_2 + 120 p_0_3 + 120 p_0_4 + 100000 z_0_2 + 100000 z_0_3 + 100000 z_0_4 <= 301085.76150882919
 c1036: 120 p_0_1 + 120 p_0_2 + 120 p_0_3 + 120 p_0_4 + 100000 z_0_1 + 100000 z_0_2 + 100000 z_0_3 + 100000 z_0_4 <= 400925.41921633674
 c1037: 120 p_0_5 + 100000 z_0_5 <= 102051.60936790766
 c1038: 120 p_0_1 + 120 p_0_5 + 100000 z_0_1 + 100000 z_0_5 <= 201510.2709923551
 c1039: 120 p_0_2 + 120 p_0_5 + 100000 z_0_2 + 100000 z_0_5 <= 202021.32191240674
 c1040: 120 p_0_1 + 120 p_0_2 + 120 p_0_5 + 100000 z_0_1 + 100000 z_0_2 + 100000 z_0_5 <= 301479.98353685415
 c1041: 120 p_0_3 + 120 p_0_5 + 100000 z_0_3 + 100000 z_0_5 <= 201434.69044674363
 c1042: 120 p_0_1 + 120 p_0_3 + 120 p_0_5 + 100000 z_0_1 + 100000 z_0_3 + 100000 z_0_5 <= 300946.58467660291
 c1043: 120 p_0_2 + 120 p_0_3 + 120 p_0_5 + 100000 z_0_2 + 100000 z_0_3 + 100000 z_0_5 <= 301419.84812848957
 c1044: 120 p_0_1 + 120 p_0_2 + 120 p_0_3 + 120 p_0_5 + 100000 z_0_1 + 100000 z_0_2 + 100000 z_0_3 + 100000 z_0_5 <= 400916.297221102
 c1045: 120 p_0_4 + 120 p_0_5 + 100000 z_0_4 + 100000 z_0_5 <= 201609.43518320032
 c1046: 120 p_0_1 + 120 p_0_4 + 120 p_0_5 + 100000 z_0_1 + 100000 z_0_4 + 100000 z_0_5 <= 301479.98291914671
 c1047: 120 p_0_2 + 120 p_0_4 + 120 p_0_5 + 100000 z_0_2 + 100000 z_0_4 + 100000 z_0_5 <= 301579.14772769943
 c1048: 120 p_0_1 + 120 p_0_2 + 120 p_0_4 + 120 p_0_5 + 100000 z_0_1 + 100000 z_0_2 + 100000 z_0_4 + 100000 z_0_5 <= 401449.6954636458
 c1049: 120 p_0_3 + 120 p_0_4 + 120 p_0_5 + 100000 z_0_3 + 100000 z_0_4 + 100000 z_0_5 <= 301081.05958682578
 c1050: 120 p_0_1 + 120 p_0_3 + 120 p_0_4 + 120 p_0_5 + 100000 z_0_1 + 100000 z_0_3 + 100000 z_0_4 + 100000 z_0_5 <= 400945.84367420437
 c1051: 120 p_0_2 + 120 p_0_3 + 120 p_0_4 + 120 p_0_5 + 100000 z_0_2 + 100000 z_0_3 + 100000 z_0_4 + 100000 z_0_5 <= 401066.21726857172
 c1052: 120 p_0_1 + 120 p_0_2 + 120 p_0_3 + 120 p_0_4 + 120 p_0_5 + 100000 z_0_1 + 100000 z_0_2 + 100000 z_0_3 + 100000 z_0_4 + 100000 z_0_5 <= 500915.55621870345
 c1053: 120 p_0_6 + 100000 z_0_6 <= 101854.23049584772
 c1054: 120 p_0_1 + 120 p_0_6 + 100000 z_0_1 + 100000 z_0_6 <= 201274.26979020957
 c1055: 120 p_0_2 + 120 p_0_6 + 100000 z_0_2 + 100000 z_0_6 <= 201609.41876637714
 c1056: 120 p_0_1 + 120 p_0_2 + 120 p_0_6 + 100000 z_0_1 + 100000 z_0_2 + 100000 z_0_6 <= 301053.84395875095
 c1057: 120 p_0_3 + 120 p_0_6 + 100000 z_0_3 + 100000 z_0_6 <= 201645.82071895688
 c1058: 120 p_0_1 + 120 p_0_3 + 120 p_0_6 + 100000 z_0_1 + 100000 z_0_3 + 100000 z_0_6 <= 301132.58856894507
 c1059: 120 p_0_2 + 120 p_0_3 + 120 p_0_6 + 100000 z_0_2 + 100000 z_0_3 + 100000 z_0_6 <= 301401.00898948632
 c1060: 120 p_0_1 + 120 p_0_2 + 120 p_0_3 + 120 p_0_6 + 100000 z_0_1 + 100000 z_0_2 + 100000 z_0_3 + 100000 z_0_6 <= 400887.77683947451
 c1061: 120 p_0_4 + 120 p_0_6 + 100000 z_0_4 + 100000 z_0_6 <= 201425.96350762667
 c1062: 120 p_0_1 + 120 p_0_4 + 120 p_0_6 + 100000 z_0_1 + 100000 z_0_4 + 100000 z_0_6 <= 301265.62121513422
 c1063: 120 p_0_2 + 120 p_0_4 + 120 p_0_6 + 100000 z_0_2 + 100000 z_0_4 + 100000 z_0_6 <= 301181.15177815611
 c1064: 120 p_0_1 + 120 p_0_2 + 120 p_0_4 + 120 p_0_6 + 100000 z_0_1 + 100000 z_0_2 + 100000 z_0_4 + 100000 z_0_6 <= 401023.55588554253
 c1065: 120 p_0_3 + 120 p_0_4 + 120 p_0_6 + 100000 z_0_3 + 100000 z_0_4 + 100000 z_0_6 <= 301292.18985903903
 c1066: 120 p_0_1 + 120 p_0_3 + 120 p_0_4 + 120 p_0_6 + 100000 z_0_1 + 100000 z_0_3 + 100000 z_0_4 + 100000 z_0_6 <= 401131.84756654658
 c1067: 120 p_0_2 + 120 p_0_3 + 120 p_0_4 + 120 p_0_6 + 100000 z_0_2 + 100000 z_0_3 + 100000 z_0_4 + 100000 z_0_6 <= 401047.37812956847
 c1068: 120 p_0_1 + 120 p_0_2 + 120 p_0_3 + 120 p_0_4 + 120 p_0_6 + 100000 z_0_1 + 100000 z_0_2 + 100000 z_0_3 + 100000 z_0_4 + 100000 z_0_6 <= 500887.03583707602
 c1069: 120 p_0_5 + 120 p_0_6 + 100000 z_0_5 + 100000 z_0_6 <= 201599.16674719536
 c1070: 120 p_0_1 + 120 p_0_5 + 120 p_0_6 + 100000 z_0_1 + 100000 z_0_5 + 100000 z_0_6 <= 301057.8283716428
 c1071: 120 p_0_2 + 120 p_0_5 + 120 p_0_6 + 100000 z_0_2 + 100000 z_0_5 + 100000 z_0_6 <= 301589.87452611967
 c1072: 120 p_0_1 + 120 p_0_2 + 120 p_0_5 + 120 p_0_6 + 100000 z_0_1 + 100000 z_0_2 + 100000 z_0_5 + 100000 z_0_6 <= 401048.53615056712
 c1073: 120 p_0_3 + 120 p_0_5 + 120 p_0_6 + 100000 z_0_3 + 100000 z_0_5 + 100000 z_0_6 <= 301390.75697030453
 c1074: 120 p_0_1 + 120 p_0_3 + 120 p_0_5 + 120 p_0_6 + 100000 z_0_1 + 100000 z_0_3 + 100000 z_0_5 + 100000 z_0_6 <= 400877.52482029272
 c1075: 120 p_0_2 + 120 p_0_3 + 120 p_0_5 + 120 p_0_6 + 100000 z_0_2 + 100000 z_0_3 + 100000 z_0_5 + 100000 z_0_6 <= 401381.46474922885
 c1076: 120 p_0_1 + 120 p_0_2 + 120 p_0_3 + 120 p_0_5 + 120 p_0_6 + 100000 z_0_1 + 100000 z_0_2 + 100000 z_0_3 + 100000 z_0_5 + 100000 z_0_6 <= 500868.2325992171
 c1077: 120 p_0_4 + 120 p_0_5 + 120 p_0_6 + 100000 z_0_4 + 100000 z_0_5 + 100000 z_0_6 <= 301170.89975897432
 c1078: 120 p_0_1 + 120 p_0_4 + 120 p_0_5 + 120 p_0_6 + 100000 z_0_1 + 100000 z_0_4 + 100000 z_0_5 + 100000 z_0_6 <= 401027.54029843438
 c1079: 120 p_0_2 + 120 p_0_4 + 120 p_0_5 + 120 p_0_6 + 100000 z_0_2 + 100000 z_0_4 + 100000 z_0_5 + 100000 z_0_6 <= 401161.60753789864
 c1080: 120 p_0_1 + 120 p_0_2 + 120 p_0_4 + 120 p_0_5 + 120 p_0_6 + 100000 z_0_1 + 100000 z_0_2 + 100000 z_0_4 + 100000 z_0_5 + 100000 z_0_6 <= 501018.2480773587
 c1081: 120 p_0_3 + 120 p_0_4 + 120 p_0_5 + 120 p_0_6 + 100000 z_0_3 + 100000 z_0_4 + 100000 z_0_5 + 100000 z_0_6 <= 401037.12611038669
 c1082: 120 p_0_1 + 120 p_0_3 + 120 p_0_4 + 120 p_0_5 + 120 p_0_6 + 100000 z_0_1 + 100000 z_0_3 + 100000 z_0_4 + 100000 z_0_5 + 100000 z_0_6 <= 500876.78381789423
 c1083: 120 p_0_2 + 120 p_0_3 + 120 p_0_4 + 120 p_0_5 + 120 p_0_6 + 100000 z_0_2 + 100000 z_0_3 + 100000 z_0_4 + 100000 z_0_5 + 100000 z_0_6 <= 501027.833889311
 c1084: 120 p_0_1 + 120 p_0_2 + 120 p_0_3 + 120 p_0_4 + 120 p_0_5 + 120 p_0_6 + 100000 z_0_1 + 100000 z_0_2 + 100000 z_0_3 + 100000 z_0_4 + 100000 z_0_5 + 100000 z_0_6 <= 600867.49159681855
 c1085: 120 p_0_7 + 100000 z_0_7 <= 101770.02462028031
 c1086: 120 p_0_1 + 120 p_0_7 + 100000 z_0_1 + 100000 z_0_7 <= 201749.2070241769
 c1087: 120 p_0_2 + 120 p_0_7 + 100000 z_0_2 + 100000 z_0_7 <= 201476.78401043382
 c1088: 120 p_0_1 + 120 p_0_2 + 120 p_0_7 + 100000 z_0_1 + 100000 z_0_2 + 100000 z_0_7 <= 301455.96641433041
 c1089: 120 p_0_3 + 120 p_0_7 + 100000 z_0_3 + 100000 z_0_7 <= 201192.49571213371
 c1090: 120 p_0_1 + 120 p_0_3 + 120 p_0_7 + 100000 z_0_1 + 100000 z_0_3 + 100000 z_0_7 <= 301185.52070842468
 c1091: 120 p_0_2 + 120 p_0_3 + 120 p_0_7 + 100000 z_0_2 + 100000 z_0_3 + 100000 z_0_7 <= 300899.25510228722
 c1092: 120 p_0_1 + 120 p_0_2 + 120 p_0_3 + 120 p_0_7 + 100000 z_0_1 + 100000 z_0_2 + 100000 z_0_3 + 100000 z_0_7 <= 400892.28009857825
 c1093: 120 p_0_4 + 120 p_0_7 + 100000 z_0_4 + 100000 z_0_7 <= 201722.94007710437
 c1094: 120 p_0_1 + 120 p_0_4 + 120 p_0_7 + 100000 z_0_1 + 100000 z_0_4 + 100000 z_0_7 <= 301718.91895096848
 c1095: 120 p_0_2 + 120 p_0_4 + 120 p_0_7 + 100000 z_0_2 + 100000 z_0_4 + 100000 z_0_7 <= 301429.69946725789
 c1096: 120 p_0_1 + 120 p_0_2 + 120 p_0_4 + 120 p_0_7 + 100000 z_0_1 + 100000 z_0_2 + 100000 z_0_4 + 100000 z_0_7 <= 401425.67834112199
 c1097: 120 p_0_3 + 120 p_0_4 + 120 p_0_7 + 100000 z_0_3 + 100000 z_0_4 + 100000 z_0_7 <= 301188.80083216209
 c1098: 120 p_0_1 + 120 p_0_3 + 120 p_0_4 + 120 p_0_7 + 100000 z_0_1 + 100000 z_0_3 + 100000 z_0_4 + 100000 z_0_7 <= 401184.77970602619
 c1099: 120 p_0_2 + 120 p_0_3 + 120 p_0_4 + 120 p_0_7 + 100000 z_0_2 + 100000 z_0_3 + 100000 z_0_4 + 100000 z_0_7 <= 400895.5602223156
 c1100: 120 p_0_1 + 120 p_0_2 + 120 p_0_3 + 120 p_0_4 + 120 p_0_7 + 100000 z_0_1 + 100000 z_0_2 + 100000 z_0_3 + 100000 z_0_4 + 100000 z_0_7 <= 500891.53909617971
 c1101: 120 p_0_5 + 120 p_0_7 + 100000 z_0_5 + 100000 z_0_7 <= 201502.83278422881
 c1102: 120 p_0_1 + 120 p_0_5 + 120 p_0_7 + 100000 z_0_1 + 100000 z_0_5 + 100000 z_0_7 <= 301482.01518812537
 c1103: 120 p_0_2 + 120 p_0_5 + 120 p_0_7 + 100000 z_0_2 + 100000 z_0_5 + 100000 z_0_7 <= 301472.54532872787
 c1104: 120 p_0_1 + 120 p_0_2 + 120 p_0_5 + 120 p_0_7 + 100000 z_0_1 + 100000 z_0_2 + 100000 z_0_5 + 100000 z_0_7 <= 401451.72773262445
 c1105: 120 p_0_3 + 120 p_0_5 + 120 p_0_7 + 100000 z_0_3 + 100000 z_0_5 + 100000 z_0_7 <= 300925.30387608224
 c1106: 120 p_0_1 + 120 p_0_3 + 120 p_0_5 + 120 p_0_7 + 100000 z_0_1 + 100000 z_0_3 + 100000 z_0_5 + 100000 z_0_7 <= 400918.32887237321
 c1107: 120 p_0_2 + 120 p_0_3 + 120 p_0_5 + 120 p_0_7 + 100000 z_0_2 + 100000 z_0_3 + 100000 z_0_5 + 100000 z_0_7 <= 400895.01642058132
 c1108: 120 p_0_1 + 120 p_0_2 + 120 p_0_3 + 120 p_0_5 + 120 p_0_7 + 100000 z_0_1 + 100000 z_0_2 + 100000 z_0_3 + 100000 z_0_5 + 100000 z_0_7 <= 500888.04141687229
 c1109: 120 p_0_4 + 120 p_0_5 + 120 p_0_7 + 100000 z_0_4 + 100000 z_0_5 + 100000 z_0_7 <= 301455.7482410529
 c1110: 120 p_0_1 + 120 p_0_4 + 120 p_0_5 + 120 p_0_7 + 100000 z_0_1 + 100000 z_0_4 + 100000 z_0_5 + 100000 z_0_7 <= 401451.72711491701
 c1111: 120 p_0_2 + 120 p_0_4 + 120 p_0_5 + 120 p_0_7 + 100000 z_0_2 + 100000 z_0_4 + 100000 z_0_5 + 100000 z_0_7 <= 401425.46078555199
 c1112: 120 p_0_1 + 120 p_0_2 + 120 p_0_4 + 120 p_0_5 + 120 p_0_7 + 100000 z_0_1 + 100000 z_0_2 + 100000 z_0_4 + 100000 z_0_5 + 100000 z_0_7 <= 501421.43965941609
 c1113: 120 p_0_3 + 120 p_0_4 + 120 p_0_5 + 120 p_0_7 + 100000 z_0_3 + 100000 z_0_4 + 100000 z_0_5 + 100000 z_0_7 <= 400921.60899611056
 c1114: 120 p_0_1 + 120 p_0_3 + 120 p_0_4 + 120 p_0_5 + 120 p_0_7 + 100000 z_0_1 + 100000 z_0_3 + 100000 z_0_4 + 100000 z_0_5 + 100000 z_0_7 <= 500917.58786997467
 c1115: 120 p_0_2 + 120 p_0_3 + 120 p_0_4 + 120 p_0_5 + 120 p_0_7 + 100000 z_0_2 + 100000 z_0_3 + 100000 z_0_4 + 100000 z_0_5 + 100000 z_0_7 <= 500891.32154060964
 c1116: 120 p_0_1 + 120 p_0_2 + 120 p_0_3 + 120 p_0_4 + 120 p_0_5 + 120 p_0_7 + 100000 z_0_1 + 100000 z_0_2 + 100000 z_0_3 + 100000 z_0_4 + 100000 z_0_5 + 100000 z_0_7 <= 600887.30041447375
 c1117: 120 p_0_6 + 120 p_0_7 + 100000 z_0_6 + 100000 z_0_7 <= 201246.8971203407
 c1118: 120 p_0_1 + 120 p_0_6 + 120 p_0_7 + 100000 z_0_1 + 100000 z_0_6 + 100000 z_0_7 <= 301233.78723871114
 c1119: 120 p_0_2 + 120 p_0_6 + 120 p_0_7 + 100000 z_0_2 + 100000 z_0_6 + 100000 z_0_7 <= 301045.33662414679
 c1120: 120 p_0_1 + 120 p_0_2 + 120 p_0_6 + 120 p_0_7 + 100000 z_0_1 + 100000 z_0_2 + 100000 z_0_6 + 100000 z_0_7 <= 401024.51902804337
 c1121: 120 p_0_3 + 120 p_0_6 + 120 p_0_7 + 100000 z_0_3 + 100000 z_0_6 + 100000 z_0_7 <= 301099.08102115564
 c1122: 120 p_0_1 + 120 p_0_3 + 120 p_0_6 + 120 p_0_7 + 100000 z_0_1 + 100000 z_0_3 + 100000 z_0_6 + 100000 z_0_7 <= 401092.10601744661
 c1123: 120 p_0_2 + 120 p_0_3 + 120 p_0_6 + 120 p_0_7 + 100000 z_0_2 + 100000 z_0_3 + 100000 z_0_6 + 100000 z_0_7 <= 400854.26929168508
 c1124: 120 p_0_1 + 120 p_0_2 + 120 p_0_3 + 120 p_0_6 + 120 p_0_7 + 100000 z_0_1 + 100000 z_0_2 + 100000 z_0_3 + 100000 z_0_6 + 100000 z_0_7 <= 500847.29428797605
 c1125: 120 p_0_4 + 120 p_0_6 + 120 p_0_7 + 100000 z_0_4 + 100000 z_0_6 + 100000 z_0_7 <= 301229.15978977166
 c1126: 120 p_0_1 + 120 p_0_4 + 120 p_0_6 + 120 p_0_7 + 100000 z_0_1 + 100000 z_0_4 + 100000 z_0_6 + 100000 z_0_7 <= 401225.13866363576
 c1127: 120 p_0_2 + 120 p_0_4 + 120 p_0_6 + 120 p_0_7 + 100000 z_0_2 + 100000 z_0_4 + 100000 z_0_6 + 100000 z_0_7 <= 400998.25208097085
 c1128: 120 p_0_1 + 120 p_0_2 + 120 p_0_4 + 120 p_0_6 + 120 p_0_7 + 100000 z_0_1 + 100000 z_0_2 + 100000 z_0_4 + 100000 z_0_6 + 100000 z_0_7 <= 500994.23095483496
 c1129: 120 p_0_3 + 120 p_0_4 + 120 p_0_6 + 120 p_0_7 + 100000 z_0_3 + 100000 z_0_4 + 100000 z_0_6 + 100000 z_0_7 <= 401095.38614118402
 c1130: 120 p_0_1 + 120 p_0_3 + 120 p_0_4 + 120 p_0_6 + 120 p_0_7 + 100000 z_0_1 + 100000 z_0_3 + 100000 z_0_4 + 100000 z_0_6 + 100000 z_0_7 <= 501091.36501504813
 c1131: 120 p_0_2 + 120 p_0_3 + 120 p_0_4 + 120 p_0_6 + 120 p_0_7 + 100000 z_0_2 + 100000 z_0_3 + 100000 z_0_4 + 100000 z_0_6 + 100000 z_0_7 <= 500850.57441171346
 c1132: 120 p_0_1 + 120 p_0_2 + 120 p_0_3 + 120 p_0_4 + 120 p_0_6 + 120 p_0_7 + 100000 z_0_1 + 100000 z_0_2 + 100000 z_0_3 + 100000 z_0_4 + 100000 z_0_6 + 100000 z_0_7 <= 600846.55328557757
 c1133: 120 p_0_5 + 120 p_0_6 + 120 p_0_7 + 100000 z_0_5 + 100000 z_0_6 + 100000 z_0_7 <= 301050.39016351651
 c1134: 120 p_0_1 + 120 p_0_5 + 120 p_0_6 + 120 p_0_7 + 100000 z_0_1 + 100000 z_0_5 + 100000 z_0_6 + 100000 z_0_7 <= 401029.5725674131
 c1135: 120 p_0_2 + 120 p_0_5 + 120 p_0_6 + 120 p_0_7 + 100000 z_0_2 + 100000 z_0_5 + 100000 z_0_6 + 100000 z_0_7 <= 401041.09794244083
 c1136: 120 p_0_1 + 120 p_0_2 + 120 p_0_5 + 120 p_0_6 + 120 p_0_7 + 100000 z_0_1 + 100000 z_0_2 + 100000 z_0_5 + 100000 z_0_6 + 100000 z_0_7 <= 501020.28034633741
 c1137: 120 p_0_3 + 120 p_0_5 + 120 p_0_6 + 120 p_0_7 + 100000 z_0_3 + 100000 z_0_5 + 100000 z_0_6 + 100000 z_0_7 <= 400844.01727250329
 c1138: 120 p_0_1 + 120 p_0_3 + 120 p_0_5 + 120 p_0_6 + 120 p_0_7 + 100000 z_0_1 + 100000 z_0_3 + 100000 z_0_5 + 100000 z_0_6 + 100000 z_0_7 <= 500837.04226879426
 c1139: 120 p_0_2 + 120 p_0_3 + 120 p_0_5 + 120 p_0_6 + 120 p_0_7 + 100000 z_0_2 + 100000 z_0_3 + 100000 z_0_5 + 100000 z_0_6 + 100000 z_0_7 <= 500834.72505142761
 c1140: 120 p_0_1 + 120 p_0_2 + 120 p_0_3 + 120 p_0_5 + 120 p_0_6 + 120 p_0_7 + 100000 z_0_1 + 100000 z_0_2 + 100000 z_0_3 + 100000 z_0_5 + 100000 z_0_6 + 100000 z_0_7 <= 600827.75004771864
 c1141: 120 p_0_4 + 120 p_0_5 + 120 p_0_6 + 120 p_0_7 + 100000 z_0_4 + 100000 z_0_5 + 100000 z_0_6 + 100000 z_0_7 <= 401003.30562034057
 c1142: 120 p_0_1 + 120 p_0_4 + 120 p_0_5 + 120 p_0_6 + 120 p_0_7 + 100000 z_0_1 + 100000 z_0_4 + 100000 z_0_5 + 100000 z_0_6 + 100000 z_0_7 <= 500999.28449420468
 c1143: 120 p_0_2 + 120 p_0_4 + 120 p_0_5 + 120 p_0_6 + 120 p_0_7 + 100000 z_0_2 + 100000 z_0_4 + 100000 z_0_5 + 100000 z_0_6 + 100000 z_0_7 <= 500994.01339926495
 c1144: 120 p_0_1 + 120 p_0_2 + 120 p_0_4 + 120 p_0_5 + 120 p_0_6 + 120 p_0_7 + 100000 z_0_1 + 100000 z_0_2 + 100000 z_0_4 + 100000 z_0_5 + 100000 z_0_6 + 100000 z_0_7 <= 600989.99227312906
 c1145: 120 p_0_3 + 120 p_0_4 + 120 p_0_5 + 120 p_0_6 + 120 p_0_7 + 100000 z_0_3 + 100000 z_0_4 + 100000 z_0_5 + 100000 z_0_6 + 100000 z_0_7 <= 500840.32239253167
 c1146: 120 p_0_1 + 120 p_0_3 + 120 p_0_4 + 120 p_0_5 + 120 p_0_6 + 120 p_0_7 + 100000 z_0_1 + 100000 z_0_3 + 100000 z_0_4 + 100000 z_0_5 + 100000 z_0_6 + 100000 z_0_7 <= 600836.30126639572
 c1147: 120 p_0_2 + 120 p_0_3 + 120 p_0_4 + 120 p_0_5 + 120 p_0_6 + 120 p_0_7 + 100000 z_0_2 + 100000 z_0_3 + 100000 z_0_4 + 100000 z_0_5 + 100000 z_0_6 + 100000 z_0_7 <= 600831.03017145593
 c1148: 120 p_0_1 + 120 p_0_2 + 120 p_0_3 + 120 p_0_4 + 120 p_0_5 + 120 p_0_6 + 120 p_0_7 + 100000 z_0_1 + 100000 z_0_2 + 100000 z_0_3 + 100000 z_0_4 + 100000 z_0_5 + 100000 z_0_6 + 100000 z_0_7 <= 700827.0090453201
 c1149: 120 p_0_8 + 100000 z_0_8 <= 102070.61565188644
 c1150: 120 p_0_1 + 120 p_0_8 + 100000 z_0_1 + 100000 z_0_8 <= 201510.38114586641
 c1151: 120 p_0_2 + 120 p_0_8 + 100000 z_0_2 + 100000 z_0_8 <= 202040.60322451414
 c1152: 120 p_0_1 + 120 p_0_2 + 120 p_0_8 + 100000 z_0_1 + 100000 z_0_2 + 100000 z_0_8 <= 301485.02841688797
 c1153: 120 p_0_3 + 120 p_0_8 + 100000 z_0_3 + 100000 z_0_8 <= 201467.50626944599
 c1154: 120 p_0_1 + 120 p_0_3 + 120 p_0_8 + 100000 z_0_1 + 100000 z_0_3 + 100000 z_0_8 <= 300954.27411943418
 c1155: 120 p_0_2 + 120 p_0_3 + 120 p_0_8 + 100000 z_0_2 + 100000 z_0_3 + 100000 z_0_8 <= 301439.12944059697
 c1156: 120 p_0_1 + 120 p_0_2 + 120 p_0_3 + 120 p_0_8 + 100000 z_0_1 + 100000 z_0_2 + 100000 z_0_3 + 100000 z_0_8 <= 400925.89729058521
 c1157: 120 p_0_4 + 120 p_0_8 + 100000 z_0_4 + 100000 z_0_8 <= 201615.52479729897
 c1158: 120 p_0_1 + 120 p_0_4 + 120 p_0_8 + 100000 z_0_1 + 100000 z_0_4 + 100000 z_0_8 <= 301480.093072658
 c1159: 120 p_0_2 + 120 p_0_4 + 120 p_0_8 + 100000 z_0_2 + 100000 z_0_4 + 100000 z_0_8 <= 301588.02219065162
 c1160: 120 p_0_1 + 120 p_0_2 + 120 p_0_4 + 120 p_0_8 + 100000 z_0_1 + 100000 z_0_2 + 100000 z_0_4 + 100000 z_0_8 <= 401454.74034367956
 c1161: 120 p_0_3 + 120 p_0_4 + 120 p_0_8 + 100000 z_0_3 + 100000 z_0_4 + 100000 z_0_8 <= 301113.87540952815
 c1162: 120 p_0_1 + 120 p_0_3 + 120 p_0_4 + 120 p_0_8 + 100000 z_0_1 + 100000 z_0_3 + 100000 z_0_4 + 100000 z_0_8 <= 400953.53311703569
 c1163: 120 p_0_2 + 120 p_0_3 + 120 p_0_4 + 120 p_0_8 + 100000 z_0_2 + 100000 z_0_3 + 100000 z_0_4 + 100000 z_0_8 <= 401085.49858067912
 c1164: 120 p_0_1 + 120 p_0_2 + 120 p_0_3 + 120 p_0_4 + 120 p_0_8 + 100000 z_0_1 + 100000 z_0_2 + 100000 z_0_3 + 100000 z_0_4 + 100000 z_0_8 <= 500925.15628818667
 c1165: 120 p_0_5 + 120 p_0_8 + 100000 z_0_5 + 100000 z_0_8 <= 202033.37395601367
 c1166: 120 p_0_1 + 120 p_0_5 + 120 p_0_8 + 100000 z_0_1 + 100000 z_0_5 + 100000 z_0_8 <= 301492.03558046109
 c1167: 120 p_0_2 + 120 p_0_5 + 120 p_0_8 + 100000 z_0_2 + 100000 z_0_5 + 100000 z_0_8 <= 302021.0589842567
 c1168: 120 p_0_1 + 120 p_0_2 + 120 p_0_5 + 120 p_0_8 + 100000 z_0_1 + 100000 z_0_2 + 100000 z_0_5 + 100000 z_0_8 <= 401479.72060870414
 c1169: 120 p_0_3 + 120 p_0_5 + 120 p_0_8 + 100000 z_0_3 + 100000 z_0_5 + 100000 z_0_8 <= 301430.26457357325
 c1170: 120 p_0_1 + 120 p_0_3 + 120 p_0_5 + 120 p_0_8 + 100000 z_0_1 + 100000 z_0_3 + 100000 z_0_5 + 100000 z_0_8 <= 400928.34926470893
 c1171: 120 p_0_2 + 120 p_0_3 + 120 p_0_5 + 120 p_0_8 + 100000 z_0_2 + 100000 z_0_3 + 100000 z_0_5 + 100000 z_0_8 <= 401417.94960181625
 c1172: 120 p_0_1 + 120 p_0_2 + 120 p_0_3 + 120 p_0_5 + 120 p_0_8 + 100000 z_0_1 + 100000 z_0_2 + 100000 z_0_3 + 100000 z_0_5 + 100000 z_0_8 <= 500916.03429295192
 c1173: 120 p_0_4 + 120 p_0_5 + 120 p_0_8 + 100000 z_0_4 + 100000 z_0_5 + 100000 z_0_8 <= 301591.19977130636
 c1174: 120 p_0_1 + 120 p_0_4 + 120 p_0_5 + 120 p_0_8 + 100000 z_0_1 + 100000 z_0_4 + 100000 z_0_5 + 100000 z_0_8 <= 401461.74750725273
 c1175: 120 p_0_2 + 120 p_0_4 + 120 p_0_5 + 120 p_0_8 + 100000 z_0_2 + 100000 z_0_4 + 100000 z_0_5 + 100000 z_0_8 <= 401578.88479954936
 c1176: 120 p_0_1 + 120 p_0_2 + 120 p_0_4 + 120 p_0_5 + 120 p_0_8 + 100000 z_0_1 + 100000 z_0_2 + 100000 z_0_4 + 100000 z_0_5 + 100000 z_0_8 <= 501449.43253549573
 c1177: 120 p_0_3 + 120 p_0_4 + 120 p_0_5 + 120 p_0_8 + 100000 z_0_3 + 100000 z_0_4 + 100000 z_0_5 + 100000 z_0_8 <= 401076.63371365541
 c1178: 120 p_0_1 + 120 p_0_3 + 120 p_0_4 + 120 p_0_5 + 120 p_0_8 + 100000 z_0_1 + 100000 z_0_3 + 100000 z_0_4 + 100000 z_0_5 + 100000 z_0_8 <= 500927.60826231039
 c1179: 120 p_0_2 + 120 p_0_3 + 120 p_0_4 + 120 p_0_5 + 120 p_0_8 + 100000 z_0_2 + 100000 z_0_3 + 100000 z_0_4 + 100000 z_0_5 + 100000 z_0_8 <= 501064.3187418984
 c1180: 120 p_0_1 + 120 p_0_2 + 120 p_0_3 + 120 p_0_4 + 120 p_0_5 + 120 p_0_8 + 100000 z_0_1 + 100000 z_0_2 + 100000 z_0_3 + 100000 z_0_4 + 100000 z_0_5 + 100000 z_0_8 <= 600915.29329055338
 c1181: 120 p_0_6 + 120 p_0_8 + 100000 z_0_6 + 100000 z_0_8 <= 201635.13907069052
 c1182: 120 p_0_1 + 120 p_0_6 + 120 p_0_8 + 100000 z_0_1 + 100000 z_0_6 + 100000 z_0_8 <= 301074.90456467046
 c1183: 120 p_0_2 + 120 p_0_6 + 120 p_0_8 + 100000 z_0_2 + 100000 z_0_6 + 100000 z_0_8 <= 301609.15583822707
 c1184: 120 p_0_1 + 120 p_0_2 + 120 p_0_6 + 120 p_0_8 + 100000 z_0_1 + 100000 z_0_2 + 100000 z_0_6 + 100000 z_0_8 <= 401049.55183569202
 c1185: 120 p_0_3 + 120 p_0_6 + 120 p_0_8 + 100000 z_0_3 + 100000 z_0_6 + 100000 z_0_8 <= 301426.72929379967
 c1186: 120 p_0_1 + 120 p_0_3 + 120 p_0_6 + 120 p_0_8 + 100000 z_0_1 + 100000 z_0_3 + 100000 z_0_6 + 100000 z_0_8 <= 400913.49714378791
 c1187: 120 p_0_2 + 120 p_0_3 + 120 p_0_6 + 120 p_0_8 + 100000 z_0_2 + 100000 z_0_3 + 100000 z_0_6 + 100000 z_0_8 <= 401400.74606133625
 c1188: 120 p_0_1 + 120 p_0_2 + 120 p_0_3 + 120 p_0_6 + 120 p_0_8 + 100000 z_0_1 + 100000 z_0_2 + 100000 z_0_3 + 100000 z_0_6 + 100000 z_0_8 <= 500887.51391132449
 c1189: 120 p_0_4 + 120 p_0_6 + 120 p_0_8 + 100000 z_0_4 + 100000 z_0_6 + 100000 z_0_8 <= 301206.87208246952
 c1190: 120 p_0_1 + 120 p_0_4 + 120 p_0_6 + 120 p_0_8 + 100000 z_0_1 + 100000 z_0_4 + 100000 z_0_6 + 100000 z_0_8 <= 401046.52978997707
 c1191: 120 p_0_2 + 120 p_0_4 + 120 p_0_6 + 120 p_0_8 + 100000 z_0_2 + 100000 z_0_4 + 100000 z_0_6 + 100000 z_0_8 <= 401180.88885000604
 c1192: 120 p_0_1 + 120 p_0_2 + 120 p_0_4 + 120 p_0_6 + 120 p_0_8 + 100000 z_0_1 + 100000 z_0_2 + 100000 z_0_4 + 100000 z_0_6 + 100000 z_0_8 <= 501020.54655751365
 c1193: 120 p_0_3 + 120 p_0_4 + 120 p_0_6 + 120 p_0_8 + 100000 z_0_3 + 100000 z_0_4 + 100000 z_0_6 + 100000 z_0_8 <= 401073.09843388182
 c1194: 120 p_0_1 + 120 p_0_3 + 120 p_0_4 + 120 p_0_6 + 120 p_0_8 + 100000 z_0_1 + 100000 z_0_3 + 100000 z_0_4 + 100000 z_0_6 + 100000 z_0_8 <= 500912.75614138937
 c1195: 120 p_0_2 + 120 p_0_3 + 120 p_0_4 + 120 p_0_6 + 120 p_0_8 + 100000 z_0_2 + 100000 z_0_3 + 100000 z_0_4 + 100000 z_0_6 + 100000 z_0_8 <= 501047.1152014184
 c1196: 120 p_0_1 + 120 p_0_2 + 120 p_0_3 + 120 p_0_4 + 120 p_0_6 + 120 p_0_8 + 100000 z_0_1 + 100000 z_0_2 + 100000 z_0_3 + 100000 z_0_4 + 100000 z_0_6 + 100000 z_0_8 <= 600886.77290892601
 c1197: 120 p_0_5 + 120 p_0_6 + 120 p_0_8 + 100000 z_0_5 + 100000 z_0_6 + 100000 z_0_8 <= 301597.89737481775
 c1198: 120 p_0_1 + 120 p_0_5 + 120 p_0_6 + 120 p_0_8 + 100000 z_0_1 + 100000 z_0_5 + 100000 z_0_6 + 100000 z_0_8 <= 401056.55899926519
 c1199: 120 p_0_2 + 120 p_0_5 + 120 p_0_6 + 120 p_0_8 + 100000 z_0_2 + 100000 z_0_5 + 100000 z_0_6 + 100000 z_0_8 <= 401585.58240306081
 c1200: 120 p_0_1 + 120 p_0_2 + 120 p_0_5 + 120 p_0_6 + 120 p_0_8 + 100000 z_0_1 + 100000 z_0_2 + 100000 z_0_5 + 100000 z_0_6 + 100000 z_0_8 <= 501044.24402750819
 c1201: 120 p_0_3 + 120 p_0_5 + 120 p_0_6 + 120 p_0_8 + 100000 z_0_3 + 100000 z_0_5 + 100000 z_0_6 + 100000 z_0_8 <= 401389.48759792693
 c1202: 120 p_0_1 + 120 p_0_3 + 120 p_0_5 + 120 p_0_6 + 120 p_0_8 + 100000 z_0_1 + 100000 z_0_3 + 100000 z_0_5 + 100000 z_0_6 + 100000 z_0_8 <= 500876.25544791517
 c1203: 120 p_0_2 + 120 p_0_3 + 120 p_0_5 + 120 p_0_6 + 120 p_0_8 + 100000 z_0_2 + 100000 z_0_3 + 100000 z_0_5 + 100000 z_0_6 + 100000 z_0_8 <= 501377.17262616992
 c1204: 120 p_0_1 + 120 p_0_2 + 120 p_0_3 + 120 p_0_5 + 120 p_0_6 + 120 p_0_8 + 100000 z_0_1 + 100000 z_0_2 + 100000 z_0_3 + 100000 z_0_5 + 100000 z_0_6 + 100000 z_0_8 <= 600863.94047615817
 c1205: 120 p_0_4 + 120 p_0_5 + 120 p_0_6 + 120 p_0_8 + 100000 z_0_4 + 100000 z_0_5 + 100000 z_0_6 + 100000 z_0_8 <= 401169.63038659672
 c1206: 120 p_0_1 + 120 p_0_4 + 120 p_0_5 + 120 p_0_6 + 120 p_0_8 + 100000 z_0_1 + 100000 z_0_4 + 100000 z_0_5 + 100000 z_0_6 + 100000 z_0_8 <= 501026.27092605678
 c1207: 120 p_0_2 + 120 p_0_4 + 120 p_0_5 + 120 p_0_6 + 120 p_0_8 + 100000 z_0_2 + 100000 z_0_4 + 100000 z_0_5 + 100000 z_0_6 + 100000 z_0_8 <= 501157.31541483977
 c1208: 120 p_0_1 + 120 p_0_2 + 120 p_0_4 + 120 p_0_5 + 120 p_0_6 + 120 p_0_8 + 100000 z_0_1 + 100000 z_0_2 + 100000 z_0_4 + 100000 z_0_5 + 100000 z_0_6 + 100000 z_0_8 <= 601013.95595429977
 c1209: 120 p_0_3 + 120 p_0_4 + 120 p_0_5 + 120 p_0_6 + 120 p_0_8 + 100000 z_0_3 + 100000 z_0_4 + 100000 z_0_5 + 100000 z_0_6 + 100000 z_0_8 <= 501035.85673800908
 c1210: 120 p_0_1 + 120 p_0_3 + 120 p_0_4 + 120 p_0_5 + 120 p_0_6 + 120 p_0_8 + 100000 z_0_1 + 100000 z_0_3 + 100000 z_0_4 + 100000 z_0_5 + 100000 z_0_6 + 100000 z_0_8 <= 600875.51444551663
 c1211: 120 p_0_2 + 120 p_0_3 + 120 p_0_4 + 120 p_0_5 + 120 p_0_6 + 120 p_0_8 + 100000 z_0_2 + 100000 z_0_3 + 100000 z_0_4 + 100000 z_0_5 + 100000 z_0_6 + 100000 z_0_8 <= 601023.54176625214
 c1212: 120 p_0_1 + 120 p_0_2 + 120 p_0_3 + 120 p_0_4 + 120 p_0_5 + 120 p_0_6 + 120 p_0_8 + 100000 z_0_1 + 100000 z_0_2 + 100000 z_0_3 + 100000 z_0_4 + 100000 z_0_5 + 100000 z_0_6 + 100000 z_0_8 <= 700863.19947375963
 c1213: 120 p_0_7 + 120 p_0_8 + 100000 z_0_7 + 100000 z_0_8 <= 201501.04126566515
 c1214: 120 p_0_1 + 120 p_0_7 + 120 p_0_8 + 100000 z_0_1 + 100000 z_0_7 + 100000 z_0_8 <= 301480.22366956173
 c1215: 120 p_0_2 + 120 p_0_7 + 120 p_0_8 + 100000 z_0_2 + 100000 z_0_7 + 100000 z_0_8 <= 301476.52108228381
 c1216: 120 p_0_1 + 120 p_0_2 + 120 p_0_7 + 120 p_0_8 + 100000 z_0_1 + 100000 z_0_2 + 100000 z_0_7 + 100000 z_0_8 <= 401455.7034861804
 c1217: 120 p_0_3 + 120 p_0_7 + 120 p_0_8 + 100000 z_0_3 + 100000 z_0_7 + 100000 z_0_8 <= 300923.51235751854
 c1218: 120 p_0_1 + 120 p_0_3 + 120 p_0_7 + 120 p_0_8 + 100000 z_0_1 + 100000 z_0_3 + 100000 z_0_7 + 100000 z_0_8 <= 400916.53735380957
 c1219: 120 p_0_2 + 120 p_0_3 + 120 p_0_7 + 120 p_0_8 + 100000 z_0_2 + 100000 z_0_3 + 100000 z_0_7 + 100000 z_0_8 <= 400898.99217413721
 c1220: 120 p_0_1 + 120 p_0_2 + 120 p_0_3 + 120 p_0_7 + 120 p_0_8 + 100000 z_0_1 + 100000 z_0_2 + 100000 z_0_3 + 100000 z_0_7 + 100000 z_0_8 <= 500892.01717042818
 c1221: 120 p_0_4 + 120 p_0_7 + 120 p_0_8 + 100000 z_0_4 + 100000 z_0_7 + 100000 z_0_8 <= 301453.95672248921
 c1222: 120 p_0_1 + 120 p_0_4 + 120 p_0_7 + 120 p_0_8 + 100000 z_0_1 + 100000 z_0_4 + 100000 z_0_7 + 100000 z_0_8 <= 401449.93559635332
 c1223: 120 p_0_2 + 120 p_0_4 + 120 p_0_7 + 120 p_0_8 + 100000 z_0_2 + 100000 z_0_4 + 100000 z_0_7 + 100000 z_0_8 <= 401429.43653910788
 c1224: 120 p_0_1 + 120 p_0_2 + 120 p_0_4 + 120 p_0_7 + 120 p_0_8 + 100000 z_0_1 + 100000 z_0_2 + 100000 z_0_4 + 100000 z_0_7 + 100000 z_0_8 <= 501425.41541297198
 c1225: 120 p_0_3 + 120 p_0_4 + 120 p_0_7 + 120 p_0_8 + 100000 z_0_3 + 100000 z_0_4 + 100000 z_0_7 + 100000 z_0_8 <= 400919.81747754692
 c1226: 120 p_0_1 + 120 p_0_3 + 120 p_0_4 + 120 p_0_7 + 120 p_0_8 + 100000 z_0_1 + 100000 z_0_3 + 100000 z_0_4 + 100000 z_0_7 + 100000 z_0_8 <= 500915.79635141103
 c1227: 120 p_0_2 + 120 p_0_3 + 120 p_0_4 + 120 p_0_7 + 120 p_0_8 + 100000 z_0_2 + 100000 z_0_3 + 100000 z_0_4 + 100000 z_0_7 + 100000 z_0_8 <= 500895.29729416559
 c1228: 120 p_0_1 + 120 p_0_2 + 120 p_0_3 + 120 p_0_4 + 120 p_0_7 + 120 p_0_8 + 100000 z_0_1 + 100000 z_0_2 + 100000 z_0_3 + 100000 z_0_4 + 100000 z_0_7 + 100000 z_0_8 <= 600891.27616802964
 c1229: 120 p_0_5 + 120 p_0_7 + 120 p_0_8 + 100000 z_0_5 + 100000 z_0_7 + 100000 z_0_8 <= 301484.59737233486
 c1230: 120 p_0_1 + 120 p_0_5 + 120 p_0_7 + 120 p_0_8 + 100000 z_0_1 + 100000 z_0_5 + 100000 z_0_7 + 100000 z_0_8 <= 401463.77977623144
 c1231: 120 p_0_2 + 120 p_0_5 + 120 p_0_7 + 120 p_0_8 + 100000 z_0_2 + 100000 z_0_5 + 100000 z_0_7 + 100000 z_0_8 <= 401472.28240057785
 c1232: 120 p_0_1 + 120 p_0_2 + 120 p_0_5 + 120 p_0_7 + 120 p_0_8 + 100000 z_0_1 + 100000 z_0_2 + 100000 z_0_5 + 100000 z_0_7 + 100000 z_0_8 <= 501451.46480447444
 c1233: 120 p_0_3 + 120 p_0_5 + 120 p_0_7 + 120 p_0_8 + 100000 z_0_3 + 100000 z_0_5 + 100000 z_0_7 + 100000 z_0_8 <= 400907.06846418825
 c1234: 120 p_0_1 + 120 p_0_3 + 120 p_0_5 + 120 p_0_7 + 120 p_0_8 + 100000 z_0_1 + 100000 z_0_3 + 100000 z_0_5 + 100000 z_0_7 + 100000 z_0_8 <= 500900.09346047923
 c1235: 120 p_0_2 + 120 p_0_3 + 120 p_0_5 + 120 p_0_7 + 120 p_0_8 + 100000 z_0_2 + 100000 z_0_3 + 100000 z_0_5 + 100000 z_0_7 + 100000 z_0_8 <= 500894.75349243125
 c1236: 120 p_0_1 + 120 p_0_2 + 120 p_0_3 + 120 p_0_5 + 120 p_0_7 + 120 p_0_8 + 100000 z_0_1 + 100000 z_0_2 + 100000 z_0_3 + 100000 z_0_5 + 100000 z_0_7 + 100000 z_0_8 <= 600887.77848872228
 c1237: 120 p_0_4 + 120 p_0_5 + 120 p_0_7 + 120 p_0_8 + 100000 z_0_4 + 100000 z_0_5 + 100000 z_0_7 + 100000 z_0_8 <= 401437.51282915892
 c1238: 120 p_0_1 + 120 p_0_4 + 120 p_0_5 + 120 p_0_7 + 120 p_0_8 + 100000 z_0_1 + 100000 z_0_4 + 100000 z_0_5 + 100000 z_0_7 + 100000 z_0_8 <= 501433.49170302303
 c1239: 120 p_0_2 + 120 p_0_4 + 120 p_0_5 + 120 p_0_7 + 120 p_0_8 + 100000 z_0_2 + 100000 z_0_4 + 100000 z_0_5 + 100000 z_0_7 + 100000 z_0_8 <= 501425.19785740192
 c1240: 120 p_0_1 + 120 p_0_2 + 120 p_0_4 + 120 p_0_5 + 120 p_0_7 + 120 p_0_8 + 100000 z_0_1 + 100000 z_0_2 + 100000 z_0_4 + 100000 z_0_5 + 100000 z_0_7 + 100000 z_0_8 <= 601421.17673126608
 c1241: 120 p_0_3 + 120 p_0_4 + 120 p_0_5 + 120 p_0_7 + 120 p_0_8 + 100000 z_0_3 + 100000 z_0_4 + 100000 z_0_5 + 100000 z_0_7 + 100000 z_0_8 <= 500903.37358421664
 c1242: 120 p_0_1 + 120 p_0_3 + 120 p_0_4 + 120 p_0_5 + 120 p_0_7 + 120 p_0_8 + 100000 z_0_1 + 100000 z_0_3 + 100000 z_0_4 + 100000 z_0_5 + 100000 z_0_7 + 100000 z_0_8 <= 600899.35245808074
 c1243: 120 p_0_2 + 120 p_0_3 + 120 p_0_4 + 120 p_0_5 + 120 p_0_7 + 120 p_0_8 + 100000 z_0_2 + 100000 z_0_3 + 100000 z_0_4 + 100000 z_0_5 + 100000 z_0_7 + 100000 z_0_8 <= 600891.05861245957
 c1244: 120 p_0_1 + 120 p_0_2 + 120 p_0_3 + 120 p_0_4 + 120 p_0_5 + 120 p_0_7 + 120 p_0_8 + 100000 z_0_1 + 100000 z_0_2 + 100000 z_0_3 + 100000 z_0_4 + 100000 z_0_5 + 100000 z_0_7 + 100000 z_0_8 <= 700887.03748632374
 c1245: 120 p_0_6 + 120 p_0_7 + 120 p_0_8 + 100000 z_0_6 + 100000 z_0_7 + 100000 z_0_8 <= 301065.56468446925
 c1246: 120 p_0_1 + 120 p_0_6 + 120 p_0_7 + 120 p_0_8 + 100000 z_0_1 + 100000 z_0_6 + 100000 z_0_7 + 100000 z_0_8 <= 401044.74708836584
 c1247: 120 p_0_2 + 120 p_0_6 + 120 p_0_7 + 120 p_0_8 + 100000 z_0_2 + 100000 z_0_6 + 100000 z_0_7 + 100000 z_0_8 <= 401041.04450108786
 c1248: 120 p_0_1 + 120 p_0_2 + 120 p_0_6 + 120 p_0_7 + 120 p_0_8 + 100000 z_0_1 + 100000 z_0_2 + 100000 z_0_6 + 100000 z_0_7 + 100000 z_0_8 <= 501020.22690498445
 c1249: 120 p_0_3 + 120 p_0_6 + 120 p_0_7 + 120 p_0_8 + 100000 z_0_3 + 100000 z_0_6 + 100000 z_0_7 + 100000 z_0_8 <= 400879.98959599843
 c1250: 120 p_0_1 + 120 p_0_3 + 120 p_0_6 + 120 p_0_7 + 120 p_0_8 + 100000 z_0_1 + 100000 z_0_3 + 100000 z_0_6 + 100000 z_0_7 + 100000 z_0_8 <= 500873.01459228946
 c1251: 120 p_0_2 + 120 p_0_3 + 120 p_0_6 + 120 p_0_7 + 120 p_0_8 + 100000 z_0_2 + 100000 z_0_3 + 100000 z_0_6 + 100000 z_0_7 + 100000 z_0_8 <= 500854.00636353501
 c1252: 120 p_0_1 + 120 p_0_2 + 120 p_0_3 + 120 p_0_6 + 120 p_0_7 + 120 p_0_8 + 100000 z_0_1 + 100000 z_0_2 + 100000 z_0_3 + 100000 z_0_6 + 100000 z_0_7 + 100000 z_0_8 <= 600847.03135982598
 c1253: 120 p_0_4 + 120 p_0_6 + 120 p_0_7 + 120 p_0_8 + 100000 z_0_4 + 100000 z_0_6 + 100000 z_0_7 + 100000 z_0_8 <= 401018.48014129332
 c1254: 120 p_0_1 + 120 p_0_4 + 120 p_0_6 + 120 p_0_7 + 120 p_0_8 + 100000 z_0_1 + 100000 z_0_4 + 100000 z_0_6 + 100000 z_0_7 + 100000 z_0_8 <= 501014.45901515742
 c1255: 120 p_0_2 + 120 p_0_4 + 120 p_0_6 + 120 p_0_7 + 120 p_0_8 + 100000 z_0_2 + 100000 z_0_4 + 100000 z_0_6 + 100000 z_0_7 + 100000 z_0_8 <= 500993.95995791198
 c1256: 120 p_0_1 + 120 p_0_2 + 120 p_0_4 + 120 p_0_6 + 120 p_0_7 + 120 p_0_8 + 100000 z_0_1 + 100000 z_0_2 + 100000 z_0_4 + 100000 z_0_6 + 100000 z_0_7 + 100000 z_0_8 <= 600989.93883177603
 c1257: 120 p_0_3 + 120 p_0_4 + 120 p_0_6 + 120 p_0_7 + 120 p_0_8 + 100000 z_0_3 + 100000 z_0_4 + 100000 z_0_6 + 100000 z_0_7 + 100000 z_0_8 <= 500876.29471602681
 c1258: 120 p_0_1 + 120 p_0_3 + 120 p_0_4 + 120 p_0_6 + 120 p_0_7 + 120 p_0_8 + 100000 z_0_1 + 100000 z_0_3 + 100000 z_0_4 + 100000 z_0_6 + 100000 z_0_7 + 100000 z_0_8 <= 600872.27358989092
 c1259: 120 p_0_2 + 120 p_0_3 + 120 p_0_4 + 120 p_0_6 + 120 p_0_7 + 120 p_0_8 + 100000 z_0_2 + 100000 z_0_3 + 100000 z_0_4 + 100000 z_0_6 + 100000 z_0_7 + 100000 z_0_8 <= 600850.31148356339
 c1260: 120 p_0_1 + 120 p_0_2 + 120 p_0_3 + 120 p_0_4 + 120 p_0_6 + 120 p_0_7 + 120 p_0_8 + 100000 z_0_1 + 100000 z_0_2 + 100000 z_0_3 + 100000 z_0_4 + 100000 z_0_6 + 100000 z_0_7 + 100000 z_0_8 <= 700846.29035742756
 c1261: 120 p_0_5 + 120 p_0_6 + 120 p_0_7 + 120 p_0_8 + 100000 z_0_5 + 100000 z_0_6 + 100000 z_0_7 + 100000 z_0_8 <= 401049.12079113891
 c1262: 120 p_0_1 + 120 p_0_5 + 120 p_0_6 + 120 p_0_7 + 120 p_0_8 + 100000 z_0_1 + 100000 z_0_5 + 100000 z_0_6 + 100000 z_0_7 + 100000 z_0_8 <= 501028.30319503549
 c1263: 120 p_0_2 + 120 p_0_5 + 120 p_0_6 + 120 p_0_7 + 120 p_0_8 + 100000 z_0_2 + 100000 z_0_5 + 100000 z_0_6 + 100000 z_0_7 + 100000 z_0_8 <= 501036.80581938196
 c1264: 120 p_0_1 + 120 p_0_2 + 120 p_0_5 + 120 p_0_6 + 120 p_0_7 + 120 p_0_8 + 100000 z_0_1 + 100000 z_0_2 + 100000 z_0_5 + 100000 z_0_6 + 100000 z_0_7 + 100000 z_0_8 <= 601015.98822327855
 c1265: 120 p_0_3 + 120 p_0_5 + 120 p_0_6 + 120 p_0_7 + 120 p_0_8 + 100000 z_0_3 + 100000 z_0_5 + 100000 z_0_6 + 100000 z_0_7 + 100000 z_0_8 <= 500842.74790012569
 c1266: 120 p_0_1 + 120 p_0_3 + 120 p_0_5 + 120 p_0_6 + 120 p_0_7 + 120 p_0_8 + 100000 z_0_1 + 100000 z_0_3 + 100000 z_0_5 + 100000 z_0_6 + 100000 z_0_7 + 100000 z_0_8 <= 600835.77289641672
 c1267: 120 p_0_2 + 120 p_0_3 + 120 p_0_5 + 120 p_0_6 + 120 p_0_7 + 120 p_0_8 + 100000 z_0_2 + 100000 z_0_3 + 100000 z_0_5 + 100000 z_0_6 + 100000 z_0_7 + 100000 z_0_8 <= 600830.43292836868
 c1268: 120 p_0_1 + 120 p_0_2 + 120 p_0_3 + 120 p_0_5 + 120 p_0_6 + 120 p_0_7 + 120 p_0_8 + 100000 z_0_1 + 100000 z_0_2 + 100000 z_0_3 + 100000 z_0_5 + 100000 z_0_6 + 100000 z_0_7 + 100000 z_0_8 <= 700823.45792465971
 c1269: 120 p_0_4 + 120 p_0_5 + 120 p_0_6 + 120 p_0_7 + 120 p_0_8 + 100000 z_0_4 + 100000 z_0_5 + 100000 z_0_6 + 100000 z_0_7 + 100000 z_0_8 <= 501002.03624796303
 c1270: 120 p_0_1 + 120 p_0_4 + 120 p_0_5 + 120 p_0_6 + 120 p_0_7 + 120 p_0_8 + 100000 z_0_1 + 100000 z_0_4 + 100000 z_0_5 + 100000 z_0_6 + 100000 z_0_7 + 100000 z_0_8 <= 600998.01512182713
 c1271: 120 p_0_2 + 120 p_0_4 + 120 p_0_5 + 120 p_0_6 + 120 p_0_7 + 120 p_0_8 + 100000 z_0_2 + 100000 z_0_4 + 100000 z_0_5 + 100000 z_0_6 + 100000 z_0_7 + 100000 z_0_8 <= 600989.72127620596
 c1272: 120 p_0_1 + 120 p_0_2 + 120 p_0_4 + 120 p_0_5 + 120 p_0_6 + 120 p_0_7 + 120 p_0_8 + 100000 z_0_1 + 100000 z_0_2 + 100000 z_0_4 + 100000 z_0_5 + 100000 z_0_6 + 100000 z_0_7 + 100000 z_0_8 <= 700985.70015007013
 c1273: 120 p_0_3 + 120 p_0_4 + 120 p_0_5 + 120 p_0_6 + 120 p_0_7 + 120 p_0_8 + 100000 z_0_3 + 100000 z_0_4 + 100000 z_0_5 + 100000 z_0_6 + 100000 z_0_7 + 100000 z_0_8 <= 600839.05302015401
 c1274: 120 p_0_1 + 120 p_0_3 + 120 p_0_4 + 120 p_0_5 + 120 p_0_6 + 120 p_0_7 + 120 p_0_8 + 100000 z_0_1 + 100000 z_0_3 + 100000 z_0_4 + 100000 z_0_5 + 100000 z_0_6 + 100000 z_0_7 + 100000 z_0_8 <= 700835.03189401818
 c1275: 120 p_0_2 + 120 p_0_3 + 120 p_0_4 + 120 p_0_5 + 120 p_0_6 + 120 p_0_7 + 120 p_0_8 + 100000 z_0_2 + 100000 z_0_3 + 100000 z_0_4 + 100000 z_0_5 + 100000 z_0_6 + 100000 z_0_7 + 100000 z_0_8 <= 700826.73804839712
 c1276: 120 p_0_1 + 120 p_0_2 + 120 p_0_3 + 120 p_0_4 + 120 p_0_5 + 120 p_0_6 + 120 p_0_7 + 120 p_0_8 + 100000 z_0_1 + 100000 z_0_2 + 100000 z_0_3 + 100000 z_0_4 + 100000 z_0_5 + 100000 z_0_6 + 100000 z_0_7 + 100000 z_0_8 <= 800822.71692226117
 c1277: 120 p_0_9 + 100000 z_0_9 <= 101840.97274267382
 c1278: 120 p_0_1 + 120 p_0_9 + 100000 z_0_1 + 100000 z_0_9 <= 201290.06771256682
 c1279: 120 p_0_2 + 120 p_0_9 + 100000 z_0_2 + 100000 z_0_9 <= 201562.12659378763
 c1280: 120 p_0_1 + 120 p_0_2 + 120 p_0_9 + 100000 z_0_1 + 100000 z_0_2 + 100000 z_0_9 <= 301011.22156368062
 c1281: 120 p_0_3 + 120 p_0_9 + 100000 z_0_3 + 100000 z_0_9 <= 201708.42673519798
 c1282: 120 p_0_1 + 120 p_0_3 + 120 p_0_9 + 100000 z_0_1 + 100000 z_0_3 + 100000 z_0_9 <= 301195.1945851862
 c1283: 120 p_0_2 + 120 p_0_3 + 120 p_0_9 + 100000 z_0_2 + 100000 z_0_3 + 100000 z_0_9 <= 301429.58058631176
 c1284: 120 p_0_1 + 120 p_0_2 + 120 p_0_3 + 120 p_0_9 + 100000 z_0_1 + 100000 z_0_2 + 100000 z_0_3 + 100000 z_0_9 <= 400916.3484363
 c1285: 120 p_0_4 + 120 p_0_9 + 100000 z_0_4 + 100000 z_0_9 <= 201446.36613783531
 c1286: 120 p_0_1 + 120 p_0_4 + 120 p_0_9 + 100000 z_0_1 + 100000 z_0_4 + 100000 z_0_9 <= 301286.02384534286
 c1287: 120 p_0_2 + 120 p_0_4 + 120 p_0_9 + 100000 z_0_2 + 100000 z_0_4 + 100000 z_0_9 <= 301167.51998894912
 c1288: 120 p_0_1 + 120 p_0_2 + 120 p_0_4 + 120 p_0_9 + 100000 z_0_1 + 100000 z_0_2 + 100000 z_0_4 + 100000 z_0_9 <= 401007.17769645667
 c1289: 120 p_0_3 + 120 p_0_4 + 120 p_0_9 + 100000 z_0_3 + 100000 z_0_4 + 100000 z_0_9 <= 301354.79587528011
 c1290: 120 p_0_1 + 120 p_0_3 + 120 p_0_4 + 120 p_0_9 + 100000 z_0_1 + 100000 z_0_3 + 100000 z_0_4 + 100000 z_0_9 <= 401194.45358278765
 c1291: 120 p_0_2 + 120 p_0_3 + 120 p_0_4 + 120 p_0_9 + 100000 z_0_2 + 100000 z_0_3 + 100000 z_0_4 + 100000 z_0_9 <= 401075.94972639391
 c1292: 120 p_0_1 + 120 p_0_2 + 120 p_0_3 + 120 p_0_4 + 120 p_0_9 + 100000 z_0_1 + 100000 z_0_2 + 100000 z_0_3 + 100000 z_0_4 + 100000 z_0_9 <= 500915.60743390146
 c1293: 120 p_0_5 + 120 p_0_9 + 100000 z_0_5 + 100000 z_0_9 <= 201555.25947006769
 c1294: 120 p_0_1 + 120 p_0_5 + 120 p_0_9 + 100000 z_0_1 + 100000 z_0_5 + 100000 z_0_9 <= 301013.92109451513
 c1295: 120 p_0_2 + 120 p_0_5 + 120 p_0_9 + 100000 z_0_2 + 100000 z_0_5 + 100000 z_0_9 <= 301542.58235353016
 c1296: 120 p_0_1 + 120 p_0_2 + 120 p_0_5 + 120 p_0_9 + 100000 z_0_1 + 100000 z_0_2 + 100000 z_0_5 + 100000 z_0_9 <= 401001.2439779776
 c1297: 120 p_0_3 + 120 p_0_5 + 120 p_0_9 + 100000 z_0_3 + 100000 z_0_5 + 100000 z_0_9 <= 301422.71346259181
 c1298: 120 p_0_1 + 120 p_0_3 + 120 p_0_5 + 120 p_0_9 + 100000 z_0_1 + 100000 z_0_3 + 100000 z_0_5 + 100000 z_0_9 <= 400915.77600186592
 c1299: 120 p_0_2 + 120 p_0_3 + 120 p_0_5 + 120 p_0_9 + 100000 z_0_2 + 100000 z_0_3 + 100000 z_0_5 + 100000 z_0_9 <= 401410.03634605429
 c1300: 120 p_0_1 + 120 p_0_2 + 120 p_0_3 + 120 p_0_5 + 120 p_0_9 + 100000 z_0_1 + 100000 z_0_2 + 100000 z_0_3 + 100000 z_0_5 + 100000 z_0_9 <= 500896.80419604253
 c1301: 120 p_0_4 + 120 p_0_5 + 120 p_0_9 + 100000 z_0_4 + 100000 z_0_5 + 100000 z_0_9 <= 301160.65286522917
 c1302: 120 p_0_1 + 120 p_0_4 + 120 p_0_5 + 120 p_0_9 + 100000 z_0_1 + 100000 z_0_4 + 100000 z_0_5 + 100000 z_0_9 <= 401006.60526202258
 c1303: 120 p_0_2 + 120 p_0_4 + 120 p_0_5 + 120 p_0_9 + 100000 z_0_2 + 100000 z_0_4 + 100000 z_0_5 + 100000 z_0_9 <= 401147.97574869165
 c1304: 120 p_0_1 + 120 p_0_2 + 120 p_0_4 + 120 p_0_5 + 120 p_0_9 + 100000 z_0_1 + 100000 z_0_2 + 100000 z_0_4 + 100000 z_0_5 + 100000 z_0_9 <= 500987.6334561992
 c1305: 120 p_0_3 + 120 p_0_4 + 120 p_0_5 + 120 p_0_9 + 100000 z_0_3 + 100000 z_0_4 + 100000 z_0_5 + 100000 z_0_9 <= 401069.08260267397
 c1306: 120 p_0_1 + 120 p_0_3 + 120 p_0_4 + 120 p_0_5 + 120 p_0_9 + 100000 z_0_1 + 100000 z_0_3 + 100000 z_0_4 + 100000 z_0_5 + 100000 z_0_9 <= 500915.03499946743
 c1307: 120 p_0_2 + 120 p_0_3 + 120 p_0_4 + 120 p_0_5 + 120 p_0_9 + 100000 z_0_2 + 100000 z_0_3 + 100000 z_0_4 + 100000 z_0_5 + 100000 z_0_9 <= 501056.40548613644
 c1308: 120 p_0_1 + 120 p_0_2 + 120 p_0_3 + 120 p_0_4 + 120 p_0_5 + 120 p_0_9 + 100000 z_0_1 + 100000 z_0_2 + 100000 z_0_3 + 100000 z_0_4 + 100000 z_0_5 + 100000 z_0_9 <= 600896.06319364405
 c1309: 120 p_0_6 + 120 p_0_9 + 100000 z_0_6 + 100000 z_0_9 <= 201776.1526846913
 c1310: 120 p_0_1 + 120 p_0_6 + 120 p_0_9 + 100000 z_0_1 + 100000 z_0_6 + 100000 z_0_9 <= 301225.24765458429
 c1311: 120 p_0_2 + 120 p_0_6 + 120 p_0_9 + 100000 z_0_2 + 100000 z_0_6 + 100000 z_0_9 <= 301531.34095522074
 c1312: 120 p_0_1 + 120 p_0_2 + 120 p_0_6 + 120 p_0_9 + 100000 z_0_1 + 100000 z_0_2 + 100000 z_0_6 + 100000 z_0_9 <= 400980.43592511374
 c1313: 120 p_0_3 + 120 p_0_6 + 120 p_0_9 + 100000 z_0_3 + 100000 z_0_6 + 100000 z_0_9 <= 301643.60667721549
 c1314: 120 p_0_1 + 120 p_0_3 + 120 p_0_6 + 120 p_0_9 + 100000 z_0_1 + 100000 z_0_3 + 100000 z_0_6 + 100000 z_0_9 <= 401130.37452720368
 c1315: 120 p_0_2 + 120 p_0_3 + 120 p_0_6 + 120 p_0_9 + 100000 z_0_2 + 100000 z_0_3 + 100000 z_0_6 + 100000 z_0_9 <= 401398.79494774487
 c1316: 120 p_0_1 + 120 p_0_2 + 120 p_0_3 + 120 p_0_6 + 120 p_0_9 + 100000 z_0_1 + 100000 z_0_2 + 100000 z_0_3 + 100000 z_0_6 + 100000 z_0_9 <= 500885.56279773312
 c1317: 120 p_0_4 + 120 p_0_6 + 120 p_0_9 + 100000 z_0_4 + 100000 z_0_6 + 100000 z_0_9 <= 301381.54607985279
 c1318: 120 p_0_1 + 120 p_0_4 + 120 p_0_6 + 120 p_0_9 + 100000 z_0_1 + 100000 z_0_4 + 100000 z_0_6 + 100000 z_0_9 <= 401221.20378736034
 c1319: 120 p_0_2 + 120 p_0_4 + 120 p_0_6 + 120 p_0_9 + 100000 z_0_2 + 100000 z_0_4 + 100000 z_0_6 + 100000 z_0_9 <= 401136.73435038223
 c1320: 120 p_0_1 + 120 p_0_2 + 120 p_0_4 + 120 p_0_6 + 120 p_0_9 + 100000 z_0_1 + 100000 z_0_2 + 100000 z_0_4 + 100000 z_0_6 + 100000 z_0_9 <= 500976.39205788978
 c1321: 120 p_0_3 + 120 p_0_4 + 120 p_0_6 + 120 p_0_9 + 100000 z_0_3 + 100000 z_0_4 + 100000 z_0_6 + 100000 z_0_9 <= 401289.97581729759
 c1322: 120 p_0_1 + 120 p_0_3 + 120 p_0_4 + 120 p_0_6 + 120 p_0_9 + 100000 z_0_1 + 100000 z_0_3 + 100000 z_0_4 + 100000 z_0_6 + 100000 z_0_9 <= 501129.63352480519
 c1323: 120 p_0_2 + 120 p_0_3 + 120 p_0_4 + 120 p_0_6 + 120 p_0_9 + 100000 z_0_2 + 100000 z_0_3 + 100000 z_0_4 + 100000 z_0_6 + 100000 z_0_9 <= 501045.16408782703
 c1324: 120 p_0_1 + 120 p_0_2 + 120 p_0_3 + 120 p_0_4 + 120 p_0_6 + 120 p_0_9 + 100000 z_0_1 + 100000 z_0_2 + 100000 z_0_3 + 100000 z_0_4 + 100000 z_0_6 + 100000 z_0_9 <= 600884.82179533457
 c1325: 120 p_0_5 + 120 p_0_6 + 120 p_0_9 + 100000 z_0_5 + 100000 z_0_6 + 100000 z_0_9 <= 301521.08893603896
 c1326: 120 p_0_1 + 120 p_0_5 + 120 p_0_6 + 120 p_0_9 + 100000 z_0_1 + 100000 z_0_5 + 100000 z_0_6 + 100000 z_0_9 <= 400979.7505604864
 c1327: 120 p_0_2 + 120 p_0_5 + 120 p_0_6 + 120 p_0_9 + 100000 z_0_2 + 100000 z_0_5 + 100000 z_0_6 + 100000 z_0_9 <= 401511.79671496328
 c1328: 120 p_0_1 + 120 p_0_2 + 120 p_0_5 + 120 p_0_6 + 120 p_0_9 + 100000 z_0_1 + 100000 z_0_2 + 100000 z_0_5 + 100000 z_0_6 + 100000 z_0_9 <= 500970.45833941072
 c1329: 120 p_0_3 + 120 p_0_5 + 120 p_0_6 + 120 p_0_9 + 100000 z_0_3 + 100000 z_0_5 + 100000 z_0_6 + 100000 z_0_9 <= 401388.54292856308
 c1330: 120 p_0_1 + 120 p_0_3 + 120 p_0_5 + 120 p_0_6 + 120 p_0_9 + 100000 z_0_1 + 100000 z_0_3 + 100000 z_0_5 + 100000 z_0_6 + 100000 z_0_9 <= 500875.31077855133
 c1331: 120 p_0_2 + 120 p_0_3 + 120 p_0_5 + 120 p_0_6 + 120 p_0_9 + 100000 z_0_2 + 100000 z_0_3 + 100000 z_0_5 + 100000 z_0_6 + 100000 z_0_9 <= 501379.25070748746
 c1332: 120 p_0_1 + 120 p_0_2 + 120 p_0_3 + 120 p_0_5 + 120 p_0_6 + 120 p_0_9 + 100000 z_0_1 + 100000 z_0_2 + 100000 z_0_3 + 100000 z_0_5 + 100000 z_0_6 + 100000 z_0_9 <= 600866.01855747565
 c1333: 120 p_0_4 + 120 p_0_5 + 120 p_0_6 + 120 p_0_9 + 100000 z_0_4 + 100000 z_0_5 + 100000 z_0_6 + 100000 z_0_9 <= 401126.48233120044
 c1334: 120 p_0_1 + 120 p_0_4 + 120 p_0_5 + 120 p_0_6 + 120 p_0_9 + 100000 z_0_1 + 100000 z_0_4 + 100000 z_0_5 + 100000 z_0_6 + 100000 z_0_9 <= 500966.14003870799
 c1335: 120 p_0_2 + 120 p_0_4 + 120 p_0_5 + 120 p_0_6 + 120 p_0_9 + 100000 z_0_2 + 100000 z_0_4 + 100000 z_0_5 + 100000 z_0_6 + 100000 z_0_9 <= 501117.19011012476
 c1336: 120 p_0_1 + 120 p_0_2 + 120 p_0_4 + 120 p_0_5 + 120 p_0_6 + 120 p_0_9 + 100000 z_0_1 + 100000 z_0_2 + 100000 z_0_4 + 100000 z_0_5 + 100000 z_0_6 + 100000 z_0_9 <= 600956.84781763237
 c1337: 120 p_0_3 + 120 p_0_4 + 120 p_0_5 + 120 p_0_6 + 120 p_0_9 + 100000 z_0_3 + 100000 z_0_4 + 100000 z_0_5 + 100000 z_0_6 + 100000 z_0_9 <= 501034.91206864524
 c1338: 120 p_0_1 + 120 p_0_3 + 120 p_0_4 + 120 p_0_5 + 120 p_0_6 + 120 p_0_9 + 100000 z_0_1 + 100000 z_0_3 + 100000 z_0_4 + 100000 z_0_5 + 100000 z_0_6 + 100000 z_0_9 <= 600874.56977615284
 c1339: 120 p_0_2 + 120 p_0_3 + 120 p_0_4 + 120 p_0_5 + 120 p_0_6 + 120 p_0_9 + 100000 z_0_2 + 100000 z_0_3 + 100000 z_0_4 + 100000 z_0_5 + 100000 z_0_6 + 100000 z_0_9 <= 601025.61984756961
 c1340: 120 p_0_1 + 120 p_0_2 + 120 p_0_3 + 120 p_0_4 + 120 p_0_5 + 120 p_0_6 + 120 p_0_9 + 100000 z_0_1 + 100000 z_0_2 + 100000 z_0_3 + 100000 z_0_4 + 100000 z_0_5 + 100000 z_0_6 + 100000 z_0_9 <= 700865.2775550771
 c1341: 120 p_0_7 + 120 p_0_9 + 100000 z_0_7 + 100000 z_0_9 <= 201259.69268067848
 c1342: 120 p_0_1 + 120 p_0_7 + 120 p_0_9 + 100000 z_0_1 + 100000 z_0_7 + 100000 z_0_9 <= 301249.58516106836
 c1343: 120 p_0_2 + 120 p_0_7 + 120 p_0_9 + 100000 z_0_2 + 100000 z_0_7 + 100000 z_0_9 <= 300998.04445155727
 c1344: 120 p_0_1 + 120 p_0_2 + 120 p_0_7 + 120 p_0_9 + 100000 z_0_1 + 100000 z_0_2 + 100000 z_0_7 + 100000 z_0_9 <= 400977.22685545386
 c1345: 120 p_0_3 + 120 p_0_7 + 120 p_0_9 + 100000 z_0_3 + 100000 z_0_7 + 100000 z_0_9 <= 301161.68703739671
 c1346: 120 p_0_1 + 120 p_0_3 + 120 p_0_7 + 120 p_0_9 + 100000 z_0_1 + 100000 z_0_3 + 100000 z_0_7 + 100000 z_0_9 <= 401154.71203368774
 c1347: 120 p_0_2 + 120 p_0_3 + 120 p_0_7 + 120 p_0_9 + 100000 z_0_2 + 100000 z_0_3 + 100000 z_0_7 + 100000 z_0_9 <= 400882.84088851052
 c1348: 120 p_0_1 + 120 p_0_2 + 120 p_0_3 + 120 p_0_7 + 120 p_0_9 + 100000 z_0_1 + 100000 z_0_2 + 100000 z_0_3 + 100000 z_0_7 + 100000 z_0_9 <= 500875.86588480149
 c1349: 120 p_0_4 + 120 p_0_7 + 120 p_0_9 + 100000 z_0_4 + 100000 z_0_7 + 100000 z_0_9 <= 301249.5624199803
 c1350: 120 p_0_1 + 120 p_0_4 + 120 p_0_7 + 120 p_0_9 + 100000 z_0_1 + 100000 z_0_4 + 100000 z_0_7 + 100000 z_0_9 <= 401245.54129384441
 c1351: 120 p_0_2 + 120 p_0_4 + 120 p_0_7 + 120 p_0_9 + 100000 z_0_2 + 100000 z_0_4 + 100000 z_0_7 + 100000 z_0_9 <= 400970.7162710941
 c1352: 120 p_0_1 + 120 p_0_2 + 120 p_0_4 + 120 p_0_7 + 120 p_0_9 + 100000 z_0_1 + 100000 z_0_2 + 100000 z_0_4 + 100000 z_0_7 + 100000 z_0_9 <= 500966.69514495821
 c1353: 120 p_0_3 + 120 p_0_4 + 120 p_0_7 + 120 p_0_9 + 100000 z_0_3 + 100000 z_0_4 + 100000 z_0_7 + 100000 z_0_9 <= 401157.99215742509
 c1354: 120 p_0_1 + 120 p_0_3 + 120 p_0_4 + 120 p_0_7 + 120 p_0_9 + 100000 z_0_1 + 100000 z_0_3 + 100000 z_0_4 + 100000 z_0_7 + 100000 z_0_9 <= 501153.9710312892
 c1355: 120 p_0_2 + 120 p_0_3 + 120 p_0_4 + 120 p_0_7 + 120 p_0_9 + 100000 z_0_2 + 100000 z_0_3 + 100000 z_0_4 + 100000 z_0_7 + 100000 z_0_9 <= 500879.1460085389
 c1356: 120 p_0_1 + 120 p_0_2 + 120 p_0_3 + 120 p_0_4 + 120 p_0_7 + 120 p_0_9 + 100000 z_0_1 + 100000 z_0_2 + 100000 z_0_3 + 100000 z_0_4 + 100000 z_0_7 + 100000 z_0_9 <= 600875.12488240295
 c1357: 120 p_0_5 + 120 p_0_7 + 120 p_0_9 + 100000 z_0_5 + 100000 z_0_7 + 100000 z_0_9 <= 301006.48288638884
 c1358: 120 p_0_1 + 120 p_0_5 + 120 p_0_7 + 120 p_0_9 + 100000 z_0_1 + 100000 z_0_5 + 100000 z_0_7 + 100000 z_0_9 <= 400985.66529028543
 c1359: 120 p_0_2 + 120 p_0_5 + 120 p_0_7 + 120 p_0_9 + 100000 z_0_2 + 100000 z_0_5 + 100000 z_0_7 + 100000 z_0_9 <= 400993.80576985131
 c1360: 120 p_0_1 + 120 p_0_2 + 120 p_0_5 + 120 p_0_7 + 120 p_0_9 + 100000 z_0_1 + 100000 z_0_2 + 100000 z_0_5 + 100000 z_0_7 + 100000 z_0_9 <= 500972.9881737479
 c1361: 120 p_0_3 + 120 p_0_5 + 120 p_0_7 + 120 p_0_9 + 100000 z_0_3 + 100000 z_0_5 + 100000 z_0_7 + 100000 z_0_9 <= 400894.49520134524
 c1362: 120 p_0_1 + 120 p_0_3 + 120 p_0_5 + 120 p_0_7 + 120 p_0_9 + 100000 z_0_1 + 100000 z_0_3 + 100000 z_0_5 + 100000 z_0_7 + 100000 z_0_9 <= 500887.52019763622
 c1363: 120 p_0_2 + 120 p_0_3 + 120 p_0_5 + 120 p_0_7 + 120 p_0_9 + 100000 z_0_2 + 100000 z_0_3 + 100000 z_0_5 + 100000 z_0_7 + 100000 z_0_9 <= 500864.20774584432
 c1364: 120 p_0_1 + 120 p_0_2 + 120 p_0_3 + 120 p_0_5 + 120 p_0_7 + 120 p_0_9 + 100000 z_0_1 + 100000 z_0_2 + 100000 z_0_3 + 100000 z_0_5 + 100000 z_0_7 + 100000 z_0_9 <= 600857.2327421353
 c1365: 120 p_0_4 + 120 p_0_5 + 120 p_0_7 + 120 p_0_9 + 100000 z_0_4 + 100000 z_0_5 + 100000 z_0_7 + 100000 z_0_9 <= 400982.37058392877
 c1366: 120 p_0_1 + 120 p_0_4 + 120 p_0_5 + 120 p_0_7 + 120 p_0_9 + 100000 z_0_1 + 100000 z_0_4 + 100000 z_0_5 + 100000 z_0_7 + 100000 z_0_9 <= 500978.34945779288
 c1367: 120 p_0_2 + 120 p_0_4 + 120 p_0_5 + 120 p_0_7 + 120 p_0_9 + 100000 z_0_2 + 100000 z_0_4 + 100000 z_0_5 + 100000 z_0_7 + 100000 z_0_9 <= 500952.08312842785
 c1368: 120 p_0_1 + 120 p_0_2 + 120 p_0_4 + 120 p_0_5 + 120 p_0_7 + 120 p_0_9 + 100000 z_0_1 + 100000 z_0_2 + 100000 z_0_4 + 100000 z_0_5 + 100000 z_0_7 + 100000 z_0_9 <= 600948.06200229202
 c1369: 120 p_0_3 + 120 p_0_4 + 120 p_0_5 + 120 p_0_7 + 120 p_0_9 + 100000 z_0_3 + 100000 z_0_4 + 100000 z_0_5 + 100000 z_0_7 + 100000 z_0_9 <= 500890.80032137362
 c1370: 120 p_0_1 + 120 p_0_3 + 120 p_0_4 + 120 p_0_5 + 120 p_0_7 + 120 p_0_9 + 100000 z_0_1 + 100000 z_0_3 + 100000 z_0_4 + 100000 z_0_5 + 100000 z_0_7 + 100000 z_0_9 <= 600886.77919523767
 c1371: 120 p_0_2 + 120 p_0_3 + 120 p_0_4 + 120 p_0_5 + 120 p_0_7 + 120 p_0_9 + 100000 z_0_2 + 100000 z_0_3 + 100000 z_0_4 + 100000 z_0_5 + 100000 z_0_7 + 100000 z_0_9 <= 600860.5128658727
 c1372: 120 p_0_1 + 120 p_0_2 + 120 p_0_3 + 120 p_0_4 + 120 p_0_5 + 120 p_0_7 + 120 p_0_9 + 100000 z_0_1 + 100000 z_0_2 + 100000 z_0_3 + 100000 z_0_4 + 100000 z_0_5 + 100000 z_0_7 + 100000 z_0_9 <= 700856.49173973675
 c1373: 120 p_0_6 + 120 p_0_7 + 120 p_0_9 + 100000 z_0_6 + 100000 z_0_7 + 100000 z_0_9 <= 301194.87262269598
 c1374: 120 p_0_1 + 120 p_0_6 + 120 p_0_7 + 120 p_0_9 + 100000 z_0_1 + 100000 z_0_6 + 100000 z_0_7 + 100000 z_0_9 <= 401184.76510308584
 c1375: 120 p_0_2 + 120 p_0_6 + 120 p_0_7 + 120 p_0_9 + 100000 z_0_2 + 100000 z_0_6 + 100000 z_0_7 + 100000 z_0_9 <= 400967.25881299039
 c1376: 120 p_0_1 + 120 p_0_2 + 120 p_0_6 + 120 p_0_7 + 120 p_0_9 + 100000 z_0_1 + 100000 z_0_2 + 100000 z_0_6 + 100000 z_0_7 + 100000 z_0_9 <= 500946.44121688697
 c1377: 120 p_0_3 + 120 p_0_6 + 120 p_0_7 + 120 p_0_9 + 100000 z_0_3 + 100000 z_0_6 + 100000 z_0_7 + 100000 z_0_9 <= 401096.86697941425
 c1378: 120 p_0_1 + 120 p_0_3 + 120 p_0_6 + 120 p_0_7 + 120 p_0_9 + 100000 z_0_1 + 100000 z_0_3 + 100000 z_0_6 + 100000 z_0_7 + 100000 z_0_9 <= 501089.89197570522
 c1379: 120 p_0_2 + 120 p_0_3 + 120 p_0_6 + 120 p_0_7 + 120 p_0_9 + 100000 z_0_2 + 100000 z_0_3 + 100000 z_0_6 + 100000 z_0_7 + 100000 z_0_9 <= 500852.05524994363
 c1380: 120 p_0_1 + 120 p_0_2 + 120 p_0_3 + 120 p_0_6 + 120 p_0_7 + 120 p_0_9 + 100000 z_0_1 + 100000 z_0_2 + 100000 z_0_3 + 100000 z_0_6 + 100000 z_0_7 + 100000 z_0_9 <= 600845.08024623466
 c1381: 120 p_0_4 + 120 p_0_6 + 120 p_0_7 + 120 p_0_9 + 100000 z_0_4 + 100000 z_0_6 + 100000 z_0_7 + 100000 z_0_9 <= 401184.74236199778
 c1382: 120 p_0_1 + 120 p_0_4 + 120 p_0_6 + 120 p_0_7 + 120 p_0_9 + 100000 z_0_1 + 100000 z_0_4 + 100000 z_0_6 + 100000 z_0_7 + 100000 z_0_9 <= 501180.72123586189
 c1383: 120 p_0_2 + 120 p_0_4 + 120 p_0_6 + 120 p_0_7 + 120 p_0_9 + 100000 z_0_2 + 100000 z_0_4 + 100000 z_0_6 + 100000 z_0_7 + 100000 z_0_9 <= 500939.93063252722
 c1384: 120 p_0_1 + 120 p_0_2 + 120 p_0_4 + 120 p_0_6 + 120 p_0_7 + 120 p_0_9 + 100000 z_0_1 + 100000 z_0_2 + 100000 z_0_4 + 100000 z_0_6 + 100000 z_0_7 + 100000 z_0_9 <= 600935.90950639127
 c1385: 120 p_0_3 + 120 p_0_4 + 120 p_0_6 + 120 p_0_7 + 120 p_0_9 + 100000 z_0_3 + 100000 z_0_4 + 100000 z_0_6 + 100000 z_0_7 + 100000 z_0_9 <= 501093.17209944257
 c1386: 120 p_0_1 + 120 p_0_3 + 120 p_0_4 + 120 p_0_6 + 120 p_0_7 + 120 p_0_9 + 100000 z_0_1 + 100000 z_0_3 + 100000 z_0_4 + 100000 z_0_6 + 100000 z_0_7 + 100000 z_0_9 <= 601089.15097330674
 c1387: 120 p_0_2 + 120 p_0_3 + 120 p_0_4 + 120 p_0_6 + 120 p_0_7 + 120 p_0_9 + 100000 z_0_2 + 100000 z_0_3 + 100000 z_0_4 + 100000 z_0_6 + 100000 z_0_7 + 100000 z_0_9 <= 600848.36036997207
 c1388: 120 p_0_1 + 120 p_0_2 + 120 p_0_3 + 120 p_0_4 + 120 p_0_6 + 120 p_0_7 + 120 p_0_9 + 100000 z_0_1 + 100000 z_0_2 + 100000 z_0_3 + 100000 z_0_4 + 100000 z_0_6 + 100000 z_0_7 + 100000 z_0_9 <= 700844.33924383612
 c1389: 120 p_0_5 + 120 p_0_6 + 120 p_0_7 + 120 p_0_9 + 100000 z_0_5 + 100000 z_0_6 + 100000 z_0_7 + 100000 z_0_9 <= 400972.31235236011
 c1390: 120 p_0_1 + 120 p_0_5 + 120 p_0_6 + 120 p_0_7 + 120 p_0_9 + 100000 z_0_1 + 100000 z_0_5 + 100000 z_0_6 + 100000 z_0_7 + 100000 z_0_9 <= 500951.4947562567
 c1391: 120 p_0_2 + 120 p_0_5 + 120 p_0_6 + 120 p_0_7 + 120 p_0_9 + 100000 z_0_2 + 100000 z_0_5 + 100000 z_0_6 + 100000 z_0_7 + 100000 z_0_9 <= 500963.02013128443
 c1392: 120 p_0_1 + 120 p_0_2 + 120 p_0_5 + 120 p_0_6 + 120 p_0_7 + 120 p_0_9 + 100000 z_0_1 + 100000 z_0_2 + 100000 z_0_5 + 100000 z_0_6 + 100000 z_0_7 + 100000 z_0_9 <= 600942.20253518107
 c1393: 120 p_0_3 + 120 p_0_5 + 120 p_0_6 + 120 p_0_7 + 120 p_0_9 + 100000 z_0_3 + 100000 z_0_5 + 100000 z_0_6 + 100000 z_0_7 + 100000 z_0_9 <= 500841.8032307619
 c1394: 120 p_0_1 + 120 p_0_3 + 120 p_0_5 + 120 p_0_6 + 120 p_0_7 + 120 p_0_9 + 100000 z_0_1 + 100000 z_0_3 + 100000 z_0_5 + 100000 z_0_6 + 100000 z_0_7 + 100000 z_0_9 <= 600834.82822705281
 c1395: 120 p_0_2 + 120 p_0_3 + 120 p_0_5 + 120 p_0_6 + 120 p_0_7 + 120 p_0_9 + 100000 z_0_2 + 100000 z_0_3 + 100000 z_0_5 + 100000 z_0_6 + 100000 z_0_7 + 100000 z_0_9 <= 600832.51100968616
 c1396: 120 p_0_1 + 120 p_0_2 + 120 p_0_3 + 120 p_0_5 + 120 p_0_6 + 120 p_0_7 + 120 p_0_9 + 100000 z_0_1 + 100000 z_0_2 + 100000 z_0_3 + 100000 z_0_5 + 100000 z_0_6 + 100000 z_0_7 + 100000 z_0_9 <= 700825.53600597719
 c1397: 120 p_0_4 + 120 p_0_5 + 120 p_0_6 + 120 p_0_7 + 120 p_0_9 + 100000 z_0_4 + 100000 z_0_5 + 100000 z_0_6 + 100000 z_0_7 + 100000 z_0_9 <= 500929.67861334543
 c1398: 120 p_0_1 + 120 p_0_4 + 120 p_0_5 + 120 p_0_6 + 120 p_0_7 + 120 p_0_9 + 100000 z_0_1 + 100000 z_0_4 + 100000 z_0_5 + 100000 z_0_6 + 100000 z_0_7 + 100000 z_0_9 <= 600925.65748720954
 c1399: 120 p_0_2 + 120 p_0_4 + 120 p_0_5 + 120 p_0_6 + 120 p_0_7 + 120 p_0_9 + 100000 z_0_2 + 100000 z_0_4 + 100000 z_0_5 + 100000 z_0_6 + 100000 z_0_7 + 100000 z_0_9 <= 600920.38639226975
 c1400: 120 p_0_1 + 120 p_0_2 + 120 p_0_4 + 120 p_0_5 + 120 p_0_6 + 120 p_0_7 + 120 p_0_9 + 100000 z_0_1 + 100000 z_0_2 + 100000 z_0_4 + 100000 z_0_5 + 100000 z_0_6 + 100000 z_0_7 + 100000 z_0_9 <= 700916.36526613391
 c1401: 120 p_0_3 + 120 p_0_4 + 120 p_0_5 + 120 p_0_6 + 120 p_0_7 + 120 p_0_9 + 100000 z_0_3 + 100000 z_0_4 + 100000 z_0_5 + 100000 z_0_6 + 100000 z_0_7 + 100000 z_0_9 <= 600838.10835079022
 c1402: 120 p_0_1 + 120 p_0_3 + 120 p_0_4 + 120 p_0_5 + 120 p_0_6 + 120 p_0_7 + 120 p_0_9 + 100000 z_0_1 + 100000 z_0_3 + 100000 z_0_4 + 100000 z_0_5 + 100000 z_0_6 + 100000 z_0_7 + 100000 z_0_9 <= 700834.08722465439
 c1403: 120 p_0_2 + 120 p_0_3 + 120 p_0_4 + 120 p_0_5 + 120 p_0_6 + 120 p_0_7 + 120 p_0_9 + 100000 z_0_2 + 100000 z_0_3 + 100000 z_0_4 + 100000 z_0_5 + 100000 z_0_6 + 100000 z_0_7 + 100000 z_0_9 <= 700828.8161297146
 c1404: 120 p_0_1 + 120 p_0_2 + 120 p_0_3 + 120 p_0_4 + 120 p_0_5 + 120 p_0_6 + 120 p_0_7 + 120 p_0_9 + 100000 z_0_1 + 100000 z_0_2 + 100000 z_0_3 + 100000 z_0_4 + 100000 z_0_5 + 100000 z_0_6 + 100000 z_0_7 + 100000 z_0_9 <= 800824.79500357865
 c1405: 120 p_0_8 + 120 p_0_9 + 100000 z_0_8 + 100000 z_0_9 <= 201589.46562582609
 c1406: 120 p_0_1 + 120 p_0_8 + 120 p_0_9 + 100000 z_0_1 + 100000 z_0_8 + 100000 z_0_9 <= 301038.56059571909
 c1407: 120 p_0_2 + 120 p_0_8 + 120 p_0_9 + 100000 z_0_2 + 100000 z_0_8 + 100000 z_0_9 <= 301561.86366563756
 c1408: 120 p_0_1 + 120 p_0_2 + 120 p_0_8 + 120 p_0_9 + 100000 z_0_1 + 100000 z_0_2 + 100000 z_0_8 + 100000 z_0_9 <= 401010.95863553055
 c1409: 120 p_0_3 + 120 p_0_8 + 120 p_0_9 + 100000 z_0_3 + 100000 z_0_8 + 100000 z_0_9 <= 301456.91961835022
 c1410: 120 p_0_1 + 120 p_0_3 + 120 p_0_8 + 120 p_0_9 + 100000 z_0_1 + 100000 z_0_3 + 100000 z_0_8 + 100000 z_0_9 <= 400943.68746833847
 c1411: 120 p_0_2 + 120 p_0_3 + 120 p_0_8 + 120 p_0_9 + 100000 z_0_2 + 100000 z_0_3 + 100000 z_0_8 + 100000 z_0_9 <= 401429.31765816174
 c1412: 120 p_0_1 + 120 p_0_2 + 120 p_0_3 + 120 p_0_8 + 120 p_0_9 + 100000 z_0_1 + 100000 z_0_2 + 100000 z_0_3 + 100000 z_0_8 + 100000 z_0_9 <= 500916.08550814993
 c1413: 120 p_0_4 + 120 p_0_8 + 120 p_0_9 + 100000 z_0_4 + 100000 z_0_8 + 100000 z_0_9 <= 301194.85902098758
 c1414: 120 p_0_1 + 120 p_0_4 + 120 p_0_8 + 120 p_0_9 + 100000 z_0_1 + 100000 z_0_4 + 100000 z_0_8 + 100000 z_0_9 <= 401034.51672849513
 c1415: 120 p_0_2 + 120 p_0_4 + 120 p_0_8 + 120 p_0_9 + 100000 z_0_2 + 100000 z_0_4 + 100000 z_0_8 + 100000 z_0_9 <= 401167.25706079905
 c1416: 120 p_0_1 + 120 p_0_2 + 120 p_0_4 + 120 p_0_8 + 120 p_0_9 + 100000 z_0_1 + 100000 z_0_2 + 100000 z_0_4 + 100000 z_0_8 + 100000 z_0_9 <= 501006.9147683066
 c1417: 120 p_0_3 + 120 p_0_4 + 120 p_0_8 + 120 p_0_9 + 100000 z_0_3 + 100000 z_0_4 + 100000 z_0_8 + 100000 z_0_9 <= 401103.28875843238
 c1418: 120 p_0_1 + 120 p_0_3 + 120 p_0_4 + 120 p_0_8 + 120 p_0_9 + 100000 z_0_1 + 100000 z_0_3 + 100000 z_0_4 + 100000 z_0_8 + 100000 z_0_9 <= 500942.94646593992
 c1419: 120 p_0_2 + 120 p_0_3 + 120 p_0_4 + 120 p_0_8 + 120 p_0_9 + 100000 z_0_2 + 100000 z_0_3 + 100000 z_0_4 + 100000 z_0_8 + 100000 z_0_9 <= 501075.68679824384
 c1420: 120 p_0_1 + 120 p_0_2 + 120 p_0_3 + 120 p_0_4 + 120 p_0_8 + 120 p_0_9 + 100000 z_0_1 + 100000 z_0_2 + 100000 z_0_3 + 100000 z_0_4 + 100000 z_0_8 + 100000 z_0_9 <= 600915.34450575139
 c1421: 120 p_0_5 + 120 p_0_8 + 120 p_0_9 + 100000 z_0_5 + 100000 z_0_8 + 100000 z_0_9 <= 301552.22392995335
 c1422: 120 p_0_1 + 120 p_0_5 + 120 p_0_8 + 120 p_0_9 + 100000 z_0_1 + 100000 z_0_5 + 100000 z_0_8 + 100000 z_0_9 <= 401010.8855544008
 c1423: 120 p_0_2 + 120 p_0_5 + 120 p_0_8 + 120 p_0_9 + 100000 z_0_2 + 100000 z_0_5 + 100000 z_0_8 + 100000 z_0_9 <= 401539.90895819635
 c1424: 120 p_0_1 + 120 p_0_2 + 120 p_0_5 + 120 p_0_8 + 120 p_0_9 + 100000 z_0_1 + 100000 z_0_2 + 100000 z_0_5 + 100000 z_0_8 + 100000 z_0_9 <= 500998.57058264379
 c1425: 120 p_0_3 + 120 p_0_5 + 120 p_0_8 + 120 p_0_9 + 100000 z_0_3 + 100000 z_0_5 + 100000 z_0_8 + 100000 z_0_9 <= 401419.67792247748
 c1426: 120 p_0_1 + 120 p_0_3 + 120 p_0_5 + 120 p_0_8 + 120 p_0_9 + 100000 z_0_1 + 100000 z_0_3 + 100000 z_0_5 + 100000 z_0_8 + 100000 z_0_9 <= 500906.44577246573
 c1427: 120 p_0_2 + 120 p_0_3 + 120 p_0_5 + 120 p_0_8 + 120 p_0_9 + 100000 z_0_2 + 100000 z_0_3 + 100000 z_0_5 + 100000 z_0_8 + 100000 z_0_9 <= 501407.36295072048
 c1428: 120 p_0_1 + 120 p_0_2 + 120 p_0_3 + 120 p_0_5 + 120 p_0_8 + 120 p_0_9 + 100000 z_0_1 + 100000 z_0_2 + 100000 z_0_3 + 100000 z_0_5 + 100000 z_0_8 + 100000 z_0_9 <= 600894.13080070866
 c1429: 120 p_0_4 + 120 p_0_5 + 120 p_0_8 + 120 p_0_9 + 100000 z_0_4 + 100000 z_0_5 + 100000 z_0_8 + 100000 z_0_9 <= 401157.61732511484
 c1430: 120 p_0_1 + 120 p_0_4 + 120 p_0_5 + 120 p_0_8 + 120 p_0_9 + 100000 z_0_1 + 100000 z_0_4 + 100000 z_0_5 + 100000 z_0_8 + 100000 z_0_9 <= 500997.27503262239
 c1431: 120 p_0_2 + 120 p_0_4 + 120 p_0_5 + 120 p_0_8 + 120 p_0_9 + 100000 z_0_2 + 100000 z_0_4 + 100000 z_0_5 + 100000 z_0_8 + 100000 z_0_9 <= 501145.30235335784
 c1432: 120 p_0_1 + 120 p_0_2 + 120 p_0_4 + 120 p_0_5 + 120 p_0_8 + 120 p_0_9 + 100000 z_0_1 + 100000 z_0_2 + 100000 z_0_4 + 100000 z_0_5 + 100000 z_0_8 + 100000 z_0_9 <= 600984.96006086539
 c1433: 120 p_0_3 + 120 p_0_4 + 120 p_0_5 + 120 p_0_8 + 120 p_0_9 + 100000 z_0_3 + 100000 z_0_4 + 100000 z_0_5 + 100000 z_0_8 + 100000 z_0_9 <= 501066.04706255964
 c1434: 120 p_0_1 + 120 p_0_3 + 120 p_0_4 + 120 p_0_5 + 120 p_0_8 + 120 p_0_9 + 100000 z_0_1 + 100000 z_0_3 + 100000 z_0_4 + 100000 z_0_5 + 100000 z_0_8 + 100000 z_0_9 <= 600905.70477006724
 c1435: 120 p_0_2 + 120 p_0_3 + 120 p_0_4 + 120 p_0_5 + 120 p_0_8 + 120 p_0_9 + 100000 z_0_2 + 100000 z_0_3 + 100000 z_0_4 + 100000 z_0_5 + 100000 z_0_8 + 100000 z_0_9 <= 601053.73209080263
 c1436: 120 p_0_1 + 120 p_0_2 + 120 p_0_3 + 120 p_0_4 + 120 p_0_5 + 120 p_0_8 + 120 p_0_9 + 100000 z_0_1 + 100000 z_0_2 + 100000 z_0_3 + 100000 z_0_4 + 100000 z_0_5 + 100000 z_0_8 + 100000 z_0_9 <= 700893.38979831024
 c1437: 120 p_0_6 + 120 p_0_8 + 120 p_0_9 + 100000 z_0_6 + 100000 z_0_8 + 100000 z_0_9 <= 301557.06125953415
 c1438: 120 p_0_1 + 120 p_0_6 + 120 p_0_8 + 120 p_0_9 + 100000 z_0_1 + 100000 z_0_6 + 100000 z_0_8 + 100000 z_0_9 <= 401006.15622942714
 c1439: 120 p_0_2 + 120 p_0_6 + 120 p_0_8 + 120 p_0_9 + 100000 z_0_2 + 100000 z_0_6 + 100000 z_0_8 + 100000 z_0_9 <= 401531.07802707067
 c1440: 120 p_0_1 + 120 p_0_2 + 120 p_0_6 + 120 p_0_8 + 120 p_0_9 + 100000 z_0_1 + 100000 z_0_2 + 100000 z_0_6 + 100000 z_0_8 + 100000 z_0_9 <= 500980.17299696367
 c1441: 120 p_0_3 + 120 p_0_6 + 120 p_0_8 + 120 p_0_9 + 100000 z_0_3 + 100000 z_0_6 + 100000 z_0_8 + 100000 z_0_9 <= 401424.51525205828
 c1442: 120 p_0_1 + 120 p_0_3 + 120 p_0_6 + 120 p_0_8 + 120 p_0_9 + 100000 z_0_1 + 100000 z_0_3 + 100000 z_0_6 + 100000 z_0_8 + 100000 z_0_9 <= 500911.28310204647
 c1443: 120 p_0_2 + 120 p_0_3 + 120 p_0_6 + 120 p_0_8 + 120 p_0_9 + 100000 z_0_2 + 100000 z_0_3 + 100000 z_0_6 + 100000 z_0_8 + 100000 z_0_9 <= 501398.53201959486
 c1444: 120 p_0_1 + 120 p_0_2 + 120 p_0_3 + 120 p_0_6 + 120 p_0_8 + 120 p_0_9 + 100000 z_0_1 + 100000 z_0_2 + 100000 z_0_3 + 100000 z_0_6 + 100000 z_0_8 + 100000 z_0_9 <= 600885.2998695831
 c1445: 120 p_0_4 + 120 p_0_6 + 120 p_0_8 + 120 p_0_9 + 100000 z_0_4 + 100000 z_0_6 + 100000 z_0_8 + 100000 z_0_9 <= 401162.45465469558
 c1446: 120 p_0_1 + 120 p_0_4 + 120 p_0_6 + 120 p_0_8 + 120 p_0_9 + 100000 z_0_1 + 100000 z_0_4 + 100000 z_0_6 + 100000 z_0_8 + 100000 z_0_9 <= 501002.11236220313
 c1447: 120 p_0_2 + 120 p_0_4 + 120 p_0_6 + 120 p_0_8 + 120 p_0_9 + 100000 z_0_2 + 100000 z_0_4 + 100000 z_0_6 + 100000 z_0_8 + 100000 z_0_9 <= 501136.47142223216
 c1448: 120 p_0_1 + 120 p_0_2 + 120 p_0_4 + 120 p_0_6 + 120 p_0_8 + 120 p_0_9 + 100000 z_0_1 + 100000 z_0_2 + 100000 z_0_4 + 100000 z_0_6 + 100000 z_0_8 + 100000 z_0_9 <= 600976.12912973971
 c1449: 120 p_0_3 + 120 p_0_4 + 120 p_0_6 + 120 p_0_8 + 120 p_0_9 + 100000 z_0_3 + 100000 z_0_4 + 100000 z_0_6 + 100000 z_0_8 + 100000 z_0_9 <= 501070.88439214043
 c1450: 120 p_0_1 + 120 p_0_3 + 120 p_0_4 + 120 p_0_6 + 120 p_0_8 + 120 p_0_9 + 100000 z_0_1 + 100000 z_0_3 + 100000 z_0_4 + 100000 z_0_6 + 100000 z_0_8 + 100000 z_0_9 <= 600910.54209964792
 c1451: 120 p_0_2 + 120 p_0_3 + 120 p_0_4 + 120 p_0_6 + 120 p_0_8 + 120 p_0_9 + 100000 z_0_2 + 100000 z_0_3 + 100000 z_0_4 + 100000 z_0_6 + 100000 z_0_8 + 100000 z_0_9 <= 601044.90115967696
 c1452: 120 p_0_1 + 120 p_0_2 + 120 p_0_3 + 120 p_0_4 + 120 p_0_6 + 120 p_0_8 + 120 p_0_9 + 100000 z_0_1 + 100000 z_0_2 + 100000 z_0_3 + 100000 z_0_4 + 100000 z_0_6 + 100000 z_0_8 + 100000 z_0_9 <= 700884.55886718456
 c1453: 120 p_0_5 + 120 p_0_6 + 120 p_0_8 + 120 p_0_9 + 100000 z_0_5 + 100000 z_0_6 + 100000 z_0_8 + 100000 z_0_9 <= 401519.81956366135
 c1454: 120 p_0_1 + 120 p_0_5 + 120 p_0_6 + 120 p_0_8 + 120 p_0_9 + 100000 z_0_1 + 100000 z_0_5 + 100000 z_0_6 + 100000 z_0_8 + 100000 z_0_9 <= 500978.4811881088
 c1455: 120 p_0_2 + 120 p_0_5 + 120 p_0_6 + 120 p_0_8 + 120 p_0_9 + 100000 z_0_2 + 100000 z_0_5 + 100000 z_0_6 + 100000 z_0_8 + 100000 z_0_9 <= 501507.50459190441
 c1456: 120 p_0_1 + 120 p_0_2 + 120 p_0_5 + 120 p_0_6 + 120 p_0_8 + 120 p_0_9 + 100000 z_0_1 + 100000 z_0_2 + 100000 z_0_5 + 100000 z_0_6 + 100000 z_0_8 + 100000 z_0_9 <= 600966.16621635179
 c1457: 120 p_0_3 + 120 p_0_5 + 120 p_0_6 + 120 p_0_8 + 120 p_0_9 + 100000 z_0_3 + 100000 z_0_5 + 100000 z_0_6 + 100000 z_0_8 + 100000 z_0_9 <= 501387.27355618554
 c1458: 120 p_0_1 + 120 p_0_3 + 120 p_0_5 + 120 p_0_6 + 120 p_0_8 + 120 p_0_9 + 100000 z_0_1 + 100000 z_0_3 + 100000 z_0_5 + 100000 z_0_6 + 100000 z_0_8 + 100000 z_0_9 <= 600874.04140617372
 c1459: 120 p_0_2 + 120 p_0_3 + 120 p_0_5 + 120 p_0_6 + 120 p_0_8 + 120 p_0_9 + 100000 z_0_2 + 100000 z_0_3 + 100000 z_0_5 + 100000 z_0_6 + 100000 z_0_8 + 100000 z_0_9 <= 601374.95858442853
 c1460: 120 p_0_1 + 120 p_0_2 + 120 p_0_3 + 120 p_0_5 + 120 p_0_6 + 120 p_0_8 + 120 p_0_9 + 100000 z_0_1 + 100000 z_0_2 + 100000 z_0_3 + 100000 z_0_5 + 100000 z_0_6 + 100000 z_0_8 + 100000 z_0_9 <= 700861.72643441672
 c1461: 120 p_0_4 + 120 p_0_5 + 120 p_0_6 + 120 p_0_8 + 120 p_0_9 + 100000 z_0_4 + 100000 z_0_5 + 100000 z_0_6 + 100000 z_0_8 + 100000 z_0_9 <= 501125.21295882284
 c1462: 120 p_0_1 + 120 p_0_4 + 120 p_0_5 + 120 p_0_6 + 120 p_0_8 + 120 p_0_9 + 100000 z_0_1 + 100000 z_0_4 + 100000 z_0_5 + 100000 z_0_6 + 100000 z_0_8 + 100000 z_0_9 <= 600964.87066633045
 c1463: 120 p_0_2 + 120 p_0_4 + 120 p_0_5 + 120 p_0_6 + 120 p_0_8 + 120 p_0_9 + 100000 z_0_2 + 100000 z_0_4 + 100000 z_0_5 + 100000 z_0_6 + 100000 z_0_8 + 100000 z_0_9 <= 601112.89798706584
 c1464: 120 p_0_1 + 120 p_0_2 + 120 p_0_4 + 120 p_0_5 + 120 p_0_6 + 120 p_0_8 + 120 p_0_9 + 100000 z_0_1 + 100000 z_0_2 + 100000 z_0_4 + 100000 z_0_5 + 100000 z_0_6 + 100000 z_0_8 + 100000 z_0_9 <= 700952.55569457344
 c1465: 120 p_0_3 + 120 p_0_4 + 120 p_0_5 + 120 p_0_6 + 120 p_0_8 + 120 p_0_9 + 100000 z_0_3 + 100000 z_0_4 + 100000 z_0_5 + 100000 z_0_6 + 100000 z_0_8 + 100000 z_0_9 <= 601033.64269626769
 c1466: 120 p_0_1 + 120 p_0_3 + 120 p_0_4 + 120 p_0_5 + 120 p_0_6 + 120 p_0_8 + 120 p_0_9 + 100000 z_0_1 + 100000 z_0_3 + 100000 z_0_4 + 100000 z_0_5 + 100000 z_0_6 + 100000 z_0_8 + 100000 z_0_9 <= 700873.30040377518
 c1467: 120 p_0_2 + 120 p_0_3 + 120 p_0_4 + 120 p_0_5 + 120 p_0_6 + 120 p_0_8 + 120 p_0_9 + 100000 z_0_2 + 100000 z_0_3 + 100000 z_0_4 + 100000 z_0_5 + 100000 z_0_6 + 100000 z_0_8 + 100000 z_0_9 <= 701021.32772451069
 c1468: 120 p_0_1 + 120 p_0_2 + 120 p_0_3 + 120 p_0_4 + 120 p_0_5 + 120 p_0_6 + 120 p_0_8 + 120 p_0_9 + 100000 z_0_1 + 100000 z_0_2 + 100000 z_0_3 + 100000 z_0_4 + 100000 z_0_5 + 100000 z_0_6 + 100000 z_0_8 + 100000 z_0_9 <= 800860.98543201829
 c1469: 120 p_0_7 + 120 p_0_8 + 120 p_0_9 + 100000 z_0_7 + 100000 z_0_8 + 100000 z_0_9 <= 301019.8912396048
 c1470: 120 p_0_1 + 120 p_0_7 + 120 p_0_8 + 120 p_0_9 + 100000 z_0_1 + 100000 z_0_7 + 100000 z_0_8 + 100000 z_0_9 <= 400999.07364350138
 c1471: 120 p_0_2 + 120 p_0_7 + 120 p_0_8 + 120 p_0_9 + 100000 z_0_2 + 100000 z_0_7 + 100000 z_0_8 + 100000 z_0_9 <= 400995.37105622346
 c1472: 120 p_0_1 + 120 p_0_2 + 120 p_0_7 + 120 p_0_8 + 120 p_0_9 + 100000 z_0_1 + 100000 z_0_2 + 100000 z_0_7 + 100000 z_0_8 + 100000 z_0_9 <= 500974.55346012005
 c1473: 120 p_0_3 + 120 p_0_7 + 120 p_0_8 + 120 p_0_9 + 100000 z_0_3 + 100000 z_0_7 + 100000 z_0_8 + 100000 z_0_9 <= 400910.17992054898
 c1474: 120 p_0_1 + 120 p_0_3 + 120 p_0_7 + 120 p_0_8 + 120 p_0_9 + 100000 z_0_1 + 100000 z_0_3 + 100000 z_0_7 + 100000 z_0_8 + 100000 z_0_9 <= 500903.20491684001
 c1475: 120 p_0_2 + 120 p_0_3 + 120 p_0_7 + 120 p_0_8 + 120 p_0_9 + 100000 z_0_2 + 100000 z_0_3 + 100000 z_0_7 + 100000 z_0_8 + 100000 z_0_9 <= 500882.5779603605
 c1476: 120 p_0_1 + 120 p_0_2 + 120 p_0_3 + 120 p_0_7 + 120 p_0_8 + 120 p_0_9 + 100000 z_0_1 + 100000 z_0_2 + 100000 z_0_3 + 100000 z_0_7 + 100000 z_0_8 + 100000 z_0_9 <= 600875.60295665148
 c1477: 120 p_0_4 + 120 p_0_7 + 120 p_0_8 + 120 p_0_9 + 100000 z_0_4 + 100000 z_0_7 + 100000 z_0_8 + 100000 z_0_9 <= 400998.05530313257
 c1478: 120 p_0_1 + 120 p_0_4 + 120 p_0_7 + 120 p_0_8 + 120 p_0_9 + 100000 z_0_1 + 100000 z_0_4 + 100000 z_0_7 + 100000 z_0_8 + 100000 z_0_9 <= 500994.03417699668
 c1479: 120 p_0_2 + 120 p_0_4 + 120 p_0_7 + 120 p_0_8 + 120 p_0_9 + 100000 z_0_2 + 100000 z_0_4 + 100000 z_0_7 + 100000 z_0_8 + 100000 z_0_9 <= 500970.45334294403
 c1480: 120 p_0_1 + 120 p_0_2 + 120 p_0_4 + 120 p_0_7 + 120 p_0_8 + 120 p_0_9 + 100000 z_0_1 + 100000 z_0_2 + 100000 z_0_4 + 100000 z_0_7 + 100000 z_0_8 + 100000 z_0_9 <= 600966.4322168082
 c1481: 120 p_0_3 + 120 p_0_4 + 120 p_0_7 + 120 p_0_8 + 120 p_0_9 + 100000 z_0_3 + 100000 z_0_4 + 100000 z_0_7 + 100000 z_0_8 + 100000 z_0_9 <= 500906.48504057736
 c1482: 120 p_0_1 + 120 p_0_3 + 120 p_0_4 + 120 p_0_7 + 120 p_0_8 + 120 p_0_9 + 100000 z_0_1 + 100000 z_0_3 + 100000 z_0_4 + 100000 z_0_7 + 100000 z_0_8 + 100000 z_0_9 <= 600902.46391444153
 c1483: 120 p_0_2 + 120 p_0_3 + 120 p_0_4 + 120 p_0_7 + 120 p_0_8 + 120 p_0_9 + 100000 z_0_2 + 100000 z_0_3 + 100000 z_0_4 + 100000 z_0_7 + 100000 z_0_8 + 100000 z_0_9 <= 600878.88308038888
 c1484: 120 p_0_1 + 120 p_0_2 + 120 p_0_3 + 120 p_0_4 + 120 p_0_7 + 120 p_0_8 + 120 p_0_9 + 100000 z_0_1 + 100000 z_0_2 + 100000 z_0_3 + 100000 z_0_4 + 100000 z_0_7 + 100000 z_0_8 + 100000 z_0_9 <= 700874.86195425293
 c1485: 120 p_0_5 + 120 p_0_7 + 120 p_0_8 + 120 p_0_9 + 100000 z_0_5 + 100000 z_0_7 + 100000 z_0_8 + 100000 z_0_9 <= 401003.44734627451
 c1486: 120 p_0_1 + 120 p_0_5 + 120 p_0_7 + 120 p_0_8 + 120 p_0_9 + 100000 z_0_1 + 100000 z_0_5 + 100000 z_0_7 + 100000 z_0_8 + 100000 z_0_9 <= 500982.62975017109
 c1487: 120 p_0_2 + 120 p_0_5 + 120 p_0_7 + 120 p_0_8 + 120 p_0_9 + 100000 z_0_2 + 100000 z_0_5 + 100000 z_0_7 + 100000 z_0_8 + 100000 z_0_9 <= 500991.1323745175
 c1488: 120 p_0_1 + 120 p_0_2 + 120 p_0_5 + 120 p_0_7 + 120 p_0_8 + 120 p_0_9 + 100000 z_0_1 + 100000 z_0_2 + 100000 z_0_5 + 100000 z_0_7 + 100000 z_0_8 + 100000 z_0_9 <= 600970.31477841409
 c1489: 120 p_0_3 + 120 p_0_5 + 120 p_0_7 + 120 p_0_8 + 120 p_0_9 + 100000 z_0_3 + 100000 z_0_5 + 100000 z_0_7 + 100000 z_0_8 + 100000 z_0_9 <= 500876.25978945126
 c1490: 120 p_0_1 + 120 p_0_3 + 120 p_0_5 + 120 p_0_7 + 120 p_0_8 + 120 p_0_9 + 100000 z_0_1 + 100000 z_0_3 + 100000 z_0_5 + 100000 z_0_7 + 100000 z_0_8 + 100000 z_0_9 <= 600869.28478574229
 c1491: 120 p_0_2 + 120 p_0_3 + 120 p_0_5 + 120 p_0_7 + 120 p_0_8 + 120 p_0_9 + 100000 z_0_2 + 100000 z_0_3 + 100000 z_0_5 + 100000 z_0_7 + 100000 z_0_8 + 100000 z_0_9 <= 600863.94481769425
 c1492: 120 p_0_1 + 120 p_0_2 + 120 p_0_3 + 120 p_0_5 + 120 p_0_7 + 120 p_0_8 + 120 p_0_9 + 100000 z_0_1 + 100000 z_0_2 + 100000 z_0_3 + 100000 z_0_5 + 100000 z_0_7 + 100000 z_0_8 + 100000 z_0_9 <= 700856.96981398528
 c1493: 120 p_0_4 + 120 p_0_5 + 120 p_0_7 + 120 p_0_8 + 120 p_0_9 + 100000 z_0_4 + 100000 z_0_5 + 100000 z_0_7 + 100000 z_0_8 + 100000 z_0_9 <= 500964.13517203479
 c1494: 120 p_0_1 + 120 p_0_4 + 120 p_0_5 + 120 p_0_7 + 120 p_0_8 + 120 p_0_9 + 100000 z_0_1 + 100000 z_0_4 + 100000 z_0_5 + 100000 z_0_7 + 100000 z_0_8 + 100000 z_0_9 <= 600960.1140458989
 c1495: 120 p_0_2 + 120 p_0_4 + 120 p_0_5 + 120 p_0_7 + 120 p_0_8 + 120 p_0_9 + 100000 z_0_2 + 100000 z_0_4 + 100000 z_0_5 + 100000 z_0_7 + 100000 z_0_8 + 100000 z_0_9 <= 600951.82020027784
 c1496: 120 p_0_1 + 120 p_0_2 + 120 p_0_4 + 120 p_0_5 + 120 p_0_7 + 120 p_0_8 + 120 p_0_9 + 100000 z_0_1 + 100000 z_0_2 + 100000 z_0_4 + 100000 z_0_5 + 100000 z_0_7 + 100000 z_0_8 + 100000 z_0_9 <= 700947.79907414189
 c1497: 120 p_0_3 + 120 p_0_4 + 120 p_0_5 + 120 p_0_7 + 120 p_0_8 + 120 p_0_9 + 100000 z_0_3 + 100000 z_0_4 + 100000 z_0_5 + 100000 z_0_7 + 100000 z_0_8 + 100000 z_0_9 <= 600872.56490947958
 c1498: 120 p_0_1 + 120 p_0_3 + 120 p_0_4 + 120 p_0_5 + 120 p_0_7 + 120 p_0_8 + 120 p_0_9 + 100000 z_0_1 + 100000 z_0_3 + 100000 z_0_4 + 100000 z_0_5 + 100000 z_0_7 + 100000 z_0_8 + 100000 z_0_9 <= 700868.54378334375
 c1499: 120 p_0_2 + 120 p_0_3 + 120 p_0_4 + 120 p_0_5 + 120 p_0_7 + 120 p_0_8 + 120 p_0_9 + 100000 z_0_2 + 100000 z_0_3 + 100000 z_0_4 + 100000 z_0_5 + 100000 z_0_7 + 100000 z_0_8 + 100000 z_0_9 <= 700860.24993772269
 c1500: 120 p_0_1 + 120 p_0_2 + 120 p_0_3 + 120 p_0_4 + 120 p_0_5 + 120 p_0_7 + 120 p_0_8 + 120 p_0_9 + 100000 z_0_1 + 100000 z_0_2 + 100000 z_0_3 + 100000 z_0_4 + 100000 z_0_5 + 100000 z_0_7 + 100000 z_0_8 + 100000 z_0_9 <= 800856.22881158674
 c1501: 120 p_0_6 + 120 p_0_7 + 120 p_0_8 + 120 p_0_9 + 100000 z_0_6 + 100000 z_0_7 + 100000 z_0_8 + 100000 z_0_9 <= 400987.48687331285
 c1502: 120 p_0_1 + 120 p_0_6 + 120 p_0_7 + 120 p_0_8 + 120 p_0_9 + 100000 z_0_1 + 100000 z_0_6 + 100000 z_0_7 + 100000 z_0_8 + 100000 z_0_9 <= 500966.66927720944
 c1503: 120 p_0_2 + 120 p_0_6 + 120 p_0_7 + 120 p_0_8 + 120 p_0_9 + 100000 z_0_2 + 100000 z_0_6 + 100000 z_0_7 + 100000 z_0_8 + 100000 z_0_9 <= 500962.96668993146
 c1504: 120 p_0_1 + 120 p_0_2 + 120 p_0_6 + 120 p_0_7 + 120 p_0_8 + 120 p_0_9 + 100000 z_0_1 + 100000 z_0_2 + 100000 z_0_6 + 100000 z_0_7 + 100000 z_0_8 + 100000 z_0_9 <= 600942.14909382805
 c1505: 120 p_0_3 + 120 p_0_6 + 120 p_0_7 + 120 p_0_8 + 120 p_0_9 + 100000 z_0_3 + 100000 z_0_6 + 100000 z_0_7 + 100000 z_0_8 + 100000 z_0_9 <= 500877.77555425704
 c1506: 120 p_0_1 + 120 p_0_3 + 120 p_0_6 + 120 p_0_7 + 120 p_0_8 + 120 p_0_9 + 100000 z_0_1 + 100000 z_0_3 + 100000 z_0_6 + 100000 z_0_7 + 100000 z_0_8 + 100000 z_0_9 <= 600870.80055054801
 c1507: 120 p_0_2 + 120 p_0_3 + 120 p_0_6 + 120 p_0_7 + 120 p_0_8 + 120 p_0_9 + 100000 z_0_2 + 100000 z_0_3 + 100000 z_0_6 + 100000 z_0_7 + 100000 z_0_8 + 100000 z_0_9 <= 600851.79232179362
 c1508: 120 p_0_1 + 120 p_0_2 + 120 p_0_3 + 120 p_0_6 + 120 p_0_7 + 120 p_0_8 + 120 p_0_9 + 100000 z_0_1 + 100000 z_0_2 + 100000 z_0_3 + 100000 z_0_6 + 100000 z_0_7 + 100000 z_0_8 + 100000 z_0_9 <= 700844.81731808465
 c1509: 120 p_0_4 + 120 p_0_6 + 120 p_0_7 + 120 p_0_8 + 120 p_0_9 + 100000 z_0_4 + 100000 z_0_6 + 100000 z_0_7 + 100000 z_0_8 + 100000 z_0_9 <= 500965.65093684057
 c1510: 120 p_0_1 + 120 p_0_4 + 120 p_0_6 + 120 p_0_7 + 120 p_0_8 + 120 p_0_9 + 100000 z_0_1 + 100000 z_0_4 + 100000 z_0_6 + 100000 z_0_7 + 100000 z_0_8 + 100000 z_0_9 <= 600961.62981070473
 c1511: 120 p_0_2 + 120 p_0_4 + 120 p_0_6 + 120 p_0_7 + 120 p_0_8 + 120 p_0_9 + 100000 z_0_2 + 100000 z_0_4 + 100000 z_0_6 + 100000 z_0_7 + 100000 z_0_8 + 100000 z_0_9 <= 600939.66770437721
 c1512: 120 p_0_1 + 120 p_0_2 + 120 p_0_4 + 120 p_0_6 + 120 p_0_7 + 120 p_0_8 + 120 p_0_9 + 100000 z_0_1 + 100000 z_0_2 + 100000 z_0_4 + 100000 z_0_6 + 100000 z_0_7 + 100000 z_0_8 + 100000 z_0_9 <= 700935.64657824126
 c1513: 120 p_0_3 + 120 p_0_4 + 120 p_0_6 + 120 p_0_7 + 120 p_0_8 + 120 p_0_9 + 100000 z_0_3 + 100000 z_0_4 + 100000 z_0_6 + 100000 z_0_7 + 100000 z_0_8 + 100000 z_0_9 <= 600874.08067428542
 c1514: 120 p_0_1 + 120 p_0_3 + 120 p_0_4 + 120 p_0_6 + 120 p_0_7 + 120 p_0_8 + 120 p_0_9 + 100000 z_0_1 + 100000 z_0_3 + 100000 z_0_4 + 100000 z_0_6 + 100000 z_0_7 + 100000 z_0_8 + 100000 z_0_9 <= 700870.05954814947
 c1515: 120 p_0_2 + 120 p_0_3 + 120 p_0_4 + 120 p_0_6 + 120 p_0_7 + 120 p_0_8 + 120 p_0_9 + 100000 z_0_2 + 100000 z_0_3 + 100000 z_0_4 + 100000 z_0_6 + 100000 z_0_7 + 100000 z_0_8 + 100000 z_0_9 <= 700848.09744182194
 c1516: 120 p_0_1 + 120 p_0_2 + 120 p_0_3 + 120 p_0_4 + 120 p_0_6 + 120 p_0_7 + 120 p_0_8 + 120 p_0_9 + 100000 z_0_1 + 100000 z_0_2 + 100000 z_0_3 + 100000 z_0_4 + 100000 z_0_6 + 100000 z_0_7 + 100000 z_0_8 + 100000 z_0_9 <= 800844.07631568611
 c1517: 120 p_0_5 + 120 p_0_6 + 120 p_0_7 + 120 p_0_8 + 120 p_0_9 + 100000 z_0_5 + 100000 z_0_6 + 100000 z_0_7 + 100000 z_0_8 + 100000 z_0_9 <= 500971.04297998251
 c1518: 120 p_0_1 + 120 p_0_5 + 120 p_0_6 + 120 p_0_7 + 120 p_0_8 + 120 p_0_9 + 100000 z_0_1 + 100000 z_0_5 + 100000 z_0_6 + 100000 z_0_7 + 100000 z_0_8 + 100000 z_0_9 <= 600950.22538387915
 c1519: 120 p_0_2 + 120 p_0_5 + 120 p_0_6 + 120 p_0_7 + 120 p_0_8 + 120 p_0_9 + 100000 z_0_2 + 100000 z_0_5 + 100000 z_0_6 + 100000 z_0_7 + 100000 z_0_8 + 100000 z_0_9 <= 600958.72800822556
 c1520: 120 p_0_1 + 120 p_0_2 + 120 p_0_5 + 120 p_0_6 + 120 p_0_7 + 120 p_0_8 + 120 p_0_9 + 100000 z_0_1 + 100000 z_0_2 + 100000 z_0_5 + 100000 z_0_6 + 100000 z_0_7 + 100000 z_0_8 + 100000 z_0_9 <= 700937.91041212215
 c1521: 120 p_0_3 + 120 p_0_5 + 120 p_0_6 + 120 p_0_7 + 120 p_0_8 + 120 p_0_9 + 100000 z_0_3 + 100000 z_0_5 + 100000 z_0_6 + 100000 z_0_7 + 100000 z_0_8 + 100000 z_0_9 <= 600840.53385838424
 c1522: 120 p_0_1 + 120 p_0_3 + 120 p_0_5 + 120 p_0_6 + 120 p_0_7 + 120 p_0_8 + 120 p_0_9 + 100000 z_0_1 + 100000 z_0_3 + 100000 z_0_5 + 100000 z_0_6 + 100000 z_0_7 + 100000 z_0_8 + 100000 z_0_9 <= 700833.55885467527
 c1523: 120 p_0_2 + 120 p_0_3 + 120 p_0_5 + 120 p_0_6 + 120 p_0_7 + 120 p_0_8 + 120 p_0_9 + 100000 z_0_2 + 100000 z_0_3 + 100000 z_0_5 + 100000 z_0_6 + 100000 z_0_7 + 100000 z_0_8 + 100000 z_0_9 <= 700828.21888662735
 c1524: 120 p_0_1 + 120 p_0_2 + 120 p_0_3 + 120 p_0_5 + 120 p_0_6 + 120 p_0_7 + 120 p_0_8 + 120 p_0_9 + 100000 z_0_1 + 100000 z_0_2 + 100000 z_0_3 + 100000 z_0_5 + 100000 z_0_6 + 100000 z_0_7 + 100000 z_0_8 + 100000 z_0_9 <= 800821.24388291826
 c1525: 120 p_0_4 + 120 p_0_5 + 120 p_0_6 + 120 p_0_7 + 120 p_0_8 + 120 p_0_9 + 100000 z_0_4 + 100000 z_0_5 + 100000 z_0_6 + 100000 z_0_7 + 100000 z_0_8 + 100000 z_0_9 <= 600928.40924096783
 c1526: 120 p_0_1 + 120 p_0_4 + 120 p_0_5 + 120 p_0_6 + 120 p_0_7 + 120 p_0_8 + 120 p_0_9 + 100000 z_0_1 + 100000 z_0_4 + 100000 z_0_5 + 100000 z_0_6 + 100000 z_0_7 + 100000 z_0_8 + 100000 z_0_9 <= 700924.38811483199
 c1527: 120 p_0_2 + 120 p_0_4 + 120 p_0_5 + 120 p_0_6 + 120 p_0_7 + 120 p_0_8 + 120 p_0_9 + 100000 z_0_2 + 100000 z_0_4 + 100000 z_0_5 + 100000 z_0_6 + 100000 z_0_7 + 100000 z_0_8 + 100000 z_0_9 <= 700916.09426921082
 c1528: 120 p_0_1 + 120 p_0_2 + 120 p_0_4 + 120 p_0_5 + 120 p_0_6 + 120 p_0_7 + 120 p_0_8 + 120 p_0_9 + 100000 z_0_1 + 100000 z_0_2 + 100000 z_0_4 + 100000 z_0_5 + 100000 z_0_6 + 100000 z_0_7 + 100000 z_0_8 + 100000 z_0_9 <= 800912.07314307499
 c1529: 120 p_0_3 + 120 p_0_4 + 120 p_0_5 + 120 p_0_6 + 120 p_0_7 + 120 p_0_8 + 120 p_0_9 + 100000 z_0_3 + 100000 z_0_4 + 100000 z_0_5 + 100000 z_0_6 + 100000 z_0_7 + 100000 z_0_8 + 100000 z_0_9 <= 700836.83897841268
 c1530: 120 p_0_1 + 120 p_0_3 + 120 p_0_4 + 120 p_0_5 + 120 p_0_6 + 120 p_0_7 + 120 p_0_8 + 120 p_0_9 + 100000 z_0_1 + 100000 z_0_3 + 100000 z_0_4 + 100000 z_0_5 + 100000 z_0_6 + 100000 z_0_7 + 100000 z_0_8 + 100000 z_0_9 <= 800832.81785227673
 c1531: 120 p_0_2 + 120 p_0_3 + 120 p_0_4 + 120 p_0_5 + 120 p_0_6 + 120 p_0_7 + 120 p_0_8 + 120 p_0_9 + 100000 z_0_2 + 100000 z_0_3 + 100000 z_0_4 + 100000 z_0_5 + 100000 z_0_6 + 100000 z_0_7 + 100000 z_0_8 + 100000 z_0_9 <= 800824.52400665567
 c1532: 120 p_0_1 + 120 p_0_2 + 120 p_0_3 + 120 p_0_4 + 120 p_0_5 + 120 p_0_6 + 120 p_0_7 + 120 p_0_8 + 120 p_0_9 + 100000 z_0_1 + 100000 z_0_2 + 100000 z_0_3 + 100000 z_0_4 + 100000 z_0_5 + 100000 z_0_6 + 100000 z_0_7 + 100000 z_0_8 + 100000 z_0_9 <= 900820.50288051972
 c1533: 120 p_0_10 + 100000 z_0_10 <= 101870.22512882868
 c1534: 120 p_0_1 + 120 p_0_10 + 100000 z_0_1 + 100000 z_0_10 <= 201776.96281901607
 c1535: 120 p_0_10 + 120 p_0_2 + 100000 z_0_10 + 100000 z_0_2 <= 201551.36601861735
 c1536: 120 p_0_1 + 120 p_0_10 + 120 p_0_2 + 100000 z_0_1 + 100000 z_0_10 + 100000 z_0_2 <= 301472.56458837871
 c1537: 120 p_0_10 + 120 p_0_3 + 100000 z_0_10 + 100000 z_0_3 <= 201319.14590779739
 c1538: 120 p_0_1 + 120 p_0_10 + 120 p_0_3 + 100000 z_0_1 + 100000 z_0_10 + 100000 z_0_3 <= 301225.88359798474
 c1539: 120 p_0_10 + 120 p_0_2 + 120 p_0_3 + 100000 z_0_10 + 100000 z_0_2 + 100000 z_0_3 <= 301019.30286660942
 c1540: 120 p_0_1 + 120 p_0_10 + 120 p_0_2 + 120 p_0_3 + 100000 z_0_1 + 100000 z_0_10 + 100000 z_0_2 + 100000 z_0_3 <= 400926.04055679683
 c1541: 120 p_0_10 + 120 p_0_4 + 100000 z_0_10 + 100000 z_0_4 <= 201852.5184310248
 c1542: 120 p_0_1 + 120 p_0_10 + 120 p_0_4 + 100000 z_0_1 + 100000 z_0_10 + 100000 z_0_4 <= 301759.25612121221
 c1543: 120 p_0_10 + 120 p_0_2 + 120 p_0_4 + 100000 z_0_10 + 100000 z_0_2 + 100000 z_0_4 <= 301533.65932081349
 c1544: 120 p_0_1 + 120 p_0_10 + 120 p_0_2 + 120 p_0_4 + 100000 z_0_1 + 100000 z_0_10 + 100000 z_0_2 + 100000 z_0_4 <= 401454.85789057484
 c1545: 120 p_0_10 + 120 p_0_3 + 120 p_0_4 + 100000 z_0_10 + 100000 z_0_3 + 100000 z_0_4 <= 301318.37918608251
 c1546: 120 p_0_1 + 120 p_0_10 + 120 p_0_3 + 120 p_0_4 + 100000 z_0_1 + 100000 z_0_10 + 100000 z_0_3 + 100000 z_0_4 <= 401225.11687626992
 c1547: 120 p_0_10 + 120 p_0_2 + 120 p_0_3 + 120 p_0_4 + 100000 z_0_10 + 100000 z_0_2 + 100000 z_0_3 + 100000 z_0_4 <= 401018.53614489461
 c1548: 120 p_0_1 + 120 p_0_10 + 120 p_0_2 + 120 p_0_3 + 120 p_0_4 + 100000 z_0_1 + 100000 z_0_10 + 100000 z_0_2 + 100000 z_0_3 + 100000 z_0_4 <= 500925.27383508196
 c1549: 120 p_0_10 + 120 p_0_5 + 100000 z_0_10 + 100000 z_0_5 <= 201574.4535878743
 c1550: 120 p_0_1 + 120 p_0_10 + 120 p_0_5 + 100000 z_0_1 + 100000 z_0_10 + 100000 z_0_5 <= 301497.54423569579
 c1551: 120 p_0_10 + 120 p_0_2 + 120 p_0_5 + 100000 z_0_10 + 100000 z_0_2 + 100000 z_0_5 <= 301544.16613237339
 c1552: 120 p_0_1 + 120 p_0_10 + 120 p_0_2 + 120 p_0_5 + 100000 z_0_1 + 100000 z_0_10 + 100000 z_0_2 + 100000 z_0_5 <= 401467.25678019488
 c1553: 120 p_0_10 + 120 p_0_3 + 120 p_0_5 + 100000 z_0_10 + 100000 z_0_3 + 100000 z_0_5 <= 301023.37436684303
 c1554: 120 p_0_1 + 120 p_0_10 + 120 p_0_3 + 120 p_0_5 + 100000 z_0_1 + 100000 z_0_10 + 100000 z_0_3 + 100000 z_0_5 <= 400946.46501466451
 c1555: 120 p_0_10 + 120 p_0_2 + 120 p_0_3 + 120 p_0_5 + 100000 z_0_10 + 100000 z_0_2 + 100000 z_0_3 + 100000 z_0_5 <= 400999.75862635201
 c1556: 120 p_0_1 + 120 p_0_10 + 120 p_0_2 + 120 p_0_3 + 120 p_0_5 + 100000 z_0_1 + 100000 z_0_10 + 100000 z_0_2 + 100000 z_0_3 + 100000 z_0_5 <= 500916.1775591636
 c1557: 120 p_0_10 + 120 p_0_4 + 120 p_0_5 + 100000 z_0_10 + 100000 z_0_4 + 100000 z_0_5 <= 301556.74689007044
 c1558: 120 p_0_1 + 120 p_0_10 + 120 p_0_4 + 120 p_0_5 + 100000 z_0_1 + 100000 z_0_10 + 100000 z_0_4 + 100000 z_0_5 <= 401479.83753789193
 c1559: 120 p_0_10 + 120 p_0_2 + 120 p_0_4 + 120 p_0_5 + 100000 z_0_10 + 100000 z_0_2 + 100000 z_0_4 + 100000 z_0_5 <= 401526.45943456952
 c1560: 120 p_0_1 + 120 p_0_10 + 120 p_0_2 + 120 p_0_4 + 120 p_0_5 + 100000 z_0_1 + 100000 z_0_10 + 100000 z_0_2 + 100000 z_0_4 + 100000 z_0_5 <= 501449.55008239101
 c1561: 120 p_0_10 + 120 p_0_3 + 120 p_0_4 + 120 p_0_5 + 100000 z_0_10 + 100000 z_0_3 + 100000 z_0_4 + 100000 z_0_5 <= 401022.60764512816
 c1562: 120 p_0_1 + 120 p_0_10 + 120 p_0_3 + 120 p_0_4 + 120 p_0_5 + 100000 z_0_1 + 100000 z_0_10 + 100000 z_0_3 + 100000 z_0_4 + 100000 z_0_5 <= 500945.69829294964
 c1563: 120 p_0_10 + 120 p_0_2 + 120 p_0_3 + 120 p_0_4 + 120 p_0_5 + 100000 z_0_10 + 100000 z_0_2 + 100000 z_0_3 + 100000 z_0_4 + 100000 z_0_5 <= 500998.99190463714
 c1564: 120 p_0_1 + 120 p_0_10 + 120 p_0_2 + 120 p_0_3 + 120 p_0_4 + 120 p_0_5 + 100000 z_0_1 + 100000 z_0_10 + 100000 z_0_2 + 100000 z_0_3 + 100000 z_0_4 + 100000 z_0_5 <= 600915.41083744867
 c1565: 120 p_0_10 + 120 p_0_6 + 100000 z_0_10 + 100000 z_0_6 <= 201364.14391627
 c1566: 120 p_0_1 + 120 p_0_10 + 120 p_0_6 + 100000 z_0_1 + 100000 z_0_10 + 100000 z_0_6 <= 301270.88160645741
 c1567: 120 p_0_10 + 120 p_0_2 + 120 p_0_6 + 100000 z_0_10 + 100000 z_0_2 + 100000 z_0_6 <= 301119.91863233031
 c1568: 120 p_0_1 + 120 p_0_10 + 120 p_0_2 + 120 p_0_6 + 100000 z_0_1 + 100000 z_0_10 + 100000 z_0_2 + 100000 z_0_6 <= 401041.11720209167
 c1569: 120 p_0_10 + 120 p_0_3 + 120 p_0_6 + 100000 z_0_10 + 100000 z_0_3 + 100000 z_0_6 <= 301225.73121681932
 c1570: 120 p_0_1 + 120 p_0_10 + 120 p_0_3 + 120 p_0_6 + 100000 z_0_1 + 100000 z_0_10 + 100000 z_0_3 + 100000 z_0_6 <= 401132.46890700667
 c1571: 120 p_0_10 + 120 p_0_2 + 120 p_0_3 + 120 p_0_6 + 100000 z_0_10 + 100000 z_0_2 + 100000 z_0_3 + 100000 z_0_6 <= 400980.9194873487
 c1572: 120 p_0_1 + 120 p_0_10 + 120 p_0_2 + 120 p_0_3 + 120 p_0_6 + 100000 z_0_1 + 100000 z_0_10 + 100000 z_0_2 + 100000 z_0_3 + 100000 z_0_6 <= 500887.65717753611
 c1573: 120 p_0_10 + 120 p_0_4 + 120 p_0_6 + 100000 z_0_10 + 100000 z_0_4 + 100000 z_0_6 <= 301358.73814369208
 c1574: 120 p_0_1 + 120 p_0_10 + 120 p_0_4 + 120 p_0_6 + 100000 z_0_1 + 100000 z_0_10 + 100000 z_0_4 + 100000 z_0_6 <= 401265.47583387949
 c1575: 120 p_0_10 + 120 p_0_2 + 120 p_0_4 + 120 p_0_6 + 100000 z_0_10 + 100000 z_0_2 + 100000 z_0_4 + 100000 z_0_6 <= 401113.92641422153
 c1576: 120 p_0_1 + 120 p_0_10 + 120 p_0_2 + 120 p_0_4 + 120 p_0_6 + 100000 z_0_1 + 100000 z_0_10 + 100000 z_0_2 + 100000 z_0_4 + 100000 z_0_6 <= 501023.41050428781
 c1577: 120 p_0_10 + 120 p_0_3 + 120 p_0_4 + 120 p_0_6 + 100000 z_0_10 + 100000 z_0_3 + 100000 z_0_4 + 100000 z_0_6 <= 401224.96449510445
 c1578: 120 p_0_1 + 120 p_0_10 + 120 p_0_3 + 120 p_0_4 + 120 p_0_6 + 100000 z_0_1 + 100000 z_0_10 + 100000 z_0_3 + 100000 z_0_4 + 100000 z_0_6 <= 501131.7021852918
 c1579: 120 p_0_10 + 120 p_0_2 + 120 p_0_3 + 120 p_0_4 + 120 p_0_6 + 100000 z_0_10 + 100000 z_0_2 + 100000 z_0_3 + 100000 z_0_4 + 100000 z_0_6 <= 500980.15276563389
 c1580: 120 p_0_1 + 120 p_0_10 + 120 p_0_2 + 120 p_0_3 + 120 p_0_4 + 120 p_0_6 + 100000 z_0_1 + 100000 z_0_10 + 100000 z_0_2 + 100000 z_0_3 + 100000 z_0_4 + 100000 z_0_6 <= 600886.8904558213
 c1581: 120 p_0_10 + 120 p_0_5 + 120 p_0_6 + 100000 z_0_10 + 100000 z_0_5 + 100000 z_0_6 <= 301122.01096716203
 c1582: 120 p_0_1 + 120 p_0_10 + 120 p_0_5 + 120 p_0_6 + 100000 z_0_1 + 100000 z_0_10 + 100000 z_0_5 + 100000 z_0_6 <= 401045.10161498352
 c1583: 120 p_0_10 + 120 p_0_2 + 120 p_0_5 + 120 p_0_6 + 100000 z_0_10 + 100000 z_0_2 + 100000 z_0_5 + 100000 z_0_6 <= 401112.71874608635
 c1584: 120 p_0_1 + 120 p_0_10 + 120 p_0_2 + 120 p_0_5 + 120 p_0_6 + 100000 z_0_1 + 100000 z_0_10 + 100000 z_0_2 + 100000 z_0_5 + 100000 z_0_6 <= 501035.80939390784
 c1585: 120 p_0_10 + 120 p_0_3 + 120 p_0_5 + 120 p_0_6 + 100000 z_0_10 + 100000 z_0_3 + 100000 z_0_5 + 100000 z_0_6 <= 400970.66746816697
 c1586: 120 p_0_1 + 120 p_0_10 + 120 p_0_3 + 120 p_0_5 + 120 p_0_6 + 100000 z_0_1 + 100000 z_0_10 + 100000 z_0_3 + 100000 z_0_5 + 100000 z_0_6 <= 500877.40515835432
 c1587: 120 p_0_10 + 120 p_0_2 + 120 p_0_3 + 120 p_0_5 + 120 p_0_6 + 100000 z_0_10 + 100000 z_0_2 + 100000 z_0_3 + 100000 z_0_5 + 100000 z_0_6 <= 500961.37524709129
 c1588: 120 p_0_1 + 120 p_0_10 + 120 p_0_2 + 120 p_0_3 + 120 p_0_5 + 120 p_0_6 + 100000 z_0_1 + 100000 z_0_10 + 100000 z_0_2 + 100000 z_0_3 + 100000 z_0_5 + 100000 z_0_6 <= 600868.1129372787
 c1589: 120 p_0_10 + 120 p_0_4 + 120 p_0_5 + 120 p_0_6 + 100000 z_0_10 + 100000 z_0_4 + 100000 z_0_5 + 100000 z_0_6 <= 401104.30426935817
 c1590: 120 p_0_1 + 120 p_0_10 + 120 p_0_4 + 120 p_0_5 + 120 p_0_6 + 100000 z_0_1 + 100000 z_0_10 + 100000 z_0_4 + 100000 z_0_5 + 100000 z_0_6 <= 501027.39491717966
 c1591: 120 p_0_10 + 120 p_0_2 + 120 p_0_4 + 120 p_0_5 + 120 p_0_6 + 100000 z_0_10 + 100000 z_0_2 + 100000 z_0_4 + 100000 z_0_5 + 100000 z_0_6 <= 501095.01204828249
 c1592: 120 p_0_1 + 120 p_0_10 + 120 p_0_2 + 120 p_0_4 + 120 p_0_5 + 120 p_0_6 + 100000 z_0_1 + 100000 z_0_10 + 100000 z_0_2 + 100000 z_0_4 + 100000 z_0_5 + 100000 z_0_6 <= 601018.10269610398
 c1593: 120 p_0_10 + 120 p_0_3 + 120 p_0_4 + 120 p_0_5 + 120 p_0_6 + 100000 z_0_10 + 100000 z_0_3 + 100000 z_0_4 + 100000 z_0_5 + 100000 z_0_6 <= 500969.9007464521
 c1594: 120 p_0_1 + 120 p_0_10 + 120 p_0_3 + 120 p_0_4 + 120 p_0_5 + 120 p_0_6 + 100000 z_0_1 + 100000 z_0_10 + 100000 z_0_3 + 100000 z_0_4 + 100000 z_0_5 + 100000 z_0_6 <= 600876.63843663945
 c1595: 120 p_0_10 + 120 p_0_2 + 120 p_0_3 + 120 p_0_4 + 120 p_0_5 + 120 p_0_6 + 100000 z_0_10 + 100000 z_0_2 + 100000 z_0_3 + 100000 z_0_4 + 100000 z_0_5 + 100000 z_0_6 <= 600960.60852537642
 c1596: 120 p_0_1 + 120 p_0_10 + 120 p_0_2 + 120 p_0_3 + 120 p_0_4 + 120 p_0_5 + 120 p_0_6 + 100000 z_0_1 + 100000 z_0_10 + 100000 z_0_2 + 100000 z_0_3 + 100000 z_0_4 + 100000 z_0_5 + 100000 z_0_6 <= 700867.34621556383
 c1597: 120 p_0_10 + 120 p_0_7 + 100000 z_0_10 + 100000 z_0_7 <= 201740.44269337045
 c1598: 120 p_0_1 + 120 p_0_10 + 120 p_0_7 + 100000 z_0_1 + 100000 z_0_10 + 100000 z_0_7 <= 301736.48026751762
 c1599: 120 p_0_10 + 120 p_0_2 + 120 p_0_7 + 100000 z_0_10 + 100000 z_0_2 + 100000 z_0_7 <= 301447.20208352397
 c1600: 120 p_0_1 + 120 p_0_10 + 120 p_0_2 + 120 p_0_7 + 100000 z_0_1 + 100000 z_0_10 + 100000 z_0_2 + 100000 z_0_7 <= 401443.23965767113
 c1601: 120 p_0_10 + 120 p_0_3 + 120 p_0_7 + 100000 z_0_10 + 100000 z_0_3 + 100000 z_0_7 <= 301189.36347233912
 c1602: 120 p_0_1 + 120 p_0_10 + 120 p_0_3 + 120 p_0_7 + 100000 z_0_1 + 100000 z_0_10 + 100000 z_0_3 + 100000 z_0_7 <= 401185.40104648628
 c1603: 120 p_0_10 + 120 p_0_2 + 120 p_0_3 + 120 p_0_7 + 100000 z_0_10 + 100000 z_0_2 + 100000 z_0_3 + 100000 z_0_7 <= 400896.12286249269
 c1604: 120 p_0_1 + 120 p_0_10 + 120 p_0_2 + 120 p_0_3 + 120 p_0_7 + 100000 z_0_1 + 100000 z_0_10 + 100000 z_0_2 + 100000 z_0_3 + 100000 z_0_7 <= 500892.16043663985
 c1605: 120 p_0_10 + 120 p_0_4 + 120 p_0_7 + 100000 z_0_10 + 100000 z_0_4 + 100000 z_0_7 <= 301722.73599556659
 c1606: 120 p_0_1 + 120 p_0_10 + 120 p_0_4 + 120 p_0_7 + 100000 z_0_1 + 100000 z_0_10 + 100000 z_0_4 + 100000 z_0_7 <= 401718.77356971375
 c1607: 120 p_0_10 + 120 p_0_2 + 120 p_0_4 + 120 p_0_7 + 100000 z_0_10 + 100000 z_0_2 + 100000 z_0_4 + 100000 z_0_7 <= 401429.4953857201
 c1608: 120 p_0_1 + 120 p_0_10 + 120 p_0_2 + 120 p_0_4 + 120 p_0_7 + 100000 z_0_1 + 100000 z_0_10 + 100000 z_0_2 + 100000 z_0_4 + 100000 z_0_7 <= 501425.53295986727
 c1609: 120 p_0_10 + 120 p_0_3 + 120 p_0_4 + 120 p_0_7 + 100000 z_0_10 + 100000 z_0_3 + 100000 z_0_4 + 100000 z_0_7 <= 401188.59675062425
 c1610: 120 p_0_1 + 120 p_0_10 + 120 p_0_3 + 120 p_0_4 + 120 p_0_7 + 100000 z_0_1 + 100000 z_0_10 + 100000 z_0_3 + 100000 z_0_4 + 100000 z_0_7 <= 501184.63432477141
 c1611: 120 p_0_10 + 120 p_0_2 + 120 p_0_3 + 120 p_0_4 + 120 p_0_7 + 100000 z_0_10 + 100000 z_0_2 + 100000 z_0_3 + 100000 z_0_4 + 100000 z_0_7 <= 500895.35614077782
 c1612: 120 p_0_1 + 120 p_0_10 + 120 p_0_2 + 120 p_0_3 + 120 p_0_4 + 120 p_0_7 + 100000 z_0_1 + 100000 z_0_10 + 100000 z_0_2 + 100000 z_0_3 + 100000 z_0_4 + 100000 z_0_7 <= 600891.39371492493
 c1613: 120 p_0_10 + 120 p_0_5 + 120 p_0_7 + 100000 z_0_10 + 100000 z_0_5 + 100000 z_0_7 <= 301473.25085731893
 c1614: 120 p_0_1 + 120 p_0_10 + 120 p_0_5 + 120 p_0_7 + 100000 z_0_1 + 100000 z_0_10 + 100000 z_0_5 + 100000 z_0_7 <= 401469.28843146609
 c1615: 120 p_0_10 + 120 p_0_2 + 120 p_0_5 + 120 p_0_7 + 100000 z_0_10 + 100000 z_0_2 + 100000 z_0_5 + 100000 z_0_7 <= 401442.96340181801
 c1616: 120 p_0_1 + 120 p_0_10 + 120 p_0_2 + 120 p_0_5 + 120 p_0_7 + 100000 z_0_1 + 100000 z_0_10 + 100000 z_0_2 + 100000 z_0_5 + 100000 z_0_7 <= 501439.00097596517
 c1617: 120 p_0_10 + 120 p_0_3 + 120 p_0_5 + 120 p_0_7 + 100000 z_0_10 + 100000 z_0_3 + 100000 z_0_5 + 100000 z_0_7 <= 400922.17163628765
 c1618: 120 p_0_1 + 120 p_0_10 + 120 p_0_3 + 120 p_0_5 + 120 p_0_7 + 100000 z_0_1 + 100000 z_0_10 + 100000 z_0_3 + 100000 z_0_5 + 100000 z_0_7 <= 500918.20921043481
 c1619: 120 p_0_10 + 120 p_0_2 + 120 p_0_3 + 120 p_0_5 + 120 p_0_7 + 100000 z_0_10 + 100000 z_0_2 + 100000 z_0_3 + 100000 z_0_5 + 100000 z_0_7 <= 500891.88418078673
 c1620: 120 p_0_1 + 120 p_0_10 + 120 p_0_2 + 120 p_0_3 + 120 p_0_5 + 120 p_0_7 + 100000 z_0_1 + 100000 z_0_10 + 100000 z_0_2 + 100000 z_0_3 + 100000 z_0_5 + 100000 z_0_7 <= 600887.92175493389
 c1621: 120 p_0_10 + 120 p_0_4 + 120 p_0_5 + 120 p_0_7 + 100000 z_0_10 + 100000 z_0_4 + 100000 z_0_5 + 100000 z_0_7 <= 401455.54415951506
 c1622: 120 p_0_1 + 120 p_0_10 + 120 p_0_4 + 120 p_0_5 + 120 p_0_7 + 100000 z_0_1 + 100000 z_0_10 + 100000 z_0_4 + 100000 z_0_5 + 100000 z_0_7 <= 501451.58173366223
 c1623: 120 p_0_10 + 120 p_0_2 + 120 p_0_4 + 120 p_0_5 + 120 p_0_7 + 100000 z_0_10 + 100000 z_0_2 + 100000 z_0_4 + 100000 z_0_5 + 100000 z_0_7 <= 501425.25670401414
 c1624: 120 p_0_1 + 120 p_0_10 + 120 p_0_2 + 120 p_0_4 + 120 p_0_5 + 120 p_0_7 + 100000 z_0_1 + 100000 z_0_10 + 100000 z_0_2 + 100000 z_0_4 + 100000 z_0_5 + 100000 z_0_7 <= 601421.29427816137
 c1625: 120 p_0_10 + 120 p_0_3 + 120 p_0_4 + 120 p_0_5 + 120 p_0_7 + 100000 z_0_10 + 100000 z_0_3 + 100000 z_0_4 + 100000 z_0_5 + 100000 z_0_7 <= 500921.40491457278
 c1626: 120 p_0_1 + 120 p_0_10 + 120 p_0_3 + 120 p_0_4 + 120 p_0_5 + 120 p_0_7 + 100000 z_0_1 + 100000 z_0_10 + 100000 z_0_3 + 100000 z_0_4 + 100000 z_0_5 + 100000 z_0_7 <= 600917.44248871994
 c1627: 120 p_0_10 + 120 p_0_2 + 120 p_0_3 + 120 p_0_4 + 120 p_0_5 + 120 p_0_7 + 100000 z_0_10 + 100000 z_0_2 + 100000 z_0_3 + 100000 z_0_4 + 100000 z_0_5 + 100000 z_0_7 <= 600891.1174590718
 c1628: 120 p_0_1 + 120 p_0_10 + 120 p_0_2 + 120 p_0_3 + 120 p_0_4 + 120 p_0_5 + 120 p_0_7 + 100000 z_0_1 + 100000 z_0_10 + 100000 z_0_2 + 100000 z_0_3 + 100000 z_0_4 + 100000 z_0_5 + 100000 z_0_7 <= 700887.15503321902
 c1629: 120 p_0_10 + 120 p_0_6 + 120 p_0_7 + 100000 z_0_10 + 100000 z_0_6 + 100000 z_0_7 <= 301234.36148081179
 c1630: 120 p_0_1 + 120 p_0_10 + 120 p_0_6 + 120 p_0_7 + 100000 z_0_1 + 100000 z_0_10 + 100000 z_0_6 + 100000 z_0_7 <= 401230.39905495895
 c1631: 120 p_0_10 + 120 p_0_2 + 120 p_0_6 + 120 p_0_7 + 100000 z_0_10 + 100000 z_0_2 + 100000 z_0_6 + 100000 z_0_7 <= 401015.75469723693
 c1632: 120 p_0_1 + 120 p_0_10 + 120 p_0_2 + 120 p_0_6 + 120 p_0_7 + 100000 z_0_1 + 100000 z_0_10 + 100000 z_0_2 + 100000 z_0_6 + 100000 z_0_7 <= 501011.7922713841
 c1633: 120 p_0_10 + 120 p_0_3 + 120 p_0_6 + 120 p_0_7 + 100000 z_0_10 + 100000 z_0_3 + 100000 z_0_6 + 100000 z_0_7 <= 401095.94878136105
 c1634: 120 p_0_1 + 120 p_0_10 + 120 p_0_3 + 120 p_0_6 + 120 p_0_7 + 100000 z_0_1 + 100000 z_0_10 + 100000 z_0_3 + 100000 z_0_6 + 100000 z_0_7 <= 501091.98635550821
 c1635: 120 p_0_10 + 120 p_0_2 + 120 p_0_3 + 120 p_0_6 + 120 p_0_7 + 100000 z_0_10 + 100000 z_0_2 + 100000 z_0_3 + 100000 z_0_6 + 100000 z_0_7 <= 500851.13705189049
 c1636: 120 p_0_1 + 120 p_0_10 + 120 p_0_2 + 120 p_0_3 + 120 p_0_6 + 120 p_0_7 + 100000 z_0_1 + 100000 z_0_10 + 100000 z_0_2 + 100000 z_0_3 + 100000 z_0_6 + 100000 z_0_7 <= 600847.17462603771
 c1637: 120 p_0_10 + 120 p_0_4 + 120 p_0_6 + 120 p_0_7 + 100000 z_0_10 + 100000 z_0_4 + 100000 z_0_6 + 100000 z_0_7 <= 401228.95570823387
 c1638: 120 p_0_1 + 120 p_0_10 + 120 p_0_4 + 120 p_0_6 + 120 p_0_7 + 100000 z_0_1 + 100000 z_0_10 + 100000 z_0_4 + 100000 z_0_6 + 100000 z_0_7 <= 501224.99328238104
 c1639: 120 p_0_10 + 120 p_0_2 + 120 p_0_4 + 120 p_0_6 + 120 p_0_7 + 100000 z_0_10 + 100000 z_0_2 + 100000 z_0_4 + 100000 z_0_6 + 100000 z_0_7 <= 500998.04799943307
 c1640: 120 p_0_1 + 120 p_0_10 + 120 p_0_2 + 120 p_0_4 + 120 p_0_6 + 120 p_0_7 + 100000 z_0_1 + 100000 z_0_10 + 100000 z_0_2 + 100000 z_0_4 + 100000 z_0_6 + 100000 z_0_7 <= 600994.08557358023
 c1641: 120 p_0_10 + 120 p_0_3 + 120 p_0_4 + 120 p_0_6 + 120 p_0_7 + 100000 z_0_10 + 100000 z_0_3 + 100000 z_0_4 + 100000 z_0_6 + 100000 z_0_7 <= 501095.18205964618
 c1642: 120 p_0_1 + 120 p_0_10 + 120 p_0_3 + 120 p_0_4 + 120 p_0_6 + 120 p_0_7 + 100000 z_0_1 + 100000 z_0_10 + 100000 z_0_3 + 100000 z_0_4 + 100000 z_0_6 + 100000 z_0_7 <= 601091.21963379334
 c1643: 120 p_0_10 + 120 p_0_2 + 120 p_0_3 + 120 p_0_4 + 120 p_0_6 + 120 p_0_7 + 100000 z_0_10 + 100000 z_0_2 + 100000 z_0_3 + 100000 z_0_4 + 100000 z_0_6 + 100000 z_0_7 <= 600850.37033017562
 c1644: 120 p_0_1 + 120 p_0_10 + 120 p_0_2 + 120 p_0_3 + 120 p_0_4 + 120 p_0_6 + 120 p_0_7 + 100000 z_0_1 + 100000 z_0_10 + 100000 z_0_2 + 100000 z_0_3 + 100000 z_0_4 + 100000 z_0_6 + 100000 z_0_7 <= 700846.40790432284
 c1645: 120 p_0_10 + 120 p_0_5 + 120 p_0_6 + 120 p_0_7 + 100000 z_0_10 + 100000 z_0_5 + 100000 z_0_6 + 100000 z_0_7 <= 401020.80823660665
 c1646: 120 p_0_1 + 120 p_0_10 + 120 p_0_5 + 120 p_0_6 + 120 p_0_7 + 100000 z_0_1 + 100000 z_0_10 + 100000 z_0_5 + 100000 z_0_6 + 100000 z_0_7 <= 501016.84581075382
 c1647: 120 p_0_10 + 120 p_0_2 + 120 p_0_5 + 120 p_0_6 + 120 p_0_7 + 100000 z_0_10 + 100000 z_0_2 + 100000 z_0_5 + 100000 z_0_6 + 100000 z_0_7 <= 501011.51601553097
 c1648: 120 p_0_1 + 120 p_0_10 + 120 p_0_2 + 120 p_0_5 + 120 p_0_6 + 120 p_0_7 + 100000 z_0_1 + 100000 z_0_10 + 100000 z_0_2 + 100000 z_0_5 + 100000 z_0_6 + 100000 z_0_7 <= 601007.55358967814
 c1649: 120 p_0_10 + 120 p_0_3 + 120 p_0_5 + 120 p_0_6 + 120 p_0_7 + 100000 z_0_10 + 100000 z_0_3 + 100000 z_0_5 + 100000 z_0_6 + 100000 z_0_7 <= 500840.8850327087
 c1650: 120 p_0_1 + 120 p_0_10 + 120 p_0_3 + 120 p_0_5 + 120 p_0_6 + 120 p_0_7 + 100000 z_0_1 + 100000 z_0_10 + 100000 z_0_3 + 100000 z_0_5 + 100000 z_0_6 + 100000 z_0_7 <= 600836.92260685586
 c1651: 120 p_0_10 + 120 p_0_2 + 120 p_0_3 + 120 p_0_5 + 120 p_0_6 + 120 p_0_7 + 100000 z_0_10 + 100000 z_0_2 + 100000 z_0_3 + 100000 z_0_5 + 100000 z_0_6 + 100000 z_0_7 <= 600831.59281163302
 c1652: 120 p_0_1 + 120 p_0_10 + 120 p_0_2 + 120 p_0_3 + 120 p_0_5 + 120 p_0_6 + 120 p_0_7 + 100000 z_0_1 + 100000 z_0_10 + 100000 z_0_2 + 100000 z_0_3 + 100000 z_0_5 + 100000 z_0_6 + 100000 z_0_7 <= 700827.63038578024
 c1653: 120 p_0_10 + 120 p_0_4 + 120 p_0_5 + 120 p_0_6 + 120 p_0_7 + 100000 z_0_10 + 100000 z_0_4 + 100000 z_0_5 + 100000 z_0_6 + 100000 z_0_7 <= 501003.10153880279
 c1654: 120 p_0_1 + 120 p_0_10 + 120 p_0_4 + 120 p_0_5 + 120 p_0_6 + 120 p_0_7 + 100000 z_0_1 + 100000 z_0_10 + 100000 z_0_4 + 100000 z_0_5 + 100000 z_0_6 + 100000 z_0_7 <= 600999.13911294995
 c1655: 120 p_0_10 + 120 p_0_2 + 120 p_0_4 + 120 p_0_5 + 120 p_0_6 + 120 p_0_7 + 100000 z_0_10 + 100000 z_0_2 + 100000 z_0_4 + 100000 z_0_5 + 100000 z_0_6 + 100000 z_0_7 <= 600993.80931772711
 c1656: 120 p_0_1 + 120 p_0_10 + 120 p_0_2 + 120 p_0_4 + 120 p_0_5 + 120 p_0_6 + 120 p_0_7 + 100000 z_0_1 + 100000 z_0_10 + 100000 z_0_2 + 100000 z_0_4 + 100000 z_0_5 + 100000 z_0_6 + 100000 z_0_7 <= 700989.84689187433
 c1657: 120 p_0_10 + 120 p_0_3 + 120 p_0_4 + 120 p_0_5 + 120 p_0_6 + 120 p_0_7 + 100000 z_0_10 + 100000 z_0_3 + 100000 z_0_4 + 100000 z_0_5 + 100000 z_0_6 + 100000 z_0_7 <= 600840.11831099389
 c1658: 120 p_0_1 + 120 p_0_10 + 120 p_0_3 + 120 p_0_4 + 120 p_0_5 + 120 p_0_6 + 120 p_0_7 + 100000 z_0_1 + 100000 z_0_10 + 100000 z_0_3 + 100000 z_0_4 + 100000 z_0_5 + 100000 z_0_6 + 100000 z_0_7 <= 700836.15588514099
 c1659: 120 p_0_10 + 120 p_0_2 + 120 p_0_3 + 120 p_0_4 + 120 p_0_5 + 120 p_0_6 + 120 p_0_7 + 100000 z_0_10 + 100000 z_0_2 + 100000 z_0_3 + 100000 z_0_4 + 100000 z_0_5 + 100000 z_0_6 + 100000 z_0_7 <= 700830.82608991815
 c1660: 120 p_0_1 + 120 p_0_10 + 120 p_0_2 + 120 p_0_3 + 120 p_0_4 + 120 p_0_5 + 120 p_0_6 + 120 p_0_7 + 100000 z_0_1 + 100000 z_0_10 + 100000 z_0_2 + 100000 z_0_3 + 100000 z_0_4 + 100000 z_0_5 + 100000 z_0_6 + 100000 z_0_7 <= 800826.86366406537
 c1661: 120 p_0_10 + 120 p_0_8 + 100000 z_0_10 + 100000 z_0_8 <= 201577.63784365717
 c1662: 120 p_0_1 + 120 p_0_10 + 120 p_0_8 + 100000 z_0_1 + 100000 z_0_10 + 100000 z_0_8 <= 301497.65438920713
 c1663: 120 p_0_10 + 120 p_0_2 + 120 p_0_8 + 100000 z_0_10 + 100000 z_0_2 + 100000 z_0_8 <= 301551.10309046728
 c1664: 120 p_0_1 + 120 p_0_10 + 120 p_0_2 + 120 p_0_8 + 100000 z_0_1 + 100000 z_0_10 + 100000 z_0_2 + 100000 z_0_8 <= 401472.3016602287
 c1665: 120 p_0_10 + 120 p_0_3 + 120 p_0_8 + 100000 z_0_10 + 100000 z_0_3 + 100000 z_0_8 <= 301047.41676730843
 c1666: 120 p_0_1 + 120 p_0_10 + 120 p_0_3 + 120 p_0_8 + 100000 z_0_1 + 100000 z_0_10 + 100000 z_0_3 + 100000 z_0_8 <= 400954.15445749578
 c1667: 120 p_0_10 + 120 p_0_2 + 120 p_0_3 + 120 p_0_8 + 100000 z_0_10 + 100000 z_0_2 + 100000 z_0_3 + 100000 z_0_8 <= 401019.03993845941
 c1668: 120 p_0_1 + 120 p_0_10 + 120 p_0_2 + 120 p_0_3 + 120 p_0_8 + 100000 z_0_1 + 100000 z_0_10 + 100000 z_0_2 + 100000 z_0_3 + 100000 z_0_8 <= 500925.77762864681
 c1669: 120 p_0_10 + 120 p_0_4 + 120 p_0_8 + 100000 z_0_10 + 100000 z_0_4 + 100000 z_0_8 <= 301559.9311458533
 c1670: 120 p_0_1 + 120 p_0_10 + 120 p_0_4 + 120 p_0_8 + 100000 z_0_1 + 100000 z_0_10 + 100000 z_0_4 + 100000 z_0_8 <= 401479.94769140327
 c1671: 120 p_0_10 + 120 p_0_2 + 120 p_0_4 + 120 p_0_8 + 100000 z_0_10 + 100000 z_0_2 + 100000 z_0_4 + 100000 z_0_8 <= 401533.39639266342
 c1672: 120 p_0_1 + 120 p_0_10 + 120 p_0_2 + 120 p_0_4 + 120 p_0_8 + 100000 z_0_1 + 100000 z_0_10 + 100000 z_0_2 + 100000 z_0_4 + 100000 z_0_8 <= 501454.59496242483
 c1673: 120 p_0_10 + 120 p_0_3 + 120 p_0_4 + 120 p_0_8 + 100000 z_0_10 + 100000 z_0_3 + 100000 z_0_4 + 100000 z_0_8 <= 401046.65004559356
 c1674: 120 p_0_1 + 120 p_0_10 + 120 p_0_3 + 120 p_0_4 + 120 p_0_8 + 100000 z_0_1 + 100000 z_0_10 + 100000 z_0_3 + 100000 z_0_4 + 100000 z_0_8 <= 500953.38773578091
 c1675: 120 p_0_10 + 120 p_0_2 + 120 p_0_3 + 120 p_0_4 + 120 p_0_8 + 100000 z_0_10 + 100000 z_0_2 + 100000 z_0_3 + 100000 z_0_4 + 100000 z_0_8 <= 501018.27321674454
 c1676: 120 p_0_1 + 120 p_0_10 + 120 p_0_2 + 120 p_0_3 + 120 p_0_4 + 120 p_0_8 + 100000 z_0_1 + 100000 z_0_10 + 100000 z_0_2 + 100000 z_0_3 + 100000 z_0_4 + 100000 z_0_8 <= 600925.01090693194
 c1677: 120 p_0_10 + 120 p_0_5 + 120 p_0_8 + 100000 z_0_10 + 100000 z_0_5 + 100000 z_0_8 <= 301556.21817598032
 c1678: 120 p_0_1 + 120 p_0_10 + 120 p_0_5 + 120 p_0_8 + 100000 z_0_1 + 100000 z_0_10 + 100000 z_0_5 + 100000 z_0_8 <= 401479.30882380181
 c1679: 120 p_0_10 + 120 p_0_2 + 120 p_0_5 + 120 p_0_8 + 100000 z_0_10 + 100000 z_0_2 + 100000 z_0_5 + 100000 z_0_8 <= 401543.90320422337
 c1680: 120 p_0_1 + 120 p_0_10 + 120 p_0_2 + 120 p_0_5 + 120 p_0_8 + 100000 z_0_1 + 100000 z_0_10 + 100000 z_0_2 + 100000 z_0_5 + 100000 z_0_8 <= 501466.99385204486
 c1681: 120 p_0_10 + 120 p_0_3 + 120 p_0_5 + 120 p_0_8 + 100000 z_0_10 + 100000 z_0_3 + 100000 z_0_5 + 100000 z_0_8 <= 401010.17507143563
 c1682: 120 p_0_1 + 120 p_0_10 + 120 p_0_3 + 120 p_0_5 + 120 p_0_8 + 100000 z_0_1 + 100000 z_0_10 + 100000 z_0_3 + 100000 z_0_5 + 100000 z_0_8 <= 500928.22960277053
 c1683: 120 p_0_10 + 120 p_0_2 + 120 p_0_3 + 120 p_0_5 + 120 p_0_8 + 100000 z_0_10 + 100000 z_0_2 + 100000 z_0_3 + 100000 z_0_5 + 100000 z_0_8 <= 500997.86009967868
 c1684: 120 p_0_1 + 120 p_0_10 + 120 p_0_2 + 120 p_0_3 + 120 p_0_5 + 120 p_0_8 + 100000 z_0_1 + 100000 z_0_10 + 100000 z_0_2 + 100000 z_0_3 + 100000 z_0_5 + 100000 z_0_8 <= 600915.91463101353
 c1685: 120 p_0_10 + 120 p_0_4 + 120 p_0_5 + 120 p_0_8 + 100000 z_0_10 + 100000 z_0_4 + 100000 z_0_5 + 100000 z_0_8 <= 401538.51147817646
 c1686: 120 p_0_1 + 120 p_0_10 + 120 p_0_4 + 120 p_0_5 + 120 p_0_8 + 100000 z_0_1 + 100000 z_0_10 + 100000 z_0_4 + 100000 z_0_5 + 100000 z_0_8 <= 501461.60212599795
 c1687: 120 p_0_10 + 120 p_0_2 + 120 p_0_4 + 120 p_0_5 + 120 p_0_8 + 100000 z_0_10 + 100000 z_0_2 + 100000 z_0_4 + 100000 z_0_5 + 100000 z_0_8 <= 501526.19650641951
 c1688: 120 p_0_1 + 120 p_0_10 + 120 p_0_2 + 120 p_0_4 + 120 p_0_5 + 120 p_0_8 + 100000 z_0_1 + 100000 z_0_10 + 100000 z_0_2 + 100000 z_0_4 + 100000 z_0_5 + 100000 z_0_8 <= 601449.287154241
 c1689: 120 p_0_10 + 120 p_0_3 + 120 p_0_4 + 120 p_0_5 + 120 p_0_8 + 100000 z_0_10 + 100000 z_0_3 + 100000 z_0_4 + 100000 z_0_5 + 100000 z_0_8 <= 501009.40834972082
 c1690: 120 p_0_1 + 120 p_0_10 + 120 p_0_3 + 120 p_0_4 + 120 p_0_5 + 120 p_0_8 + 100000 z_0_1 + 100000 z_0_10 + 100000 z_0_3 + 100000 z_0_4 + 100000 z_0_5 + 100000 z_0_8 <= 600927.46288105566
 c1691: 120 p_0_10 + 120 p_0_2 + 120 p_0_3 + 120 p_0_4 + 120 p_0_5 + 120 p_0_8 + 100000 z_0_10 + 100000 z_0_2 + 100000 z_0_3 + 100000 z_0_4 + 100000 z_0_5 + 100000 z_0_8 <= 600997.09337796376
 c1692: 120 p_0_1 + 120 p_0_10 + 120 p_0_2 + 120 p_0_3 + 120 p_0_4 + 120 p_0_5 + 120 p_0_8 + 100000 z_0_1 + 100000 z_0_10 + 100000 z_0_2 + 100000 z_0_3 + 100000 z_0_4 + 100000 z_0_5 + 100000 z_0_8 <= 700915.14790929866
 c1693: 120 p_0_10 + 120 p_0_6 + 120 p_0_8 + 100000 z_0_10 + 100000 z_0_6 + 100000 z_0_8 <= 301145.05249111285
 c1694: 120 p_0_1 + 120 p_0_10 + 120 p_0_6 + 120 p_0_8 + 100000 z_0_1 + 100000 z_0_10 + 100000 z_0_6 + 100000 z_0_8 <= 401062.17780801118
 c1695: 120 p_0_10 + 120 p_0_2 + 120 p_0_6 + 120 p_0_8 + 100000 z_0_10 + 100000 z_0_2 + 100000 z_0_6 + 100000 z_0_8 <= 401119.06925864937
 c1696: 120 p_0_1 + 120 p_0_10 + 120 p_0_2 + 120 p_0_6 + 120 p_0_8 + 100000 z_0_1 + 100000 z_0_10 + 100000 z_0_2 + 100000 z_0_6 + 100000 z_0_8 <= 501036.82507903274
 c1697: 120 p_0_10 + 120 p_0_3 + 120 p_0_6 + 120 p_0_8 + 100000 z_0_10 + 100000 z_0_3 + 100000 z_0_6 + 100000 z_0_8 <= 401006.63979166211
 c1698: 120 p_0_1 + 120 p_0_10 + 120 p_0_3 + 120 p_0_6 + 120 p_0_8 + 100000 z_0_1 + 100000 z_0_10 + 100000 z_0_3 + 100000 z_0_6 + 100000 z_0_8 <= 500913.37748184951
 c1699: 120 p_0_10 + 120 p_0_2 + 120 p_0_3 + 120 p_0_6 + 120 p_0_8 + 100000 z_0_10 + 100000 z_0_2 + 100000 z_0_3 + 100000 z_0_6 + 100000 z_0_8 <= 500980.65655919869
 c1700: 120 p_0_1 + 120 p_0_10 + 120 p_0_2 + 120 p_0_3 + 120 p_0_6 + 120 p_0_8 + 100000 z_0_1 + 100000 z_0_10 + 100000 z_0_2 + 100000 z_0_3 + 100000 z_0_6 + 100000 z_0_8 <= 600887.39424938604
 c1701: 120 p_0_10 + 120 p_0_4 + 120 p_0_6 + 120 p_0_8 + 100000 z_0_10 + 100000 z_0_4 + 100000 z_0_6 + 100000 z_0_8 <= 401139.64671853493
 c1702: 120 p_0_1 + 120 p_0_10 + 120 p_0_4 + 120 p_0_6 + 120 p_0_8 + 100000 z_0_1 + 100000 z_0_10 + 100000 z_0_4 + 100000 z_0_6 + 100000 z_0_8 <= 501046.38440872228
 c1703: 120 p_0_10 + 120 p_0_2 + 120 p_0_4 + 120 p_0_6 + 120 p_0_8 + 100000 z_0_10 + 100000 z_0_2 + 100000 z_0_4 + 100000 z_0_6 + 100000 z_0_8 <= 501113.66348607145
 c1704: 120 p_0_1 + 120 p_0_10 + 120 p_0_2 + 120 p_0_4 + 120 p_0_6 + 120 p_0_8 + 100000 z_0_1 + 100000 z_0_10 + 100000 z_0_2 + 100000 z_0_4 + 100000 z_0_6 + 100000 z_0_8 <= 601020.40117625892
 c1705: 120 p_0_10 + 120 p_0_3 + 120 p_0_4 + 120 p_0_6 + 120 p_0_8 + 100000 z_0_10 + 100000 z_0_3 + 100000 z_0_4 + 100000 z_0_6 + 100000 z_0_8 <= 501005.87306994724
 c1706: 120 p_0_1 + 120 p_0_10 + 120 p_0_3 + 120 p_0_4 + 120 p_0_6 + 120 p_0_8 + 100000 z_0_1 + 100000 z_0_10 + 100000 z_0_3 + 100000 z_0_4 + 100000 z_0_6 + 100000 z_0_8 <= 600912.61076013464
 c1707: 120 p_0_10 + 120 p_0_2 + 120 p_0_3 + 120 p_0_4 + 120 p_0_6 + 120 p_0_8 + 100000 z_0_10 + 100000 z_0_2 + 100000 z_0_3 + 100000 z_0_4 + 100000 z_0_6 + 100000 z_0_8 <= 600979.88983748388
 c1708: 120 p_0_1 + 120 p_0_10 + 120 p_0_2 + 120 p_0_3 + 120 p_0_4 + 120 p_0_6 + 120 p_0_8 + 100000 z_0_1 + 100000 z_0_10 + 100000 z_0_2 + 100000 z_0_3 + 100000 z_0_4 + 100000 z_0_6 + 100000 z_0_8 <= 700886.62752767117
 c1709: 120 p_0_10 + 120 p_0_5 + 120 p_0_6 + 120 p_0_8 + 100000 z_0_10 + 100000 z_0_5 + 100000 z_0_6 + 100000 z_0_8 <= 401120.74159478443
 c1710: 120 p_0_1 + 120 p_0_10 + 120 p_0_5 + 120 p_0_6 + 120 p_0_8 + 100000 z_0_1 + 100000 z_0_10 + 100000 z_0_5 + 100000 z_0_6 + 100000 z_0_8 <= 501043.83224260592
 c1711: 120 p_0_10 + 120 p_0_2 + 120 p_0_5 + 120 p_0_6 + 120 p_0_8 + 100000 z_0_10 + 100000 z_0_2 + 100000 z_0_5 + 100000 z_0_6 + 100000 z_0_8 <= 501108.42662302742
 c1712: 120 p_0_1 + 120 p_0_10 + 120 p_0_2 + 120 p_0_5 + 120 p_0_6 + 120 p_0_8 + 100000 z_0_1 + 100000 z_0_10 + 100000 z_0_2 + 100000 z_0_5 + 100000 z_0_6 + 100000 z_0_8 <= 601031.51727084897
 c1713: 120 p_0_10 + 120 p_0_3 + 120 p_0_5 + 120 p_0_6 + 120 p_0_8 + 100000 z_0_10 + 100000 z_0_3 + 100000 z_0_5 + 100000 z_0_6 + 100000 z_0_8 <= 500969.39809578937
 c1714: 120 p_0_1 + 120 p_0_10 + 120 p_0_3 + 120 p_0_5 + 120 p_0_6 + 120 p_0_8 + 100000 z_0_1 + 100000 z_0_10 + 100000 z_0_3 + 100000 z_0_5 + 100000 z_0_6 + 100000 z_0_8 <= 600876.13578597677
 c1715: 120 p_0_10 + 120 p_0_2 + 120 p_0_3 + 120 p_0_5 + 120 p_0_6 + 120 p_0_8 + 100000 z_0_10 + 100000 z_0_2 + 100000 z_0_3 + 100000 z_0_5 + 100000 z_0_6 + 100000 z_0_8 <= 600957.08312403236
 c1716: 120 p_0_1 + 120 p_0_10 + 120 p_0_2 + 120 p_0_3 + 120 p_0_5 + 120 p_0_6 + 120 p_0_8 + 100000 z_0_1 + 100000 z_0_10 + 100000 z_0_2 + 100000 z_0_3 + 100000 z_0_5 + 100000 z_0_6 + 100000 z_0_8 <= 700863.82081421977
 c1717: 120 p_0_10 + 120 p_0_4 + 120 p_0_5 + 120 p_0_6 + 120 p_0_8 + 100000 z_0_10 + 100000 z_0_4 + 100000 z_0_5 + 100000 z_0_6 + 100000 z_0_8 <= 501103.03489698056
 c1718: 120 p_0_1 + 120 p_0_10 + 120 p_0_4 + 120 p_0_5 + 120 p_0_6 + 120 p_0_8 + 100000 z_0_1 + 100000 z_0_10 + 100000 z_0_4 + 100000 z_0_5 + 100000 z_0_6 + 100000 z_0_8 <= 601026.12554480205
 c1719: 120 p_0_10 + 120 p_0_2 + 120 p_0_4 + 120 p_0_5 + 120 p_0_6 + 120 p_0_8 + 100000 z_0_10 + 100000 z_0_2 + 100000 z_0_4 + 100000 z_0_5 + 100000 z_0_6 + 100000 z_0_8 <= 601090.71992522362
 c1720: 120 p_0_1 + 120 p_0_10 + 120 p_0_2 + 120 p_0_4 + 120 p_0_5 + 120 p_0_6 + 120 p_0_8 + 100000 z_0_1 + 100000 z_0_10 + 100000 z_0_2 + 100000 z_0_4 + 100000 z_0_5 + 100000 z_0_6 + 100000 z_0_8 <= 701013.81057304505
 c1721: 120 p_0_10 + 120 p_0_3 + 120 p_0_4 + 120 p_0_5 + 120 p_0_6 + 120 p_0_8 + 100000 z_0_10 + 100000 z_0_3 + 100000 z_0_4 + 100000 z_0_5 + 100000 z_0_6 + 100000 z_0_8 <= 600968.6313740745
 c1722: 120 p_0_1 + 120 p_0_10 + 120 p_0_3 + 120 p_0_4 + 120 p_0_5 + 120 p_0_6 + 120 p_0_8 + 100000 z_0_1 + 100000 z_0_10 + 100000 z_0_3 + 100000 z_0_4 + 100000 z_0_5 + 100000 z_0_6 + 100000 z_0_8 <= 700875.3690642619
 c1723: 120 p_0_10 + 120 p_0_2 + 120 p_0_3 + 120 p_0_4 + 120 p_0_5 + 120 p_0_6 + 120 p_0_8 + 100000 z_0_10 + 100000 z_0_2 + 100000 z_0_3 + 100000 z_0_4 + 100000 z_0_5 + 100000 z_0_6 + 100000 z_0_8 <= 700956.31640231749
 c1724: 120 p_0_1 + 120 p_0_10 + 120 p_0_2 + 120 p_0_3 + 120 p_0_4 + 120 p_0_5 + 120 p_0_6 + 120 p_0_8 + 100000 z_0_1 + 100000 z_0_10 + 100000 z_0_2 + 100000 z_0_3 + 100000 z_0_4 + 100000 z_0_5 + 100000 z_0_6 + 100000 z_0_8 <= 800863.0540925049
 c1725: 120 p_0_10 + 120 p_0_7 + 120 p_0_8 + 100000 z_0_10 + 100000 z_0_7 + 100000 z_0_8 <= 301471.45933875529
 c1726: 120 p_0_1 + 120 p_0_10 + 120 p_0_7 + 120 p_0_8 + 100000 z_0_1 + 100000 z_0_10 + 100000 z_0_7 + 100000 z_0_8 <= 401467.49691290245
 c1727: 120 p_0_10 + 120 p_0_2 + 120 p_0_7 + 120 p_0_8 + 100000 z_0_10 + 100000 z_0_2 + 100000 z_0_7 + 100000 z_0_8 <= 401446.93915537396
 c1728: 120 p_0_1 + 120 p_0_10 + 120 p_0_2 + 120 p_0_7 + 120 p_0_8 + 100000 z_0_1 + 100000 z_0_10 + 100000 z_0_2 + 100000 z_0_7 + 100000 z_0_8 <= 501442.97672952112
 c1729: 120 p_0_10 + 120 p_0_3 + 120 p_0_7 + 120 p_0_8 + 100000 z_0_10 + 100000 z_0_3 + 100000 z_0_7 + 100000 z_0_8 <= 400920.38011772401
 c1730: 120 p_0_1 + 120 p_0_10 + 120 p_0_3 + 120 p_0_7 + 120 p_0_8 + 100000 z_0_1 + 100000 z_0_10 + 100000 z_0_3 + 100000 z_0_7 + 100000 z_0_8 <= 500916.41769187117
 c1731: 120 p_0_10 + 120 p_0_2 + 120 p_0_3 + 120 p_0_7 + 120 p_0_8 + 100000 z_0_10 + 100000 z_0_2 + 100000 z_0_3 + 100000 z_0_7 + 100000 z_0_8 <= 500895.85993434262
 c1732: 120 p_0_1 + 120 p_0_10 + 120 p_0_2 + 120 p_0_3 + 120 p_0_7 + 120 p_0_8 + 100000 z_0_1 + 100000 z_0_10 + 100000 z_0_2 + 100000 z_0_3 + 100000 z_0_7 + 100000 z_0_8 <= 600891.89750848978
 c1733: 120 p_0_10 + 120 p_0_4 + 120 p_0_7 + 120 p_0_8 + 100000 z_0_10 + 100000 z_0_4 + 100000 z_0_7 + 100000 z_0_8 <= 401453.75264095142
 c1734: 120 p_0_1 + 120 p_0_10 + 120 p_0_4 + 120 p_0_7 + 120 p_0_8 + 100000 z_0_1 + 100000 z_0_10 + 100000 z_0_4 + 100000 z_0_7 + 100000 z_0_8 <= 501449.79021509859
 c1735: 120 p_0_10 + 120 p_0_2 + 120 p_0_4 + 120 p_0_7 + 120 p_0_8 + 100000 z_0_10 + 100000 z_0_2 + 100000 z_0_4 + 100000 z_0_7 + 100000 z_0_8 <= 501429.23245757009
 c1736: 120 p_0_1 + 120 p_0_10 + 120 p_0_2 + 120 p_0_4 + 120 p_0_7 + 120 p_0_8 + 100000 z_0_1 + 100000 z_0_10 + 100000 z_0_2 + 100000 z_0_4 + 100000 z_0_7 + 100000 z_0_8 <= 601425.27003171726
 c1737: 120 p_0_10 + 120 p_0_3 + 120 p_0_4 + 120 p_0_7 + 120 p_0_8 + 100000 z_0_10 + 100000 z_0_3 + 100000 z_0_4 + 100000 z_0_7 + 100000 z_0_8 <= 500919.61339600914
 c1738: 120 p_0_1 + 120 p_0_10 + 120 p_0_3 + 120 p_0_4 + 120 p_0_7 + 120 p_0_8 + 100000 z_0_1 + 100000 z_0_10 + 100000 z_0_3 + 100000 z_0_4 + 100000 z_0_7 + 100000 z_0_8 <= 600915.6509701563
 c1739: 120 p_0_10 + 120 p_0_2 + 120 p_0_3 + 120 p_0_4 + 120 p_0_7 + 120 p_0_8 + 100000 z_0_10 + 100000 z_0_2 + 100000 z_0_3 + 100000 z_0_4 + 100000 z_0_7 + 100000 z_0_8 <= 600895.09321262781
 c1740: 120 p_0_1 + 120 p_0_10 + 120 p_0_2 + 120 p_0_3 + 120 p_0_4 + 120 p_0_7 + 120 p_0_8 + 100000 z_0_1 + 100000 z_0_10 + 100000 z_0_2 + 100000 z_0_3 + 100000 z_0_4 + 100000 z_0_7 + 100000 z_0_8 <= 700891.13078677491
 c1741: 120 p_0_10 + 120 p_0_5 + 120 p_0_7 + 120 p_0_8 + 100000 z_0_10 + 100000 z_0_5 + 100000 z_0_7 + 100000 z_0_8 <= 401455.015445425
 c1742: 120 p_0_1 + 120 p_0_10 + 120 p_0_5 + 120 p_0_7 + 120 p_0_8 + 100000 z_0_1 + 100000 z_0_10 + 100000 z_0_5 + 100000 z_0_7 + 100000 z_0_8 <= 501451.05301957217
 c1743: 120 p_0_10 + 120 p_0_2 + 120 p_0_5 + 120 p_0_7 + 120 p_0_8 + 100000 z_0_10 + 100000 z_0_2 + 100000 z_0_5 + 100000 z_0_7 + 100000 z_0_8 <= 501442.700473668
 c1744: 120 p_0_1 + 120 p_0_10 + 120 p_0_2 + 120 p_0_5 + 120 p_0_7 + 120 p_0_8 + 100000 z_0_1 + 100000 z_0_10 + 100000 z_0_2 + 100000 z_0_5 + 100000 z_0_7 + 100000 z_0_8 <= 601438.73804781516
 c1745: 120 p_0_10 + 120 p_0_3 + 120 p_0_5 + 120 p_0_7 + 120 p_0_8 + 100000 z_0_10 + 100000 z_0_3 + 100000 z_0_5 + 100000 z_0_7 + 100000 z_0_8 <= 500903.93622439366
 c1746: 120 p_0_1 + 120 p_0_10 + 120 p_0_3 + 120 p_0_5 + 120 p_0_7 + 120 p_0_8 + 100000 z_0_1 + 100000 z_0_10 + 100000 z_0_3 + 100000 z_0_5 + 100000 z_0_7 + 100000 z_0_8 <= 600899.97379854089
 c1747: 120 p_0_10 + 120 p_0_2 + 120 p_0_3 + 120 p_0_5 + 120 p_0_7 + 120 p_0_8 + 100000 z_0_10 + 100000 z_0_2 + 100000 z_0_3 + 100000 z_0_5 + 100000 z_0_7 + 100000 z_0_8 <= 600891.62125263666
 c1748: 120 p_0_1 + 120 p_0_10 + 120 p_0_2 + 120 p_0_3 + 120 p_0_5 + 120 p_0_7 + 120 p_0_8 + 100000 z_0_1 + 100000 z_0_10 + 100000 z_0_2 + 100000 z_0_3 + 100000 z_0_5 + 100000 z_0_7 + 100000 z_0_8 <= 700887.65882678388
 c1749: 120 p_0_10 + 120 p_0_4 + 120 p_0_5 + 120 p_0_7 + 120 p_0_8 + 100000 z_0_10 + 100000 z_0_4 + 100000 z_0_5 + 100000 z_0_7 + 100000 z_0_8 <= 501437.30874762108
 c1750: 120 p_0_1 + 120 p_0_10 + 120 p_0_4 + 120 p_0_5 + 120 p_0_7 + 120 p_0_8 + 100000 z_0_1 + 100000 z_0_10 + 100000 z_0_4 + 100000 z_0_5 + 100000 z_0_7 + 100000 z_0_8 <= 601433.34632176824
 c1751: 120 p_0_10 + 120 p_0_2 + 120 p_0_4 + 120 p_0_5 + 120 p_0_7 + 120 p_0_8 + 100000 z_0_10 + 100000 z_0_2 + 100000 z_0_4 + 100000 z_0_5 + 100000 z_0_7 + 100000 z_0_8 <= 601424.99377586413
 c1752: 120 p_0_1 + 120 p_0_10 + 120 p_0_2 + 120 p_0_4 + 120 p_0_5 + 120 p_0_7 + 120 p_0_8 + 100000 z_0_1 + 100000 z_0_10 + 100000 z_0_2 + 100000 z_0_4 + 100000 z_0_5 + 100000 z_0_7 + 100000 z_0_8 <= 701421.03135001124
 c1753: 120 p_0_10 + 120 p_0_3 + 120 p_0_4 + 120 p_0_5 + 120 p_0_7 + 120 p_0_8 + 100000 z_0_10 + 100000 z_0_3 + 100000 z_0_4 + 100000 z_0_5 + 100000 z_0_7 + 100000 z_0_8 <= 600903.16950267879
 c1754: 120 p_0_1 + 120 p_0_10 + 120 p_0_3 + 120 p_0_4 + 120 p_0_5 + 120 p_0_7 + 120 p_0_8 + 100000 z_0_1 + 100000 z_0_10 + 100000 z_0_3 + 100000 z_0_4 + 100000 z_0_5 + 100000 z_0_7 + 100000 z_0_8 <= 700899.20707682602
 c1755: 120 p_0_10 + 120 p_0_2 + 120 p_0_3 + 120 p_0_4 + 120 p_0_5 + 120 p_0_7 + 120 p_0_8 + 100000 z_0_10 + 100000 z_0_2 + 100000 z_0_3 + 100000 z_0_4 + 100000 z_0_5 + 100000 z_0_7 + 100000 z_0_8 <= 700890.85453092179
 c1756: 120 p_0_1 + 120 p_0_10 + 120 p_0_2 + 120 p_0_3 + 120 p_0_4 + 120 p_0_5 + 120 p_0_7 + 120 p_0_8 + 100000 z_0_1 + 100000 z_0_10 + 100000 z_0_2 + 100000 z_0_3 + 100000 z_0_4 + 100000 z_0_5 + 100000 z_0_7 + 100000 z_0_8 <= 800886.89210506901
 c1757: 120 p_0_10 + 120 p_0_6 + 120 p_0_7 + 120 p_0_8 + 100000 z_0_10 + 100000 z_0_6 + 100000 z_0_7 + 100000 z_0_8 <= 401035.9827575594
 c1758: 120 p_0_1 + 120 p_0_10 + 120 p_0_6 + 120 p_0_7 + 120 p_0_8 + 100000 z_0_1 + 100000 z_0_10 + 100000 z_0_6 + 100000 z_0_7 + 100000 z_0_8 <= 501032.02033170656
 c1759: 120 p_0_10 + 120 p_0_2 + 120 p_0_6 + 120 p_0_7 + 120 p_0_8 + 100000 z_0_10 + 100000 z_0_2 + 100000 z_0_6 + 100000 z_0_7 + 100000 z_0_8 <= 501011.462574178
 c1760: 120 p_0_1 + 120 p_0_10 + 120 p_0_2 + 120 p_0_6 + 120 p_0_7 + 120 p_0_8 + 100000 z_0_1 + 100000 z_0_10 + 100000 z_0_2 + 100000 z_0_6 + 100000 z_0_7 + 100000 z_0_8 <= 601007.50014832523
 c1761: 120 p_0_10 + 120 p_0_3 + 120 p_0_6 + 120 p_0_7 + 120 p_0_8 + 100000 z_0_10 + 100000 z_0_3 + 100000 z_0_6 + 100000 z_0_7 + 100000 z_0_8 <= 500876.85735620389
 c1762: 120 p_0_1 + 120 p_0_10 + 120 p_0_3 + 120 p_0_6 + 120 p_0_7 + 120 p_0_8 + 100000 z_0_1 + 100000 z_0_10 + 100000 z_0_3 + 100000 z_0_6 + 100000 z_0_7 + 100000 z_0_8 <= 600872.89493035106
 c1763: 120 p_0_10 + 120 p_0_2 + 120 p_0_3 + 120 p_0_6 + 120 p_0_7 + 120 p_0_8 + 100000 z_0_10 + 100000 z_0_2 + 100000 z_0_3 + 100000 z_0_6 + 100000 z_0_7 + 100000 z_0_8 <= 600850.87412374048
 c1764: 120 p_0_1 + 120 p_0_10 + 120 p_0_2 + 120 p_0_3 + 120 p_0_6 + 120 p_0_7 + 120 p_0_8 + 100000 z_0_1 + 100000 z_0_10 + 100000 z_0_2 + 100000 z_0_3 + 100000 z_0_6 + 100000 z_0_7 + 100000 z_0_8 <= 700846.91169788758
 c1765: 120 p_0_10 + 120 p_0_4 + 120 p_0_6 + 120 p_0_7 + 120 p_0_8 + 100000 z_0_10 + 100000 z_0_4 + 100000 z_0_6 + 100000 z_0_7 + 100000 z_0_8 <= 501018.27605975553
 c1766: 120 p_0_1 + 120 p_0_10 + 120 p_0_4 + 120 p_0_6 + 120 p_0_7 + 120 p_0_8 + 100000 z_0_1 + 100000 z_0_10 + 100000 z_0_4 + 100000 z_0_6 + 100000 z_0_7 + 100000 z_0_8 <= 601014.3136339027
 c1767: 120 p_0_10 + 120 p_0_2 + 120 p_0_4 + 120 p_0_6 + 120 p_0_7 + 120 p_0_8 + 100000 z_0_10 + 100000 z_0_2 + 100000 z_0_4 + 100000 z_0_6 + 100000 z_0_7 + 100000 z_0_8 <= 600993.7558763742
 c1768: 120 p_0_1 + 120 p_0_10 + 120 p_0_2 + 120 p_0_4 + 120 p_0_6 + 120 p_0_7 + 120 p_0_8 + 100000 z_0_1 + 100000 z_0_10 + 100000 z_0_2 + 100000 z_0_4 + 100000 z_0_6 + 100000 z_0_7 + 100000 z_0_8 <= 700989.79345052131
 c1769: 120 p_0_10 + 120 p_0_3 + 120 p_0_4 + 120 p_0_6 + 120 p_0_7 + 120 p_0_8 + 100000 z_0_10 + 100000 z_0_3 + 100000 z_0_4 + 100000 z_0_6 + 100000 z_0_7 + 100000 z_0_8 <= 600876.09063448897
 c1770: 120 p_0_1 + 120 p_0_10 + 120 p_0_3 + 120 p_0_4 + 120 p_0_6 + 120 p_0_7 + 120 p_0_8 + 100000 z_0_1 + 100000 z_0_10 + 100000 z_0_3 + 100000 z_0_4 + 100000 z_0_6 + 100000 z_0_7 + 100000 z_0_8 <= 700872.12820863619
 c1771: 120 p_0_10 + 120 p_0_2 + 120 p_0_3 + 120 p_0_4 + 120 p_0_6 + 120 p_0_7 + 120 p_0_8 + 100000 z_0_10 + 100000 z_0_2 + 100000 z_0_3 + 100000 z_0_4 + 100000 z_0_6 + 100000 z_0_7 + 100000 z_0_8 <= 700850.10740202561
 c1772: 120 p_0_1 + 120 p_0_10 + 120 p_0_2 + 120 p_0_3 + 120 p_0_4 + 120 p_0_6 + 120 p_0_7 + 120 p_0_8 + 100000 z_0_1 + 100000 z_0_10 + 100000 z_0_2 + 100000 z_0_3 + 100000 z_0_4 + 100000 z_0_6 + 100000 z_0_7 + 100000 z_0_8 <= 800846.14497617271
 c1773: 120 p_0_10 + 120 p_0_5 + 120 p_0_6 + 120 p_0_7 + 120 p_0_8 + 100000 z_0_10 + 100000 z_0_5 + 100000 z_0_6 + 100000 z_0_7 + 100000 z_0_8 <= 501019.53886422905
 c1774: 120 p_0_1 + 120 p_0_10 + 120 p_0_5 + 120 p_0_6 + 120 p_0_7 + 120 p_0_8 + 100000 z_0_1 + 100000 z_0_10 + 100000 z_0_5 + 100000 z_0_6 + 100000 z_0_7 + 100000 z_0_8 <= 601015.57643837621
 c1775: 120 p_0_10 + 120 p_0_2 + 120 p_0_5 + 120 p_0_6 + 120 p_0_7 + 120 p_0_8 + 100000 z_0_10 + 100000 z_0_2 + 100000 z_0_5 + 100000 z_0_6 + 100000 z_0_7 + 100000 z_0_8 <= 601007.2238924721
 c1776: 120 p_0_1 + 120 p_0_10 + 120 p_0_2 + 120 p_0_5 + 120 p_0_6 + 120 p_0_7 + 120 p_0_8 + 100000 z_0_1 + 100000 z_0_10 + 100000 z_0_2 + 100000 z_0_5 + 100000 z_0_6 + 100000 z_0_7 + 100000 z_0_8 <= 701003.26146661921
 c1777: 120 p_0_10 + 120 p_0_3 + 120 p_0_5 + 120 p_0_6 + 120 p_0_7 + 120 p_0_8 + 100000 z_0_10 + 100000 z_0_3 + 100000 z_0_5 + 100000 z_0_6 + 100000 z_0_7 + 100000 z_0_8 <= 600839.6156603311
 c1778: 120 p_0_1 + 120 p_0_10 + 120 p_0_3 + 120 p_0_5 + 120 p_0_6 + 120 p_0_7 + 120 p_0_8 + 100000 z_0_1 + 100000 z_0_10 + 100000 z_0_3 + 100000 z_0_5 + 100000 z_0_6 + 100000 z_0_7 + 100000 z_0_8 <= 700835.65323447832
 c1779: 120 p_0_10 + 120 p_0_2 + 120 p_0_3 + 120 p_0_5 + 120 p_0_6 + 120 p_0_7 + 120 p_0_8 + 100000 z_0_10 + 100000 z_0_2 + 100000 z_0_3 + 100000 z_0_5 + 100000 z_0_6 + 100000 z_0_7 + 100000 z_0_8 <= 700827.30068857409
 c1780: 120 p_0_1 + 120 p_0_10 + 120 p_0_2 + 120 p_0_3 + 120 p_0_5 + 120 p_0_6 + 120 p_0_7 + 120 p_0_8 + 100000 z_0_1 + 100000 z_0_10 + 100000 z_0_2 + 100000 z_0_3 + 100000 z_0_5 + 100000 z_0_6 + 100000 z_0_7 + 100000 z_0_8 <= 800823.33826272131
 c1781: 120 p_0_10 + 120 p_0_4 + 120 p_0_5 + 120 p_0_6 + 120 p_0_7 + 120 p_0_8 + 100000 z_0_10 + 100000 z_0_4 + 100000 z_0_5 + 100000 z_0_6 + 100000 z_0_7 + 100000 z_0_8 <= 601001.83216642519
 c1782: 120 p_0_1 + 120 p_0_10 + 120 p_0_4 + 120 p_0_5 + 120 p_0_6 + 120 p_0_7 + 120 p_0_8 + 100000 z_0_1 + 100000 z_0_10 + 100000 z_0_4 + 100000 z_0_5 + 100000 z_0_6 + 100000 z_0_7 + 100000 z_0_8 <= 700997.86974057241
 c1783: 120 p_0_10 + 120 p_0_2 + 120 p_0_4 + 120 p_0_5 + 120 p_0_6 + 120 p_0_7 + 120 p_0_8 + 100000 z_0_10 + 100000 z_0_2 + 100000 z_0_4 + 100000 z_0_5 + 100000 z_0_6 + 100000 z_0_7 + 100000 z_0_8 <= 700989.51719466818
 c1784: 120 p_0_1 + 120 p_0_10 + 120 p_0_2 + 120 p_0_4 + 120 p_0_5 + 120 p_0_6 + 120 p_0_7 + 120 p_0_8 + 100000 z_0_1 + 100000 z_0_10 + 100000 z_0_2 + 100000 z_0_4 + 100000 z_0_5 + 100000 z_0_6 + 100000 z_0_7 + 100000 z_0_8 <= 800985.5547688154
 c1785: 120 p_0_10 + 120 p_0_3 + 120 p_0_4 + 120 p_0_5 + 120 p_0_6 + 120 p_0_7 + 120 p_0_8 + 100000 z_0_10 + 100000 z_0_3 + 100000 z_0_4 + 100000 z_0_5 + 100000 z_0_6 + 100000 z_0_7 + 100000 z_0_8 <= 700838.84893861623
 c1786: 120 p_0_1 + 120 p_0_10 + 120 p_0_3 + 120 p_0_4 + 120 p_0_5 + 120 p_0_6 + 120 p_0_7 + 120 p_0_8 + 100000 z_0_1 + 100000 z_0_10 + 100000 z_0_3 + 100000 z_0_4 + 100000 z_0_5 + 100000 z_0_6 + 100000 z_0_7 + 100000 z_0_8 <= 800834.88651276345
 c1787: 120 p_0_10 + 120 p_0_2 + 120 p_0_3 + 120 p_0_4 + 120 p_0_5 + 120 p_0_6 + 120 p_0_7 + 120 p_0_8 + 100000 z_0_10 + 100000 z_0_2 + 100000 z_0_3 + 100000 z_0_4 + 100000 z_0_5 + 100000 z_0_6 + 100000 z_0_7 + 100000 z_0_8 <= 800826.53396685922
 c1788: 120 p_0_1 + 120 p_0_10 + 120 p_0_2 + 120 p_0_3 + 120 p_0_4 + 120 p_0_5 + 120 p_0_6 + 120 p_0_7 + 120 p_0_8 + 100000 z_0_1 + 100000 z_0_10 + 100000 z_0_2 + 100000 z_0_3 + 100000 z_0_4 + 100000 z_0_5 + 100000 z_0_6 + 100000 z_0_7 + 100000 z_0_8 <= 900822.57154100644
 c1789: 120 p_0_10 + 120 p_0_9 + 100000 z_0_10 + 100000 z_0_9 <= 201381.96824919566
 c1790: 120 p_0_1 + 120 p_0_10 + 120 p_0_9 + 100000 z_0_1 + 100000 z_0_10 + 100000 z_0_9 <= 301288.70593938307
 c1791: 120 p_0_10 + 120 p_0_2 + 120 p_0_9 + 100000 z_0_10 + 100000 z_0_2 + 100000 z_0_9 <= 301103.12210030947
 c1792: 120 p_0_1 + 120 p_0_10 + 120 p_0_2 + 120 p_0_9 + 100000 z_0_1 + 100000 z_0_10 + 100000 z_0_2 + 100000 z_0_9 <= 401009.85979049688
 c1793: 120 p_0_10 + 120 p_0_3 + 120 p_0_9 + 100000 z_0_10 + 100000 z_0_3 + 100000 z_0_9 <= 301288.33723306039
 c1794: 120 p_0_1 + 120 p_0_10 + 120 p_0_3 + 120 p_0_9 + 100000 z_0_1 + 100000 z_0_10 + 100000 z_0_3 + 100000 z_0_9 <= 401195.0749232478
 c1795: 120 p_0_10 + 120 p_0_2 + 120 p_0_3 + 120 p_0_9 + 100000 z_0_10 + 100000 z_0_2 + 100000 z_0_3 + 100000 z_0_9 <= 401009.49108417419
 c1796: 120 p_0_1 + 120 p_0_10 + 120 p_0_2 + 120 p_0_3 + 120 p_0_9 + 100000 z_0_1 + 100000 z_0_10 + 100000 z_0_2 + 100000 z_0_3 + 100000 z_0_9 <= 500916.2287743616
 c1797: 120 p_0_10 + 120 p_0_4 + 120 p_0_9 + 100000 z_0_10 + 100000 z_0_4 + 100000 z_0_9 <= 301379.14077390073
 c1798: 120 p_0_1 + 120 p_0_10 + 120 p_0_4 + 120 p_0_9 + 100000 z_0_1 + 100000 z_0_10 + 100000 z_0_4 + 100000 z_0_9 <= 401285.87846408808
 c1799: 120 p_0_10 + 120 p_0_2 + 120 p_0_4 + 120 p_0_9 + 100000 z_0_10 + 100000 z_0_2 + 100000 z_0_4 + 100000 z_0_9 <= 401100.29462501453
 c1800: 120 p_0_1 + 120 p_0_10 + 120 p_0_2 + 120 p_0_4 + 120 p_0_9 + 100000 z_0_1 + 100000 z_0_10 + 100000 z_0_2 + 100000 z_0_4 + 100000 z_0_9 <= 501007.03231520188
 c1801: 120 p_0_10 + 120 p_0_3 + 120 p_0_4 + 120 p_0_9 + 100000 z_0_10 + 100000 z_0_3 + 100000 z_0_4 + 100000 z_0_9 <= 401287.57051134552
 c1802: 120 p_0_1 + 120 p_0_10 + 120 p_0_3 + 120 p_0_4 + 120 p_0_9 + 100000 z_0_1 + 100000 z_0_10 + 100000 z_0_3 + 100000 z_0_4 + 100000 z_0_9 <= 501194.30820153293
 c1803: 120 p_0_10 + 120 p_0_2 + 120 p_0_3 + 120 p_0_4 + 120 p_0_9 + 100000 z_0_10 + 100000 z_0_2 + 100000 z_0_3 + 100000 z_0_4 + 100000 z_0_9 <= 501008.72436245932
 c1804: 120 p_0_1 + 120 p_0_10 + 120 p_0_2 + 120 p_0_3 + 120 p_0_4 + 120 p_0_9 + 100000 z_0_1 + 100000 z_0_10 + 100000 z_0_2 + 100000 z_0_3 + 100000 z_0_4 + 100000 z_0_9 <= 600915.46205264668
 c1805: 120 p_0_10 + 120 p_0_5 + 120 p_0_9 + 100000 z_0_10 + 100000 z_0_5 + 100000 z_0_9 <= 301096.25497658952
 c1806: 120 p_0_1 + 120 p_0_10 + 120 p_0_5 + 120 p_0_9 + 100000 z_0_1 + 100000 z_0_10 + 100000 z_0_5 + 100000 z_0_9 <= 401009.28735606279
 c1807: 120 p_0_10 + 120 p_0_2 + 120 p_0_5 + 120 p_0_9 + 100000 z_0_10 + 100000 z_0_2 + 100000 z_0_5 + 100000 z_0_9 <= 401083.577860052
 c1808: 120 p_0_1 + 120 p_0_10 + 120 p_0_2 + 120 p_0_5 + 120 p_0_9 + 100000 z_0_1 + 100000 z_0_10 + 100000 z_0_2 + 100000 z_0_5 + 100000 z_0_9 <= 500990.31555023941
 c1809: 120 p_0_10 + 120 p_0_3 + 120 p_0_5 + 120 p_0_9 + 100000 z_0_10 + 100000 z_0_3 + 100000 z_0_5 + 100000 z_0_9 <= 401002.62396045425
 c1810: 120 p_0_1 + 120 p_0_10 + 120 p_0_3 + 120 p_0_5 + 120 p_0_9 + 100000 z_0_1 + 100000 z_0_10 + 100000 z_0_3 + 100000 z_0_5 + 100000 z_0_9 <= 500915.65633992752
 c1811: 120 p_0_10 + 120 p_0_2 + 120 p_0_3 + 120 p_0_5 + 120 p_0_9 + 100000 z_0_10 + 100000 z_0_2 + 100000 z_0_3 + 100000 z_0_5 + 100000 z_0_9 <= 500989.94684391672
 c1812: 120 p_0_1 + 120 p_0_10 + 120 p_0_2 + 120 p_0_3 + 120 p_0_5 + 120 p_0_9 + 100000 z_0_1 + 100000 z_0_10 + 100000 z_0_2 + 100000 z_0_3 + 100000 z_0_5 + 100000 z_0_9 <= 600896.68453410408
 c1813: 120 p_0_10 + 120 p_0_4 + 120 p_0_5 + 120 p_0_9 + 100000 z_0_10 + 100000 z_0_4 + 100000 z_0_5 + 100000 z_0_9 <= 401093.42750129459
 c1814: 120 p_0_1 + 120 p_0_10 + 120 p_0_4 + 120 p_0_5 + 120 p_0_9 + 100000 z_0_1 + 100000 z_0_10 + 100000 z_0_4 + 100000 z_0_5 + 100000 z_0_9 <= 501006.45988076786
 c1815: 120 p_0_10 + 120 p_0_2 + 120 p_0_4 + 120 p_0_5 + 120 p_0_9 + 100000 z_0_10 + 100000 z_0_2 + 100000 z_0_4 + 100000 z_0_5 + 100000 z_0_9 <= 501080.75038475706
 c1816: 120 p_0_1 + 120 p_0_10 + 120 p_0_2 + 120 p_0_4 + 120 p_0_5 + 120 p_0_9 + 100000 z_0_1 + 100000 z_0_10 + 100000 z_0_2 + 100000 z_0_4 + 100000 z_0_5 + 100000 z_0_9 <= 600987.48807494447
 c1817: 120 p_0_10 + 120 p_0_3 + 120 p_0_4 + 120 p_0_5 + 120 p_0_9 + 100000 z_0_10 + 100000 z_0_3 + 100000 z_0_4 + 100000 z_0_5 + 100000 z_0_9 <= 501001.85723873938
 c1818: 120 p_0_1 + 120 p_0_10 + 120 p_0_3 + 120 p_0_4 + 120 p_0_5 + 120 p_0_9 + 100000 z_0_1 + 100000 z_0_10 + 100000 z_0_3 + 100000 z_0_4 + 100000 z_0_5 + 100000 z_0_9 <= 600914.88961821271
 c1819: 120 p_0_10 + 120 p_0_2 + 120 p_0_3 + 120 p_0_4 + 120 p_0_5 + 120 p_0_9 + 100000 z_0_10 + 100000 z_0_2 + 100000 z_0_3 + 100000 z_0_4 + 100000 z_0_5 + 100000 z_0_9 <= 600989.18012220191
 c1820: 120 p_0_1 + 120 p_0_10 + 120 p_0_2 + 120 p_0_3 + 120 p_0_4 + 120 p_0_5 + 120 p_0_9 + 100000 z_0_1 + 100000 z_0_10 + 100000 z_0_2 + 100000 z_0_3 + 100000 z_0_4 + 100000 z_0_5 + 100000 z_0_9 <= 700895.91781238932
 c1821: 120 p_0_10 + 120 p_0_6 + 120 p_0_9 + 100000 z_0_10 + 100000 z_0_6 + 100000 z_0_9 <= 301317.14819121314
 c1822: 120 p_0_1 + 120 p_0_10 + 120 p_0_6 + 120 p_0_9 + 100000 z_0_1 + 100000 z_0_10 + 100000 z_0_6 + 100000 z_0_9 <= 401223.88588140055
 c1823: 120 p_0_10 + 120 p_0_2 + 120 p_0_6 + 120 p_0_9 + 100000 z_0_10 + 100000 z_0_2 + 100000 z_0_6 + 100000 z_0_9 <= 401072.33646174258
 c1824: 120 p_0_1 + 120 p_0_10 + 120 p_0_2 + 120 p_0_6 + 120 p_0_9 + 100000 z_0_1 + 100000 z_0_10 + 100000 z_0_2 + 100000 z_0_6 + 100000 z_0_9 <= 500979.07415192999
 c1825: 120 p_0_10 + 120 p_0_3 + 120 p_0_6 + 120 p_0_9 + 100000 z_0_10 + 100000 z_0_3 + 100000 z_0_6 + 100000 z_0_9 <= 401223.51717507787
 c1826: 120 p_0_1 + 120 p_0_10 + 120 p_0_3 + 120 p_0_6 + 120 p_0_9 + 100000 z_0_1 + 100000 z_0_10 + 100000 z_0_3 + 100000 z_0_6 + 100000 z_0_9 <= 501130.25486526528
 c1827: 120 p_0_10 + 120 p_0_2 + 120 p_0_3 + 120 p_0_6 + 120 p_0_9 + 100000 z_0_10 + 100000 z_0_2 + 100000 z_0_3 + 100000 z_0_6 + 100000 z_0_9 <= 500978.70544560731
 c1828: 120 p_0_1 + 120 p_0_10 + 120 p_0_2 + 120 p_0_3 + 120 p_0_6 + 120 p_0_9 + 100000 z_0_1 + 100000 z_0_10 + 100000 z_0_2 + 100000 z_0_3 + 100000 z_0_6 + 100000 z_0_9 <= 600885.44313579472
 c1829: 120 p_0_10 + 120 p_0_4 + 120 p_0_6 + 120 p_0_9 + 100000 z_0_10 + 100000 z_0_4 + 100000 z_0_6 + 100000 z_0_9 <= 401314.32071591821
 c1830: 120 p_0_1 + 120 p_0_10 + 120 p_0_4 + 120 p_0_6 + 120 p_0_9 + 100000 z_0_1 + 100000 z_0_10 + 100000 z_0_4 + 100000 z_0_6 + 100000 z_0_9 <= 501221.05840610561
 c1831: 120 p_0_10 + 120 p_0_2 + 120 p_0_4 + 120 p_0_6 + 120 p_0_9 + 100000 z_0_10 + 100000 z_0_2 + 100000 z_0_4 + 100000 z_0_6 + 100000 z_0_9 <= 501069.50898644765
 c1832: 120 p_0_1 + 120 p_0_10 + 120 p_0_2 + 120 p_0_4 + 120 p_0_6 + 120 p_0_9 + 100000 z_0_1 + 100000 z_0_10 + 100000 z_0_2 + 100000 z_0_4 + 100000 z_0_6 + 100000 z_0_9 <= 600976.246676635
 c1833: 120 p_0_10 + 120 p_0_3 + 120 p_0_4 + 120 p_0_6 + 120 p_0_9 + 100000 z_0_10 + 100000 z_0_3 + 100000 z_0_4 + 100000 z_0_6 + 100000 z_0_9 <= 501222.750453363
 c1834: 120 p_0_1 + 120 p_0_10 + 120 p_0_3 + 120 p_0_4 + 120 p_0_6 + 120 p_0_9 + 100000 z_0_1 + 100000 z_0_10 + 100000 z_0_3 + 100000 z_0_4 + 100000 z_0_6 + 100000 z_0_9 <= 601129.48814355046
 c1835: 120 p_0_10 + 120 p_0_2 + 120 p_0_3 + 120 p_0_4 + 120 p_0_6 + 120 p_0_9 + 100000 z_0_10 + 100000 z_0_2 + 100000 z_0_3 + 100000 z_0_4 + 100000 z_0_6 + 100000 z_0_9 <= 600977.93872389244
 c1836: 120 p_0_1 + 120 p_0_10 + 120 p_0_2 + 120 p_0_3 + 120 p_0_4 + 120 p_0_6 + 120 p_0_9 + 100000 z_0_1 + 100000 z_0_10 + 100000 z_0_2 + 100000 z_0_3 + 100000 z_0_4 + 100000 z_0_6 + 100000 z_0_9 <= 700884.67641407985
 c1837: 120 p_0_10 + 120 p_0_5 + 120 p_0_6 + 120 p_0_9 + 100000 z_0_10 + 100000 z_0_5 + 100000 z_0_6 + 100000 z_0_9 <= 401062.08444256079
 c1838: 120 p_0_1 + 120 p_0_10 + 120 p_0_5 + 120 p_0_6 + 120 p_0_9 + 100000 z_0_1 + 100000 z_0_10 + 100000 z_0_5 + 100000 z_0_6 + 100000 z_0_9 <= 500968.8221327482
 c1839: 120 p_0_10 + 120 p_0_2 + 120 p_0_5 + 120 p_0_6 + 120 p_0_9 + 100000 z_0_10 + 100000 z_0_2 + 100000 z_0_5 + 100000 z_0_6 + 100000 z_0_9 <= 501052.79222148511
 c1840: 120 p_0_1 + 120 p_0_10 + 120 p_0_2 + 120 p_0_5 + 120 p_0_6 + 120 p_0_9 + 100000 z_0_1 + 100000 z_0_10 + 100000 z_0_2 + 100000 z_0_5 + 100000 z_0_6 + 100000 z_0_9 <= 600959.52991167258
 c1841: 120 p_0_10 + 120 p_0_3 + 120 p_0_5 + 120 p_0_6 + 120 p_0_9 + 100000 z_0_10 + 100000 z_0_3 + 100000 z_0_5 + 100000 z_0_6 + 100000 z_0_9 <= 500968.45342642552
 c1842: 120 p_0_1 + 120 p_0_10 + 120 p_0_3 + 120 p_0_5 + 120 p_0_6 + 120 p_0_9 + 100000 z_0_1 + 100000 z_0_10 + 100000 z_0_3 + 100000 z_0_5 + 100000 z_0_6 + 100000 z_0_9 <= 600875.19111661287
 c1843: 120 p_0_10 + 120 p_0_2 + 120 p_0_3 + 120 p_0_5 + 120 p_0_6 + 120 p_0_9 + 100000 z_0_10 + 100000 z_0_2 + 100000 z_0_3 + 100000 z_0_5 + 100000 z_0_6 + 100000 z_0_9 <= 600959.16120534984
 c1844: 120 p_0_1 + 120 p_0_10 + 120 p_0_2 + 120 p_0_3 + 120 p_0_5 + 120 p_0_6 + 120 p_0_9 + 100000 z_0_1 + 100000 z_0_10 + 100000 z_0_2 + 100000 z_0_3 + 100000 z_0_5 + 100000 z_0_6 + 100000 z_0_9 <= 700865.89889553725
 c1845: 120 p_0_10 + 120 p_0_4 + 120 p_0_5 + 120 p_0_6 + 120 p_0_9 + 100000 z_0_10 + 100000 z_0_4 + 100000 z_0_5 + 100000 z_0_6 + 100000 z_0_9 <= 501059.25696726586
 c1846: 120 p_0_1 + 120 p_0_10 + 120 p_0_4 + 120 p_0_5 + 120 p_0_6 + 120 p_0_9 + 100000 z_0_1 + 100000 z_0_10 + 100000 z_0_4 + 100000 z_0_5 + 100000 z_0_6 + 100000 z_0_9 <= 600965.99465745327
 c1847: 120 p_0_10 + 120 p_0_2 + 120 p_0_4 + 120 p_0_5 + 120 p_0_6 + 120 p_0_9 + 100000 z_0_10 + 100000 z_0_2 + 100000 z_0_4 + 100000 z_0_5 + 100000 z_0_6 + 100000 z_0_9 <= 601049.96474619024
 c1848: 120 p_0_1 + 120 p_0_10 + 120 p_0_2 + 120 p_0_4 + 120 p_0_5 + 120 p_0_6 + 120 p_0_9 + 100000 z_0_1 + 100000 z_0_10 + 100000 z_0_2 + 100000 z_0_4 + 100000 z_0_5 + 100000 z_0_6 + 100000 z_0_9 <= 700956.70243637753
 c1849: 120 p_0_10 + 120 p_0_3 + 120 p_0_4 + 120 p_0_5 + 120 p_0_6 + 120 p_0_9 + 100000 z_0_10 + 100000 z_0_3 + 100000 z_0_4 + 100000 z_0_5 + 100000 z_0_6 + 100000 z_0_9 <= 600967.68670471071
 c1850: 120 p_0_1 + 120 p_0_10 + 120 p_0_3 + 120 p_0_4 + 120 p_0_5 + 120 p_0_6 + 120 p_0_9 + 100000 z_0_1 + 100000 z_0_10 + 100000 z_0_3 + 100000 z_0_4 + 100000 z_0_5 + 100000 z_0_6 + 100000 z_0_9 <= 700874.42439489812
 c1851: 120 p_0_10 + 120 p_0_2 + 120 p_0_3 + 120 p_0_4 + 120 p_0_5 + 120 p_0_6 + 120 p_0_9 + 100000 z_0_10 + 100000 z_0_2 + 100000 z_0_3 + 100000 z_0_4 + 100000 z_0_5 + 100000 z_0_6 + 100000 z_0_9 <= 700958.39448363497
 c1852: 120 p_0_1 + 120 p_0_10 + 120 p_0_2 + 120 p_0_3 + 120 p_0_4 + 120 p_0_5 + 120 p_0_6 + 120 p_0_9 + 100000 z_0_1 + 100000 z_0_10 + 100000 z_0_2 + 100000 z_0_3 + 100000 z_0_4 + 100000 z_0_5 + 100000 z_0_6 + 100000 z_0_9 <= 800865.13217382238
 c1853: 120 p_0_10 + 120 p_0_7 + 120 p_0_9 + 100000 z_0_10 + 100000 z_0_7 + 100000 z_0_9 <= 301252.18581373745
 c1854: 120 p_0_1 + 120 p_0_10 + 120 p_0_7 + 120 p_0_9 + 100000 z_0_1 + 100000 z_0_10 + 100000 z_0_7 + 100000 z_0_9 <= 401248.22338788462
 c1855: 120 p_0_10 + 120 p_0_2 + 120 p_0_7 + 120 p_0_9 + 100000 z_0_10 + 100000 z_0_2 + 100000 z_0_7 + 100000 z_0_9 <= 400973.3396648512
 c1856: 120 p_0_1 + 120 p_0_10 + 120 p_0_2 + 120 p_0_7 + 120 p_0_9 + 100000 z_0_1 + 100000 z_0_10 + 100000 z_0_2 + 100000 z_0_7 + 100000 z_0_9 <= 500969.37723899836
 c1857: 120 p_0_10 + 120 p_0_3 + 120 p_0_7 + 120 p_0_9 + 100000 z_0_10 + 100000 z_0_3 + 100000 z_0_7 + 100000 z_0_9 <= 401158.55479760218
 c1858: 120 p_0_1 + 120 p_0_10 + 120 p_0_3 + 120 p_0_7 + 120 p_0_9 + 100000 z_0_1 + 100000 z_0_10 + 100000 z_0_3 + 100000 z_0_7 + 100000 z_0_9 <= 501154.59237174934
 c1859: 120 p_0_10 + 120 p_0_2 + 120 p_0_3 + 120 p_0_7 + 120 p_0_9 + 100000 z_0_10 + 100000 z_0_2 + 100000 z_0_3 + 100000 z_0_7 + 100000 z_0_9 <= 500879.70864871592
 c1860: 120 p_0_1 + 120 p_0_10 + 120 p_0_2 + 120 p_0_3 + 120 p_0_7 + 120 p_0_9 + 100000 z_0_1 + 100000 z_0_10 + 100000 z_0_2 + 100000 z_0_3 + 100000 z_0_7 + 100000 z_0_9 <= 600875.74622286309
 c1861: 120 p_0_10 + 120 p_0_4 + 120 p_0_7 + 120 p_0_9 + 100000 z_0_10 + 100000 z_0_4 + 100000 z_0_7 + 100000 z_0_9 <= 401249.35833844246
 c1862: 120 p_0_1 + 120 p_0_10 + 120 p_0_4 + 120 p_0_7 + 120 p_0_9 + 100000 z_0_1 + 100000 z_0_10 + 100000 z_0_4 + 100000 z_0_7 + 100000 z_0_9 <= 501245.39591258962
 c1863: 120 p_0_10 + 120 p_0_2 + 120 p_0_4 + 120 p_0_7 + 120 p_0_9 + 100000 z_0_10 + 100000 z_0_2 + 100000 z_0_4 + 100000 z_0_7 + 100000 z_0_9 <= 500970.51218955626
 c1864: 120 p_0_1 + 120 p_0_10 + 120 p_0_2 + 120 p_0_4 + 120 p_0_7 + 120 p_0_9 + 100000 z_0_1 + 100000 z_0_10 + 100000 z_0_2 + 100000 z_0_4 + 100000 z_0_7 + 100000 z_0_9 <= 600966.54976370349
 c1865: 120 p_0_10 + 120 p_0_3 + 120 p_0_4 + 120 p_0_7 + 120 p_0_9 + 100000 z_0_10 + 100000 z_0_3 + 100000 z_0_4 + 100000 z_0_7 + 100000 z_0_9 <= 501157.78807588731
 c1866: 120 p_0_1 + 120 p_0_10 + 120 p_0_3 + 120 p_0_4 + 120 p_0_7 + 120 p_0_9 + 100000 z_0_1 + 100000 z_0_10 + 100000 z_0_3 + 100000 z_0_4 + 100000 z_0_7 + 100000 z_0_9 <= 601153.82565003447
 c1867: 120 p_0_10 + 120 p_0_2 + 120 p_0_3 + 120 p_0_4 + 120 p_0_7 + 120 p_0_9 + 100000 z_0_10 + 100000 z_0_2 + 100000 z_0_3 + 100000 z_0_4 + 100000 z_0_7 + 100000 z_0_9 <= 600878.94192700111
 c1868: 120 p_0_1 + 120 p_0_10 + 120 p_0_2 + 120 p_0_3 + 120 p_0_4 + 120 p_0_7 + 120 p_0_9 + 100000 z_0_1 + 100000 z_0_10 + 100000 z_0_2 + 100000 z_0_3 + 100000 z_0_4 + 100000 z_0_7 + 100000 z_0_9 <= 700874.97950114822
 c1869: 120 p_0_10 + 120 p_0_5 + 120 p_0_7 + 120 p_0_9 + 100000 z_0_10 + 100000 z_0_5 + 100000 z_0_7 + 100000 z_0_9 <= 400984.99397768592
 c1870: 120 p_0_1 + 120 p_0_10 + 120 p_0_5 + 120 p_0_7 + 120 p_0_9 + 100000 z_0_1 + 100000 z_0_10 + 100000 z_0_5 + 100000 z_0_7 + 100000 z_0_9 <= 500981.03155183309
 c1871: 120 p_0_10 + 120 p_0_2 + 120 p_0_5 + 120 p_0_7 + 120 p_0_9 + 100000 z_0_10 + 100000 z_0_2 + 100000 z_0_5 + 100000 z_0_7 + 100000 z_0_9 <= 500964.22384294146
 c1872: 120 p_0_1 + 120 p_0_10 + 120 p_0_2 + 120 p_0_5 + 120 p_0_7 + 120 p_0_9 + 100000 z_0_1 + 100000 z_0_10 + 100000 z_0_2 + 100000 z_0_5 + 100000 z_0_7 + 100000 z_0_9 <= 600960.26141708856
 c1873: 120 p_0_10 + 120 p_0_3 + 120 p_0_5 + 120 p_0_7 + 120 p_0_9 + 100000 z_0_10 + 100000 z_0_3 + 100000 z_0_5 + 100000 z_0_7 + 100000 z_0_9 <= 500891.36296155065
 c1874: 120 p_0_1 + 120 p_0_10 + 120 p_0_3 + 120 p_0_5 + 120 p_0_7 + 120 p_0_9 + 100000 z_0_1 + 100000 z_0_10 + 100000 z_0_3 + 100000 z_0_5 + 100000 z_0_7 + 100000 z_0_9 <= 600887.40053569782
 c1875: 120 p_0_10 + 120 p_0_2 + 120 p_0_3 + 120 p_0_5 + 120 p_0_7 + 120 p_0_9 + 100000 z_0_10 + 100000 z_0_2 + 100000 z_0_3 + 100000 z_0_5 + 100000 z_0_7 + 100000 z_0_9 <= 600861.07550604979
 c1876: 120 p_0_1 + 120 p_0_10 + 120 p_0_2 + 120 p_0_3 + 120 p_0_5 + 120 p_0_7 + 120 p_0_9 + 100000 z_0_1 + 100000 z_0_10 + 100000 z_0_2 + 100000 z_0_3 + 100000 z_0_5 + 100000 z_0_7 + 100000 z_0_9 <= 700857.1130801969
 c1877: 120 p_0_10 + 120 p_0_4 + 120 p_0_5 + 120 p_0_7 + 120 p_0_9 + 100000 z_0_10 + 100000 z_0_4 + 100000 z_0_5 + 100000 z_0_7 + 100000 z_0_9 <= 500982.16650239099
 c1878: 120 p_0_1 + 120 p_0_10 + 120 p_0_4 + 120 p_0_5 + 120 p_0_7 + 120 p_0_9 + 100000 z_0_1 + 100000 z_0_10 + 100000 z_0_4 + 100000 z_0_5 + 100000 z_0_7 + 100000 z_0_9 <= 600978.2040765381
 c1879: 120 p_0_10 + 120 p_0_2 + 120 p_0_4 + 120 p_0_5 + 120 p_0_7 + 120 p_0_9 + 100000 z_0_10 + 100000 z_0_2 + 100000 z_0_4 + 100000 z_0_5 + 100000 z_0_7 + 100000 z_0_9 <= 600951.87904689007
 c1880: 120 p_0_1 + 120 p_0_10 + 120 p_0_2 + 120 p_0_4 + 120 p_0_5 + 120 p_0_7 + 120 p_0_9 + 100000 z_0_1 + 100000 z_0_10 + 100000 z_0_2 + 100000 z_0_4 + 100000 z_0_5 + 100000 z_0_7 + 100000 z_0_9 <= 700947.91662103718
 c1881: 120 p_0_10 + 120 p_0_3 + 120 p_0_4 + 120 p_0_5 + 120 p_0_7 + 120 p_0_9 + 100000 z_0_10 + 100000 z_0_3 + 100000 z_0_4 + 100000 z_0_5 + 100000 z_0_7 + 100000 z_0_9 <= 600890.59623983584
 c1882: 120 p_0_1 + 120 p_0_10 + 120 p_0_3 + 120 p_0_4 + 120 p_0_5 + 120 p_0_7 + 120 p_0_9 + 100000 z_0_1 + 100000 z_0_10 + 100000 z_0_3 + 100000 z_0_4 + 100000 z_0_5 + 100000 z_0_7 + 100000 z_0_9 <= 700886.63381398295
 c1883: 120 p_0_10 + 120 p_0_2 + 120 p_0_3 + 120 p_0_4 + 120 p_0_5 + 120 p_0_7 + 120 p_0_9 + 100000 z_0_10 + 100000 z_0_2 + 100000 z_0_3 + 100000 z_0_4 + 100000 z_0_5 + 100000 z_0_7 + 100000 z_0_9 <= 700860.30878433492
 c1884: 120 p_0_1 + 120 p_0_10 + 120 p_0_2 + 120 p_0_3 + 120 p_0_4 + 120 p_0_5 + 120 p_0_7 + 120 p_0_9 + 100000 z_0_1 + 100000 z_0_10 + 100000 z_0_2 + 100000 z_0_3 + 100000 z_0_4 + 100000 z_0_5 + 100000 z_0_7 + 100000 z_0_9 <= 800856.34635848203
 c1885: 120 p_0_10 + 120 p_0_6 + 120 p_0_7 + 120 p_0_9 + 100000 z_0_10 + 100000 z_0_6 + 100000 z_0_7 + 100000 z_0_9 <= 401187.36575575493
 c1886: 120 p_0_1 + 120 p_0_10 + 120 p_0_6 + 120 p_0_7 + 120 p_0_9 + 100000 z_0_1 + 100000 z_0_10 + 100000 z_0_6 + 100000 z_0_7 + 100000 z_0_9 <= 501183.4033299021
 c1887: 120 p_0_10 + 120 p_0_2 + 120 p_0_6 + 120 p_0_7 + 120 p_0_9 + 100000 z_0_10 + 100000 z_0_2 + 100000 z_0_6 + 100000 z_0_7 + 100000 z_0_9 <= 500942.55402628437
 c1888: 120 p_0_1 + 120 p_0_10 + 120 p_0_2 + 120 p_0_6 + 120 p_0_7 + 120 p_0_9 + 100000 z_0_1 + 100000 z_0_10 + 100000 z_0_2 + 100000 z_0_6 + 100000 z_0_7 + 100000 z_0_9 <= 600938.59160043148
 c1889: 120 p_0_10 + 120 p_0_3 + 120 p_0_6 + 120 p_0_7 + 120 p_0_9 + 100000 z_0_10 + 100000 z_0_3 + 100000 z_0_6 + 100000 z_0_7 + 100000 z_0_9 <= 501093.73473961966
 c1890: 120 p_0_1 + 120 p_0_10 + 120 p_0_3 + 120 p_0_6 + 120 p_0_7 + 120 p_0_9 + 100000 z_0_1 + 100000 z_0_10 + 100000 z_0_3 + 100000 z_0_6 + 100000 z_0_7 + 100000 z_0_9 <= 601089.77231376676
 c1891: 120 p_0_10 + 120 p_0_2 + 120 p_0_3 + 120 p_0_6 + 120 p_0_7 + 120 p_0_9 + 100000 z_0_10 + 100000 z_0_2 + 100000 z_0_3 + 100000 z_0_6 + 100000 z_0_7 + 100000 z_0_9 <= 600848.92301014904
 c1892: 120 p_0_1 + 120 p_0_10 + 120 p_0_2 + 120 p_0_3 + 120 p_0_6 + 120 p_0_7 + 120 p_0_9 + 100000 z_0_1 + 100000 z_0_10 + 100000 z_0_2 + 100000 z_0_3 + 100000 z_0_6 + 100000 z_0_7 + 100000 z_0_9 <= 700844.96058429626
 c1893: 120 p_0_10 + 120 p_0_4 + 120 p_0_6 + 120 p_0_7 + 120 p_0_9 + 100000 z_0_10 + 100000 z_0_4 + 100000 z_0_6 + 100000 z_0_7 + 100000 z_0_9 <= 501184.53828045999
 c1894: 120 p_0_1 + 120 p_0_10 + 120 p_0_4 + 120 p_0_6 + 120 p_0_7 + 120 p_0_9 + 100000 z_0_1 + 100000 z_0_10 + 100000 z_0_4 + 100000 z_0_6 + 100000 z_0_7 + 100000 z_0_9 <= 601180.57585460716
 c1895: 120 p_0_10 + 120 p_0_2 + 120 p_0_4 + 120 p_0_6 + 120 p_0_7 + 120 p_0_9 + 100000 z_0_10 + 100000 z_0_2 + 100000 z_0_4 + 100000 z_0_6 + 100000 z_0_7 + 100000 z_0_9 <= 600939.72655098944
 c1896: 120 p_0_1 + 120 p_0_10 + 120 p_0_2 + 120 p_0_4 + 120 p_0_6 + 120 p_0_7 + 120 p_0_9 + 100000 z_0_1 + 100000 z_0_10 + 100000 z_0_2 + 100000 z_0_4 + 100000 z_0_6 + 100000 z_0_7 + 100000 z_0_9 <= 700935.76412513654
 c1897: 120 p_0_10 + 120 p_0_3 + 120 p_0_4 + 120 p_0_6 + 120 p_0_7 + 120 p_0_9 + 100000 z_0_10 + 100000 z_0_3 + 100000 z_0_4 + 100000 z_0_6 + 100000 z_0_7 + 100000 z_0_9 <= 601092.96801790479
 c1898: 120 p_0_1 + 120 p_0_10 + 120 p_0_3 + 120 p_0_4 + 120 p_0_6 + 120 p_0_7 + 120 p_0_9 + 100000 z_0_1 + 100000 z_0_10 + 100000 z_0_3 + 100000 z_0_4 + 100000 z_0_6 + 100000 z_0_7 + 100000 z_0_9 <= 701089.00559205189
 c1899: 120 p_0_10 + 120 p_0_2 + 120 p_0_3 + 120 p_0_4 + 120 p_0_6 + 120 p_0_7 + 120 p_0_9 + 100000 z_0_10 + 100000 z_0_2 + 100000 z_0_3 + 100000 z_0_4 + 100000 z_0_6 + 100000 z_0_7 + 100000 z_0_9 <= 700848.15628843417
 c1900: 120 p_0_1 + 120 p_0_10 + 120 p_0_2 + 120 p_0_3 + 120 p_0_4 + 120 p_0_6 + 120 p_0_7 + 120 p_0_9 + 100000 z_0_1 + 100000 z_0_10 + 100000 z_0_2 + 100000 z_0_3 + 100000 z_0_4 + 100000 z_0_6 + 100000 z_0_7 + 100000 z_0_9 <= 800844.19386258139
 c1901: 120 p_0_10 + 120 p_0_5 + 120 p_0_6 + 120 p_0_7 + 120 p_0_9 + 100000 z_0_10 + 100000 z_0_5 + 100000 z_0_6 + 100000 z_0_7 + 100000 z_0_9 <= 500942.73042545025
 c1902: 120 p_0_1 + 120 p_0_10 + 120 p_0_5 + 120 p_0_6 + 120 p_0_7 + 120 p_0_9 + 100000 z_0_1 + 100000 z_0_10 + 100000 z_0_5 + 100000 z_0_6 + 100000 z_0_7 + 100000 z_0_9 <= 600938.76799959736
 c1903: 120 p_0_10 + 120 p_0_2 + 120 p_0_5 + 120 p_0_6 + 120 p_0_7 + 120 p_0_9 + 100000 z_0_10 + 100000 z_0_2 + 100000 z_0_5 + 100000 z_0_6 + 100000 z_0_7 + 100000 z_0_9 <= 600933.43820437463
 c1904: 120 p_0_1 + 120 p_0_10 + 120 p_0_2 + 120 p_0_5 + 120 p_0_6 + 120 p_0_7 + 120 p_0_9 + 100000 z_0_1 + 100000 z_0_10 + 100000 z_0_2 + 100000 z_0_5 + 100000 z_0_6 + 100000 z_0_7 + 100000 z_0_9 <= 700929.47577852174
 c1905: 120 p_0_10 + 120 p_0_3 + 120 p_0_5 + 120 p_0_6 + 120 p_0_7 + 120 p_0_9 + 100000 z_0_10 + 100000 z_0_3 + 100000 z_0_5 + 100000 z_0_6 + 100000 z_0_7 + 100000 z_0_9 <= 600838.67099096731
 c1906: 120 p_0_1 + 120 p_0_10 + 120 p_0_3 + 120 p_0_5 + 120 p_0_6 + 120 p_0_7 + 120 p_0_9 + 100000 z_0_1 + 100000 z_0_10 + 100000 z_0_3 + 100000 z_0_5 + 100000 z_0_6 + 100000 z_0_7 + 100000 z_0_9 <= 700834.70856511442
 c1907: 120 p_0_10 + 120 p_0_2 + 120 p_0_3 + 120 p_0_5 + 120 p_0_6 + 120 p_0_7 + 120 p_0_9 + 100000 z_0_10 + 100000 z_0_2 + 100000 z_0_3 + 100000 z_0_5 + 100000 z_0_6 + 100000 z_0_7 + 100000 z_0_9 <= 700829.37876989169
 c1908: 120 p_0_1 + 120 p_0_10 + 120 p_0_2 + 120 p_0_3 + 120 p_0_5 + 120 p_0_6 + 120 p_0_7 + 120 p_0_9 + 100000 z_0_1 + 100000 z_0_10 + 100000 z_0_2 + 100000 z_0_3 + 100000 z_0_5 + 100000 z_0_6 + 100000 z_0_7 + 100000 z_0_9 <= 800825.41634403879
 c1909: 120 p_0_10 + 120 p_0_4 + 120 p_0_5 + 120 p_0_6 + 120 p_0_7 + 120 p_0_9 + 100000 z_0_10 + 100000 z_0_4 + 100000 z_0_5 + 100000 z_0_6 + 100000 z_0_7 + 100000 z_0_9 <= 600929.47453180759
 c1910: 120 p_0_1 + 120 p_0_10 + 120 p_0_4 + 120 p_0_5 + 120 p_0_6 + 120 p_0_7 + 120 p_0_9 + 100000 z_0_1 + 100000 z_0_10 + 100000 z_0_4 + 100000 z_0_5 + 100000 z_0_6 + 100000 z_0_7 + 100000 z_0_9 <= 700925.51210595481
 c1911: 120 p_0_10 + 120 p_0_2 + 120 p_0_4 + 120 p_0_5 + 120 p_0_6 + 120 p_0_7 + 120 p_0_9 + 100000 z_0_10 + 100000 z_0_2 + 100000 z_0_4 + 100000 z_0_5 + 100000 z_0_6 + 100000 z_0_7 + 100000 z_0_9 <= 700920.18231073197
 c1912: 120 p_0_1 + 120 p_0_10 + 120 p_0_2 + 120 p_0_4 + 120 p_0_5 + 120 p_0_6 + 120 p_0_7 + 120 p_0_9 + 100000 z_0_1 + 100000 z_0_10 + 100000 z_0_2 + 100000 z_0_4 + 100000 z_0_5 + 100000 z_0_6 + 100000 z_0_7 + 100000 z_0_9 <= 800916.21988487907
 c1913: 120 p_0_10 + 120 p_0_3 + 120 p_0_4 + 120 p_0_5 + 120 p_0_6 + 120 p_0_7 + 120 p_0_9 + 100000 z_0_10 + 100000 z_0_3 + 100000 z_0_4 + 100000 z_0_5 + 100000 z_0_6 + 100000 z_0_7 + 100000 z_0_9 <= 700837.90426925244
 c1914: 120 p_0_1 + 120 p_0_10 + 120 p_0_3 + 120 p_0_4 + 120 p_0_5 + 120 p_0_6 + 120 p_0_7 + 120 p_0_9 + 100000 z_0_1 + 100000 z_0_10 + 100000 z_0_3 + 100000 z_0_4 + 100000 z_0_5 + 100000 z_0_6 + 100000 z_0_7 + 100000 z_0_9 <= 800833.94184339955
 c1915: 120 p_0_10 + 120 p_0_2 + 120 p_0_3 + 120 p_0_4 + 120 p_0_5 + 120 p_0_6 + 120 p_0_7 + 120 p_0_9 + 100000 z_0_10 + 100000 z_0_2 + 100000 z_0_3 + 100000 z_0_4 + 100000 z_0_5 + 100000 z_0_6 + 100000 z_0_7 + 100000 z_0_9 <= 800828.61204817682
 c1916: 120 p_0_1 + 120 p_0_10 + 120 p_0_2 + 120 p_0_3 + 120 p_0_4 + 120 p_0_5 + 120 p_0_6 + 120 p_0_7 + 120 p_0_9 + 100000 z_0_1 + 100000 z_0_10 + 100000 z_0_2 + 100000 z_0_3 + 100000 z_0_4 + 100000 z_0_5 + 100000 z_0_6 + 100000 z_0_7 + 100000 z_0_9 <= 900824.64962232392
 c1917: 120 p_0_10 + 120 p_0_8 + 120 p_0_9 + 100000 z_0_10 + 100000 z_0_8 + 100000 z_0_9 <= 301130.46113234793
 c1918: 120 p_0_1 + 120 p_0_10 + 120 p_0_8 + 120 p_0_9 + 100000 z_0_1 + 100000 z_0_10 + 100000 z_0_8 + 100000 z_0_9 <= 401037.19882253534
 c1919: 120 p_0_10 + 120 p_0_2 + 120 p_0_8 + 120 p_0_9 + 100000 z_0_10 + 100000 z_0_2 + 100000 z_0_8 + 100000 z_0_9 <= 401102.8591721594
 c1920: 120 p_0_1 + 120 p_0_10 + 120 p_0_2 + 120 p_0_8 + 120 p_0_9 + 100000 z_0_1 + 100000 z_0_10 + 100000 z_0_2 + 100000 z_0_8 + 100000 z_0_9 <= 501009.59686234681
 c1921: 120 p_0_10 + 120 p_0_3 + 120 p_0_8 + 120 p_0_9 + 100000 z_0_10 + 100000 z_0_3 + 100000 z_0_8 + 100000 z_0_9 <= 401036.83011621266
 c1922: 120 p_0_1 + 120 p_0_10 + 120 p_0_3 + 120 p_0_8 + 120 p_0_9 + 100000 z_0_1 + 100000 z_0_10 + 100000 z_0_3 + 100000 z_0_8 + 100000 z_0_9 <= 500943.56780640007
 c1923: 120 p_0_10 + 120 p_0_2 + 120 p_0_3 + 120 p_0_8 + 120 p_0_9 + 100000 z_0_10 + 100000 z_0_2 + 100000 z_0_3 + 100000 z_0_8 + 100000 z_0_9 <= 501009.22815602412
 c1924: 120 p_0_1 + 120 p_0_10 + 120 p_0_2 + 120 p_0_3 + 120 p_0_8 + 120 p_0_9 + 100000 z_0_1 + 100000 z_0_10 + 100000 z_0_2 + 100000 z_0_3 + 100000 z_0_8 + 100000 z_0_9 <= 600915.96584621153
 c1925: 120 p_0_10 + 120 p_0_4 + 120 p_0_8 + 120 p_0_9 + 100000 z_0_10 + 100000 z_0_4 + 100000 z_0_8 + 100000 z_0_9 <= 401127.633657053
 c1926: 120 p_0_1 + 120 p_0_10 + 120 p_0_4 + 120 p_0_8 + 120 p_0_9 + 100000 z_0_1 + 100000 z_0_10 + 100000 z_0_4 + 100000 z_0_8 + 100000 z_0_9 <= 501034.37134724035
 c1927: 120 p_0_10 + 120 p_0_2 + 120 p_0_4 + 120 p_0_8 + 120 p_0_9 + 100000 z_0_10 + 100000 z_0_2 + 100000 z_0_4 + 100000 z_0_8 + 100000 z_0_9 <= 501100.03169686446
 c1928: 120 p_0_1 + 120 p_0_10 + 120 p_0_2 + 120 p_0_4 + 120 p_0_8 + 120 p_0_9 + 100000 z_0_1 + 100000 z_0_10 + 100000 z_0_2 + 100000 z_0_4 + 100000 z_0_8 + 100000 z_0_9 <= 601006.76938705181
 c1929: 120 p_0_10 + 120 p_0_3 + 120 p_0_4 + 120 p_0_8 + 120 p_0_9 + 100000 z_0_10 + 100000 z_0_3 + 100000 z_0_4 + 100000 z_0_8 + 100000 z_0_9 <= 501036.06339449779
 c1930: 120 p_0_1 + 120 p_0_10 + 120 p_0_3 + 120 p_0_4 + 120 p_0_8 + 120 p_0_9 + 100000 z_0_1 + 100000 z_0_10 + 100000 z_0_3 + 100000 z_0_4 + 100000 z_0_8 + 100000 z_0_9 <= 600942.80108468514
 c1931: 120 p_0_10 + 120 p_0_2 + 120 p_0_3 + 120 p_0_4 + 120 p_0_8 + 120 p_0_9 + 100000 z_0_10 + 100000 z_0_2 + 100000 z_0_3 + 100000 z_0_4 + 100000 z_0_8 + 100000 z_0_9 <= 601008.46143430925
 c1932: 120 p_0_1 + 120 p_0_10 + 120 p_0_2 + 120 p_0_3 + 120 p_0_4 + 120 p_0_8 + 120 p_0_9 + 100000 z_0_1 + 100000 z_0_10 + 100000 z_0_2 + 100000 z_0_3 + 100000 z_0_4 + 100000 z_0_8 + 100000 z_0_9 <= 700915.19912449666
 c1933: 120 p_0_10 + 120 p_0_5 + 120 p_0_8 + 120 p_0_9 + 100000 z_0_10 + 100000 z_0_5 + 100000 z_0_8 + 100000 z_0_9 <= 401093.21943647519
 c1934: 120 p_0_1 + 120 p_0_10 + 120 p_0_5 + 120 p_0_8 + 120 p_0_9 + 100000 z_0_1 + 100000 z_0_10 + 100000 z_0_5 + 100000 z_0_8 + 100000 z_0_9 <= 500999.95712666254
 c1935: 120 p_0_10 + 120 p_0_2 + 120 p_0_5 + 120 p_0_8 + 120 p_0_9 + 100000 z_0_10 + 100000 z_0_2 + 100000 z_0_5 + 100000 z_0_8 + 100000 z_0_9 <= 501080.90446471819
 c1936: 120 p_0_1 + 120 p_0_10 + 120 p_0_2 + 120 p_0_5 + 120 p_0_8 + 120 p_0_9 + 100000 z_0_1 + 100000 z_0_10 + 100000 z_0_2 + 100000 z_0_5 + 100000 z_0_8 + 100000 z_0_9 <= 600987.6421549056
 c1937: 120 p_0_10 + 120 p_0_3 + 120 p_0_5 + 120 p_0_8 + 120 p_0_9 + 100000 z_0_10 + 100000 z_0_3 + 100000 z_0_5 + 100000 z_0_8 + 100000 z_0_9 <= 500999.58842033992
 c1938: 120 p_0_1 + 120 p_0_10 + 120 p_0_3 + 120 p_0_5 + 120 p_0_8 + 120 p_0_9 + 100000 z_0_1 + 100000 z_0_10 + 100000 z_0_3 + 100000 z_0_5 + 100000 z_0_8 + 100000 z_0_9 <= 600906.32611052727
 c1939: 120 p_0_10 + 120 p_0_2 + 120 p_0_3 + 120 p_0_5 + 120 p_0_8 + 120 p_0_9 + 100000 z_0_10 + 100000 z_0_2 + 100000 z_0_3 + 100000 z_0_5 + 100000 z_0_8 + 100000 z_0_9 <= 600987.27344858297
 c1940: 120 p_0_1 + 120 p_0_10 + 120 p_0_2 + 120 p_0_3 + 120 p_0_5 + 120 p_0_8 + 120 p_0_9 + 100000 z_0_1 + 100000 z_0_10 + 100000 z_0_2 + 100000 z_0_3 + 100000 z_0_5 + 100000 z_0_8 + 100000 z_0_9 <= 700894.01113877026
 c1941: 120 p_0_10 + 120 p_0_4 + 120 p_0_5 + 120 p_0_8 + 120 p_0_9 + 100000 z_0_10 + 100000 z_0_4 + 100000 z_0_5 + 100000 z_0_8 + 100000 z_0_9 <= 501090.39196118026
 c1942: 120 p_0_1 + 120 p_0_10 + 120 p_0_4 + 120 p_0_5 + 120 p_0_8 + 120 p_0_9 + 100000 z_0_1 + 100000 z_0_10 + 100000 z_0_4 + 100000 z_0_5 + 100000 z_0_8 + 100000 z_0_9 <= 600997.12965136766
 c1943: 120 p_0_10 + 120 p_0_2 + 120 p_0_4 + 120 p_0_5 + 120 p_0_8 + 120 p_0_9 + 100000 z_0_10 + 100000 z_0_2 + 100000 z_0_4 + 100000 z_0_5 + 100000 z_0_8 + 100000 z_0_9 <= 601078.07698942325
 c1944: 120 p_0_1 + 120 p_0_10 + 120 p_0_2 + 120 p_0_4 + 120 p_0_5 + 120 p_0_8 + 120 p_0_9 + 100000 z_0_1 + 100000 z_0_10 + 100000 z_0_2 + 100000 z_0_4 + 100000 z_0_5 + 100000 z_0_8 + 100000 z_0_9 <= 700984.81467961066
 c1945: 120 p_0_10 + 120 p_0_3 + 120 p_0_4 + 120 p_0_5 + 120 p_0_8 + 120 p_0_9 + 100000 z_0_10 + 100000 z_0_3 + 100000 z_0_4 + 100000 z_0_5 + 100000 z_0_8 + 100000 z_0_9 <= 600998.82169862499
 c1946: 120 p_0_1 + 120 p_0_10 + 120 p_0_3 + 120 p_0_4 + 120 p_0_5 + 120 p_0_8 + 120 p_0_9 + 100000 z_0_1 + 100000 z_0_10 + 100000 z_0_3 + 100000 z_0_4 + 100000 z_0_5 + 100000 z_0_8 + 100000 z_0_9 <= 700905.5593888124
 c1947: 120 p_0_10 + 120 p_0_2 + 120 p_0_3 + 120 p_0_4 + 120 p_0_5 + 120 p_0_8 + 120 p_0_9 + 100000 z_0_10 + 100000 z_0_2 + 100000 z_0_3 + 100000 z_0_4 + 100000 z_0_5 + 100000 z_0_8 + 100000 z_0_9 <= 700986.5067268681
 c1948: 120 p_0_1 + 120 p_0_10 + 120 p_0_2 + 120 p_0_3 + 120 p_0_4 + 120 p_0_5 + 120 p_0_8 + 120 p_0_9 + 100000 z_0_1 + 100000 z_0_10 + 100000 z_0_2 + 100000 z_0_3 + 100000 z_0_4 + 100000 z_0_5 + 100000 z_0_8 + 100000 z_0_9 <= 800893.24441705539
 c1949: 120 p_0_10 + 120 p_0_6 + 120 p_0_8 + 120 p_0_9 + 100000 z_0_10 + 100000 z_0_6 + 100000 z_0_8 + 100000 z_0_9 <= 401098.05676605599
 c1950: 120 p_0_1 + 120 p_0_10 + 120 p_0_6 + 120 p_0_8 + 120 p_0_9 + 100000 z_0_1 + 100000 z_0_10 + 100000 z_0_6 + 100000 z_0_8 + 100000 z_0_9 <= 501004.79445624334
 c1951: 120 p_0_10 + 120 p_0_2 + 120 p_0_6 + 120 p_0_8 + 120 p_0_9 + 100000 z_0_10 + 100000 z_0_2 + 100000 z_0_6 + 100000 z_0_8 + 100000 z_0_9 <= 501072.07353359251
 c1952: 120 p_0_1 + 120 p_0_10 + 120 p_0_2 + 120 p_0_6 + 120 p_0_8 + 120 p_0_9 + 100000 z_0_1 + 100000 z_0_10 + 100000 z_0_2 + 100000 z_0_6 + 100000 z_0_8 + 100000 z_0_9 <= 600978.81122377992
 c1953: 120 p_0_10 + 120 p_0_3 + 120 p_0_6 + 120 p_0_8 + 120 p_0_9 + 100000 z_0_10 + 100000 z_0_3 + 100000 z_0_6 + 100000 z_0_8 + 100000 z_0_9 <= 501004.42574992072
 c1954: 120 p_0_1 + 120 p_0_10 + 120 p_0_3 + 120 p_0_6 + 120 p_0_8 + 120 p_0_9 + 100000 z_0_1 + 100000 z_0_10 + 100000 z_0_3 + 100000 z_0_6 + 100000 z_0_8 + 100000 z_0_9 <= 600911.16344010807
 c1955: 120 p_0_10 + 120 p_0_2 + 120 p_0_3 + 120 p_0_6 + 120 p_0_8 + 120 p_0_9 + 100000 z_0_10 + 100000 z_0_2 + 100000 z_0_3 + 100000 z_0_6 + 100000 z_0_8 + 100000 z_0_9 <= 600978.4425174573
 c1956: 120 p_0_1 + 120 p_0_10 + 120 p_0_2 + 120 p_0_3 + 120 p_0_6 + 120 p_0_8 + 120 p_0_9 + 100000 z_0_1 + 100000 z_0_10 + 100000 z_0_2 + 100000 z_0_3 + 100000 z_0_6 + 100000 z_0_8 + 100000 z_0_9 <= 700885.18020764471
 c1957: 120 p_0_10 + 120 p_0_4 + 120 p_0_6 + 120 p_0_8 + 120 p_0_9 + 100000 z_0_10 + 100000 z_0_4 + 100000 z_0_6 + 100000 z_0_8 + 100000 z_0_9 <= 501095.229290761
 c1958: 120 p_0_1 + 120 p_0_10 + 120 p_0_4 + 120 p_0_6 + 120 p_0_8 + 120 p_0_9 + 100000 z_0_1 + 100000 z_0_10 + 100000 z_0_4 + 100000 z_0_6 + 100000 z_0_8 + 100000 z_0_9 <= 601001.96698094846
 c1959: 120 p_0_10 + 120 p_0_2 + 120 p_0_4 + 120 p_0_6 + 120 p_0_8 + 120 p_0_9 + 100000 z_0_10 + 100000 z_0_2 + 100000 z_0_4 + 100000 z_0_6 + 100000 z_0_8 + 100000 z_0_9 <= 601069.24605829758
 c1960: 120 p_0_1 + 120 p_0_10 + 120 p_0_2 + 120 p_0_4 + 120 p_0_6 + 120 p_0_8 + 120 p_0_9 + 100000 z_0_1 + 100000 z_0_10 + 100000 z_0_2 + 100000 z_0_4 + 100000 z_0_6 + 100000 z_0_8 + 100000 z_0_9 <= 700975.98374848498
 c1961: 120 p_0_10 + 120 p_0_3 + 120 p_0_4 + 120 p_0_6 + 120 p_0_8 + 120 p_0_9 + 100000 z_0_10 + 100000 z_0_3 + 100000 z_0_4 + 100000 z_0_6 + 100000 z_0_8 + 100000 z_0_9 <= 601003.65902820579
 c1962: 120 p_0_1 + 120 p_0_10 + 120 p_0_3 + 120 p_0_4 + 120 p_0_6 + 120 p_0_8 + 120 p_0_9 + 100000 z_0_1 + 100000 z_0_10 + 100000 z_0_3 + 100000 z_0_4 + 100000 z_0_6 + 100000 z_0_8 + 100000 z_0_9 <= 700910.3967183932
 c1963: 120 p_0_10 + 120 p_0_2 + 120 p_0_3 + 120 p_0_4 + 120 p_0_6 + 120 p_0_8 + 120 p_0_9 + 100000 z_0_10 + 100000 z_0_2 + 100000 z_0_3 + 100000 z_0_4 + 100000 z_0_6 + 100000 z_0_8 + 100000 z_0_9 <= 700977.67579574243
 c1964: 120 p_0_1 + 120 p_0_10 + 120 p_0_2 + 120 p_0_3 + 120 p_0_4 + 120 p_0_6 + 120 p_0_8 + 120 p_0_9 + 100000 z_0_1 + 100000 z_0_10 + 100000 z_0_2 + 100000 z_0_3 + 100000 z_0_4 + 100000 z_0_6 + 100000 z_0_8 + 100000 z_0_9 <= 800884.41348592984
 c1965: 120 p_0_10 + 120 p_0_5 + 120 p_0_6 + 120 p_0_8 + 120 p_0_9 + 100000 z_0_10 + 100000 z_0_5 + 100000 z_0_6 + 100000 z_0_8 + 100000 z_0_9 <= 501060.81507018319
 c1966: 120 p_0_1 + 120 p_0_10 + 120 p_0_5 + 120 p_0_6 + 120 p_0_8 + 120 p_0_9 + 100000 z_0_1 + 100000 z_0_10 + 100000 z_0_5 + 100000 z_0_6 + 100000 z_0_8 + 100000 z_0_9 <= 600967.55276037066
 c1967: 120 p_0_10 + 120 p_0_2 + 120 p_0_5 + 120 p_0_6 + 120 p_0_8 + 120 p_0_9 + 100000 z_0_10 + 100000 z_0_2 + 100000 z_0_5 + 100000 z_0_6 + 100000 z_0_8 + 100000 z_0_9 <= 601048.50009842624
 c1968: 120 p_0_1 + 120 p_0_10 + 120 p_0_2 + 120 p_0_5 + 120 p_0_6 + 120 p_0_8 + 120 p_0_9 + 100000 z_0_1 + 100000 z_0_10 + 100000 z_0_2 + 100000 z_0_5 + 100000 z_0_6 + 100000 z_0_8 + 100000 z_0_9 <= 700955.23778861365
 c1969: 120 p_0_10 + 120 p_0_3 + 120 p_0_5 + 120 p_0_6 + 120 p_0_8 + 120 p_0_9 + 100000 z_0_10 + 100000 z_0_3 + 100000 z_0_5 + 100000 z_0_6 + 100000 z_0_8 + 100000 z_0_9 <= 600967.18405404792
 c1970: 120 p_0_1 + 120 p_0_10 + 120 p_0_3 + 120 p_0_5 + 120 p_0_6 + 120 p_0_8 + 120 p_0_9 + 100000 z_0_1 + 100000 z_0_10 + 100000 z_0_3 + 100000 z_0_5 + 100000 z_0_6 + 100000 z_0_8 + 100000 z_0_9 <= 700873.92174423533
 c1971: 120 p_0_10 + 120 p_0_2 + 120 p_0_3 + 120 p_0_5 + 120 p_0_6 + 120 p_0_8 + 120 p_0_9 + 100000 z_0_10 + 100000 z_0_2 + 100000 z_0_3 + 100000 z_0_5 + 100000 z_0_6 + 100000 z_0_8 + 100000 z_0_9 <= 700954.86908229091
 c1972: 120 p_0_1 + 120 p_0_10 + 120 p_0_2 + 120 p_0_3 + 120 p_0_5 + 120 p_0_6 + 120 p_0_8 + 120 p_0_9 + 100000 z_0_1 + 100000 z_0_10 + 100000 z_0_2 + 100000 z_0_3 + 100000 z_0_5 + 100000 z_0_6 + 100000 z_0_8 + 100000 z_0_9 <= 800861.60677247832
 c1973: 120 p_0_10 + 120 p_0_4 + 120 p_0_5 + 120 p_0_6 + 120 p_0_8 + 120 p_0_9 + 100000 z_0_10 + 100000 z_0_4 + 100000 z_0_5 + 100000 z_0_6 + 100000 z_0_8 + 100000 z_0_9 <= 601057.98759488831
 c1974: 120 p_0_1 + 120 p_0_10 + 120 p_0_4 + 120 p_0_5 + 120 p_0_6 + 120 p_0_8 + 120 p_0_9 + 100000 z_0_1 + 100000 z_0_10 + 100000 z_0_4 + 100000 z_0_5 + 100000 z_0_6 + 100000 z_0_8 + 100000 z_0_9 <= 700964.7252850756
 c1975: 120 p_0_10 + 120 p_0_2 + 120 p_0_4 + 120 p_0_5 + 120 p_0_6 + 120 p_0_8 + 120 p_0_9 + 100000 z_0_10 + 100000 z_0_2 + 100000 z_0_4 + 100000 z_0_5 + 100000 z_0_6 + 100000 z_0_8 + 100000 z_0_9 <= 701045.67262313131
 c1976: 120 p_0_1 + 120 p_0_10 + 120 p_0_2 + 120 p_0_4 + 120 p_0_5 + 120 p_0_6 + 120 p_0_8 + 120 p_0_9 + 100000 z_0_1 + 100000 z_0_10 + 100000 z_0_2 + 100000 z_0_4 + 100000 z_0_5 + 100000 z_0_6 + 100000 z_0_8 + 100000 z_0_9 <= 800952.41031331872
 c1977: 120 p_0_10 + 120 p_0_3 + 120 p_0_4 + 120 p_0_5 + 120 p_0_6 + 120 p_0_8 + 120 p_0_9 + 100000 z_0_10 + 100000 z_0_3 + 100000 z_0_4 + 100000 z_0_5 + 100000 z_0_6 + 100000 z_0_8 + 100000 z_0_9 <= 700966.41733233305
 c1978: 120 p_0_1 + 120 p_0_10 + 120 p_0_3 + 120 p_0_4 + 120 p_0_5 + 120 p_0_6 + 120 p_0_8 + 120 p_0_9 + 100000 z_0_1 + 100000 z_0_10 + 100000 z_0_3 + 100000 z_0_4 + 100000 z_0_5 + 100000 z_0_6 + 100000 z_0_8 + 100000 z_0_9 <= 800873.15502252046
 c1979: 120 p_0_10 + 120 p_0_2 + 120 p_0_3 + 120 p_0_4 + 120 p_0_5 + 120 p_0_6 + 120 p_0_8 + 120 p_0_9 + 100000 z_0_10 + 100000 z_0_2 + 100000 z_0_3 + 100000 z_0_4 + 100000 z_0_5 + 100000 z_0_6 + 100000 z_0_8 + 100000 z_0_9 <= 800954.10236057604
 c1980: 120 p_0_1 + 120 p_0_10 + 120 p_0_2 + 120 p_0_3 + 120 p_0_4 + 120 p_0_5 + 120 p_0_6 + 120 p_0_8 + 120 p_0_9 + 100000 z_0_1 + 100000 z_0_10 + 100000 z_0_2 + 100000 z_0_3 + 100000 z_0_4 + 100000 z_0_5 + 100000 z_0_6 + 100000 z_0_8 + 100000 z_0_9 <= 900860.84005076345
 c1981: 120 p_0_10 + 120 p_0_7 + 120 p_0_8 + 120 p_0_9 + 100000 z_0_10 + 100000 z_0_7 + 100000 z_0_8 + 100000 z_0_9 <= 401000.67869688972
 c1982: 120 p_0_1 + 120 p_0_10 + 120 p_0_7 + 120 p_0_8 + 120 p_0_9 + 100000 z_0_1 + 100000 z_0_10 + 100000 z_0_7 + 100000 z_0_8 + 100000 z_0_9 <= 500996.71627103689
 c1983: 120 p_0_10 + 120 p_0_2 + 120 p_0_7 + 120 p_0_8 + 120 p_0_9 + 100000 z_0_10 + 100000 z_0_2 + 100000 z_0_7 + 100000 z_0_8 + 100000 z_0_9 <= 500973.07673670119
 c1984: 120 p_0_1 + 120 p_0_10 + 120 p_0_2 + 120 p_0_7 + 120 p_0_8 + 120 p_0_9 + 100000 z_0_1 + 100000 z_0_10 + 100000 z_0_2 + 100000 z_0_7 + 100000 z_0_8 + 100000 z_0_9 <= 600969.11431084829
 c1985: 120 p_0_10 + 120 p_0_3 + 120 p_0_7 + 120 p_0_8 + 120 p_0_9 + 100000 z_0_10 + 100000 z_0_3 + 100000 z_0_7 + 100000 z_0_8 + 100000 z_0_9 <= 500907.04768075445
 c1986: 120 p_0_1 + 120 p_0_10 + 120 p_0_3 + 120 p_0_7 + 120 p_0_8 + 120 p_0_9 + 100000 z_0_1 + 100000 z_0_10 + 100000 z_0_3 + 100000 z_0_7 + 100000 z_0_8 + 100000 z_0_9 <= 600903.08525490155
 c1987: 120 p_0_10 + 120 p_0_2 + 120 p_0_3 + 120 p_0_7 + 120 p_0_8 + 120 p_0_9 + 100000 z_0_10 + 100000 z_0_2 + 100000 z_0_3 + 100000 z_0_7 + 100000 z_0_8 + 100000 z_0_9 <= 600879.44572056585
 c1988: 120 p_0_1 + 120 p_0_10 + 120 p_0_2 + 120 p_0_3 + 120 p_0_7 + 120 p_0_8 + 120 p_0_9 + 100000 z_0_1 + 100000 z_0_10 + 100000 z_0_2 + 100000 z_0_3 + 100000 z_0_7 + 100000 z_0_8 + 100000 z_0_9 <= 700875.48329471308
 c1989: 120 p_0_10 + 120 p_0_4 + 120 p_0_7 + 120 p_0_8 + 120 p_0_9 + 100000 z_0_10 + 100000 z_0_4 + 100000 z_0_7 + 100000 z_0_8 + 100000 z_0_9 <= 500997.85122159473
 c1990: 120 p_0_1 + 120 p_0_10 + 120 p_0_4 + 120 p_0_7 + 120 p_0_8 + 120 p_0_9 + 100000 z_0_1 + 100000 z_0_10 + 100000 z_0_4 + 100000 z_0_7 + 100000 z_0_8 + 100000 z_0_9 <= 600993.88879574195
 c1991: 120 p_0_10 + 120 p_0_2 + 120 p_0_4 + 120 p_0_7 + 120 p_0_8 + 120 p_0_9 + 100000 z_0_10 + 100000 z_0_2 + 100000 z_0_4 + 100000 z_0_7 + 100000 z_0_8 + 100000 z_0_9 <= 600970.24926140625
 c1992: 120 p_0_1 + 120 p_0_10 + 120 p_0_2 + 120 p_0_4 + 120 p_0_7 + 120 p_0_8 + 120 p_0_9 + 100000 z_0_1 + 100000 z_0_10 + 100000 z_0_2 + 100000 z_0_4 + 100000 z_0_7 + 100000 z_0_8 + 100000 z_0_9 <= 700966.28683555336
 c1993: 120 p_0_10 + 120 p_0_3 + 120 p_0_4 + 120 p_0_7 + 120 p_0_8 + 120 p_0_9 + 100000 z_0_10 + 100000 z_0_3 + 100000 z_0_4 + 100000 z_0_7 + 100000 z_0_8 + 100000 z_0_9 <= 600906.28095903958
 c1994: 120 p_0_1 + 120 p_0_10 + 120 p_0_3 + 120 p_0_4 + 120 p_0_7 + 120 p_0_8 + 120 p_0_9 + 100000 z_0_1 + 100000 z_0_10 + 100000 z_0_3 + 100000 z_0_4 + 100000 z_0_7 + 100000 z_0_8 + 100000 z_0_9 <= 700902.31853318668
 c1995: 120 p_0_10 + 120 p_0_2 + 120 p_0_3 + 120 p_0_4 + 120 p_0_7 + 120 p_0_8 + 120 p_0_9 + 100000 z_0_10 + 100000 z_0_2 + 100000 z_0_3 + 100000 z_0_4 + 100000 z_0_7 + 100000 z_0_8 + 100000 z_0_9 <= 700878.6789988511
 c1996: 120 p_0_1 + 120 p_0_10 + 120 p_0_2 + 120 p_0_3 + 120 p_0_4 + 120 p_0_7 + 120 p_0_8 + 120 p_0_9 + 100000 z_0_1 + 100000 z_0_10 + 100000 z_0_2 + 100000 z_0_3 + 100000 z_0_4 + 100000 z_0_7 + 100000 z_0_8 + 100000 z_0_9 <= 800874.71657299821
 c1997: 120 p_0_10 + 120 p_0_5 + 120 p_0_7 + 120 p_0_8 + 120 p_0_9 + 100000 z_0_10 + 100000 z_0_5 + 100000 z_0_7 + 100000 z_0_8 + 100000 z_0_9 <= 500973.86541936465
 c1998: 120 p_0_1 + 120 p_0_10 + 120 p_0_5 + 120 p_0_7 + 120 p_0_8 + 120 p_0_9 + 100000 z_0_1 + 100000 z_0_10 + 100000 z_0_5 + 100000 z_0_7 + 100000 z_0_8 + 100000 z_0_9 <= 600969.90299351176
 c1999: 120 p_0_10 + 120 p_0_2 + 120 p_0_5 + 120 p_0_7 + 120 p_0_8 + 120 p_0_9 + 100000 z_0_10 + 100000 z_0_2 + 100000 z_0_5 + 100000 z_0_7 + 100000 z_0_8 + 100000 z_0_9 <= 600961.55044760765
 c2000: 120 p_0_1 + 120 p_0_10 + 120 p_0_2 + 120 p_0_5 + 120 p_0_7 + 120 p_0_8 + 120 p_0_9 + 100000 z_0_1 + 100000 z_0_10 + 100000 z_0_2 + 100000 z_0_5 + 100000 z_0_7 + 100000 z_0_8 + 100000 z_0_9 <= 700957.58802175475
 c2001: 120 p_0_10 + 120 p_0_3 + 120 p_0_5 + 120 p_0_7 + 120 p_0_8 + 120 p_0_9 + 100000 z_0_10 + 100000 z_0_3 + 100000 z_0_5 + 100000 z_0_7 + 100000 z_0_8 + 100000 z_0_9 <= 600873.12754965667
 c2002: 120 p_0_1 + 120 p_0_10 + 120 p_0_3 + 120 p_0_5 + 120 p_0_7 + 120 p_0_8 + 120 p_0_9 + 100000 z_0_1 + 100000 z_0_10 + 100000 z_0_3 + 100000 z_0_5 + 100000 z_0_7 + 100000 z_0_8 + 100000 z_0_9 <= 700869.16512380389
 c2003: 120 p_0_10 + 120 p_0_2 + 120 p_0_3 + 120 p_0_5 + 120 p_0_7 + 120 p_0_8 + 120 p_0_9 + 100000 z_0_10 + 100000 z_0_2 + 100000 z_0_3 + 100000 z_0_5 + 100000 z_0_7 + 100000 z_0_8 + 100000 z_0_9 <= 700860.81257789966
 c2004: 120 p_0_1 + 120 p_0_10 + 120 p_0_2 + 120 p_0_3 + 120 p_0_5 + 120 p_0_7 + 120 p_0_8 + 120 p_0_9 + 100000 z_0_1 + 100000 z_0_10 + 100000 z_0_2 + 100000 z_0_3 + 100000 z_0_5 + 100000 z_0_7 + 100000 z_0_8 + 100000 z_0_9 <= 800856.85015204689
 c2005: 120 p_0_10 + 120 p_0_4 + 120 p_0_5 + 120 p_0_7 + 120 p_0_8 + 120 p_0_9 + 100000 z_0_10 + 100000 z_0_4 + 100000 z_0_5 + 100000 z_0_7 + 100000 z_0_8 + 100000 z_0_9 <= 600963.93109049706
 c2006: 120 p_0_1 + 120 p_0_10 + 120 p_0_4 + 120 p_0_5 + 120 p_0_7 + 120 p_0_8 + 120 p_0_9 + 100000 z_0_1 + 100000 z_0_10 + 100000 z_0_4 + 100000 z_0_5 + 100000 z_0_7 + 100000 z_0_8 + 100000 z_0_9 <= 700959.96866464417
 c2007: 120 p_0_10 + 120 p_0_2 + 120 p_0_4 + 120 p_0_5 + 120 p_0_7 + 120 p_0_8 + 120 p_0_9 + 100000 z_0_10 + 100000 z_0_2 + 100000 z_0_4 + 100000 z_0_5 + 100000 z_0_7 + 100000 z_0_8 + 100000 z_0_9 <= 700951.61611874006
 c2008: 120 p_0_1 + 120 p_0_10 + 120 p_0_2 + 120 p_0_4 + 120 p_0_5 + 120 p_0_7 + 120 p_0_8 + 120 p_0_9 + 100000 z_0_1 + 100000 z_0_10 + 100000 z_0_2 + 100000 z_0_4 + 100000 z_0_5 + 100000 z_0_7 + 100000 z_0_8 + 100000 z_0_9 <= 800947.65369288716
 c2009: 120 p_0_10 + 120 p_0_3 + 120 p_0_4 + 120 p_0_5 + 120 p_0_7 + 120 p_0_8 + 120 p_0_9 + 100000 z_0_10 + 100000 z_0_3 + 100000 z_0_4 + 100000 z_0_5 + 100000 z_0_7 + 100000 z_0_8 + 100000 z_0_9 <= 700872.3608279418
 c2010: 120 p_0_1 + 120 p_0_10 + 120 p_0_3 + 120 p_0_4 + 120 p_0_5 + 120 p_0_7 + 120 p_0_8 + 120 p_0_9 + 100000 z_0_1 + 100000 z_0_10 + 100000 z_0_3 + 100000 z_0_4 + 100000 z_0_5 + 100000 z_0_7 + 100000 z_0_8 + 100000 z_0_9 <= 800868.39840208902
 c2011: 120 p_0_10 + 120 p_0_2 + 120 p_0_3 + 120 p_0_4 + 120 p_0_5 + 120 p_0_7 + 120 p_0_8 + 120 p_0_9 + 100000 z_0_10 + 100000 z_0_2 + 100000 z_0_3 + 100000 z_0_4 + 100000 z_0_5 + 100000 z_0_7 + 100000 z_0_8 + 100000 z_0_9 <= 800860.04585618479
 c2012: 120 p_0_1 + 120 p_0_10 + 120 p_0_2 + 120 p_0_3 + 120 p_0_4 + 120 p_0_5 + 120 p_0_7 + 120 p_0_8 + 120 p_0_9 + 100000 z_0_1 + 100000 z_0_10 + 100000 z_0_2 + 100000 z_0_3 + 100000 z_0_4 + 100000 z_0_5 + 100000 z_0_7 + 100000 z_0_8 + 100000 z_0_9 <= 900856.08343033202
 c2013: 120 p_0_10 + 120 p_0_6 + 120 p_0_7 + 120 p_0_8 + 120 p_0_9 + 100000 z_0_10 + 100000 z_0_6 + 100000 z_0_7 + 100000 z_0_8 + 100000 z_0_9 <= 500968.27433059772
 c2014: 120 p_0_1 + 120 p_0_10 + 120 p_0_6 + 120 p_0_7 + 120 p_0_8 + 120 p_0_9 + 100000 z_0_1 + 100000 z_0_10 + 100000 z_0_6 + 100000 z_0_7 + 100000 z_0_8 + 100000 z_0_9 <= 600964.31190474494
 c2015: 120 p_0_10 + 120 p_0_2 + 120 p_0_6 + 120 p_0_7 + 120 p_0_8 + 120 p_0_9 + 100000 z_0_10 + 100000 z_0_2 + 100000 z_0_6 + 100000 z_0_7 + 100000 z_0_8 + 100000 z_0_9 <= 600942.29109813436
 c2016: 120 p_0_1 + 120 p_0_10 + 120 p_0_2 + 120 p_0_6 + 120 p_0_7 + 120 p_0_8 + 120 p_0_9 + 100000 z_0_1 + 100000 z_0_10 + 100000 z_0_2 + 100000 z_0_6 + 100000 z_0_7 + 100000 z_0_8 + 100000 z_0_9 <= 700938.32867228147
 c2017: 120 p_0_10 + 120 p_0_3 + 120 p_0_6 + 120 p_0_7 + 120 p_0_8 + 120 p_0_9 + 100000 z_0_10 + 100000 z_0_3 + 100000 z_0_6 + 100000 z_0_7 + 100000 z_0_8 + 100000 z_0_9 <= 600874.6433144625
 c2018: 120 p_0_1 + 120 p_0_10 + 120 p_0_3 + 120 p_0_6 + 120 p_0_7 + 120 p_0_8 + 120 p_0_9 + 100000 z_0_1 + 100000 z_0_10 + 100000 z_0_3 + 100000 z_0_6 + 100000 z_0_7 + 100000 z_0_8 + 100000 z_0_9 <= 700870.68088860961
 c2019: 120 p_0_10 + 120 p_0_2 + 120 p_0_3 + 120 p_0_6 + 120 p_0_7 + 120 p_0_8 + 120 p_0_9 + 100000 z_0_10 + 100000 z_0_2 + 100000 z_0_3 + 100000 z_0_6 + 100000 z_0_7 + 100000 z_0_8 + 100000 z_0_9 <= 700848.66008199903
 c2020: 120 p_0_1 + 120 p_0_10 + 120 p_0_2 + 120 p_0_3 + 120 p_0_6 + 120 p_0_7 + 120 p_0_8 + 120 p_0_9 + 100000 z_0_1 + 100000 z_0_10 + 100000 z_0_2 + 100000 z_0_3 + 100000 z_0_6 + 100000 z_0_7 + 100000 z_0_8 + 100000 z_0_9 <= 800844.69765614625
 c2021: 120 p_0_10 + 120 p_0_4 + 120 p_0_6 + 120 p_0_7 + 120 p_0_8 + 120 p_0_9 + 100000 z_0_10 + 100000 z_0_4 + 100000 z_0_6 + 100000 z_0_7 + 100000 z_0_8 + 100000 z_0_9 <= 600965.44685530278
 c2022: 120 p_0_1 + 120 p_0_10 + 120 p_0_4 + 120 p_0_6 + 120 p_0_7 + 120 p_0_8 + 120 p_0_9 + 100000 z_0_1 + 100000 z_0_10 + 100000 z_0_4 + 100000 z_0_6 + 100000 z_0_7 + 100000 z_0_8 + 100000 z_0_9 <= 700961.48442944989
 c2023: 120 p_0_10 + 120 p_0_2 + 120 p_0_4 + 120 p_0_6 + 120 p_0_7 + 120 p_0_8 + 120 p_0_9 + 100000 z_0_10 + 100000 z_0_2 + 100000 z_0_4 + 100000 z_0_6 + 100000 z_0_7 + 100000 z_0_8 + 100000 z_0_9 <= 700939.46362283931
 c2024: 120 p_0_1 + 120 p_0_10 + 120 p_0_2 + 120 p_0_4 + 120 p_0_6 + 120 p_0_7 + 120 p_0_8 + 120 p_0_9 + 100000 z_0_1 + 100000 z_0_10 + 100000 z_0_2 + 100000 z_0_4 + 100000 z_0_6 + 100000 z_0_7 + 100000 z_0_8 + 100000 z_0_9 <= 800935.50119698653
 c2025: 120 p_0_10 + 120 p_0_3 + 120 p_0_4 + 120 p_0_6 + 120 p_0_7 + 120 p_0_8 + 120 p_0_9 + 100000 z_0_10 + 100000 z_0_3 + 100000 z_0_4 + 100000 z_0_6 + 100000 z_0_7 + 100000 z_0_8 + 100000 z_0_9 <= 700873.87659274763
 c2026: 120 p_0_1 + 120 p_0_10 + 120 p_0_3 + 120 p_0_4 + 120 p_0_6 + 120 p_0_7 + 120 p_0_8 + 120 p_0_9 + 100000 z_0_1 + 100000 z_0_10 + 100000 z_0_3 + 100000 z_0_4 + 100000 z_0_6 + 100000 z_0_7 + 100000 z_0_8 + 100000 z_0_9 <= 800869.91416689474
 c2027: 120 p_0_10 + 120 p_0_2 + 120 p_0_3 + 120 p_0_4 + 120 p_0_6 + 120 p_0_7 + 120 p_0_8 + 120 p_0_9 + 100000 z_0_10 + 100000 z_0_2 + 100000 z_0_3 + 100000 z_0_4 + 100000 z_0_6 + 100000 z_0_7 + 100000 z_0_8 + 100000 z_0_9 <= 800847.89336028416
 c2028: 120 p_0_1 + 120 p_0_10 + 120 p_0_2 + 120 p_0_3 + 120 p_0_4 + 120 p_0_6 + 120 p_0_7 + 120 p_0_8 + 120 p_0_9 + 100000 z_0_1 + 100000 z_0_10 + 100000 z_0_2 + 100000 z_0_3 + 100000 z_0_4 + 100000 z_0_6 + 100000 z_0_7 + 100000 z_0_8 + 100000 z_0_9 <= 900843.93093443138
 c2029: 120 p_0_10 + 120 p_0_5 + 120 p_0_6 + 120 p_0_7 + 120 p_0_8 + 120 p_0_9 + 100000 z_0_10 + 100000 z_0_5 + 100000 z_0_6 + 100000 z_0_7 + 100000 z_0_8 + 100000 z_0_9 <= 600941.46105307271
 c2030: 120 p_0_1 + 120 p_0_10 + 120 p_0_5 + 120 p_0_6 + 120 p_0_7 + 120 p_0_8 + 120 p_0_9 + 100000 z_0_1 + 100000 z_0_10 + 100000 z_0_5 + 100000 z_0_6 + 100000 z_0_7 + 100000 z_0_8 + 100000 z_0_9 <= 700937.49862721981
 c2031: 120 p_0_10 + 120 p_0_2 + 120 p_0_5 + 120 p_0_6 + 120 p_0_7 + 120 p_0_8 + 120 p_0_9 + 100000 z_0_10 + 100000 z_0_2 + 100000 z_0_5 + 100000 z_0_6 + 100000 z_0_7 + 100000 z_0_8 + 100000 z_0_9 <= 700929.1460813157
 c2032: 120 p_0_1 + 120 p_0_10 + 120 p_0_2 + 120 p_0_5 + 120 p_0_6 + 120 p_0_7 + 120 p_0_8 + 120 p_0_9 + 100000 z_0_1 + 100000 z_0_10 + 100000 z_0_2 + 100000 z_0_5 + 100000 z_0_6 + 100000 z_0_7 + 100000 z_0_8 + 100000 z_0_9 <= 800925.18365546281
 c2033: 120 p_0_10 + 120 p_0_3 + 120 p_0_5 + 120 p_0_6 + 120 p_0_7 + 120 p_0_8 + 120 p_0_9 + 100000 z_0_10 + 100000 z_0_3 + 100000 z_0_5 + 100000 z_0_6 + 100000 z_0_7 + 100000 z_0_8 + 100000 z_0_9 <= 700837.40161858976
 c2034: 120 p_0_1 + 120 p_0_10 + 120 p_0_3 + 120 p_0_5 + 120 p_0_6 + 120 p_0_7 + 120 p_0_8 + 120 p_0_9 + 100000 z_0_1 + 100000 z_0_10 + 100000 z_0_3 + 100000 z_0_5 + 100000 z_0_6 + 100000 z_0_7 + 100000 z_0_8 + 100000 z_0_9 <= 800833.43919273687
 c2035: 120 p_0_10 + 120 p_0_2 + 120 p_0_3 + 120 p_0_5 + 120 p_0_6 + 120 p_0_7 + 120 p_0_8 + 120 p_0_9 + 100000 z_0_10 + 100000 z_0_2 + 100000 z_0_3 + 100000 z_0_5 + 100000 z_0_6 + 100000 z_0_7 + 100000 z_0_8 + 100000 z_0_9 <= 800825.08664683276
 c2036: 120 p_0_1 + 120 p_0_10 + 120 p_0_2 + 120 p_0_3 + 120 p_0_5 + 120 p_0_6 + 120 p_0_7 + 120 p_0_8 + 120 p_0_9 + 100000 z_0_1 + 100000 z_0_10 + 100000 z_0_2 + 100000 z_0_3 + 100000 z_0_5 + 100000 z_0_6 + 100000 z_0_7 + 100000 z_0_8 + 100000 z_0_9 <= 900821.12422097987
 c2037: 120 p_0_10 + 120 p_0_4 + 120 p_0_5 + 120 p_0_6 + 120 p_0_7 + 120 p_0_8 + 120 p_0_9 + 100000 z_0_10 + 100000 z_0_4 + 100000 z_0_5 + 100000 z_0_6 + 100000 z_0_7 + 100000 z_0_8 + 100000 z_0_9 <= 700928.20515943004
 c2038: 120 p_0_1 + 120 p_0_10 + 120 p_0_4 + 120 p_0_5 + 120 p_0_6 + 120 p_0_7 + 120 p_0_8 + 120 p_0_9 + 100000 z_0_1 + 100000 z_0_10 + 100000 z_0_4 + 100000 z_0_5 + 100000 z_0_6 + 100000 z_0_7 + 100000 z_0_8 + 100000 z_0_9 <= 800924.24273357715
 c2039: 120 p_0_10 + 120 p_0_2 + 120 p_0_4 + 120 p_0_5 + 120 p_0_6 + 120 p_0_7 + 120 p_0_8 + 120 p_0_9 + 100000 z_0_10 + 100000 z_0_2 + 100000 z_0_4 + 100000 z_0_5 + 100000 z_0_6 + 100000 z_0_7 + 100000 z_0_8 + 100000 z_0_9 <= 800915.89018767304
 c2040: 120 p_0_1 + 120 p_0_10 + 120 p_0_2 + 120 p_0_4 + 120 p_0_5 + 120 p_0_6 + 120 p_0_7 + 120 p_0_8 + 120 p_0_9 + 100000 z_0_1 + 100000 z_0_10 + 100000 z_0_2 + 100000 z_0_4 + 100000 z_0_5 + 100000 z_0_6 + 100000 z_0_7 + 100000 z_0_8 + 100000 z_0_9 <= 900911.92776182026
 c2041: 120 p_0_10 + 120 p_0_3 + 120 p_0_4 + 120 p_0_5 + 120 p_0_6 + 120 p_0_7 + 120 p_0_8 + 120 p_0_9 + 100000 z_0_10 + 100000 z_0_3 + 100000 z_0_4 + 100000 z_0_5 + 100000 z_0_6 + 100000 z_0_7 + 100000 z_0_8 + 100000 z_0_9 <= 800836.63489687489
 c2042: 120 p_0_1 + 120 p_0_10 + 120 p_0_3 + 120 p_0_4 + 120 p_0_5 + 120 p_0_6 + 120 p_0_7 + 120 p_0_8 + 120 p_0_9 + 100000 z_0_1 + 100000 z_0_10 + 100000 z_0_3 + 100000 z_0_4 + 100000 z_0_5 + 100000 z_0_6 + 100000 z_0_7 + 100000 z_0_8 + 100000 z_0_9 <= 900832.672471022
 c2043: 120 p_0_10 + 120 p_0_2 + 120 p_0_3 + 120 p_0_4 + 120 p_0_5 + 120 p_0_6 + 120 p_0_7 + 120 p_0_8 + 120 p_0_9 + 100000 z_0_10 + 100000 z_0_2 + 100000 z_0_3 + 100000 z_0_4 + 100000 z_0_5 + 100000 z_0_6 + 100000 z_0_7 + 100000 z_0_8 + 100000 z_0_9 <= 900824.31992511789
 c2044: 120 p_0_1 + 120 p_0_10 + 120 p_0_2 + 120 p_0_3 + 120 p_0_4 + 120 p_0_5 + 120 p_0_6 + 120 p_0_7 + 120 p_0_8 + 120 p_0_9 + 100000 z_0_1 + 100000 z_0_10 + 100000 z_0_2 + 100000 z_0_3 + 100000 z_0_4 + 100000 z_0_5 + 100000 z_0_6 + 100000 z_0_7 + 100000 z_0_8 + 100000 z_0_9 <= 1000820.357499265
 c2045: 120 p_0_1 + 120 p_0_2 + 7994.7086549620035 z_0_1 + 7994.7086549620035 z_0_2 <= 17474.708654962003
 c2046: 120 p_0_1 + 120 p_0_3 + 8253.9967400768364 z_0_1 + 8253.9967400768364 z_0_3 <= 17733.996740076836
 c2047: 120 p_0_1 + 120 p_0_4 + 6400.5984975330457 z_0_1 + 6400.5984975330457 z_0_4 <= 14560.598497533045
 c2048: 120 p_0_1 + 120 p_0_5 + 7369.7290076449099 z_0_1 + 7369.7290076449099 z_0_5 <= 16249.72900764491
 c2049: 120 p_0_1 + 120 p_0_6 + 8205.7302097904194 z_0_1 + 8205.7302097904194 z_0_6 <= 17685.730209790418
 c2050: 120 p_0_1 + 120 p_0_7 + 7490.7929758231076 z_0_1 + 7490.7929758231076 z_0_7 <= 16730.792975823108
 c2051: 120 p_0_1 + 120 p_0_8 + 7249.6188541336005 z_0_1 + 7249.6188541336005 z_0_8 <= 16009.6188541336
 c2052: 120 p_0_1 + 120 p_0_9 + 6269.9322874331901 z_0_1 + 6269.9322874331901 z_0_9 <= 13829.93228743319
 c2053: 120 p_0_1 + 120 p_0_10 + 5543.0371809839298 z_0_1 + 5543.0371809839298 z_0_10 <= 12863.037180983931
 c2054: 120 p_0_2 + 120 p_0_3 + 8160.6076312529813 z_0_2 + 8160.6076312529813 z_0_3 <= 17760.60763125298
 c2055: 120 p_0_2 + 120 p_0_4 + 6691.7148811983461 z_0_2 + 6691.7148811983461 z_0_4 <= 14971.714881198346
 c2056: 120 p_0_2 + 120 p_0_5 + 6978.6780875932582 z_0_2 + 6978.6780875932582 z_0_5 <= 15978.678087593258
 c2057: 120 p_0_2 + 120 p_0_6 + 7990.5812336228564 z_0_2 + 7990.5812336228564 z_0_6 <= 17590.581233622856
 c2058: 120 p_0_2 + 120 p_0_7 + 7883.2159895661625 z_0_2 + 7883.2159895661625 z_0_7 <= 17243.215989566164
 c2059: 120 p_0_2 + 120 p_0_8 + 6839.3967754858513 z_0_2 + 6839.3967754858513 z_0_8 <= 15719.396775485851
 c2060: 120 p_0_2 + 120 p_0_9 + 6117.8734062123822 z_0_2 + 6117.8734062123822 z_0_9 <= 13797.873406212382
 c2061: 120 p_0_10 + 120 p_0_2 + 5888.6339813826589 z_0_10 + 5888.6339813826589 z_0_2 <= 13328.633981382658
 c2062: 120 p_0_3 + 120 p_0_4 + 6894.3954499829015 z_0_3 + 6894.3954499829015 z_0_4 <= 15174.395449982901
 c2063: 120 p_0_3 + 120 p_0_5 + 7565.309553256363 z_0_3 + 7565.309553256363 z_0_5 <= 16565.309553256364
 c2064: 120 p_0_3 + 120 p_0_6 + 7954.1792810431289 z_0_3 + 7954.1792810431289 z_0_6 <= 17554.179281043129
 c2065: 120 p_0_3 + 120 p_0_7 + 8167.5042878662844 z_0_3 + 8167.5042878662844 z_0_7 <= 17527.504287866286
 c2066: 120 p_0_3 + 120 p_0_8 + 7412.4937305540152 z_0_3 + 7412.4937305540152 z_0_8 <= 16292.493730554015
 c2067: 120 p_0_3 + 120 p_0_9 + 5971.573264802033 z_0_3 + 5971.573264802033 z_0_9 <= 13651.573264802033
 c2068: 120 p_0_10 + 120 p_0_3 + 6120.8540922026277 z_0_10 + 6120.8540922026277 z_0_3 <= 13560.854092202628
 c2069: 120 p_0_4 + 120 p_0_5 + 6070.5648167996824 z_0_4 + 6070.5648167996824 z_0_5 <= 13750.564816799682
 c2070: 120 p_0_4 + 120 p_0_6 + 6854.0364923733159 z_0_4 + 6854.0364923733159 z_0_6 <= 15134.036492373316
 c2071: 120 p_0_4 + 120 p_0_7 + 6317.0599228956162 z_0_4 + 6317.0599228956162 z_0_7 <= 14357.059922895616
 c2072: 120 p_0_4 + 120 p_0_8 + 5944.4752027010345 z_0_4 + 5944.4752027010345 z_0_8 <= 13504.475202701035
 c2073: 120 p_0_4 + 120 p_0_9 + 4913.6338621646992 z_0_4 + 4913.6338621646992 z_0_9 <= 11273.633862164699
 c2074: 120 p_0_10 + 120 p_0_4 + 4267.4815689751867 z_0_10 + 4267.4815689751867 z_0_4 <= 10387.481568975187
 c2075: 120 p_0_5 + 120 p_0_6 + 7400.8332528046376 z_0_5 + 7400.8332528046376 z_0_6 <= 16400.833252804638
 c2076: 120 p_0_5 + 120 p_0_7 + 7257.1672157711873 z_0_5 + 7257.1672157711873 z_0_7 <= 16017.167215771187
 c2077: 120 p_0_5 + 120 p_0_8 + 6246.6260439863127 z_0_5 + 6246.6260439863127 z_0_8 <= 14526.626043986313
 c2078: 120 p_0_5 + 120 p_0_9 + 5524.7405299323127 z_0_5 + 5524.7405299323127 z_0_9 <= 12604.740529932313
 c2079: 120 p_0_10 + 120 p_0_5 + 5265.5464121256855 z_0_10 + 5265.5464121256855 z_0_5 <= 12105.546412125686
 c2080: 120 p_0_6 + 120 p_0_7 + 8113.1028796593118 z_0_6 + 8113.1028796593118 z_0_7 <= 17473.102879659313
 c2081: 120 p_0_6 + 120 p_0_8 + 7244.8609293094732 z_0_6 + 7244.8609293094732 z_0_8 <= 16124.860929309474
 c2082: 120 p_0_6 + 120 p_0_9 + 5903.8473153086852 z_0_6 + 5903.8473153086852 z_0_9 <= 13583.847315308685
 c2083: 120 p_0_10 + 120 p_0_6 + 6075.8560837299901 z_0_10 + 6075.8560837299901 z_0_6 <= 13515.85608372999
 c2084: 120 p_0_7 + 120 p_0_8 + 7138.9587343348467 z_0_7 + 7138.9587343348467 z_0_8 <= 15778.958734334847
 c2085: 120 p_0_7 + 120 p_0_9 + 6180.3073193215105 z_0_7 + 6180.3073193215105 z_0_9 <= 13620.30731932151
 c2086: 120 p_0_10 + 120 p_0_7 + 5459.5573066295574 z_0_10 + 5459.5573066295574 z_0_7 <= 12659.557306629558
 c2087: 120 p_0_8 + 120 p_0_9 + 5370.5343741739089 z_0_8 + 5370.5343741739089 z_0_9 <= 12330.534374173909
 c2088: 120 p_0_10 + 120 p_0_8 + 5142.3621563428223 z_0_10 + 5142.3621563428223 z_0_8 <= 11862.362156342822
 c2089: 120 p_0_10 + 120 p_0_9 + 4138.0317508043372 z_0_10 + 4138.0317508043372 z_0_9 <= 9658.0317508043372
 c2090: 120 p_0_1 + 120 p_0_2 + 120 p_0_3 + 10953.839781264767 z_0_1 + 10953.839781264767 z_0_2 + 10953.839781264767 z_0_3 <= 33787.679562529534
 c2091: 120 p_0_1 + 120 p_0_2 + 120 p_0_4 + 9104.9967281704048 z_0_1 + 9104.9967281704048 z_0_2 + 9104.9967281704048 z_0_4 <= 28769.99345634081
 c2092: 120 p_0_1 + 120 p_0_2 + 120 p_0_5 + 9800.0164631458283 z_0_1 + 9800.0164631458283 z_0_2 + 9800.0164631458283 z_0_5 <= 30880.032926291657
 c2093: 120 p_0_1 + 120 p_0_2 + 120 p_0_6 + 10826.156041249051 z_0_1 + 10826.156041249051 z_0_2 + 10826.156041249051 z_0_6 <= 33532.312082498102
 c2094: 120 p_0_1 + 120 p_0_2 + 120 p_0_7 + 10184.033585669578 z_0_1 + 10184.033585669578 z_0_2 + 10184.033585669578 z_0_7 <= 32008.067171339157
 c2095: 120 p_0_1 + 120 p_0_2 + 120 p_0_8 + 9674.9715831120466 z_0_1 + 9674.9715831120466 z_0_2 + 9674.9715831120466 z_0_8 <= 30509.94316622409
 c2096: 120 p_0_1 + 120 p_0_2 + 120 p_0_9 + 8948.778436319395 z_0_1 + 8948.778436319395 z_0_2 + 8948.778436319395 z_0_9 <= 27857.556872638794
 c2097: 120 p_0_1 + 120 p_0_10 + 120 p_0_2 + 8247.4354116212871 z_0_1 + 8247.4354116212871 z_0_10 + 8247.4354116212871 z_0_2 <= 26214.870823242574
 c2098: 120 p_0_1 + 120 p_0_3 + 120 p_0_4 + 9334.7377424753504 z_0_1 + 9334.7377424753504 z_0_3 + 9334.7377424753504 z_0_4 <= 29229.475484950701
 c2099: 120 p_0_1 + 120 p_0_3 + 120 p_0_5 + 10333.415323397101 z_0_1 + 10333.415323397101 z_0_3 + 10333.415323397101 z_0_5 <= 31946.830646794202
 c2100: 120 p_0_1 + 120 p_0_3 + 120 p_0_6 + 10747.411431054914 z_0_1 + 10747.411431054914 z_0_3 + 10747.411431054914 z_0_6 <= 33374.822862109831
 c2101: 120 p_0_1 + 120 p_0_3 + 120 p_0_7 + 10454.479291575299 z_0_1 + 10454.479291575299 z_0_3 + 10454.479291575299 z_0_7 <= 32548.958583150597
 c2102: 120 p_0_1 + 120 p_0_3 + 120 p_0_8 + 10205.7258805658 z_0_1 + 10205.7258805658 z_0_3 + 10205.7258805658 z_0_8 <= 31571.451761131604
 c2103: 120 p_0_1 + 120 p_0_3 + 120 p_0_9 + 8764.8054148138181 z_0_1 + 8764.8054148138181 z_0_3 + 8764.8054148138181 z_0_9 <= 27489.610829627636
 c2104: 120 p_0_1 + 120 p_0_10 + 120 p_0_3 + 8494.1164020152355 z_0_1 + 8494.1164020152355 z_0_10 + 8494.1164020152355 z_0_3 <= 26708.232804030471
 c2105: 120 p_0_1 + 120 p_0_4 + 120 p_0_5 + 8480.0170808533094 z_0_1 + 8480.0170808533094 z_0_4 + 8480.0170808533094 z_0_5 <= 26920.034161706619
 c2106: 120 p_0_1 + 120 p_0_4 + 120 p_0_6 + 9294.378784865763 z_0_1 + 9294.378784865763 z_0_4 + 9294.378784865763 z_0_6 <= 29148.757569731526
 c2107: 120 p_0_1 + 120 p_0_4 + 120 p_0_7 + 8601.0810490315089 z_0_1 + 8601.0810490315089 z_0_4 + 8601.0810490315089 z_0_7 <= 27522.162098063018
 c2108: 120 p_0_1 + 120 p_0_4 + 120 p_0_8 + 8359.9069273420009 z_0_1 + 8359.9069273420009 z_0_4 + 8359.9069273420009 z_0_8 <= 26559.813854683998
 c2109: 120 p_0_1 + 120 p_0_4 + 120 p_0_9 + 7353.9761546571463 z_0_1 + 7353.9761546571463 z_0_4 + 7353.9761546571463 z_0_9 <= 23347.952309314293
 c2110: 120 p_0_1 + 120 p_0_10 + 120 p_0_4 + 6640.7438787877954 z_0_1 + 6640.7438787877954 z_0_10 + 6640.7438787877954 z_0_4 <= 21681.487757575593
 c2111: 120 p_0_1 + 120 p_0_5 + 120 p_0_6 + 10222.17162835721 z_0_1 + 10222.17162835721 z_0_5 + 10222.17162835721 z_0_6 <= 31724.343256714419
 c2112: 120 p_0_1 + 120 p_0_5 + 120 p_0_7 + 9557.9848118746031 z_0_1 + 9557.9848118746031 z_0_5 + 9557.9848118746031 z_0_7 <= 30155.969623749206
 c2113: 120 p_0_1 + 120 p_0_5 + 120 p_0_8 + 9067.9644195388828 z_0_1 + 9067.9644195388828 z_0_5 + 9067.9644195388828 z_0_8 <= 28695.928839077766
 c2114: 120 p_0_1 + 120 p_0_5 + 120 p_0_9 + 8346.0789054848829 z_0_1 + 8346.0789054848829 z_0_5 + 8346.0789054848829 z_0_9 <= 26052.157810969766
 c2115: 120 p_0_1 + 120 p_0_10 + 120 p_0_5 + 7622.4557643041935 z_0_1 + 7622.4557643041935 z_0_10 + 7622.4557643041935 z_0_5 <= 24364.911528608391
 c2116: 120 p_0_1 + 120 p_0_6 + 120 p_0_7 + 10406.212761288882 z_0_1 + 10406.212761288882 z_0_6 + 10406.212761288882 z_0_7 <= 32452.425522577767
 c2117: 120 p_0_1 + 120 p_0_6 + 120 p_0_8 + 10085.095435329513 z_0_1 + 10085.095435329513 z_0_6 + 10085.095435329513 z_0_8 <= 31330.190870659026
 c2118: 120 p_0_1 + 120 p_0_6 + 120 p_0_9 + 8734.7523454156981 z_0_1 + 8734.7523454156981 z_0_6 + 8734.7523454156981 z_0_9 <= 27429.504690831396
 c2119: 120 p_0_1 + 120 p_0_10 + 120 p_0_6 + 8449.1183935425979 z_0_1 + 8449.1183935425979 z_0_10 + 8449.1183935425979 z_0_6 <= 26618.236787085196
 c2120: 120 p_0_1 + 120 p_0_7 + 120 p_0_8 + 9439.7763304382643 z_0_1 + 9439.7763304382643 z_0_7 + 9439.7763304382643 z_0_8 <= 29799.552660876529
 c2121: 120 p_0_1 + 120 p_0_7 + 120 p_0_9 + 8470.4148389316524 z_0_1 + 8470.4148389316524 z_0_7 + 8470.4148389316524 z_0_9 <= 26660.829677863301
 c2122: 120 p_0_1 + 120 p_0_10 + 120 p_0_7 + 7743.5197324823921 z_0_1 + 7743.5197324823921 z_0_10 + 7743.5197324823921 z_0_7 <= 24967.039464964782
 c2123: 120 p_0_1 + 120 p_0_8 + 120 p_0_9 + 8201.4394042809217 z_0_1 + 8201.4394042809217 z_0_8 + 8201.4394042809217 z_0_9 <= 25642.878808561843
 c2124: 120 p_0_1 + 120 p_0_10 + 120 p_0_8 + 7502.3456107928851 z_0_1 + 7502.3456107928851 z_0_10 + 7502.3456107928851 z_0_8 <= 24004.69122158577
 c2125: 120 p_0_1 + 120 p_0_10 + 120 p_0_9 + 6511.2940606169459 z_0_1 + 6511.2940606169459 z_0_10 + 6511.2940606169459 z_0_9 <= 20822.58812123389
 c2126: 120 p_0_2 + 120 p_0_3 + 120 p_0_4 + 9594.2384911708323 z_0_2 + 9594.2384911708323 z_0_3 + 9594.2384911708323 z_0_4 <= 29868.476982341665
 c2127: 120 p_0_2 + 120 p_0_3 + 120 p_0_5 + 9980.1518715104303 z_0_2 + 9980.1518715104303 z_0_3 + 9980.1518715104303 z_0_5 <= 31360.303743020861
 c2128: 120 p_0_2 + 120 p_0_3 + 120 p_0_6 + 10598.991010513699 z_0_2 + 10598.991010513699 z_0_3 + 10598.991010513699 z_0_6 <= 33197.982021027397
 c2129: 120 p_0_2 + 120 p_0_3 + 120 p_0_7 + 10860.744897712755 z_0_2 + 10860.744897712755 z_0_3 + 10860.744897712755 z_0_7 <= 33481.489795425507
 c2130: 120 p_0_2 + 120 p_0_3 + 120 p_0_8 + 9840.8705594030253 z_0_2 + 9840.8705594030253 z_0_3 + 9840.8705594030253 z_0_8 <= 30961.741118806051
 c2131: 120 p_0_2 + 120 p_0_3 + 120 p_0_9 + 8650.4194136882361 z_0_2 + 8650.4194136882361 z_0_3 + 8650.4194136882361 z_0_9 <= 27380.838827376472
 c2132: 120 p_0_10 + 120 p_0_2 + 120 p_0_3 + 8820.6971333905567 z_0_10 + 8820.6971333905567 z_0_2 + 8820.6971333905567 z_0_3 <= 27481.394266781113
 c2133: 120 p_0_2 + 120 p_0_4 + 120 p_0_5 + 8500.8522723006026 z_0_2 + 8500.8522723006026 z_0_4 + 8500.8522723006026 z_0_5 <= 27081.704544601205
 c2134: 120 p_0_2 + 120 p_0_4 + 120 p_0_6 + 9498.8482218438876 z_0_2 + 9498.8482218438876 z_0_4 + 9498.8482218438876 z_0_6 <= 29677.696443687775
 c2135: 120 p_0_2 + 120 p_0_4 + 120 p_0_7 + 9010.3005327420869 z_0_2 + 9010.3005327420869 z_0_4 + 9010.3005327420869 z_0_7 <= 28460.601065484174
 c2136: 120 p_0_2 + 120 p_0_4 + 120 p_0_8 + 8371.9778093483892 z_0_2 + 8371.9778093483892 z_0_4 + 8371.9778093483892 z_0_8 <= 26703.955618696778
 c2137: 120 p_0_2 + 120 p_0_4 + 120 p_0_9 + 7592.4800110509032 z_0_2 + 7592.4800110509032 z_0_4 + 7592.4800110509032 z_0_9 <= 23944.960022101808
 c2138: 120 p_0_10 + 120 p_0_2 + 120 p_0_4 + 6986.3406791865245 z_0_10 + 6986.3406791865245 z_0_2 + 6986.3406791865245 z_0_4 <= 22492.681358373051
 c2139: 120 p_0_2 + 120 p_0_5 + 120 p_0_6 + 9810.1254738803054 z_0_2 + 9810.1254738803054 z_0_5 + 9810.1254738803054 z_0_6 <= 31020.250947760615
 c2140: 120 p_0_2 + 120 p_0_5 + 120 p_0_7 + 9687.4546712721058 z_0_2 + 9687.4546712721058 z_0_5 + 9687.4546712721058 z_0_7 <= 30534.909342544212
 c2141: 120 p_0_2 + 120 p_0_5 + 120 p_0_8 + 8658.9410157433013 z_0_2 + 8658.9410157433013 z_0_5 + 8658.9410157433013 z_0_8 <= 27997.882031486603
 c2142: 120 p_0_2 + 120 p_0_5 + 120 p_0_9 + 7937.4176464698312 z_0_2 + 7937.4176464698312 z_0_5 + 7937.4176464698312 z_0_9 <= 25354.835292939661
 c2143: 120 p_0_10 + 120 p_0_2 + 120 p_0_5 + 7695.8338676266048 z_0_10 + 7695.8338676266048 z_0_2 + 7695.8338676266048 z_0_5 <= 24631.66773525321
 c2144: 120 p_0_2 + 120 p_0_6 + 120 p_0_7 + 10714.66337585321 z_0_2 + 10714.66337585321 z_0_6 + 10714.66337585321 z_0_7 <= 33189.326751706416
 c2145: 120 p_0_2 + 120 p_0_6 + 120 p_0_8 + 9670.8441617729004 z_0_2 + 9670.8441617729004 z_0_6 + 9670.8441617729004 z_0_8 <= 30621.688323545801
 c2146: 120 p_0_2 + 120 p_0_6 + 120 p_0_9 + 8548.6590447792551 z_0_2 + 8548.6590447792551 z_0_6 + 8548.6590447792551 z_0_9 <= 27177.31808955851
 c2147: 120 p_0_10 + 120 p_0_2 + 120 p_0_6 + 8720.0813676697071 z_0_10 + 8720.0813676697071 z_0_2 + 8720.0813676697071 z_0_6 <= 27280.162735339414
 c2148: 120 p_0_2 + 120 p_0_7 + 120 p_0_8 + 9563.4789177162056 z_0_2 + 9563.4789177162056 z_0_7 + 9563.4789177162056 z_0_8 <= 30166.957835432411
 c2149: 120 p_0_2 + 120 p_0_7 + 120 p_0_9 + 8841.9555484427365 z_0_2 + 8841.9555484427365 z_0_7 + 8841.9555484427365 z_0_9 <= 27523.911096885473
 c2150: 120 p_0_10 + 120 p_0_2 + 120 p_0_7 + 8152.7979164760281 z_0_10 + 8152.7979164760281 z_0_2 + 8152.7979164760281 z_0_7 <= 25905.595832952054
 c2151: 120 p_0_2 + 120 p_0_8 + 120 p_0_9 + 7798.1363343624253 z_0_2 + 7798.1363343624253 z_0_8 + 7798.1363343624253 z_0_9 <= 24956.272668724851
 c2152: 120 p_0_10 + 120 p_0_2 + 120 p_0_8 + 7568.896909532702 z_0_10 + 7568.896909532702 z_0_2 + 7568.896909532702 z_0_8 <= 24257.793819065406
 c2153: 120 p_0_10 + 120 p_0_2 + 120 p_0_9 + 6816.8778996905421 z_0_10 + 6816.8778996905421 z_0_2 + 6816.8778996905421 z_0_9 <= 21553.755799381084
 c2154: 120 p_0_3 + 120 p_0_4 + 120 p_0_5 + 8998.9404131742122 z_0_3 + 8998.9404131742122 z_0_4 + 8998.9404131742122 z_0_5 <= 28077.880826348424
 c2155: 120 p_0_3 + 120 p_0_4 + 120 p_0_6 + 9387.810140960979 z_0_3 + 9387.810140960979 z_0_4 + 9387.810140960979 z_0_6 <= 29455.620281921958
 c2156: 120 p_0_3 + 120 p_0_4 + 120 p_0_7 + 9251.19916783792 z_0_3 + 9251.19916783792 z_0_4 + 9251.19916783792 z_0_7 <= 28942.39833567584
 c2157: 120 p_0_3 + 120 p_0_4 + 120 p_0_8 + 8846.1245904718653 z_0_3 + 8846.1245904718653 z_0_4 + 8846.1245904718653 z_0_8 <= 27652.249180943727
 c2158: 120 p_0_3 + 120 p_0_4 + 120 p_0_9 + 7405.2041247198831 z_0_3 + 7405.2041247198831 z_0_4 + 7405.2041247198831 z_0_9 <= 23570.408249439766
 c2159: 120 p_0_10 + 120 p_0_3 + 120 p_0_4 + 7201.6208139174914 z_0_10 + 7201.6208139174914 z_0_3 + 7201.6208139174914 z_0_4 <= 22923.241627834981
 c2160: 120 p_0_3 + 120 p_0_5 + 120 p_0_6 + 10009.243029695481 z_0_3 + 10009.243029695481 z_0_5 + 10009.243029695481 z_0_6 <= 31418.486059390962
 c2161: 120 p_0_3 + 120 p_0_5 + 120 p_0_7 + 10234.69612391778 z_0_3 + 10234.69612391778 z_0_5 + 10234.69612391778 z_0_7 <= 31629.39224783556
 c2162: 120 p_0_3 + 120 p_0_5 + 120 p_0_8 + 9249.7354264267669 z_0_3 + 9249.7354264267669 z_0_5 + 9249.7354264267669 z_0_8 <= 29179.470852853534
 c2163: 120 p_0_3 + 120 p_0_5 + 120 p_0_9 + 8057.2865374081675 z_0_3 + 8057.2865374081675 z_0_5 + 8057.2865374081675 z_0_9 <= 25594.573074816337
 c2164: 120 p_0_10 + 120 p_0_3 + 120 p_0_5 + 8216.6256331569912 z_0_10 + 8216.6256331569912 z_0_3 + 8216.6256331569912 z_0_5 <= 25673.251266313982
 c2165: 120 p_0_3 + 120 p_0_6 + 120 p_0_7 + 10660.918978844362 z_0_3 + 10660.918978844362 z_0_6 + 10660.918978844362 z_0_7 <= 33081.837957688724
 c2166: 120 p_0_3 + 120 p_0_6 + 120 p_0_8 + 9853.2707062003155 z_0_3 + 9853.2707062003155 z_0_6 + 9853.2707062003155 z_0_8 <= 30986.541412400627
 c2167: 120 p_0_3 + 120 p_0_6 + 120 p_0_9 + 8436.3933227845409 z_0_3 + 8436.3933227845409 z_0_6 + 8436.3933227845409 z_0_9 <= 26952.786645569082
 c2168: 120 p_0_10 + 120 p_0_3 + 120 p_0_6 + 8614.2687831807052 z_0_10 + 8614.2687831807052 z_0_3 + 8614.2687831807052 z_0_6 <= 27068.53756636141
 c2169: 120 p_0_3 + 120 p_0_7 + 120 p_0_8 + 10116.487642481439 z_0_3 + 10116.487642481439 z_0_7 + 10116.487642481439 z_0_8 <= 31272.975284962879
 c2170: 120 p_0_3 + 120 p_0_7 + 120 p_0_9 + 8678.3129626032642 z_0_3 + 8678.3129626032642 z_0_7 + 8678.3129626032642 z_0_9 <= 27196.625925206528
 c2171: 120 p_0_10 + 120 p_0_3 + 120 p_0_7 + 8410.6365276608631 z_0_10 + 8410.6365276608631 z_0_3 + 8410.6365276608631 z_0_7 <= 26421.273055321726
 c2172: 120 p_0_3 + 120 p_0_8 + 120 p_0_9 + 7903.0803816497646 z_0_3 + 7903.0803816497646 z_0_8 + 7903.0803816497646 z_0_9 <= 25166.160763299529
 c2173: 120 p_0_10 + 120 p_0_3 + 120 p_0_8 + 8072.5832326915915 z_0_10 + 8072.5832326915915 z_0_3 + 8072.5832326915915 z_0_8 <= 25265.166465383183
 c2174: 120 p_0_10 + 120 p_0_3 + 120 p_0_9 + 6631.6627669396084 z_0_10 + 6631.6627669396084 z_0_3 + 6631.6627669396084 z_0_9 <= 21183.325533879219
 c2175: 120 p_0_4 + 120 p_0_5 + 120 p_0_6 + 8909.1002410256679 z_0_4 + 8909.1002410256679 z_0_5 + 8909.1002410256679 z_0_6 <= 27898.200482051332
 c2176: 120 p_0_4 + 120 p_0_5 + 120 p_0_7 + 8384.2517589471136 z_0_4 + 8384.2517589471136 z_0_5 + 8384.2517589471136 z_0_7 <= 26608.503517894227
 c2177: 120 p_0_4 + 120 p_0_5 + 120 p_0_8 + 7768.8002286936571 z_0_4 + 7768.8002286936571 z_0_5 + 7768.8002286936571 z_0_8 <= 24897.600457387314
 c2178: 120 p_0_4 + 120 p_0_5 + 120 p_0_9 + 6999.3471347708337 z_0_4 + 6999.3471347708337 z_0_5 + 6999.3471347708337 z_0_9 <= 22158.694269541669
 c2179: 120 p_0_10 + 120 p_0_4 + 120 p_0_5 + 6363.2531099295511 z_0_10 + 6363.2531099295511 z_0_4 + 6363.2531099295511 z_0_5 <= 20646.5062198591
 c2180: 120 p_0_4 + 120 p_0_6 + 120 p_0_7 + 9210.8402102283344 z_0_4 + 9210.8402102283344 z_0_6 + 9210.8402102283344 z_0_7 <= 28861.680420456665
 c2181: 120 p_0_4 + 120 p_0_6 + 120 p_0_8 + 8753.1279175305026 z_0_4 + 8753.1279175305026 z_0_6 + 8753.1279175305026 z_0_8 <= 27466.255835061005
 c2182: 120 p_0_4 + 120 p_0_6 + 120 p_0_9 + 7378.4539201472062 z_0_4 + 7378.4539201472062 z_0_6 + 7378.4539201472062 z_0_9 <= 23516.907840294411
 c2183: 120 p_0_10 + 120 p_0_4 + 120 p_0_6 + 7161.261856307905 z_0_10 + 7161.261856307905 z_0_4 + 7161.261856307905 z_0_6 <= 22842.52371261581
 c2184: 120 p_0_4 + 120 p_0_7 + 120 p_0_8 + 8266.0432775107729 z_0_4 + 8266.0432775107729 z_0_7 + 8266.0432775107729 z_0_8 <= 26252.086555021546
 c2185: 120 p_0_4 + 120 p_0_7 + 120 p_0_9 + 7270.4375800197176 z_0_4 + 7270.4375800197176 z_0_7 + 7270.4375800197176 z_0_9 <= 23060.875160039439
 c2186: 120 p_0_10 + 120 p_0_4 + 120 p_0_7 + 6557.264004433423 z_0_10 + 6557.264004433423 z_0_4 + 6557.264004433423 z_0_7 <= 21394.528008866848
 c2187: 120 p_0_4 + 120 p_0_8 + 120 p_0_9 + 6845.1409790124308 z_0_4 + 6845.1409790124308 z_0_8 + 6845.1409790124308 z_0_9 <= 21730.281958024862
 c2188: 120 p_0_10 + 120 p_0_4 + 120 p_0_8 + 6240.068854146688 z_0_10 + 6240.068854146688 z_0_4 + 6240.068854146688 z_0_8 <= 20280.137708293376
 c2189: 120 p_0_10 + 120 p_0_4 + 120 p_0_9 + 5220.8592260992882 z_0_10 + 5220.8592260992882 z_0_4 + 5220.8592260992882 z_0_9 <= 17041.718452198576
 c2190: 120 p_0_5 + 120 p_0_6 + 120 p_0_7 + 10109.609836483487 z_0_5 + 10109.609836483487 z_0_6 + 10109.609836483487 z_0_7 <= 31379.219672966974
 c2191: 120 p_0_5 + 120 p_0_6 + 120 p_0_8 + 9082.1026251822259 z_0_5 + 9082.1026251822259 z_0_6 + 9082.1026251822259 z_0_8 <= 28844.205250364452
 c2192: 120 p_0_5 + 120 p_0_6 + 120 p_0_9 + 7958.9110639610371 z_0_5 + 7958.9110639610371 z_0_6 + 7958.9110639610371 z_0_9 <= 25397.822127922074
 c2193: 120 p_0_10 + 120 p_0_5 + 120 p_0_6 + 8117.9890328379843 z_0_10 + 8117.9890328379843 z_0_5 + 8117.9890328379843 z_0_6 <= 25475.978065675969
 c2194: 120 p_0_5 + 120 p_0_7 + 120 p_0_8 + 8955.4026276651603 z_0_5 + 8955.4026276651603 z_0_7 + 8955.4026276651603 z_0_8 <= 28350.805255330321
 c2195: 120 p_0_5 + 120 p_0_7 + 120 p_0_9 + 8233.5171136111603 z_0_5 + 8233.5171136111603 z_0_7 + 8233.5171136111603 z_0_9 <= 25707.034227222321
 c2196: 120 p_0_10 + 120 p_0_5 + 120 p_0_7 + 7526.7491426810529 z_0_10 + 7526.7491426810529 z_0_5 + 7526.7491426810529 z_0_7 <= 24053.498285362108
 c2197: 120 p_0_5 + 120 p_0_8 + 120 p_0_9 + 7207.7760700466606 z_0_5 + 7207.7760700466606 z_0_8 + 7207.7760700466606 z_0_9 <= 23175.552140093321
 c2198: 120 p_0_10 + 120 p_0_5 + 120 p_0_8 + 6963.7818240196593 z_0_10 + 6963.7818240196593 z_0_5 + 6963.7818240196593 z_0_8 <= 22447.563648039319
 c2199: 120 p_0_10 + 120 p_0_5 + 120 p_0_9 + 6223.7450234104726 z_0_10 + 6223.7450234104726 z_0_5 + 6223.7450234104726 z_0_9 <= 19767.490046820945
 c2200: 120 p_0_6 + 120 p_0_7 + 120 p_0_8 + 9974.4353155307581 z_0_6 + 9974.4353155307581 z_0_7 + 9974.4353155307581 z_0_8 <= 30988.870631061516
 c2201: 120 p_0_6 + 120 p_0_7 + 120 p_0_9 + 8645.1273773040193 z_0_6 + 8645.1273773040193 z_0_7 + 8645.1273773040193 z_0_9 <= 27130.254754608039
 c2202: 120 p_0_10 + 120 p_0_6 + 120 p_0_7 + 8365.6385191882255 z_0_10 + 8365.6385191882255 z_0_6 + 8365.6385191882255 z_0_7 <= 26331.277038376451
 c2203: 120 p_0_6 + 120 p_0_8 + 120 p_0_9 + 7802.9387404658728 z_0_6 + 7802.9387404658728 z_0_8 + 7802.9387404658728 z_0_9 <= 24965.877480931744
 c2204: 120 p_0_10 + 120 p_0_6 + 120 p_0_8 + 7974.9475088871768 z_0_10 + 7974.9475088871768 z_0_6 + 7974.9475088871768 z_0_8 <= 25069.895017774354
 c2205: 120 p_0_10 + 120 p_0_6 + 120 p_0_9 + 6602.8518087868451 z_0_10 + 6602.8518087868451 z_0_6 + 6602.8518087868451 z_0_9 <= 21125.703617573694
 c2206: 120 p_0_7 + 120 p_0_8 + 120 p_0_9 + 8100.1087603951946 z_0_7 + 8100.1087603951946 z_0_8 + 8100.1087603951946 z_0_9 <= 25320.217520790386
 c2207: 120 p_0_10 + 120 p_0_7 + 120 p_0_8 + 7408.5406612447132 z_0_10 + 7408.5406612447132 z_0_7 + 7408.5406612447132 z_0_8 <= 23697.08132248943
 c2208: 120 p_0_10 + 120 p_0_7 + 120 p_0_9 + 6427.8141862625735 z_0_10 + 6427.8141862625735 z_0_7 + 6427.8141862625735 z_0_9 <= 20535.628372525145
 c2209: 120 p_0_10 + 120 p_0_8 + 120 p_0_9 + 6069.5388676520688 z_0_10 + 6069.5388676520688 z_0_8 + 6069.5388676520688 z_0_9 <= 19339.077735304141
 c2210: Y_1 - d_0_1 + p_0_1 = 19
 c2211: - 0.14285714285714285 Y_1 + r_1 = 0
 c2212: e_1 - r_1 >= -1
 c2213: e_1 + r_1 >= 1
 c2214: Y_2 - d_0_2 + p_0_2 = 40
 c2215: - 0.045454545454545456 Y_2 + r_2 = 0
 c2216: e_2 - r_2 >= -1
 c2217: e_2 + r_2 >= 1
 c2218: Y_3 - d_0_3 + p_0_3 = 27
 c2219: - 0.02 Y_3 + r_3 = 0
 c2220: e_3 - r_3 >= -1
 c2221: e_3 + r_3 >= 1
 c2222: Y_4 - d_0_4 + p_0_4 = 9
 c2223: - 0.090909090909090912 Y_4 + r_4 = 0
 c2224: e_4 - r_4 >= -1
 c2225: e_4 + r_4 >= 1
 c2226: Y_5 - d_0_5 + p_0_5 = 15
 c2227: - 0.041666666666666664 Y_5 + r_5 = 0
 c2228: e_5 - r_5 >= -1
 c2229: e_5 + r_5 >= 1
 c2230: Y_6 - d_0_6 + p_0_6 = 26
 c2231: - 0.035714285714285712 Y_6 + r_6 = 0
 c2232: e_6 - r_6 >= -1
 c2233: e_6 + r_6 >= 1
 c2234: Y_7 - d_0_7 + p_0_7 = 18
 c2235: - Y_7 + r_7 = 0
 c2236: e_7 - r_7 >= -1
 c2237: e_7 + r_7 >= 1
 c2238: Y_8 - d_0_8 + p_0_8 = 14
 c2239: - 0.029411764705882353 Y_8 + r_8 = 0
 c2240: e_8 - r_8 >= -1
 c2241: e_8 + r_8 >= 1
 c2242: Y_9 - d_0_9 + p_0_9 = 4
 c2243: - 0.20000000000000001 Y_9 + r_9 = 0
 c2244: e_9 - r_9 >= -1
 c2245: e_9 + r_9 >= 1
 c2246: Y_10 - d_0_10 + p_0_10 = 2
 c2247: - 0.045454545454545456 Y_10 + r_10 = 0
 c2248: e_10 - r_10 >= -1
 c2249: e_10 + r_10 >= 1
 c2250: Y_1 - 13 z_0_1 <= 19
 c2251: - Y_1 - 19 z_0_1 <= -19
 c2252: Y_2 - 8 z_0_2 <= 40
 c2253: - Y_2 - 40 z_0_2 <= -40
 c2254: Y_3 - 23 z_0_3 <= 27
 c2255: - Y_3 - 27 z_0_3 <= -27
 c2256: Y_4 - 34 z_0_4 <= 9
 c2257: - Y_4 - 9 z_0_4 <= -9
 c2258: Y_5 - 29 z_0_5 <= 15
 c2259: - Y_5 - 15 z_0_5 <= -15
 c2260: Y_6 - 3 z_0_6 <= 26
 c2261: - Y_6 - 26 z_0_6 <= -26
 c2262: Y_7 - 6 z_0_7 <= 18
 c2263: - Y_7 - 18 z_0_7 <= -18
 c2264: Y_8 - 29 z_0_8 <= 14
 c2265: - Y_8 - 14 z_0_8 <= -14
 c2266: Y_9 - 19 z_0_9 <= 4
 c2267: - Y_9 - 4 z_0_9 <= -4
 c2268: Y_10 - 47 z_0_10 <= 2
 c2269: - Y_10 - 2 z_0_10 <= -2
 c2270: 120 p_0_1 + 120 p_0_10 + 120 p_0_2 + 120 p_0_3 + 120 p_0_4 + 120 p_0_5 + 120 p_0_6 + 120 p_0_7 + 120 p_0_8 + 120 p_0_9 <= 2400
 c2271: h_1_2 - r_1 + r_2 >= 0
 c2272: h_1_2 + r_1 - r_2 >= 0
 c2273: h_1_3 - r_1 + r_3 >= 0
 c2274: h_1_3 + r_1 - r_3 >= 0
 c2275: h_1_4 - r_1 + r_4 >= 0
 c2276: h_1_4 + r_1 - r_4 >= 0
 c2277: h_1_5 - r_1 + r_5 >= 0
 c2278: h_1_5 + r_1 - r_5 >= 0
 c2279: h_1_6 - r_1 + r_6 >= 0
 c2280: h_1_6 + r_1 - r_6 >= 0
 c2281: h_1_7 - r_1 + r_7 >= 0
 c2282: h_1_7 + r_1 - r_7 >= 0
 c2283: h_1_8 - r_1 + r_8 >= 0
 c2284: h_1_8 + r_1 - r_8 >= 0
 c2285: h_1_9 - r_1 + r_9 >= 0
 c2286: h_1_9 + r_1 - r_9 >= 0
 c2287: h_1_10 - r_1 + r_10 >= 0
 c2288: h_1_10 + r_1 - r_10 >= 0
 c2289: h_2_3 - r_2 + r_3 >= 0
 c2290: h_2_3 + r_2 - r_3 >= 0
 c2291: h_2_4 - r_2 + r_4 >= 0
 c2292: h_2_4 + r_2 - r_4 >= 0
 c2293: h_2_5 - r_2 + r_5 >= 0
 c2294: h_2_5 + r_2 - r_5 >= 0
 c2295: h_2_6 - r_2 + r_6 >= 0
 c2296: h_2_6 + r_2 - r_6 >= 0
 c2297: h_2_7 - r_2 + r_7 >= 0
 c2298: h_2_7 + r_2 - r_7 >= 0
 c2299: h_2_8 - r_2 + r_8 >= 0
 c2300: h_2_8 + r_2 - r_8 >= 0
 c2301: h_2_9 - r_2 + r_9 >= 0
 c2302: h_2_9 + r_2 - r_9 >= 0
 c2303: h_2_10 + r_10 - r_2 >= 0
 c2304: h_2_10 - r_10 + r_2 >= 0
 c2305: h_3_4 - r_3 + r_4 >= 0
 c2306: h_3_4 + r_3 - r_4 >= 0
 c2307: h_3_5 - r_3 + r_5 >= 0
 c2308: h_3_5 + r_3 - r_5 >= 0
 c2309: h_3_6 - r_3 + r_6 >= 0
 c2310: h_3_6 + r_3 - r_6 >= 0
 c2311: h_3_7 - r_3 + r_7 >= 0
 c2312: h_3_7 + r_3 - r_7 >= 0
 c2313: h_3_8 - r_3 + r_8 >= 0
 c2314: h_3_8 + r_3 - r_8 >= 0
 c2315: h_3_9 - r_3 + r_9 >= 0
 c2316: h_3_9 + r_3 - r_9 >= 0
 c2317: h_3_10 + r_10 - r_3 >= 0
 c2318: h_3_10 - r_10 + r_3 >= 0
 c2319: h_4_5 - r_4 + r_5 >= 0
 c2320: h_4_5 + r_4 - r_5 >= 0
 c2321: h_4_6 - r_4 + r_6 >= 0
 c2322: h_4_6 + r_4 - r_6 >= 0
 c2323: h_4_7 - r_4 + r_7 >= 0
 c2324: h_4_7 + r_4 - r_7 >= 0
 c2325: h_4_8 - r_4 + r_8 >= 0
 c2326: h_4_8 + r_4 - r_8 >= 0
 c2327: h_4_9 - r_4 + r_9 >= 0
 c2328: h_4_9 + r_4 - r_9 >= 0
 c2329: h_4_10 + r_10 - r_4 >= 0
 c2330: h_4_10 - r_10 + r_4 >= 0
 c2331: h_5_6 - r_5 + r_6 >= 0
 c2332: h_5_6 + r_5 - r_6 >= 0
 c2333: h_5_7 - r_5 + r_7 >= 0
 c2334: h_5_7 + r_5 - r_7 >= 0
 c2335: h_5_8 - r_5 + r_8 >= 0
 c2336: h_5_8 + r_5 - r_8 >= 0
 c2337: h_5_9 - r_5 + r_9 >= 0
 c2338: h_5_9 + r_5 - r_9 >= 0
 c2339: h_5_10 + r_10 - r_5 >= 0
 c2340: h_5_10 - r_10 + r_5 >= 0
 c2341: h_6_7 - r_6 + r_7 >= 0
 c2342: h_6_7 + r_6 - r_7 >= 0
 c2343: h_6_8 - r_6 + r_8 >= 0
 c2344: h_6_8 + r_6 - r_8 >= 0
 c2345: h_6_9 - r_6 + r_9 >= 0
 c2346: h_6_9 + r_6 - r_9 >= 0
 c2347: h_6_10 + r_10 - r_6 >= 0
 c2348: h_6_10 - r_10 + r_6 >= 0
 c2349: h_7_8 - r_7 + r_8 >= 0
 c2350: h_7_8 + r_7 - r_8 >= 0
 c2351: h_7_9 - r_7 + r_9 >= 0
 c2352: h_7_9 + r_7 - r_9 >= 0
 c2353: h_7_10 + r_10 - r_7 >= 0
 c2354: h_7_10 - r_10 + r_7 >= 0
 c2355: h_8_9 - r_8 + r_9 >= 0
 c2356: h_8_9 + r_8 - r_9 >= 0
 c2357: h_8_10 + r_10 - r_8 >= 0
 c2358: h_8_10 - r_10 + r_8 >= 0
 c2359: h_9_10 + r_10 - r_9 >= 0
 c2360: h_9_10 - r_10 + r_9 >= 0
 c2361: Y_1 - bit_1_0 - 2 bit_1_1 - 4 bit_1_2 - 8 bit_1_3 - 16 bit_1_4 - 32 bit_1_5 = 0
 c2362: - prod_1_0 - 2 prod_1_1 - 4 prod_1_2 - 8 prod_1_3 - 16 prod_1_4 - 32 prod_1_5 + zprod_1 = 0
 c2363: - G + prod_1_0 <= 0
 c2364: - bit_1_0 + prod_1_0 <= 0
 c2365: - G - bit_1_0 + prod_1_0 >= -1
 c2366: - G + prod_1_1 <= 0
 c2367: - bit_1_1 + prod_1_1 <= 0
 c2368: - G - bit_1_1 + prod_1_1 >= -1
 c2369: - G + prod_1_2 <= 0
 c2370: - bit_1_2 + prod_1_2 <= 0
 c2371: - G - bit_1_2 + prod_1_2 >= -1
 c2372: - G + prod_1_3 <= 0
 c2373: - bit_1_3 + prod_1_3 <= 0
 c2374: - G - bit_1_3 + prod_1_3 >= -1
 c2375: - G + prod_1_4 <= 0
 c2376: - bit_1_4 + prod_1_4 <= 0
 c2377: - G - bit_1_4 + prod_1_4 >= -1
 c2378: - G + prod_1_5 <= 0
 c2379: - bit_1_5 + prod_1_5 <= 0
 c2380: - G - bit_1_5 + prod_1_5 >= -1
 c2381: Y_2 - bit_2_0 - 2 bit_2_1 - 4 bit_2_2 - 8 bit_2_3 - 16 bit_2_4 - 32 bit_2_5 = 0
 c2382: - prod_2_0 - 2 prod_2_1 - 4 prod_2_2 - 8 prod_2_3 - 16 prod_2_4 - 32 prod_2_5 + zprod_2 = 0
 c2383: - G + prod_2_0 <= 0
 c2384: - bit_2_0 + prod_2_0 <= 0
 c2385: - G - bit_2_0 + prod_2_0 >= -1
 c2386: - G + prod_2_1 <= 0
 c2387: - bit_2_1 + prod_2_1 <= 0
 c2388: - G - bit_2_1 + prod_2_1 >= -1
 c2389: - G + prod_2_2 <= 0
 c2390: - bit_2_2 + prod_2_2 <= 0
 c2391: - G - bit_2_2 + prod_2_2 >= -1
 c2392: - G + prod_2_3 <= 0
 c2393: - bit_2_3 + prod_2_3 <= 0
 c2394: - G - bit_2_3 + prod_2_3 >= -1
 c2395: - G + prod_2_4 <= 0
 c2396: - bit_2_4 + prod_2_4 <= 0
 c2397: - G - bit_2_4 + prod_2_4 >= -1
 c2398: - G + prod_2_5 <= 0
 c2399: - bit_2_5 + prod_2_5 <= 0
 c2400: - G - bit_2_5 + prod_2_5 >= -1
 c2401: Y_3 - bit_3_0 - 2 bit_3_1 - 4 bit_3_2 - 8 bit_3_3 - 16 bit_3_4 - 32 bit_3_5 = 0
 c2402: - prod_3_0 - 2 prod_3_1 - 4 prod_3_2 - 8 prod_3_3 - 16 prod_3_4 - 32 prod_3_5 + zprod_3 = 0
 c2403: - G + prod_3_0 <= 0
 c2404: - bit_3_0 + prod_3_0 <= 0
 c2405: - G - bit_3_0 + prod_3_0 >= -1
 c2406: - G + prod_3_1 <= 0
 c2407: - bit_3_1 + prod_3_1 <= 0
 c2408: - G - bit_3_1 + prod_3_1 >= -1
 c2409: - G + prod_3_2 <= 0
 c2410: - bit_3_2 + prod_3_2 <= 0
 c2411: - G - bit_3_2 + prod_3_2 >= -1
 c2412: - G + prod_3_3 <= 0
 c2413: - bit_3_3 + prod_3_3 <= 0
 c2414: - G - bit_3_3 + prod_3_3 >= -1
 c2415: - G + prod_3_4 <= 0
 c2416: - bit_3_4 + prod_3_4 <= 0
 c2417: - G - bit_3_4 + prod_3_4 >= -1
 c2418: - G + prod_3_5 <= 0
 c2419: - bit_3_5 + prod_3_5 <= 0
 c2420: - G - bit_3_5 + prod_3_5 >= -1
 c2421: Y_4 - bit_4_0 - 2 bit_4_1 - 4 bit_4_2 - 8 bit_4_3 - 16 bit_4_4 - 32 bit_4_5 = 0
 c2422: - prod_4_0 - 2 prod_4_1 - 4 prod_4_2 - 8 prod_4_3 - 16 prod_4_4 - 32 prod_4_5 + zprod_4 = 0
 c2423: - G + prod_4_0 <= 0
 c2424: - bit_4_0 + prod_4_0 <= 0
 c2425: - G - bit_4_0 + prod_4_0 >= -1
 c2426: - G + prod_4_1 <= 0
 c2427: - bit_4_1 + prod_4_1 <= 0
 c2428: - G - bit_4_1 + prod_4_1 >= -1
 c2429: - G + prod_4_2 <= 0
 c2430: - bit_4_2 + prod_4_2 <= 0
 c2431: - G - bit_4_2 + prod_4_2 >= -1
 c2432: - G + prod_4_3 <= 0
 c2433: - bit_4_3 + prod_4_3 <= 0
 c2434: - G - bit_4_3 + prod_4_3 >= -1
 c2435: - G + prod_4_4 <= 0
 c2436: - bit_4_4 + prod_4_4 <= 0
 c2437: - G - bit_4_4 + prod_4_4 >= -1
 c2438: - G + prod_4_5 <= 0
 c2439: - bit_4_5 + prod_4_5 <= 0
 c2440: - G - bit_4_5 + prod_4_5 >= -1
 c2441: Y_5 - bit_5_0 - 2 bit_5_1 - 4 bit_5_2 - 8 bit_5_3 - 16 bit_5_4 - 32 bit_5_5 = 0
 c2442: - prod_5_0 - 2 prod_5_1 - 4 prod_5_2 - 8 prod_5_3 - 16 prod_5_4 - 32 prod_5_5 + zprod_5 = 0
 c2443: - G + prod_5_0 <= 0
 c2444: - bit_5_0 + prod_5_0 <= 0
 c2445: - G - bit_5_0 + prod_5_0 >= -1
 c2446: - G + prod_5_1 <= 0
 c2447: - bit_5_1 + prod_5_1 <= 0
 c2448: - G - bit_5_1 + prod_5_1 >= -1
 c2449: - G + prod_5_2 <= 0
 c2450: - bit_5_2 + prod_5_2 <= 0
 c2451: - G - bit_5_2 + prod_5_2 >= -1
 c2452: - G + prod_5_3 <= 0
 c2453: - bit_5_3 + prod_5_3 <= 0
 c2454: - G - bit_5_3 + prod_5_3 >= -1
 c2455: - G + prod_5_4 <= 0
 c2456: - bit_5_4 + prod_5_4 <= 0
 c2457: - G - bit_5_4 + prod_5_4 >= -1
 c2458: - G + prod_5_5 <= 0
 c2459: - bit_5_5 + prod_5_5 <= 0
 c2460: - G - bit_5_5 + prod_5_5 >= -1
 c2461: Y_6 - bit_6_0 - 2 bit_6_1 - 4 bit_6_2 - 8 bit_6_3 - 16 bit_6_4 = 0
 c2462: - prod_6_0 - 2 prod_6_1 - 4 prod_6_2 - 8 prod_6_3 - 16 prod_6_4 + zprod_6 = 0
 c2463: - G + prod_6_0 <= 0
 c2464: - bit_6_0 + prod_6_0 <= 0
 c2465: - G - bit_6_0 + prod_6_0 >= -1
 c2466: - G + prod_6_1 <= 0
 c2467: - bit_6_1 + prod_6_1 <= 0
 c2468: - G - bit_6_1 + prod_6_1 >= -1
 c2469: - G + prod_6_2 <= 0
 c2470: - bit_6_2 + prod_6_2 <= 0
 c2471: - G - bit_6_2 + prod_6_2 >= -1
 c2472: - G + prod_6_3 <= 0
 c2473: - bit_6_3 + prod_6_3 <= 0
 c2474: - G - bit_6_3 + prod_6_3 >= -1
 c2475: - G + prod_6_4 <= 0
 c2476: - bit_6_4 + prod_6_4 <= 0
 c2477: - G - bit_6_4 + prod_6_4 >= -1
 c2478: Y_7 - bit_7_0 - 2 bit_7_1 - 4 bit_7_2 - 8 bit_7_3 - 16 bit_7_4 = 0
 c2479: - prod_7_0 - 2 prod_7_1 - 4 prod_7_2 - 8 prod_7_3 - 16 prod_7_4 + zprod_7 = 0
 c2480: - G + prod_7_0 <= 0
 c2481: - bit_7_0 + prod_7_0 <= 0
 c2482: - G - bit_7_0 + prod_7_0 >= -1
 c2483: - G + prod_7_1 <= 0
 c2484: - bit_7_1 + prod_7_1 <= 0
 c2485: - G - bit_7_1 + prod_7_1 >= -1
 c2486: - G + prod_7_2 <= 0
 c2487: - bit_7_2 + prod_7_2 <= 0
 c2488: - G - bit_7_2 + prod_7_2 >= -1
 c2489: - G + prod_7_3 <= 0
 c2490: - bit_7_3 + prod_7_3 <= 0
 c2491: - G - bit_7_3 + prod_7_3 >= -1
 c2492: - G + prod_7_4 <= 0
 c2493: - bit_7_4 + prod_7_4 <= 0
 c2494: - G - bit_7_4 + prod_7_4 >= -1
 c2495: Y_8 - bit_8_0 - 2 bit_8_1 - 4 bit_8_2 - 8 bit_8_3 - 16 bit_8_4 - 32 bit_8_5 = 0
 c2496: - prod_8_0 - 2 prod_8_1 - 4 prod_8_2 - 8 prod_8_3 - 16 prod_8_4 - 32 prod_8_5 + zprod_8 = 0
 c2497: - G + prod_8_0 <= 0
 c2498: - bit_8_0 + prod_8_0 <= 0
 c2499: - G - bit_8_0 + prod_8_0 >= -1
 c2500: - G + prod_8_1 <= 0
 c2501: - bit_8_1 + prod_8_1 <= 0
 c2502: - G - bit_8_1 + prod_8_1 >= -1
 c2503: - G + prod_8_2 <= 0
 c2504: - bit_8_2 + prod_8_2 <= 0
 c2505: - G - bit_8_2 + prod_8_2 >= -1
 c2506: - G + prod_8_3 <= 0
 c2507: - bit_8_3 + prod_8_3 <= 0
 c2508: - G - bit_8_3 + prod_8_3 >= -1
 c2509: - G + prod_8_4 <= 0
 c2510: - bit_8_4 + prod_8_4 <= 0
 c2511: - G - bit_8_4 + prod_8_4 >= -1
 c2512: - G + prod_8_5 <= 0
 c2513: - bit_8_5 + prod_8_5 <= 0
 c2514: - G - bit_8_5 + prod_8_5 >= -1
 c2515: Y_9 - bit_9_0 - 2 bit_9_1 - 4 bit_9_2 - 8 bit_9_3 - 16 bit_9_4 = 0
 c2516: - prod_9_0 - 2 prod_9_1 - 4 prod_9_2 - 8 prod_9_3 - 16 prod_9_4 + zprod_9 = 0
 c2517: - G + prod_9_0 <= 0
 c2518: - bit_9_0 + prod_9_0 <= 0
 c2519: - G - bit_9_0 + prod_9_0 >= -1
 c2520: - G + prod_9_1 <= 0
 c2521: - bit_9_1 + prod_9_1 <= 0
 c2522: - G - bit_9_1 + prod_9_1 >= -1
 c2523: - G + prod_9_2 <= 0
 c2524: - bit_9_2 + prod_9_2 <= 0
 c2525: - G - bit_9_2 + prod_9_2 >= -1
 c2526: - G + prod_9_3 <= 0
 c2527: - bit_9_3 + prod_9_3 <= 0
 c2528: - G - bit_9_3 + prod_9_3 >= -1
 c2529: - G + prod_9_4 <= 0
 c2530: - bit_9_4 + prod_9_4 <= 0
 c2531: - G - bit_9_4 + prod_9_4 >= -1
 c2532: Y_10 - bit_10_0 - 2 bit_10_1 - 4 bit_10_2 - 8 bit_10_3 - 16 bit_10_4 - 32 bit_10_5 = 0
 c2533: - prod_10_0 - 2 prod_10_1 - 4 prod_10_2 - 8 prod_10_3 - 16 prod_10_4 - 32 prod_10_5 + zprod_10 = 0
 c2534: - G + prod_10_0 <= 0
 c2535: - bit_10_0 + prod_10_0 <= 0
 c2536: - G - bit_10_0 + prod_10_0 >= -1
 c2537: - G + prod_10_1 <= 0
 c2538: - bit_10_1 + prod_10_1 <= 0
 c2539: - G - bit_10_1 + prod_10_1 >= -1
 c2540: - G + prod_10_2 <= 0
 c2541: - bit_10_2 + prod_10_2 <= 0
 c2542: - G - bit_10_2 + prod_10_2 >= -1
 c2543: - G + prod_10_3 <= 0
 c2544: - bit_10_3 + prod_10_3 <= 0
 c2545: - G - bit_10_3 + prod_10_3 >= -1
 c2546: - G + prod_10_4 <= 0
 c2547: - bit_10_4 + prod_10_4 <= 0
 c2548: - G - bit_10_4 + prod_10_4 >= -1
 c2549: - G + prod_10_5 <= 0
 c2550: - bit_10_5 + prod_10_5 <= 0
 c2551: - G - bit_10_5 + prod_10_5 >= -1
 c2552: - h_1_10 - h_1_2 - h_1_3 - h_1_4 - h_1_5 - h_1_6 - h_1_7 - h_1_8 - h_1_9 - h_2_10 - h_2_3 - h_2_4 - h_2_5 - h_2_6 - h_2_7 - h_2_8 - h_2_9 - h_3_10 - h_3_4 - h_3_5 - h_3_6 - h_3_7 - h_3_8 - h_3_9 - h_4_10 - h_4_5 - h_4_6 - h_4_7 - h_4_8 - h_4_9 - h_5_10 - h_5_6 - h_5_7 - h_5_8 - h_5_9 - h_6_10 - h_6_7 - h_6_8 - h_6_9 - h_7_10 - h_7_8 - h_7_9 - h_8_10 - h_8_9 - h_9_10 + 1.4285714285714286 zprod_1 + 0.45454545454545453 zprod_10 + 0.45454545454545453 zprod_2 + 0.20000000000000001 zprod_3 + 0.90909090909090906 zprod_4 + 0.41666666666666669 zprod_5 + 0.35714285714285715 zprod_6 + 10 zprod_7 + 0.29411764705882354 zprod_8 + 2 zprod_9 >= 0
Bounds
 0.22500000000000001 <= G <= 0.33750000000000002
 19.546878509634638 <= W_SP <= 118.00917044617553
 5 <= Y_1 <= 32
 0 <= Y_10 <= 17
 23 <= Y_2 <= 48
 13 <= Y_3 <= 41
 0 <= Y_4 <= 24
 0 <= Y_5 <= 32
 11 <= Y_6 <= 29
 4 <= Y_7 <= 5
 0 <= Y_8 <= 31
 0 <= Y_9 <= 19
 0 <= bit_10_0 <= 1
 0 <= bit_10_1 <= 1
 0 <= bit_10_2 <= 1
 0 <= bit_10_3 <= 1
 0 <= bit_10_4 <= 1
 0 <= bit_10_5 <= 1
 0 <= bit_1_0 <= 1
 0 <= bit_1_1 <= 1
 0 <= bit_1_2 <= 1
 0 <= bit_1_3 <= 1
 0 <= bit_1_4 <= 1
 0 <= bit_1_5 <= 1
 0 <= bit_2_0 <= 1
 0 <= bit_2_1 <= 1
 0 <= bit_2_2 <= 1
 0 <= bit_2_3 <= 1
 0 <= bit_2_4 <= 1
 0 <= bit_2_5 <= 1
 0 <= bit_3_0 <= 1
 0 <= bit_3_1 <= 1
 0 <= bit_3_2 <= 1
 0 <= bit_3_3 <= 1
 0 <= bit_3_4 <= 1
 0 <= bit_3_5 <= 1
 0 <= bit_4_0 <= 1
 0 <= bit_4_1 <= 1
 0 <= bit_4_2 <= 1
 0 <= bit_4_3 <= 1
 0 <= bit_4_4 <= 1
 0 <= bit_4_5 <= 1
 0 <= bit_5_0 <= 1
 0 <= bit_5_1 <= 1
 0 <= bit_5_2 <= 1
 0 <= bit_5_3 <= 1
 0 <= bit_5_4 <= 1
 0 <= bit_5_5 <= 1
 0 <= bit_6_0 <= 1
 0 <= bit_6_1 <= 1
 0 <= bit_6_2 <= 1
 0 <= bit_6_3 <= 1
 0 <= bit_6_4 <= 1
 0 <= bit_7_0 <= 1
 0 <= bit_7_1 <= 1
 0 <= bit_7_2 <= 1
 0 <= bit_7_3 <= 1
 0 <= bit_7_4 <= 1
 0 <= bit_8_0 <= 1
 0 <= bit_8_1 <= 1
 0 <= bit_8_2 <= 1
 0 <= bit_8_3 <= 1
 0 <= bit_8_4 <= 1
 0 <= bit_8_5 <= 1
 0 <= bit_9_0 <= 1
 0 <= bit_9_1 <= 1
 0 <= bit_9_2 <= 1
 0 <= bit_9_3 <= 1
 0 <= bit_9_4 <= 1
 0 <= conn_0_0_1 <= 10
 0 <= conn_0_0_10 <= 10
 0 <= conn_0_0_2 <= 10
 0 <= conn_0_0_3 <= 10
 0 <= conn_0_0_4 <= 10
 0 <= conn_0_0_5 <= 10
 0 <= conn_0_0_6 <= 10
 0 <= conn_0_0_7 <= 10
 0 <= conn_0_0_8 <= 10
 0 <= conn_0_0_9 <= 10
 0 <= conn_0_10_0 <= 10
 0 <= conn_0_10_1 <= 10
 0 <= conn_0_10_2 <= 10
 0 <= conn_0_10_3 <= 10
 0 <= conn_0_10_4 <= 10
 0 <= conn_0_10_5 <= 10
 0 <= conn_0_10_6 <= 10
 0 <= conn_0_10_7 <= 10
 0 <= conn_0_10_8 <= 10
 0 <= conn_0_10_9 <= 10
 0 <= conn_0_1_0 <= 10
 0 <= conn_0_1_10 <= 10
 0 <= conn_0_1_2 <= 10
 0 <= conn_0_1_3 <= 10
 0 <= conn_0_1_4 <= 10
 0 <= conn_0_1_5 <= 10
 0 <= conn_0_1_6 <= 10
 0 <= conn_0_1_7 <= 10
 0 <= conn_0_1_8 <= 10
 0 <= conn_0_1_9 <= 10
 0 <= conn_0_2_0 <= 10
 0 <= conn_0_2_1 <= 10
 0 <= conn_0_2_10 <= 10
 0 <= conn_0_2_3 <= 10
 0 <= conn_0_2_4 <= 10
 0 <= conn_0_2_5 <= 10
 0 <= conn_0_2_6 <= 10
 0 <= conn_0_2_7 <= 10
 0 <= conn_0_2_8 <= 10
 0 <= conn_0_2_9 <= 10
 0 <= conn_0_3_0 <= 10
 0 <= conn_0_3_1 <= 10
 0 <= conn_0_3_10 <= 10
 0 <= conn_0_3_2 <= 10
 0 <= conn_0_3_4 <= 10
 0 <= conn_0_3_5 <= 10
 0 <= conn_0_3_6 <= 10
 0 <= conn_0_3_7 <= 10
 0 <= conn_0_3_8 <= 10
 0 <= conn_0_3_9 <= 10
 0 <= conn_0_4_0 <= 10
 0 <= conn_0_4_1 <= 10
 0 <= conn_0_4_10 <= 10
 0 <= conn_0_4_2 <= 10
 0 <= conn_0_4_3 <= 10
 0 <= conn_0_4_5 <= 10
 0 <= conn_0_4_6 <= 10
 0 <= conn_0_4_7 <= 10
 0 <= conn_0_4_8 <= 10
 0 <= conn_0_4_9 <= 10
 0 <= conn_0_5_0 <= 10
 0 <= conn_0_5_1 <= 10
 0 <= conn_0_5_10 <= 10
 0 <= conn_0_5_2 <= 10
 0 <= conn_0_5_3 <= 10
 0 <= conn_0_5_4 <= 10
 0 <= conn_0_5_6 <= 10
 0 <= conn_0_5_7 <= 10
 0 <= conn_0_5_8 <= 10
 0 <= conn_0_5_9 <= 10
 0 <= conn_0_6_0 <= 10
 0 <= conn_0_6_1 <= 10
 0 <= conn_0_6_10 <= 10
 0 <= conn_0_6_2 <= 10
 0 <= conn_0_6_3 <= 10
 0 <= conn_0_6_4 <= 10
 0 <= conn_0_6_5 <= 10
 0 <= conn_0_6_7 <= 10
 0 <= conn_0_6_8 <= 10
 0 <= conn_0_6_9 <= 10
 0 <= conn_0_7_0 <= 10
 0 <= conn_0_7_1 <= 10
 0 <= conn_0_7_10 <= 10
 0 <= conn_0_7_2 <= 10
 0 <= conn_0_7_3 <= 10
 0 <= conn_0_7_4 <= 10
 0 <= conn_0_7_5 <= 10
 0 <= conn_0_7_6 <= 10
 0 <= conn_0_7_8 <= 10
 0 <= conn_0_7_9 <= 10
 0 <= conn_0_8_0 <= 10
 0 <= conn_0_8_1 <= 10
 0 <= conn_0_8_10 <= 10
 0 <= conn_0_8_2 <= 10
 0 <= conn_0_8_3 <= 10
 0 <= conn_0_8_4 <= 10
 0 <= conn_0_8_5 <= 10
 0 <= conn_0_8_6 <= 10
 0 <= conn_0_8_7 <= 10
 0 <= conn_0_8_9 <= 10
 0 <= conn_0_9_0 <= 10
 0 <= conn_0_9_1 <= 10
 0 <= conn_0_9_10 <= 10
 0 <= conn_0_9_2 <= 10
 0 <= conn_0_9_3 <= 10
 0 <= conn_0_9_4 <= 10
 0 <= conn_0_9_5 <= 10
 0 <= conn_0_9_6 <= 10
 0 <= conn_0_9_7 <= 10
 0 <= conn_0_9_8 <= 10
 0 <= d_0_1 <= 13
 0 <= d_0_10 <= 20
 0 <= d_0_2 <= 8
 0 <= d_0_3 <= 20
 0 <= d_0_4 <= 20
 0 <= d_0_5 <= 20
 0 <= d_0_6 <= 3
 0 <= d_0_7 <= 6
 0 <= d_0_8 <= 20
 0 <= d_0_9 <= 19
 0 <= e_1 <= 3.5714285714285712
 0 <= e_10 <= 1.2272727272727271
 0 <= e_2 <= 1.1818181818181817
 0 <= e_3 <= 1
 0 <= e_4 <= 2.9090909090909092
 0 <= e_5 <= 1
 0 <= e_6 <= 1
 0 <= e_7 <= 23
 0 <= e_8 <= 1
 0 <= e_9 <= 3.5999999999999996
 0 <= h_1_10 <= 6.7987012987012978
 0 <= h_1_2 <= 6.7532467532467528
 0 <= h_1_3 <= 5.5714285714285712
 0 <= h_1_4 <= 8.4805194805194795
 0 <= h_1_5 <= 6.4047619047619042
 0 <= h_1_6 <= 5.6071428571428568
 0 <= h_1_7 <= 28.571428571428569
 0 <= h_1_8 <= 5.8361344537815123
 0 <= h_1_9 <= 9.1714285714285708
 0 <= h_2_10 <= 4.4090909090909083
 0 <= h_2_3 <= 3.1818181818181817
 0 <= h_2_4 <= 6.0909090909090908
 0 <= h_2_5 <= 4.0151515151515147
 0 <= h_2_6 <= 3.2175324675324672
 0 <= h_2_7 <= 26.18181818181818
 0 <= h_2_8 <= 3.4465240641711228
 0 <= h_2_9 <= 6.7818181818181813
 0 <= h_3_10 <= 3.2272727272727271
 0 <= h_3_4 <= 4.9090909090909092
 0 <= h_3_5 <= 2.833333333333333
 0 <= h_3_6 <= 2.0357142857142856
 0 <= h_3_7 <= 25
 0 <= h_3_8 <= 2.2647058823529411
 0 <= h_3_9 <= 5.5999999999999996
 0 <= h_4_10 <= 6.1363636363636367
 0 <= h_4_5 <= 5.7424242424242422
 0 <= h_4_6 <= 4.9448051948051948
 0 <= h_4_7 <= 27.90909090909091
 0 <= h_4_8 <= 5.1737967914438503
 0 <= h_4_9 <= 8.5090909090909079
 0 <= h_5_10 <= 4.0606060606060606
 0 <= h_5_6 <= 2.8690476190476191
 0 <= h_5_7 <= 25.833333333333332
 0 <= h_5_8 <= 3.0980392156862742
 0 <= h_5_9 <= 6.4333333333333327
 0 <= h_6_10 <= 3.2629870129870131
 0 <= h_6_7 <= 25.035714285714285
 0 <= h_6_8 <= 2.3004201680672267
 0 <= h_6_9 <= 5.6357142857142852
 0 <= h_7_10 <= 26.227272727272727
 0 <= h_7_8 <= 25.264705882352942
 0 <= h_7_9 <= 28.600000000000001
 0 <= h_8_10 <= 3.4919786096256682
 0 <= h_8_9 <= 5.8647058823529408
 0 <= h_9_10 <= 6.8272727272727263
 0 <= load_0_1 <= 20
 0 <= load_0_10 <= 20
 0 <= load_0_2 <= 20
 0 <= load_0_3 <= 20
 0 <= load_0_4 <= 20
 0 <= load_0_5 <= 20
 0 <= load_0_6 <= 20
 0 <= load_0_7 <= 20
 0 <= load_0_8 <= 20
 0 <= load_0_9 <= 20
 0 <= mode_0_1 <= 1
 0 <= mode_0_10 <= 1
 0 <= mode_0_2 <= 1
 0 <= mode_0_3 <= 1
 0 <= mode_0_4 <= 1
 0 <= mode_0_5 <= 1
 0 <= mode_0_6 <= 1
 0 <= mode_0_7 <= 1
 0 <= mode_0_8 <= 1
 0 <= mode_0_9 <= 1
 0 <= ord_0_1 <= 10
 0 <= ord_0_10 <= 10
 0 <= ord_0_2 <= 10
 0 <= ord_0_3 <= 10
 0 <= ord_0_4 <= 10
 0 <= ord_0_5 <= 10
 0 <= ord_0_6 <= 10
 0 <= ord_0_7 <= 10
 0 <= ord_0_8 <= 10
 0 <= ord_0_9 <= 10
 0 <= p_0_1 <= 19
 0 <= p_0_10 <= 2
 0 <= p_0_2 <= 20
 0 <= p_0_3 <= 20
 0 <= p_0_4 <= 9
 0 <= p_0_5 <= 15
 0 <= p_0_6 <= 20
 0 <= p_0_7 <= 18
 0 <= p_0_8 <= 14
 0 <= p_0_9 <= 4
 0 <= prod_10_0 <= 0.33750000000000002
 0 <= prod_10_1 <= 0.33750000000000002
 0 <= prod_10_2 <= 0.33750000000000002
 0 <= prod_10_3 <= 0.33750000000000002
 0 <= prod_10_4 <= 0.33750000000000002
 0 <= prod_10_5 <= 0.33750000000000002
 0 <= prod_1_0 <= 0.33750000000000002
 0 <= prod_1_1 <= 0.33750000000000002
 0 <= prod_1_2 <= 0.33750000000000002
 0 <= prod_1_3 <= 0.33750000000000002
 0 <= prod_1_4 <= 0.33750000000000002
 0 <= prod_1_5 <= 0.33750000000000002
 0 <= prod_2_0 <= 0.33750000000000002
 0 <= prod_2_1 <= 0.33750000000000002
 0 <= prod_2_2 <= 0.33750000000000002
 0 <= prod_2_3 <= 0.33750000000000002
 0 <= prod_2_4 <= 0.33750000000000002
 0 <= prod_2_5 <= 0.33750000000000002
 0 <= prod_3_0 <= 0.33750000000000002
 0 <= prod_3_1 <= 0.33750000000000002
 0 <= prod_3_2 <= 0.33750000000000002
 0 <= prod_3_3 <= 0.33750000000000002
 0 <= prod_3_4 <= 0.33750000000000002
 0 <= prod_3_5 <= 0.33750000000000002
 0 <= prod_4_0 <= 0.33750000000000002
 0 <= prod_4_1 <= 0.33750000000000002
 0 <= prod_4_2 <= 0.33750000000000002
 0 <= prod_4_3 <= 0.33750000000000002
 0 <= prod_4_4 <= 0.33750000000000002
 0 <= prod_4_5 <= 0.33750000000000002
 0 <= prod_5_0 <= 0.33750000000000002
 0 <= prod_5_1 <= 0.33750000000000002
 0 <= prod_5_2 <= 0.33750000000000002
 0 <= prod_5_3 <= 0.33750000000000002
 0 <= prod_5_4 <= 0.33750000000000002
 0 <= prod_5_5 <= 0.33750000000000002
 0 <= prod_6_0 <= 0.33750000000000002
 0 <= prod_6_1 <= 0.33750000000000002
 0 <= prod_6_2 <= 0.33750000000000002
 0 <= prod_6_3 <= 0.33750000000000002
 0 <= prod_6_4 <= 0.33750000000000002
 0 <= prod_7_0 <= 0.33750000000000002
 0 <= prod_7_1 <= 0.33750000000000002
 0 <= prod_7_2 <= 0.33750000000000002
 0 <= prod_7_3 <= 0.33750000000000002
 0 <= prod_7_4 <= 0.33750000000000002
 0 <= prod_8_0 <= 0.33750000000000002
 0 <= prod_8_1 <= 0.33750000000000002
 0 <= prod_8_2 <= 0.33750000000000002
 0 <= prod_8_3 <= 0.33750000000000002
 0 <= prod_8_4 <= 0.33750000000000002
 0 <= prod_8_5 <= 0.33750000000000002
 0 <= prod_9_0 <= 0.33750000000000002
 0 <= prod_9_1 <= 0.33750000000000002
 0 <= prod_9_2 <= 0.33750000000000002
 0 <= prod_9_3 <= 0.33750000000000002
 0 <= prod_9_4 <= 0.33750000000000002
 0 <= r_1 <= 4.5714285714285712
 0 <= r_10 <= 2.2272727272727271
 0 <= r_2 <= 2.1818181818181817
 0 <= r_3 <= 1
 0 <= r_4 <= 3.9090909090909092
 0 <= r_5 <= 1.8333333333333333
 0 <= r_6 <= 1.0357142857142858
 0 <= r_7 <= 24
 0 <= r_8 <= 1.2647058823529411
 0 <= r_9 <= 4.5999999999999996
 0 <= r_max <= 24
 0 <= r_min <= 24
 0 <= x_0_0_1 <= 1
 0 <= x_0_0_10 <= 1
 0 <= x_0_0_2 <= 1
 0 <= x_0_0_3 <= 1
 0 <= x_0_0_4 <= 1
 0 <= x_0_0_5 <= 1
 0 <= x_0_0_6 <= 1
 0 <= x_0_0_7 <= 1
 0 <= x_0_0_8 <= 1
 0 <= x_0_0_9 <= 1
 0 <= x_0_10_0 <= 1
 0 <= x_0_10_1 <= 1
 0 <= x_0_10_2 <= 1
 0 <= x_0_10_3 <= 1
 0 <= x_0_10_4 <= 1
 0 <= x_0_10_5 <= 1
 0 <= x_0_10_6 <= 1
 0 <= x_0_10_7 <= 1
 0 <= x_0_10_8 <= 1
 0 <= x_0_10_9 <= 1
 0 <= x_0_1_0 <= 1
 0 <= x_0_1_10 <= 1
 0 <= x_0_1_2 <= 1
 0 <= x_0_1_3 <= 1
 0 <= x_0_1_4 <= 1
 0 <= x_0_1_5 <= 1
 0 <= x_0_1_6 <= 1
 0 <= x_0_1_7 <= 1
 0 <= x_0_1_8 <= 1
 0 <= x_0_1_9 <= 1
 0 <= x_0_2_0 <= 1
 0 <= x_0_2_1 <= 1
 0 <= x_0_2_10 <= 1
 0 <= x_0_2_3 <= 1
 0 <= x_0_2_4 <= 1
 0 <= x_0_2_5 <= 1
 0 <= x_0_2_6 <= 1
 0 <= x_0_2_7 <= 1
 0 <= x_0_2_8 <= 1
 0 <= x_0_2_9 <= 1
 0 <= x_0_3_0 <= 1
 0 <= x_0_3_1 <= 1
 0 <= x_0_3_10 <= 1
 0 <= x_0_3_2 <= 1
 0 <= x_0_3_4 <= 1
 0 <= x_0_3_5 <= 1
 0 <= x_0_3_6 <= 1
 0 <= x_0_3_7 <= 1
 0 <= x_0_3_8 <= 1
 0 <= x_0_3_9 <= 1
 0 <= x_0_4_0 <= 1
 0 <= x_0_4_1 <= 1
 0 <= x_0_4_10 <= 1
 0 <= x_0_4_2 <= 1
 0 <= x_0_4_3 <= 1
 0 <= x_0_4_5 <= 1
 0 <= x_0_4_6 <= 1
 0 <= x_0_4_7 <= 1
 0 <= x_0_4_8 <= 1
 0 <= x_0_4_9 <= 1
 0 <= x_0_5_0 <= 1
 0 <= x_0_5_1 <= 1
 0 <= x_0_5_10 <= 1
 0 <= x_0_5_2 <= 1
 0 <= x_0_5_3 <= 1
 0 <= x_0_5_4 <= 1
 0 <= x_0_5_6 <= 1
 0 <= x_0_5_7 <= 1
 0 <= x_0_5_8 <= 1
 0 <= x_0_5_9 <= 1
 0 <= x_0_6_0 <= 1
 0 <= x_0_6_1 <= 1
 0 <= x_0_6_10 <= 1
 0 <= x_0_6_2 <= 1
 0 <= x_0_6_3 <= 1
 0 <= x_0_6_4 <= 1
 0 <= x_0_6_5 <= 1
 0 <= x_0_6_7 <= 1
 0 <= x_0_6_8 <= 1
 0 <= x_0_6_9 <= 1
 0 <= x_0_7_0 <= 1
 0 <= x_0_7_1 <= 1
 0 <= x_0_7_10 <= 1
 0 <= x_0_7_2 <= 1
 0 <= x_0_7_3 <= 1
 0 <= x_0_7_4 <= 1
 0 <= x_0_7_5 <= 1
 0 <= x_0_7_6 <= 1
 0 <= x_0_7_8 <= 1
 0 <= x_0_7_9 <= 1
 0 <= x_0_8_0 <= 1
 0 <= x_0_8_1 <= 1
 0 <= x_0_8_10 <= 1
 0 <= x_0_8_2 <= 1
 0 <= x_0_8_3 <= 1
 0 <= x_0_8_4 <= 1
 0 <= x_0_8_5 <= 1
 0 <= x_0_8_6 <= 1
 0 <= x_0_8_7 <= 1
 0 <= x_0_8_9 <= 1
 0 <= x_0_9_0 <= 1
 0 <= x_0_9_1 <= 1
 0 <= x_0_9_10 <= 1
 0 <= x_0_9_2 <= 1
 0 <= x_0_9_3 <= 1
 0 <= x_0_9_4 <= 1
 0 <= x_0_9_5 <= 1
 0 <= x_0_9_6 <= 1
 0 <= x_0_9_7 <= 1
 0 <= x_0_9_8 <= 1
 0 <= z_0_1 <= 1
 0 <= z_0_10 <= 1
 0 <= z_0_2 <= 1
 0 <= z_0_3 <= 1
 0 <= z_0_4 <= 1
 0 <= z_0_5 <= 1
 0 <= z_0_6 <= 1
 0 <= z_0_7 <= 1
 0 <= z_0_8 <= 1
 0 <= z_0_9 <= 1
 0 <= zprod_1 <= 32
 0 <= zprod_10 <= 49
 0 <= zprod_2 <= 48
 0 <= zprod_3 <= 50
 0 <= zprod_4 <= 43
 0 <= zprod_5 <= 44
 0 <= zprod_6 <= 29
 0 <= zprod_7 <= 24
 0 <= zprod_8 <= 43
 0 <= zprod_9 <= 23
Generals
 Y_1
 Y_10
 Y_2
 Y_3
 Y_4
 Y_5
 Y_6
 Y_7
 Y_8
 Y_9
 d_0_1
 d_0_10
 d_0_2
 d_0_3
 d_0_4
 d_0_5
 d_0_6
 d_0_7
 d_0_8
 d_0_9
 load_0_1
 load_0_10
 load_0_2
 load_0_3
 load_0_4
 load_0_5
 load_0_6
 load_0_7
 load_0_8
 load_0_9
 p_0_1
 p_0_10
 p_0_2
 p_0_3
 p_0_4
 p_0_5
 p_0_6
 p_0_7
 p_0_8
 p_0_9
Binaries
 bit_10_0
 bit_10_1
 bit_10_2
 bit_10_3
 bit_10_4
 bit_10_5
 bit_1_0
 bit_1_1
 bit_1_2
 bit_1_3
 bit_1_4
 bit_1_5
 bit_2_0
 bit_2_1
 bit_2_2
 bit_2_3
 bit_2_4
 bit_2_5
 bit_3_0
 bit_3_1
 bit_3_2
 bit_3_3
 bit_3_4
 bit_3_5
 bit_4_0
 bit_4_1
 bit_4_2
 bit_4_3
 bit_4_4
 bit_4_5
 bit_5_0
 bit_5_1
 bit_5_2
 bit_5_3
 bit_5_4
 bit_5_5
 bit_6_0
 bit_6_1
 bit_6_2
 bit_6_3
 bit_6_4
 bit_7_0
 bit_7_1
 bit_7_2
 bit_7_3
 bit_7_4
 bit_8_0
 bit_8_1
 bit_8_2
 bit_8_3
 bit_8_4
 bit_8_5
 bit_9_0
 bit_9_1
 bit_9_2
 bit_9_3
 bit_9_4
 mode_0_1
 mode_0_10
 mode_0_2
 mode_0_3
 mode_0_4
 mode_0_5
 mode_0_6
 mode_0_7
 mode_0_8
 mode_0_9
 x_0_0_1
 x_0_0_10
 x_0_0_2
 x_0_0_3
 x_0_0_4
 x_0_0_5
 x_0_0_6
 x_0_0_7
 x_0_0_8
 x_0_0_9
 x_0_10_0
 x_0_10_1
 x_0_10_2
 x_0_10_3
 x_0_10_4
 x_0_10_5
 x_0_10_6
 x_0_10_7
 x_0_10_8
 x_0_10_9
 x_0_1_0
 x_0_1_10
 x_0_1_2
 x_0_1_3
 x_0_1_4
 x_0_1_5
 x_0_1_6
 x_0_1_7
 x_0_1_8
 x_0_1_9
 x_0_2_0
 x_0_2_1
 x_0_2_10
 x_0_2_3
 x_0_2_4
 x_0_2_5
 x_0_2_6
 x_0_2_7
 x_0_2_8
 x_0_2_9
 x_0_3_0
 x_0_3_1
 x_0_3_10
 x_0_3_2
 x_0_3_4
 x_0_3_5
 x_0_3_6
 x_0_3_7
 x_0_3_8
 x_0_3_9
 x_0_4_0
 x_0_4_1
 x_0_4_10
 x_0_4_2
 x_0_4_3
 x_0_4_5
 x_0_4_6
 x_0_4_7
 x_0_4_8
 x_0_4_9
 x_0_5_0
 x_0_5_1
 x_0_5_10
 x_0_5_2
 x_0_5_3
 x_0_5_4
 x_0_5_6
 x_0_5_7
 x_0_5_8
 x_0_5_9
 x_0_6_0
 x_0_6_1
 x_0_6_10
 x_0_6_2
 x_0_6_3
 x_0_6_4
 x_0_6_5
 x_0_6_7
 x_0_6_8
 x_0_6_9
 x_0_7_0
 x_0_7_1
 x_0_7_10
 x_0_7_2
 x_0_7_3
 x_0_7_4
 x_0_7_5
 x_0_7_6
 x_0_7_8
 x_0_7_9
 x_0_8_0
 x_0_8_1
 x_0_8_10
 x_0_8_2
 x_0_8_3
 x_0_8_4
 x_0_8_5
 x_0_8_6
 x_0_8_7
 x_0_8_9
 x_0_9_0
 x_0_9_1
 x_0_9_10
 x_0_9_2
 x_0_9_3
 x_0_9_4
 x_0_9_5
 x_0_9_6
 x_0_9_7
 x_0_9_8
 z_0_1
 z_0_10
 z_0_2
 z_0_3
 z_0_4
 z_0_5
 z_0_6
 z_0_7
 z_0_8
 z_0_9
End
