\ ExactEBRP compact MILP generated from C++ command-line runner
Minimize
 obj: G + 0.14999999999999999 e_1 + 0.14999999999999999 e_2
Subject To
 c1: h_1_2 <= 0
 c2: h_1_2 >= 0
 c3: h_1_2 <= 0
 c4: r_1 - r_2 <= 0
 c5: - r_1 + r_2 <= 0
 c6: r_1 - r_2 <= 0
 c7: - r_1 + r_2 <= 0
 c8: G + 0.14999999999999999 e_1 + 0.14999999999999999 e_2 <= 0.01
 c9: 1.7999999999999998 e_1 + 1.7999999999999998 e_2 + h_1_2 <= 0.12
 c10: e_1 + e_2 >= 0
 c11: e_1 <= 0.066666666666666666
 c12: e_2 <= 0.066666666666666666
 c13: W_SP >= -0
 c14: W_SP - 6 e_1 - 6 e_2 - 4 r_1 - 4 r_2 >= -24
 c15: W_SP - 6 e_1 - 6 e_2 <= -0
 c16: W_SP - 4 r_1 - 4 r_2 <= -0
 c17: 0.29999999999999999 W_SP + h_1_2 - 0.02 r_1 - 0.02 r_2 <= 0
 c18: 0 G <= -1
 c19: x_0_0_1 + x_0_0_2 - x_0_1_0 - x_0_2_0 = 0
 c20: x_0_0_1 + x_0_0_2 <= 1
 c21: x_0_0_1 + x_0_2_1 - z_0_1 = 0
 c22: x_0_1_0 + x_0_1_2 - z_0_1 = 0
 c23: x_0_0_2 + x_0_1_2 - z_0_2 = 0
 c24: x_0_2_0 + x_0_2_1 - z_0_2 = 0
 c25: conn_0_0_1 - 2 x_0_0_1 <= 0
 c26: conn_0_0_2 - 2 x_0_0_2 <= 0
 c27: conn_0_1_0 - 2 x_0_1_0 <= 0
 c28: conn_0_1_2 - 2 x_0_1_2 <= 0
 c29: conn_0_2_0 - 2 x_0_2_0 <= 0
 c30: conn_0_2_1 - 2 x_0_2_1 <= 0
 c31: conn_0_0_1 - conn_0_1_0 - conn_0_1_2 + conn_0_2_1 - z_0_1 = 0
 c32: conn_0_0_2 + conn_0_1_2 - conn_0_2_0 - conn_0_2_1 - z_0_2 = 0
 c33: conn_0_0_1 + conn_0_0_2 - conn_0_1_0 - conn_0_2_0 - z_0_1 - z_0_2 = 0
 c34: z_0_1 <= 1
 c35: z_0_2 <= 1
 c36: Y_1 + Y_2 <= 3
 c37: Y_1 + Y_2 >= 0
 c38: z_0_1 <= 0
 c39: z_0_2 <= 0
 c40: d_0_1 <= 0
 c41: d_0_2 <= 0
 c42: ord_0_1 - z_0_1 >= 0
 c43: ord_0_1 - 2 z_0_1 <= 0
 c44: ord_0_2 - z_0_2 >= 0
 c45: ord_0_2 - 2 z_0_2 <= 0
 c46: ord_0_1 - ord_0_2 + 2 x_0_1_2 <= 1
 c47: - ord_0_1 + ord_0_2 + 2 x_0_2_1 <= 1
 c48: p_0_1 <= 0
 c49: d_0_1 - 3 z_0_1 <= 0
 c50: mode_0_1 - z_0_1 <= 0
 c51: p_0_1 <= 0
 c52: d_0_1 + 3 mode_0_1 - 3 z_0_1 <= 0
 c53: d_0_1 + p_0_1 - z_0_1 >= 0
 c54: load_0_1 - 3 z_0_1 <= 0
 c55: p_0_2 - 3 z_0_2 <= 0
 c56: d_0_2 <= 0
 c57: mode_0_2 - z_0_2 <= 0
 c58: - 3 mode_0_2 + p_0_2 <= 0
 c59: d_0_2 <= 0
 c60: d_0_2 + p_0_2 - z_0_2 >= 0
 c61: load_0_2 - 3 z_0_2 <= 0
 c62: d_0_1 + load_0_1 - p_0_1 + 3 x_0_0_1 <= 3
 c63: d_0_1 + load_0_1 - p_0_1 - 3 x_0_0_1 >= -3
 c64: d_0_2 + load_0_2 - p_0_2 + 3 x_0_0_2 <= 3
 c65: d_0_2 + load_0_2 - p_0_2 - 3 x_0_0_2 >= -3
 c66: d_0_2 - load_0_1 + load_0_2 - p_0_2 + 3 x_0_1_2 <= 3
 c67: d_0_2 - load_0_1 + load_0_2 - p_0_2 - 3 x_0_1_2 >= -3
 c68: d_0_1 + load_0_1 - load_0_2 - p_0_1 + 3 x_0_2_1 <= 3
 c69: d_0_1 + load_0_1 - load_0_2 - p_0_1 - 3 x_0_2_1 >= -3
 c70: - d_0_1 - d_0_2 + p_0_1 + p_0_2 >= 0
 c71: x_0_0_1 + x_0_0_2 + x_0_1_0 + x_0_1_2 + x_0_2_0 + x_0_2_1 <= 0
 c72: z_0_1 + z_0_2 <= 1
 c73: Y_1 - d_0_1 + p_0_1 = 0
 c74: - Y_1 + r_1 = 0
 c75: e_1 - r_1 >= -1
 c76: e_1 + r_1 >= 1
 c77: Y_2 - d_0_2 + p_0_2 = 3
 c78: - Y_2 + r_2 = 0
 c79: e_2 - r_2 >= -1
 c80: e_2 + r_2 >= 1
 c81: Y_1 - 3 z_0_1 <= 0
 c82: - Y_1 <= 0
 c83: Y_2 <= 3
 c84: - Y_2 - 3 z_0_2 <= -3
 c85: 0 G <= 0
 c86: h_1_2 - r_1 + r_2 >= 0
 c87: h_1_2 + r_1 - r_2 >= 0
 c88: state_g_1_0 >= 0
 c89: state_g_1_0 <= 0
 c90: state_g_1_1 >= 0
 c91: state_g_1_1 <= 0
 c92: state_g_1_2 >= 0
 c93: state_g_1_2 <= 0
 c94: state_g_1_3 >= 0
 c95: state_g_1_3 <= 0
 c96: d_0_1 + p_0_1 - state_1_1 - 2 state_1_2 - 3 state_1_3 = 0
 c97: state_1_0 + z_0_1 = 1
 c98: state_1_0 + state_1_1 + state_1_2 + state_1_3 = 1
 c99: Y_1 - state_1_1 - 2 state_1_2 - 3 state_1_3 = 0
 c100: - G + state_g_1_0 + state_g_1_1 + state_g_1_2 + state_g_1_3 = 0
 c101: - state_g_1_1 - 2 state_g_1_2 - 3 state_g_1_3 + zprod_1 = 0
 c102: state_g_2_0 >= 0
 c103: state_g_2_0 <= 0
 c104: state_g_2_1 >= 0
 c105: state_g_2_1 <= 0
 c106: state_g_2_2 >= 0
 c107: state_g_2_2 <= 0
 c108: state_g_2_3 >= 0
 c109: state_g_2_3 <= 0
 c110: d_0_2 + p_0_2 - 3 state_2_0 - 2 state_2_1 - state_2_2 = 0
 c111: state_2_3 + z_0_2 = 1
 c112: state_2_0 + state_2_1 + state_2_2 + state_2_3 = 1
 c113: Y_2 - state_2_1 - 2 state_2_2 - 3 state_2_3 = 0
 c114: - G + state_g_2_0 + state_g_2_1 + state_g_2_2 + state_g_2_3 = 0
 c115: - state_g_2_1 - 2 state_g_2_2 - 3 state_g_2_3 + zprod_2 = 0
 c116: - h_1_2 + 2 zprod_1 + 2 zprod_2 >= 0
Bounds
 0 <= G <= 0
 0 <= W_SP <= 24
 0 <= Y_1 <= 3
 0 <= Y_2 <= 3
 0 <= conn_0_0_1 <= 2
 0 <= conn_0_0_2 <= 2
 0 <= conn_0_1_0 <= 2
 0 <= conn_0_1_2 <= 2
 0 <= conn_0_2_0 <= 2
 0 <= conn_0_2_1 <= 2
 0 <= d_0_1 <= 3
 0 <= d_0_2 <= 0
 0 <= e_1 <= 2
 0 <= e_2 <= 2
 0 <= h_1_2 <= 6
 0 <= load_0_1 <= 3
 0 <= load_0_2 <= 3
 0 <= mode_0_1 <= 1
 0 <= mode_0_2 <= 1
 0 <= ord_0_1 <= 2
 0 <= ord_0_2 <= 2
 0 <= p_0_1 <= 0
 0 <= p_0_2 <= 3
 0 <= r_1 <= 3
 0 <= r_2 <= 3
 0 <= r_max <= 3
 0 <= r_min <= 3
 0 <= state_1_0 <= 1
 0 <= state_1_1 <= 1
 0 <= state_1_2 <= 1
 0 <= state_1_3 <= 1
 0 <= state_2_0 <= 1
 0 <= state_2_1 <= 1
 0 <= state_2_2 <= 1
 0 <= state_2_3 <= 1
 0 <= state_g_1_0 <= 0
 0 <= state_g_1_1 <= 0
 0 <= state_g_1_2 <= 0
 0 <= state_g_1_3 <= 0
 0 <= state_g_2_0 <= 0
 0 <= state_g_2_1 <= 0
 0 <= state_g_2_2 <= 0
 0 <= state_g_2_3 <= 0
 0 <= x_0_0_1 <= 1
 0 <= x_0_0_2 <= 1
 0 <= x_0_1_0 <= 1
 0 <= x_0_1_2 <= 1
 0 <= x_0_2_0 <= 1
 0 <= x_0_2_1 <= 1
 0 <= z_0_1 <= 1
 0 <= z_0_2 <= 1
 0 <= zprod_1 <= 3
 0 <= zprod_2 <= 3
Generals
 Y_1
 Y_2
 d_0_1
 d_0_2
 load_0_1
 load_0_2
 p_0_1
 p_0_2
Binaries
 mode_0_1
 mode_0_2
 state_1_0
 state_1_1
 state_1_2
 state_1_3
 state_2_0
 state_2_1
 state_2_2
 state_2_3
 x_0_0_1
 x_0_0_2
 x_0_1_0
 x_0_1_2
 x_0_2_0
 x_0_2_1
 z_0_1
 z_0_2
End
