\ ExactEBRP compact MILP generated from C++ command-line runner
Minimize
 obj: G + 0.14999999999999999 e_1 + 0.14999999999999999 e_2 + 0.14999999999999999 e_3
Subject To
 c1: h_1_2 + h_1_3 + h_2_3 - 2 r_1 - 2 r_2 - 2 r_3 <= 0
 c2: h_1_2 + h_1_3 + h_2_3 >= 0
 c3: 2 h_1_2 - 2 r_1 - 2 r_2 - 2 r_3 <= 0
 c4: 2 h_1_3 - 2 r_1 - 2 r_2 - 2 r_3 <= 0
 c5: 2 h_2_3 - 2 r_1 - 2 r_2 - 2 r_3 <= 0
 c6: r_1 - r_2 <= 3.833333333333333
 c7: - r_1 + r_2 <= 3.833333333333333
 c8: r_1 - r_3 <= 3.833333333333333
 c9: - r_1 + r_3 <= 3.833333333333333
 c10: r_2 - r_3 <= 3.833333333333333
 c11: - r_2 + r_3 <= 3.833333333333333
 c12: - 4 r_2 - 2 r_3 <= 0
 c13: - 4 r_1 - 2 r_3 <= 0
 c14: - 2 r_2 - 4 r_3 <= 0
 c15: - 4 r_1 - 2 r_2 <= 0
 c16: - 2 r_1 - 4 r_3 <= 0
 c17: - 2 r_1 - 4 r_2 <= 0
 c18: e_1 + e_2 + e_3 >= 1
 c19: x_0_0_1 + x_0_0_2 + x_0_0_3 - x_0_1_0 - x_0_2_0 - x_0_3_0 = 0
 c20: x_0_0_1 + x_0_0_2 + x_0_0_3 <= 1
 c21: x_0_0_1 + x_0_2_1 + x_0_3_1 - z_0_1 = 0
 c22: x_0_1_0 + x_0_1_2 + x_0_1_3 - z_0_1 = 0
 c23: x_0_0_2 + x_0_1_2 + x_0_3_2 - z_0_2 = 0
 c24: x_0_2_0 + x_0_2_1 + x_0_2_3 - z_0_2 = 0
 c25: x_0_0_3 + x_0_1_3 + x_0_2_3 - z_0_3 = 0
 c26: x_0_3_0 + x_0_3_1 + x_0_3_2 - z_0_3 = 0
 c27: x_1_0_1 + x_1_0_2 + x_1_0_3 - x_1_1_0 - x_1_2_0 - x_1_3_0 = 0
 c28: x_1_0_1 + x_1_0_2 + x_1_0_3 <= 1
 c29: x_1_0_1 + x_1_2_1 + x_1_3_1 - z_1_1 = 0
 c30: x_1_1_0 + x_1_1_2 + x_1_1_3 - z_1_1 = 0
 c31: x_1_0_2 + x_1_1_2 + x_1_3_2 - z_1_2 = 0
 c32: x_1_2_0 + x_1_2_1 + x_1_2_3 - z_1_2 = 0
 c33: x_1_0_3 + x_1_1_3 + x_1_2_3 - z_1_3 = 0
 c34: x_1_3_0 + x_1_3_1 + x_1_3_2 - z_1_3 = 0
 c35: conn_0_0_1 - 3 x_0_0_1 <= 0
 c36: conn_0_0_2 - 3 x_0_0_2 <= 0
 c37: conn_0_0_3 - 3 x_0_0_3 <= 0
 c38: conn_0_1_0 - 3 x_0_1_0 <= 0
 c39: conn_0_1_2 - 3 x_0_1_2 <= 0
 c40: conn_0_1_3 - 3 x_0_1_3 <= 0
 c41: conn_0_2_0 - 3 x_0_2_0 <= 0
 c42: conn_0_2_1 - 3 x_0_2_1 <= 0
 c43: conn_0_2_3 - 3 x_0_2_3 <= 0
 c44: conn_0_3_0 - 3 x_0_3_0 <= 0
 c45: conn_0_3_1 - 3 x_0_3_1 <= 0
 c46: conn_0_3_2 - 3 x_0_3_2 <= 0
 c47: conn_0_0_1 - conn_0_1_0 - conn_0_1_2 - conn_0_1_3 + conn_0_2_1 + conn_0_3_1 - z_0_1 = 0
 c48: conn_0_0_2 + conn_0_1_2 - conn_0_2_0 - conn_0_2_1 - conn_0_2_3 + conn_0_3_2 - z_0_2 = 0
 c49: conn_0_0_3 + conn_0_1_3 + conn_0_2_3 - conn_0_3_0 - conn_0_3_1 - conn_0_3_2 - z_0_3 = 0
 c50: conn_0_0_1 + conn_0_0_2 + conn_0_0_3 - conn_0_1_0 - conn_0_2_0 - conn_0_3_0 - z_0_1 - z_0_2 - z_0_3 = 0
 c51: conn_1_0_1 - 3 x_1_0_1 <= 0
 c52: conn_1_0_2 - 3 x_1_0_2 <= 0
 c53: conn_1_0_3 - 3 x_1_0_3 <= 0
 c54: conn_1_1_0 - 3 x_1_1_0 <= 0
 c55: conn_1_1_2 - 3 x_1_1_2 <= 0
 c56: conn_1_1_3 - 3 x_1_1_3 <= 0
 c57: conn_1_2_0 - 3 x_1_2_0 <= 0
 c58: conn_1_2_1 - 3 x_1_2_1 <= 0
 c59: conn_1_2_3 - 3 x_1_2_3 <= 0
 c60: conn_1_3_0 - 3 x_1_3_0 <= 0
 c61: conn_1_3_1 - 3 x_1_3_1 <= 0
 c62: conn_1_3_2 - 3 x_1_3_2 <= 0
 c63: conn_1_0_1 - conn_1_1_0 - conn_1_1_2 - conn_1_1_3 + conn_1_2_1 + conn_1_3_1 - z_1_1 = 0
 c64: conn_1_0_2 + conn_1_1_2 - conn_1_2_0 - conn_1_2_1 - conn_1_2_3 + conn_1_3_2 - z_1_2 = 0
 c65: conn_1_0_3 + conn_1_1_3 + conn_1_2_3 - conn_1_3_0 - conn_1_3_1 - conn_1_3_2 - z_1_3 = 0
 c66: conn_1_0_1 + conn_1_0_2 + conn_1_0_3 - conn_1_1_0 - conn_1_2_0 - conn_1_3_0 - z_1_1 - z_1_2 - z_1_3 = 0
 c67: z_0_1 + z_1_1 <= 1
 c68: z_0_2 + z_1_2 <= 1
 c69: z_0_3 + z_1_3 <= 1
 c70: Y_1 + Y_2 + Y_3 <= 7
 c71: Y_1 + Y_2 + Y_3 >= 2
 c72: d_0_1 - p_0_2 - p_0_3 <= 0
 c73: d_0_2 - p_0_1 - p_0_3 <= 0
 c74: d_0_3 - p_0_1 - p_0_2 <= 0
 c75: d_1_1 - p_1_2 - p_1_3 <= 0
 c76: d_1_2 - p_1_1 - p_1_3 <= 0
 c77: d_1_3 - p_1_1 - p_1_2 <= 0
 c78: ord_0_1 - z_0_1 >= 0
 c79: ord_0_1 - 3 z_0_1 <= 0
 c80: ord_0_2 - z_0_2 >= 0
 c81: ord_0_2 - 3 z_0_2 <= 0
 c82: ord_0_3 - z_0_3 >= 0
 c83: ord_0_3 - 3 z_0_3 <= 0
 c84: ord_0_1 - ord_0_2 + 3 x_0_1_2 <= 2
 c85: ord_0_1 - ord_0_3 + 3 x_0_1_3 <= 2
 c86: - ord_0_1 + ord_0_2 + 3 x_0_2_1 <= 2
 c87: ord_0_2 - ord_0_3 + 3 x_0_2_3 <= 2
 c88: - ord_0_1 + ord_0_3 + 3 x_0_3_1 <= 2
 c89: - ord_0_2 + ord_0_3 + 3 x_0_3_2 <= 2
 c90: ord_1_1 - z_1_1 >= 0
 c91: ord_1_1 - 3 z_1_1 <= 0
 c92: ord_1_2 - z_1_2 >= 0
 c93: ord_1_2 - 3 z_1_2 <= 0
 c94: ord_1_3 - z_1_3 >= 0
 c95: ord_1_3 - 3 z_1_3 <= 0
 c96: ord_1_1 - ord_1_2 + 3 x_1_1_2 <= 2
 c97: ord_1_1 - ord_1_3 + 3 x_1_1_3 <= 2
 c98: - ord_1_1 + ord_1_2 + 3 x_1_2_1 <= 2
 c99: ord_1_2 - ord_1_3 + 3 x_1_2_3 <= 2
 c100: - ord_1_1 + ord_1_3 + 3 x_1_3_1 <= 2
 c101: - ord_1_2 + ord_1_3 + 3 x_1_3_2 <= 2
 c102: p_0_1 <= 0
 c103: d_0_1 <= 0
 c104: mode_0_1 - z_0_1 <= 0
 c105: p_0_1 <= 0
 c106: d_0_1 <= 0
 c107: d_0_1 + p_0_1 - z_0_1 >= 0
 c108: load_0_1 - 2 z_0_1 <= 0
 c109: p_0_2 - 2 z_0_2 <= 0
 c110: d_0_2 - 2 z_0_2 <= 0
 c111: mode_0_2 - z_0_2 <= 0
 c112: - 2 mode_0_2 + p_0_2 <= 0
 c113: d_0_2 + 2 mode_0_2 - 2 z_0_2 <= 0
 c114: d_0_2 + p_0_2 - z_0_2 >= 0
 c115: load_0_2 - 2 z_0_2 <= 0
 c116: p_0_3 - 2 z_0_3 <= 0
 c117: d_0_3 <= 0
 c118: mode_0_3 - z_0_3 <= 0
 c119: - 2 mode_0_3 + p_0_3 <= 0
 c120: d_0_3 <= 0
 c121: d_0_3 + p_0_3 - z_0_3 >= 0
 c122: load_0_3 - 2 z_0_3 <= 0
 c123: d_0_1 + load_0_1 - p_0_1 + 2 x_0_0_1 <= 2
 c124: d_0_1 + load_0_1 - p_0_1 - 2 x_0_0_1 >= -2
 c125: d_0_2 + load_0_2 - p_0_2 + 2 x_0_0_2 <= 2
 c126: d_0_2 + load_0_2 - p_0_2 - 2 x_0_0_2 >= -2
 c127: d_0_3 + load_0_3 - p_0_3 + 2 x_0_0_3 <= 2
 c128: d_0_3 + load_0_3 - p_0_3 - 2 x_0_0_3 >= -2
 c129: d_0_2 - load_0_1 + load_0_2 - p_0_2 + 2 x_0_1_2 <= 2
 c130: d_0_2 - load_0_1 + load_0_2 - p_0_2 - 2 x_0_1_2 >= -2
 c131: d_0_3 - load_0_1 + load_0_3 - p_0_3 + 2 x_0_1_3 <= 2
 c132: d_0_3 - load_0_1 + load_0_3 - p_0_3 - 2 x_0_1_3 >= -2
 c133: d_0_1 + load_0_1 - load_0_2 - p_0_1 + 2 x_0_2_1 <= 2
 c134: d_0_1 + load_0_1 - load_0_2 - p_0_1 - 2 x_0_2_1 >= -2
 c135: d_0_3 - load_0_2 + load_0_3 - p_0_3 + 2 x_0_2_3 <= 2
 c136: d_0_3 - load_0_2 + load_0_3 - p_0_3 - 2 x_0_2_3 >= -2
 c137: d_0_1 + load_0_1 - load_0_3 - p_0_1 + 2 x_0_3_1 <= 2
 c138: d_0_1 + load_0_1 - load_0_3 - p_0_1 - 2 x_0_3_1 >= -2
 c139: d_0_2 + load_0_2 - load_0_3 - p_0_2 + 2 x_0_3_2 <= 2
 c140: d_0_2 + load_0_2 - load_0_3 - p_0_2 - 2 x_0_3_2 >= -2
 c141: - d_0_1 - d_0_2 - d_0_3 + p_0_1 + p_0_2 + p_0_3 >= 0
 c142: x_0_0_1 + x_0_0_2 + x_0_0_3 + x_0_1_0 + x_0_1_2 + x_0_1_3 + x_0_2_0 + x_0_2_1 + x_0_2_3 + x_0_3_0 + x_0_3_1 + x_0_3_2 <= 100
 c143: p_1_1 <= 0
 c144: d_1_1 <= 0
 c145: mode_1_1 - z_1_1 <= 0
 c146: p_1_1 <= 0
 c147: d_1_1 <= 0
 c148: d_1_1 + p_1_1 - z_1_1 >= 0
 c149: load_1_1 - 3 z_1_1 <= 0
 c150: p_1_2 - 3 z_1_2 <= 0
 c151: d_1_2 - 2 z_1_2 <= 0
 c152: mode_1_2 - z_1_2 <= 0
 c153: - 3 mode_1_2 + p_1_2 <= 0
 c154: d_1_2 + 2 mode_1_2 - 2 z_1_2 <= 0
 c155: d_1_2 + p_1_2 - z_1_2 >= 0
 c156: load_1_2 - 3 z_1_2 <= 0
 c157: p_1_3 - 3 z_1_3 <= 0
 c158: d_1_3 <= 0
 c159: mode_1_3 - z_1_3 <= 0
 c160: - 3 mode_1_3 + p_1_3 <= 0
 c161: d_1_3 <= 0
 c162: d_1_3 + p_1_3 - z_1_3 >= 0
 c163: load_1_3 - 3 z_1_3 <= 0
 c164: d_1_1 + load_1_1 - p_1_1 + 3 x_1_0_1 <= 3
 c165: d_1_1 + load_1_1 - p_1_1 - 3 x_1_0_1 >= -3
 c166: d_1_2 + load_1_2 - p_1_2 + 3 x_1_0_2 <= 3
 c167: d_1_2 + load_1_2 - p_1_2 - 3 x_1_0_2 >= -3
 c168: d_1_3 + load_1_3 - p_1_3 + 3 x_1_0_3 <= 3
 c169: d_1_3 + load_1_3 - p_1_3 - 3 x_1_0_3 >= -3
 c170: d_1_2 - load_1_1 + load_1_2 - p_1_2 + 3 x_1_1_2 <= 3
 c171: d_1_2 - load_1_1 + load_1_2 - p_1_2 - 3 x_1_1_2 >= -3
 c172: d_1_3 - load_1_1 + load_1_3 - p_1_3 + 3 x_1_1_3 <= 3
 c173: d_1_3 - load_1_1 + load_1_3 - p_1_3 - 3 x_1_1_3 >= -3
 c174: d_1_1 + load_1_1 - load_1_2 - p_1_1 + 3 x_1_2_1 <= 3
 c175: d_1_1 + load_1_1 - load_1_2 - p_1_1 - 3 x_1_2_1 >= -3
 c176: d_1_3 - load_1_2 + load_1_3 - p_1_3 + 3 x_1_2_3 <= 3
 c177: d_1_3 - load_1_2 + load_1_3 - p_1_3 - 3 x_1_2_3 >= -3
 c178: d_1_1 + load_1_1 - load_1_3 - p_1_1 + 3 x_1_3_1 <= 3
 c179: d_1_1 + load_1_1 - load_1_3 - p_1_1 - 3 x_1_3_1 >= -3
 c180: d_1_2 + load_1_2 - load_1_3 - p_1_2 + 3 x_1_3_2 <= 3
 c181: d_1_2 + load_1_2 - load_1_3 - p_1_2 - 3 x_1_3_2 >= -3
 c182: - d_1_1 - d_1_2 - d_1_3 + p_1_1 + p_1_2 + p_1_3 >= 0
 c183: x_1_0_1 + x_1_0_2 + x_1_0_3 + x_1_1_0 + x_1_1_2 + x_1_1_3 + x_1_2_0 + x_1_2_1 + x_1_2_3 + x_1_3_0 + x_1_3_1 + x_1_3_2 <= 100
 c184: 103 z_0_1 + 103 z_0_2 <= 303
 c185: 103 z_0_1 + 103 z_0_3 <= 303
 c186: 103 z_0_2 + 103 z_0_3 <= 303
 c187: 104 z_0_1 + 104 z_0_2 + 104 z_0_3 <= 408
 c188: 103 z_1_1 + 103 z_1_2 <= 303
 c189: 103 z_1_1 + 103 z_1_3 <= 303
 c190: 103 z_1_2 + 103 z_1_3 <= 303
 c191: 104 z_1_1 + 104 z_1_2 + 104 z_1_3 <= 408
 c192: Y_1 - d_0_1 - d_1_1 + p_0_1 + p_1_1 = 0
 c193: - Y_1 + r_1 = 0
 c194: e_1 - r_1 >= -1
 c195: e_1 + r_1 >= 1
 c196: Y_2 - d_0_2 - d_1_2 + p_0_2 + p_1_2 = 3
 c197: - 0.5 Y_2 + r_2 = 0
 c198: e_2 - r_2 >= -1
 c199: e_2 + r_2 >= 1
 c200: Y_3 - d_0_3 - d_1_3 + p_0_3 + p_1_3 = 4
 c201: - 0.33333333333333331 Y_3 + r_3 = 0
 c202: e_3 - r_3 >= -1
 c203: e_3 + r_3 >= 1
 c204: Y_1 <= 0
 c205: - Y_1 <= 0
 c206: Y_2 - 2 z_0_2 - 2 z_1_2 <= 3
 c207: - Y_2 - 3 z_0_2 - 3 z_1_2 <= -3
 c208: Y_3 <= 4
 c209: - Y_3 - 4 z_0_3 - 4 z_1_3 <= -4
 c210: 0 G <= 200
 c211: h_1_2 - r_1 + r_2 >= 0
 c212: h_1_2 + r_1 - r_2 >= 0
 c213: h_1_3 - r_1 + r_3 >= 0
 c214: h_1_3 + r_1 - r_3 >= 0
 c215: h_2_3 - r_2 + r_3 >= 0
 c216: h_2_3 + r_2 - r_3 >= 0
 c217: state_g_1_0 >= 0
 c218: - 0.66666666666666663 state_1_0 + state_g_1_0 <= 0
 c219: d_0_1 + d_1_1 + p_0_1 + p_1_1 = 0
 c220: state_1_0 + z_0_1 + z_1_1 = 1
 c221: state_1_0 = 1
 c222: Y_1 = 0
 c223: - G + state_g_1_0 = 0
 c224: zprod_1 = 0
 c225: state_g_2_0 >= 0
 c226: - 0.66666666666666663 state_2_0 + state_g_2_0 <= 0
 c227: state_g_2_1 >= 0
 c228: - 0.66666666666666663 state_2_1 + state_g_2_1 <= 0
 c229: state_g_2_2 >= 0
 c230: - 0.66666666666666663 state_2_2 + state_g_2_2 <= 0
 c231: state_g_2_3 >= 0
 c232: - 0.66666666666666663 state_2_3 + state_g_2_3 <= 0
 c233: state_g_2_4 >= 0
 c234: - 0.66666666666666663 state_2_4 + state_g_2_4 <= 0
 c235: state_g_2_5 >= 0
 c236: - 0.66666666666666663 state_2_5 + state_g_2_5 <= 0
 c237: d_0_2 + d_1_2 + p_0_2 + p_1_2 - 3 state_2_0 - 2 state_2_1 - state_2_2 - state_2_4 - 2 state_2_5 = 0
 c238: state_2_3 + z_0_2 + z_1_2 = 1
 c239: state_2_0 + state_2_1 + state_2_2 + state_2_3 + state_2_4 + state_2_5 = 1
 c240: Y_2 - state_2_1 - 2 state_2_2 - 3 state_2_3 - 4 state_2_4 - 5 state_2_5 = 0
 c241: - G + state_g_2_0 + state_g_2_1 + state_g_2_2 + state_g_2_3 + state_g_2_4 + state_g_2_5 = 0
 c242: - state_g_2_1 - 2 state_g_2_2 - 3 state_g_2_3 - 4 state_g_2_4 - 5 state_g_2_5 + zprod_2 = 0
 c243: state_g_3_1 >= 0
 c244: - 0.66666666666666663 state_3_1 + state_g_3_1 <= 0
 c245: state_g_3_2 >= 0
 c246: - 0.66666666666666663 state_3_2 + state_g_3_2 <= 0
 c247: state_g_3_3 >= 0
 c248: - 0.66666666666666663 state_3_3 + state_g_3_3 <= 0
 c249: state_g_3_4 >= 0
 c250: - 0.66666666666666663 state_3_4 + state_g_3_4 <= 0
 c251: d_0_3 + d_1_3 + p_0_3 + p_1_3 - 3 state_3_1 - 2 state_3_2 - state_3_3 = 0
 c252: state_3_4 + z_0_3 + z_1_3 = 1
 c253: state_3_1 + state_3_2 + state_3_3 + state_3_4 = 1
 c254: Y_3 - state_3_1 - 2 state_3_2 - 3 state_3_3 - 4 state_3_4 = 0
 c255: - G + state_g_3_1 + state_g_3_2 + state_g_3_3 + state_g_3_4 = 0
 c256: - state_g_3_1 - 2 state_g_3_2 - 3 state_g_3_3 - 4 state_g_3_4 + zprod_3 = 0
 c257: - h_1_2 - h_1_3 - h_2_3 + 3 zprod_1 + 1.5 zprod_2 + zprod_3 >= 0
Bounds
 0 <= G <= 0.66666666666666663
 0 <= Y_1 <= 0
 0 <= Y_2 <= 5
 1 <= Y_3 <= 4
 0 <= conn_0_0_1 <= 3
 0 <= conn_0_0_2 <= 3
 0 <= conn_0_0_3 <= 3
 0 <= conn_0_1_0 <= 3
 0 <= conn_0_1_2 <= 3
 0 <= conn_0_1_3 <= 3
 0 <= conn_0_2_0 <= 3
 0 <= conn_0_2_1 <= 3
 0 <= conn_0_2_3 <= 3
 0 <= conn_0_3_0 <= 3
 0 <= conn_0_3_1 <= 3
 0 <= conn_0_3_2 <= 3
 0 <= conn_1_0_1 <= 3
 0 <= conn_1_0_2 <= 3
 0 <= conn_1_0_3 <= 3
 0 <= conn_1_1_0 <= 3
 0 <= conn_1_1_2 <= 3
 0 <= conn_1_1_3 <= 3
 0 <= conn_1_2_0 <= 3
 0 <= conn_1_2_1 <= 3
 0 <= conn_1_2_3 <= 3
 0 <= conn_1_3_0 <= 3
 0 <= conn_1_3_1 <= 3
 0 <= conn_1_3_2 <= 3
 0 <= d_0_1 <= 0
 0 <= d_0_2 <= 2
 0 <= d_0_3 <= 0
 0 <= d_1_1 <= 0
 0 <= d_1_2 <= 2
 0 <= d_1_3 <= 0
 0 <= e_1 <= 1
 0 <= e_2 <= 1.5
 0 <= e_3 <= 1
 0 <= h_1_2 <= 2.5
 0 <= h_1_3 <= 1.3333333333333333
 0 <= h_2_3 <= 3.833333333333333
 0 <= load_0_1 <= 2
 0 <= load_0_2 <= 2
 0 <= load_0_3 <= 2
 0 <= load_1_1 <= 3
 0 <= load_1_2 <= 3
 0 <= load_1_3 <= 3
 0 <= mode_0_1 <= 1
 0 <= mode_0_2 <= 1
 0 <= mode_0_3 <= 1
 0 <= mode_1_1 <= 1
 0 <= mode_1_2 <= 1
 0 <= mode_1_3 <= 1
 0 <= ord_0_1 <= 3
 0 <= ord_0_2 <= 3
 0 <= ord_0_3 <= 3
 0 <= ord_1_1 <= 3
 0 <= ord_1_2 <= 3
 0 <= ord_1_3 <= 3
 0 <= p_0_1 <= 0
 0 <= p_0_2 <= 2
 0 <= p_0_3 <= 2
 0 <= p_1_1 <= 0
 0 <= p_1_2 <= 3
 0 <= p_1_3 <= 3
 0 <= r_1 <= 0
 0 <= r_2 <= 2.5
 0 <= r_3 <= 1.3333333333333333
 0 <= r_max <= 2.5
 0 <= r_min <= 2.5
 0 <= state_1_0 <= 1
 0 <= state_2_0 <= 1
 0 <= state_2_1 <= 1
 0 <= state_2_2 <= 1
 0 <= state_2_3 <= 1
 0 <= state_2_4 <= 1
 0 <= state_2_5 <= 1
 0 <= state_3_1 <= 1
 0 <= state_3_2 <= 1
 0 <= state_3_3 <= 1
 0 <= state_3_4 <= 1
 0 <= state_g_1_0 <= 0.66666666666666663
 0 <= state_g_2_0 <= 0.66666666666666663
 0 <= state_g_2_1 <= 0.66666666666666663
 0 <= state_g_2_2 <= 0.66666666666666663
 0 <= state_g_2_3 <= 0.66666666666666663
 0 <= state_g_2_4 <= 0.66666666666666663
 0 <= state_g_2_5 <= 0.66666666666666663
 0 <= state_g_3_1 <= 0.66666666666666663
 0 <= state_g_3_2 <= 0.66666666666666663
 0 <= state_g_3_3 <= 0.66666666666666663
 0 <= state_g_3_4 <= 0.66666666666666663
 0 <= x_0_0_1 <= 1
 0 <= x_0_0_2 <= 1
 0 <= x_0_0_3 <= 1
 0 <= x_0_1_0 <= 1
 0 <= x_0_1_2 <= 1
 0 <= x_0_1_3 <= 1
 0 <= x_0_2_0 <= 1
 0 <= x_0_2_1 <= 1
 0 <= x_0_2_3 <= 1
 0 <= x_0_3_0 <= 1
 0 <= x_0_3_1 <= 1
 0 <= x_0_3_2 <= 1
 0 <= x_1_0_1 <= 1
 0 <= x_1_0_2 <= 1
 0 <= x_1_0_3 <= 1
 0 <= x_1_1_0 <= 1
 0 <= x_1_1_2 <= 1
 0 <= x_1_1_3 <= 1
 0 <= x_1_2_0 <= 1
 0 <= x_1_2_1 <= 1
 0 <= x_1_2_3 <= 1
 0 <= x_1_3_0 <= 1
 0 <= x_1_3_1 <= 1
 0 <= x_1_3_2 <= 1
 0 <= z_0_1 <= 1
 0 <= z_0_2 <= 1
 0 <= z_0_3 <= 1
 0 <= z_1_1 <= 1
 0 <= z_1_2 <= 1
 0 <= z_1_3 <= 1
 0 <= zprod_1 <= 0
 0 <= zprod_2 <= 5
 0 <= zprod_3 <= 4
Generals
 Y_1
 Y_2
 Y_3
 d_0_1
 d_0_2
 d_0_3
 d_1_1
 d_1_2
 d_1_3
 load_0_1
 load_0_2
 load_0_3
 load_1_1
 load_1_2
 load_1_3
 p_0_1
 p_0_2
 p_0_3
 p_1_1
 p_1_2
 p_1_3
Binaries
 mode_0_1
 mode_0_2
 mode_0_3
 mode_1_1
 mode_1_2
 mode_1_3
 state_1_0
 state_2_0
 state_2_1
 state_2_2
 state_2_3
 state_2_4
 state_2_5
 state_3_1
 state_3_2
 state_3_3
 state_3_4
 x_0_0_1
 x_0_0_2
 x_0_0_3
 x_0_1_0
 x_0_1_2
 x_0_1_3
 x_0_2_0
 x_0_2_1
 x_0_2_3
 x_0_3_0
 x_0_3_1
 x_0_3_2
 x_1_0_1
 x_1_0_2
 x_1_0_3
 x_1_1_0
 x_1_1_2
 x_1_1_3
 x_1_2_0
 x_1_2_1
 x_1_2_3
 x_1_3_0
 x_1_3_1
 x_1_3_2
 z_0_1
 z_0_2
 z_0_3
 z_1_1
 z_1_2
 z_1_3
End
