\ ExactEBRP compact MILP generated from C++ command-line runner
Minimize
 obj: G + 0.14999999999999999 e_1 + 0.14999999999999999 e_2
Subject To
 c1: h_1_2 <= 0
 c2: h_1_2 >= 0
 c3: h_1_2 <= 0
 c4: d_0_1 - p_0_1 >= 1
 c5: - d_0_2 + p_0_2 >= 2
 c6: r_1 - r_2 <= 0
 c7: - r_1 + r_2 <= 0
 c8: r_1 - r_2 <= 0
 c9: - r_1 + r_2 <= 0
 c10: G + 0.14999999999999999 e_1 + 0.14999999999999999 e_2 <= 0.01
 c11: 0.59999999999999998 e_1 + 0.59999999999999998 e_2 + h_1_2 <= 0.040000000000000001
 c12: e_1 + e_2 >= 0
 c13: e_1 <= 0.066666666666666666
 c14: e_2 <= 0.066666666666666666
 c15: W_SP - 2 e_1 - 2 e_2 >= -0
 c16: W_SP - 2 e_1 - 2 e_2 >= -0
 c17: W_SP - 2 e_1 - 2 e_2 <= -0
 c18: W_SP - 2 e_1 - 2 e_2 <= -0
 c19: 0.29999999999999999 W_SP + h_1_2 - 0.02 r_1 - 0.02 r_2 <= 0
 c20: x_0_0_1 + x_0_0_2 - x_0_1_0 - x_0_2_0 = 0
 c21: x_0_0_1 + x_0_0_2 <= 1
 c22: x_0_0_1 + x_0_2_1 - z_0_1 = 0
 c23: x_0_1_0 + x_0_1_2 - z_0_1 = 0
 c24: x_0_0_2 + x_0_1_2 - z_0_2 = 0
 c25: x_0_2_0 + x_0_2_1 - z_0_2 = 0
 c26: conn_0_0_1 - 2 x_0_0_1 <= 0
 c27: conn_0_0_2 - 2 x_0_0_2 <= 0
 c28: conn_0_1_0 - 2 x_0_1_0 <= 0
 c29: conn_0_1_2 - 2 x_0_1_2 <= 0
 c30: conn_0_2_0 - 2 x_0_2_0 <= 0
 c31: conn_0_2_1 - 2 x_0_2_1 <= 0
 c32: conn_0_0_1 - conn_0_1_0 - conn_0_1_2 + conn_0_2_1 - z_0_1 = 0
 c33: conn_0_0_2 + conn_0_1_2 - conn_0_2_0 - conn_0_2_1 - z_0_2 = 0
 c34: conn_0_0_1 + conn_0_0_2 - conn_0_1_0 - conn_0_2_0 - z_0_1 - z_0_2 = 0
 c35: z_0_1 <= 1
 c36: z_0_2 <= 1
 c37: Y_1 + Y_2 <= 3
 c38: Y_1 + Y_2 >= 0
 c39: d_0_1 - p_0_2 <= 0
 c40: d_0_2 - p_0_1 <= 0
 c41: ord_0_1 - z_0_1 >= 0
 c42: ord_0_1 - 2 z_0_1 <= 0
 c43: ord_0_2 - z_0_2 >= 0
 c44: ord_0_2 - 2 z_0_2 <= 0
 c45: ord_0_1 - ord_0_2 + 2 x_0_1_2 <= 1
 c46: - ord_0_1 + ord_0_2 + 2 x_0_2_1 <= 1
 c47: p_0_1 <= 0
 c48: d_0_1 - 3 z_0_1 <= 0
 c49: mode_0_1 - z_0_1 <= 0
 c50: p_0_1 <= 0
 c51: d_0_1 + 3 mode_0_1 - 3 z_0_1 <= 0
 c52: d_0_1 + p_0_1 - z_0_1 >= 0
 c53: load_0_1 - 3 z_0_1 <= 0
 c54: p_0_2 - 3 z_0_2 <= 0
 c55: d_0_2 <= 0
 c56: mode_0_2 - z_0_2 <= 0
 c57: - 3 mode_0_2 + p_0_2 <= 0
 c58: d_0_2 <= 0
 c59: d_0_2 + p_0_2 - z_0_2 >= 0
 c60: load_0_2 - 3 z_0_2 <= 0
 c61: d_0_1 + load_0_1 - p_0_1 + 3 x_0_0_1 <= 3
 c62: d_0_1 + load_0_1 - p_0_1 - 3 x_0_0_1 >= -3
 c63: d_0_2 + load_0_2 - p_0_2 + 3 x_0_0_2 <= 3
 c64: d_0_2 + load_0_2 - p_0_2 - 3 x_0_0_2 >= -3
 c65: d_0_2 - load_0_1 + load_0_2 - p_0_2 + 3 x_0_1_2 <= 3
 c66: d_0_2 - load_0_1 + load_0_2 - p_0_2 - 3 x_0_1_2 >= -3
 c67: d_0_1 + load_0_1 - load_0_2 - p_0_1 + 3 x_0_2_1 <= 3
 c68: d_0_1 + load_0_1 - load_0_2 - p_0_1 - 3 x_0_2_1 >= -3
 c69: - d_0_1 - d_0_2 + p_0_1 + p_0_2 >= 0
 c70: x_0_0_1 + x_0_0_2 + x_0_1_0 + x_0_1_2 + x_0_2_0 + x_0_2_1 <= 100
 c71: 103 z_0_1 + 103 z_0_2 <= 303
 c72: Y_1 - d_0_1 + p_0_1 = 0
 c73: - Y_1 + r_1 = 0
 c74: e_1 - r_1 >= -1
 c75: e_1 + r_1 >= 1
 c76: Y_2 - d_0_2 + p_0_2 = 3
 c77: - Y_2 + r_2 = 0
 c78: e_2 - r_2 >= -1
 c79: e_2 + r_2 >= 1
 c80: Y_1 - 3 z_0_1 <= 0
 c81: - Y_1 <= 0
 c82: Y_2 <= 3
 c83: - Y_2 - 3 z_0_2 <= -3
 c84: 0 G <= 100
 c85: h_1_2 - r_1 + r_2 >= 0
 c86: h_1_2 + r_1 - r_2 >= 0
 c87: state_g_1_1 >= 0
 c88: state_g_1_1 <= 0
 c89: state_1_1 = 1
 c90: Y_1 - state_1_1 = 0
 c91: - G + state_g_1_1 = 0
 c92: - state_g_1_1 + zprod_1 = 0
 c93: state_g_2_1 >= 0
 c94: state_g_2_1 <= 0
 c95: state_2_1 = 1
 c96: Y_2 - state_2_1 = 0
 c97: - G + state_g_2_1 = 0
 c98: - state_g_2_1 + zprod_2 = 0
 c99: - h_1_2 + 2 zprod_1 + 2 zprod_2 >= 0
Bounds
 0 <= G <= 0
 0 <= W_SP <= 0
 1 <= Y_1 <= 1
 1 <= Y_2 <= 1
 0 <= conn_0_0_1 <= 2
 0 <= conn_0_0_2 <= 2
 0 <= conn_0_1_0 <= 2
 0 <= conn_0_1_2 <= 2
 0 <= conn_0_2_0 <= 2
 0 <= conn_0_2_1 <= 2
 0 <= d_0_1 <= 3
 0 <= d_0_2 <= 0
 0 <= e_1 <= 2
 0 <= e_2 <= 2
 0 <= h_1_2 <= 6
 0 <= load_0_1 <= 3
 0 <= load_0_2 <= 3
 0 <= mode_0_1 <= 1
 0 <= mode_0_2 <= 1
 0 <= ord_0_1 <= 2
 0 <= ord_0_2 <= 2
 0 <= p_0_1 <= 0
 0 <= p_0_2 <= 3
 0 <= r_1 <= 3
 0 <= r_2 <= 3
 0 <= r_max <= 3
 0 <= r_min <= 3
 0 <= state_1_1 <= 1
 0 <= state_2_1 <= 1
 0 <= state_g_1_1 <= 0
 0 <= state_g_2_1 <= 0
 0 <= x_0_0_1 <= 1
 0 <= x_0_0_2 <= 1
 0 <= x_0_1_0 <= 1
 0 <= x_0_1_2 <= 1
 0 <= x_0_2_0 <= 1
 0 <= x_0_2_1 <= 1
 0 <= z_0_1 <= 1
 0 <= z_0_2 <= 1
 0 <= zprod_1 <= 3
 0 <= zprod_2 <= 3
Generals
 Y_1
 Y_2
 d_0_1
 d_0_2
 load_0_1
 load_0_2
 p_0_1
 p_0_2
Binaries
 mode_0_1
 mode_0_2
 state_1_1
 state_2_1
 x_0_0_1
 x_0_0_2
 x_0_1_0
 x_0_1_2
 x_0_2_0
 x_0_2_1
 z_0_1
 z_0_2
End
