\ ExactEBRP compact MILP generated from C++ command-line runner
Minimize
 obj: G + 0.14999999999999999 e_1 + 0.14999999999999999 e_2
Subject To
 c1: h_1_2 <= 0
 c2: h_1_2 >= 0
 c3: h_1_2 <= 0
 c4: r_1 - r_2 <= 0
 c5: - r_1 + r_2 <= 0
 c6: r_1 - r_2 <= 0
 c7: - r_1 + r_2 <= 0
 c8: G + 0.14999999999999999 e_1 + 0.14999999999999999 e_2 <= 0.01
 c9: 1.7999999999999998 e_1 + 1.7999999999999998 e_2 + h_1_2 <= 0.12
 c10: e_1 + e_2 >= 0
 c11: e_1 <= 0.066666666666666666
 c12: e_2 <= 0.066666666666666666
 c13: W_SP >= -0
 c14: W_SP - 6 e_1 - 6 e_2 - 4 r_1 - 4 r_2 >= -24
 c15: W_SP - 6 e_1 - 6 e_2 <= -0
 c16: W_SP - 4 r_1 - 4 r_2 <= -0
 c17: 0.29999999999999999 W_SP + h_1_2 - 0.02 r_1 - 0.02 r_2 <= 0
 c18: 0 G <= -1
 c19: x_0_0_1 + x_0_0_2 - x_0_1_0 - x_0_2_0 = 0
 c20: x_0_0_1 + x_0_0_2 <= 1
 c21: x_0_0_1 + x_0_2_1 - z_0_1 = 0
 c22: x_0_1_0 + x_0_1_2 - z_0_1 = 0
 c23: x_0_0_2 + x_0_1_2 - z_0_2 = 0
 c24: x_0_2_0 + x_0_2_1 - z_0_2 = 0
 c25: conn_0_0_1 - 2 x_0_0_1 <= 0
 c26: conn_0_0_2 - 2 x_0_0_2 <= 0
 c27: conn_0_1_0 - 2 x_0_1_0 <= 0
 c28: conn_0_1_2 - 2 x_0_1_2 <= 0
 c29: conn_0_2_0 - 2 x_0_2_0 <= 0
 c30: conn_0_2_1 - 2 x_0_2_1 <= 0
 c31: conn_0_0_1 - conn_0_1_0 - conn_0_1_2 + conn_0_2_1 - z_0_1 = 0
 c32: conn_0_0_2 + conn_0_1_2 - conn_0_2_0 - conn_0_2_1 - z_0_2 = 0
 c33: conn_0_0_1 + conn_0_0_2 - conn_0_1_0 - conn_0_2_0 - z_0_1 - z_0_2 = 0
 c34: z_0_1 <= 1
 c35: z_0_2 <= 1
 c36: Y_1 + Y_2 <= 3
 c37: Y_1 + Y_2 >= 0
 c38: z_0_1 <= 0
 c39: z_0_2 <= 0
 c40: d_0_1 <= 0
 c41: d_0_2 <= 0
 c42: ord_0_1 - z_0_1 >= 0
 c43: ord_0_1 - 2 z_0_1 <= 0
 c44: ord_0_2 - z_0_2 >= 0
 c45: ord_0_2 - 2 z_0_2 <= 0
 c46: ord_0_1 - ord_0_2 + 2 x_0_1_2 <= 1
 c47: - ord_0_1 + ord_0_2 + 2 x_0_2_1 <= 1
 c48: p_0_1 <= 0
 c49: d_0_1 - 3 z_0_1 <= 0
 c50: d_0_1 + p_0_1 - z_0_1 >= 0
 c51: load_0_1 - 3 z_0_1 <= 0
 c52: p_0_2 - 3 z_0_2 <= 0
 c53: d_0_2 <= 0
 c54: d_0_2 + p_0_2 - z_0_2 >= 0
 c55: load_0_2 - 3 z_0_2 <= 0
 c56: d_0_1 + load_0_1 - p_0_1 + 3 x_0_0_1 <= 3
 c57: d_0_1 + load_0_1 - p_0_1 - 3 x_0_0_1 >= -3
 c58: d_0_2 + load_0_2 - p_0_2 + 3 x_0_0_2 <= 3
 c59: d_0_2 + load_0_2 - p_0_2 - 3 x_0_0_2 >= -3
 c60: d_0_2 - load_0_1 + load_0_2 - p_0_2 + 3 x_0_1_2 <= 3
 c61: d_0_2 - load_0_1 + load_0_2 - p_0_2 - 3 x_0_1_2 >= -3
 c62: d_0_1 + load_0_1 - load_0_2 - p_0_1 + 3 x_0_2_1 <= 3
 c63: d_0_1 + load_0_1 - load_0_2 - p_0_1 - 3 x_0_2_1 >= -3
 c64: - d_0_1 - d_0_2 + p_0_1 + p_0_2 >= 0
 c65: x_0_0_1 + x_0_0_2 + x_0_1_0 + x_0_1_2 + x_0_2_0 + x_0_2_1 <= 0
 c66: z_0_1 + z_0_2 <= 1
 c67: Y_1 - d_0_1 + p_0_1 = 0
 c68: - Y_1 + r_1 = 0
 c69: e_1 - r_1 >= -1
 c70: e_1 + r_1 >= 1
 c71: Y_2 - d_0_2 + p_0_2 = 3
 c72: - Y_2 + r_2 = 0
 c73: e_2 - r_2 >= -1
 c74: e_2 + r_2 >= 1
 c75: Y_1 - 3 z_0_1 <= 0
 c76: - Y_1 <= 0
 c77: Y_2 <= 3
 c78: - Y_2 - 3 z_0_2 <= -3
 c79: 0 G <= 0
 c80: h_1_2 - r_1 + r_2 >= 0
 c81: h_1_2 + r_1 - r_2 >= 0
 c82: state_g_1_0 >= 0
 c83: state_g_1_0 <= 0
 c84: state_g_1_1 >= 0
 c85: state_g_1_1 <= 0
 c86: state_g_1_2 >= 0
 c87: state_g_1_2 <= 0
 c88: state_g_1_3 >= 0
 c89: state_g_1_3 <= 0
 c90: d_0_1 + p_0_1 - state_1_1 - 2 state_1_2 - 3 state_1_3 = 0
 c91: state_1_0 + z_0_1 = 1
 c92: state_1_0 + state_1_1 + state_1_2 + state_1_3 = 1
 c93: Y_1 - state_1_1 - 2 state_1_2 - 3 state_1_3 = 0
 c94: - G + state_g_1_0 + state_g_1_1 + state_g_1_2 + state_g_1_3 = 0
 c95: - state_g_1_1 - 2 state_g_1_2 - 3 state_g_1_3 + zprod_1 = 0
 c96: state_g_2_0 >= 0
 c97: state_g_2_0 <= 0
 c98: state_g_2_1 >= 0
 c99: state_g_2_1 <= 0
 c100: state_g_2_2 >= 0
 c101: state_g_2_2 <= 0
 c102: state_g_2_3 >= 0
 c103: state_g_2_3 <= 0
 c104: d_0_2 + p_0_2 - 3 state_2_0 - 2 state_2_1 - state_2_2 = 0
 c105: state_2_3 + z_0_2 = 1
 c106: state_2_0 + state_2_1 + state_2_2 + state_2_3 = 1
 c107: Y_2 - state_2_1 - 2 state_2_2 - 3 state_2_3 = 0
 c108: - G + state_g_2_0 + state_g_2_1 + state_g_2_2 + state_g_2_3 = 0
 c109: - state_g_2_1 - 2 state_g_2_2 - 3 state_g_2_3 + zprod_2 = 0
 c110: - h_1_2 + 2 zprod_1 + 2 zprod_2 >= 0
Bounds
 0 <= G <= 0
 0 <= W_SP <= 24
 0 <= Y_1 <= 3
 0 <= Y_2 <= 3
 0 <= conn_0_0_1 <= 2
 0 <= conn_0_0_2 <= 2
 0 <= conn_0_1_0 <= 2
 0 <= conn_0_1_2 <= 2
 0 <= conn_0_2_0 <= 2
 0 <= conn_0_2_1 <= 2
 0 <= d_0_1 <= 3
 0 <= d_0_2 <= 0
 0 <= e_1 <= 2
 0 <= e_2 <= 2
 0 <= h_1_2 <= 6
 0 <= load_0_1 <= 3
 0 <= load_0_2 <= 3
 0 <= ord_0_1 <= 2
 0 <= ord_0_2 <= 2
 0 <= p_0_1 <= 0
 0 <= p_0_2 <= 3
 0 <= r_1 <= 3
 0 <= r_2 <= 3
 0 <= r_max <= 3
 0 <= r_min <= 3
 0 <= state_1_0 <= 1
 0 <= state_1_1 <= 1
 0 <= state_1_2 <= 1
 0 <= state_1_3 <= 1
 0 <= state_2_0 <= 1
 0 <= state_2_1 <= 1
 0 <= state_2_2 <= 1
 0 <= state_2_3 <= 1
 0 <= state_g_1_0 <= 0
 0 <= state_g_1_1 <= 0
 0 <= state_g_1_2 <= 0
 0 <= state_g_1_3 <= 0
 0 <= state_g_2_0 <= 0
 0 <= state_g_2_1 <= 0
 0 <= state_g_2_2 <= 0
 0 <= state_g_2_3 <= 0
 0 <= x_0_0_1 <= 1
 0 <= x_0_0_2 <= 1
 0 <= x_0_1_0 <= 1
 0 <= x_0_1_2 <= 1
 0 <= x_0_2_0 <= 1
 0 <= x_0_2_1 <= 1
 0 <= z_0_1 <= 1
 0 <= z_0_2 <= 1
 0 <= zprod_1 <= 3
 0 <= zprod_2 <= 3
Generals
 Y_1
 Y_2
 load_0_1
 load_0_2
Binaries
 state_1_0
 state_1_1
 state_1_2
 state_1_3
 state_2_0
 state_2_1
 state_2_2
 state_2_3
 x_0_0_1
 x_0_0_2
 x_0_1_0
 x_0_1_2
 x_0_2_0
 x_0_2_1
 z_0_1
 z_0_2
End
