\ ExactEBRP compact MILP generated from C++ command-line runner
Minimize
 obj: G + 0.14999999999999999 e_1 + 0.14999999999999999 e_2 + 0.14999999999999999 e_3
Subject To
 c1: h_1_2 + h_1_3 + h_2_3 - 2 r_1 - 2 r_2 - 2 r_3 <= 0
 c2: h_1_2 + h_1_3 + h_2_3 >= 0
 c3: 2 h_1_2 - 2 r_1 - 2 r_2 - 2 r_3 <= 0
 c4: 2 h_1_3 - 2 r_1 - 2 r_2 - 2 r_3 <= 0
 c5: 2 h_2_3 - 2 r_1 - 2 r_2 - 2 r_3 <= 0
 c6: r_1 - r_2 <= 3.833333333333333
 c7: - r_1 + r_2 <= 3.833333333333333
 c8: r_1 - r_3 <= 3.833333333333333
 c9: - r_1 + r_3 <= 3.833333333333333
 c10: r_2 - r_3 <= 3.833333333333333
 c11: - r_2 + r_3 <= 3.833333333333333
 c12: - 4 r_2 - 2 r_3 <= 0
 c13: - 4 r_1 - 2 r_3 <= 0
 c14: - 2 r_2 - 4 r_3 <= 0
 c15: - 4 r_1 - 2 r_2 <= 0
 c16: - 2 r_1 - 4 r_3 <= 0
 c17: - 2 r_1 - 4 r_2 <= 0
 c18: e_1 + e_2 + e_3 >= 1
 c19: x_0_0_1 + x_0_0_2 + x_0_0_3 - x_0_1_0 - x_0_2_0 - x_0_3_0 = 0
 c20: x_0_0_1 + x_0_0_2 + x_0_0_3 <= 1
 c21: x_0_0_1 + x_0_2_1 + x_0_3_1 - z_0_1 = 0
 c22: x_0_1_0 + x_0_1_2 + x_0_1_3 - z_0_1 = 0
 c23: x_0_0_2 + x_0_1_2 + x_0_3_2 - z_0_2 = 0
 c24: x_0_2_0 + x_0_2_1 + x_0_2_3 - z_0_2 = 0
 c25: x_0_0_3 + x_0_1_3 + x_0_2_3 - z_0_3 = 0
 c26: x_0_3_0 + x_0_3_1 + x_0_3_2 - z_0_3 = 0
 c27: x_1_0_1 + x_1_0_2 + x_1_0_3 - x_1_1_0 - x_1_2_0 - x_1_3_0 = 0
 c28: x_1_0_1 + x_1_0_2 + x_1_0_3 <= 1
 c29: x_1_0_1 + x_1_2_1 + x_1_3_1 - z_1_1 = 0
 c30: x_1_1_0 + x_1_1_2 + x_1_1_3 - z_1_1 = 0
 c31: x_1_0_2 + x_1_1_2 + x_1_3_2 - z_1_2 = 0
 c32: x_1_2_0 + x_1_2_1 + x_1_2_3 - z_1_2 = 0
 c33: x_1_0_3 + x_1_1_3 + x_1_2_3 - z_1_3 = 0
 c34: x_1_3_0 + x_1_3_1 + x_1_3_2 - z_1_3 = 0
 c35: conn_0_0_1 - 3 x_0_0_1 <= 0
 c36: conn_0_0_2 - 3 x_0_0_2 <= 0
 c37: conn_0_0_3 - 3 x_0_0_3 <= 0
 c38: conn_0_1_0 - 3 x_0_1_0 <= 0
 c39: conn_0_1_2 - 3 x_0_1_2 <= 0
 c40: conn_0_1_3 - 3 x_0_1_3 <= 0
 c41: conn_0_2_0 - 3 x_0_2_0 <= 0
 c42: conn_0_2_1 - 3 x_0_2_1 <= 0
 c43: conn_0_2_3 - 3 x_0_2_3 <= 0
 c44: conn_0_3_0 - 3 x_0_3_0 <= 0
 c45: conn_0_3_1 - 3 x_0_3_1 <= 0
 c46: conn_0_3_2 - 3 x_0_3_2 <= 0
 c47: conn_0_0_1 - conn_0_1_0 - conn_0_1_2 - conn_0_1_3 + conn_0_2_1 + conn_0_3_1 - z_0_1 = 0
 c48: conn_0_0_2 + conn_0_1_2 - conn_0_2_0 - conn_0_2_1 - conn_0_2_3 + conn_0_3_2 - z_0_2 = 0
 c49: conn_0_0_3 + conn_0_1_3 + conn_0_2_3 - conn_0_3_0 - conn_0_3_1 - conn_0_3_2 - z_0_3 = 0
 c50: conn_0_0_1 + conn_0_0_2 + conn_0_0_3 - conn_0_1_0 - conn_0_2_0 - conn_0_3_0 - z_0_1 - z_0_2 - z_0_3 = 0
 c51: conn_1_0_1 - 3 x_1_0_1 <= 0
 c52: conn_1_0_2 - 3 x_1_0_2 <= 0
 c53: conn_1_0_3 - 3 x_1_0_3 <= 0
 c54: conn_1_1_0 - 3 x_1_1_0 <= 0
 c55: conn_1_1_2 - 3 x_1_1_2 <= 0
 c56: conn_1_1_3 - 3 x_1_1_3 <= 0
 c57: conn_1_2_0 - 3 x_1_2_0 <= 0
 c58: conn_1_2_1 - 3 x_1_2_1 <= 0
 c59: conn_1_2_3 - 3 x_1_2_3 <= 0
 c60: conn_1_3_0 - 3 x_1_3_0 <= 0
 c61: conn_1_3_1 - 3 x_1_3_1 <= 0
 c62: conn_1_3_2 - 3 x_1_3_2 <= 0
 c63: conn_1_0_1 - conn_1_1_0 - conn_1_1_2 - conn_1_1_3 + conn_1_2_1 + conn_1_3_1 - z_1_1 = 0
 c64: conn_1_0_2 + conn_1_1_2 - conn_1_2_0 - conn_1_2_1 - conn_1_2_3 + conn_1_3_2 - z_1_2 = 0
 c65: conn_1_0_3 + conn_1_1_3 + conn_1_2_3 - conn_1_3_0 - conn_1_3_1 - conn_1_3_2 - z_1_3 = 0
 c66: conn_1_0_1 + conn_1_0_2 + conn_1_0_3 - conn_1_1_0 - conn_1_2_0 - conn_1_3_0 - z_1_1 - z_1_2 - z_1_3 = 0
 c67: z_0_1 + z_1_1 <= 1
 c68: z_0_2 + z_1_2 <= 1
 c69: z_0_3 + z_1_3 <= 1
 c70: Y_1 + Y_2 + Y_3 <= 7
 c71: Y_1 + Y_2 + Y_3 >= 2
 c72: d_0_1 - p_0_2 - p_0_3 <= 0
 c73: d_0_2 - p_0_1 - p_0_3 <= 0
 c74: d_0_3 - p_0_1 - p_0_2 <= 0
 c75: d_1_1 - p_1_2 - p_1_3 <= 0
 c76: d_1_2 - p_1_1 - p_1_3 <= 0
 c77: d_1_3 - p_1_1 - p_1_2 <= 0
 c78: ord_0_1 - z_0_1 >= 0
 c79: ord_0_1 - 3 z_0_1 <= 0
 c80: ord_0_2 - z_0_2 >= 0
 c81: ord_0_2 - 3 z_0_2 <= 0
 c82: ord_0_3 - z_0_3 >= 0
 c83: ord_0_3 - 3 z_0_3 <= 0
 c84: ord_0_1 - ord_0_2 + 3 x_0_1_2 <= 2
 c85: ord_0_1 - ord_0_3 + 3 x_0_1_3 <= 2
 c86: - ord_0_1 + ord_0_2 + 3 x_0_2_1 <= 2
 c87: ord_0_2 - ord_0_3 + 3 x_0_2_3 <= 2
 c88: - ord_0_1 + ord_0_3 + 3 x_0_3_1 <= 2
 c89: - ord_0_2 + ord_0_3 + 3 x_0_3_2 <= 2
 c90: ord_1_1 - z_1_1 >= 0
 c91: ord_1_1 - 3 z_1_1 <= 0
 c92: ord_1_2 - z_1_2 >= 0
 c93: ord_1_2 - 3 z_1_2 <= 0
 c94: ord_1_3 - z_1_3 >= 0
 c95: ord_1_3 - 3 z_1_3 <= 0
 c96: ord_1_1 - ord_1_2 + 3 x_1_1_2 <= 2
 c97: ord_1_1 - ord_1_3 + 3 x_1_1_3 <= 2
 c98: - ord_1_1 + ord_1_2 + 3 x_1_2_1 <= 2
 c99: ord_1_2 - ord_1_3 + 3 x_1_2_3 <= 2
 c100: - ord_1_1 + ord_1_3 + 3 x_1_3_1 <= 2
 c101: - ord_1_2 + ord_1_3 + 3 x_1_3_2 <= 2
 c102: p_0_1 <= 0
 c103: d_0_1 <= 0
 c104: d_0_1 + p_0_1 - z_0_1 >= 0
 c105: load_0_1 - 2 z_0_1 <= 0
 c106: p_0_2 - 2 z_0_2 <= 0
 c107: d_0_2 - 2 z_0_2 <= 0
 c108: 2 d_0_2 + 2 p_0_2 - 4 z_0_2 <= 0
 c109: d_0_2 + p_0_2 - z_0_2 >= 0
 c110: load_0_2 - 2 z_0_2 <= 0
 c111: p_0_3 - 2 z_0_3 <= 0
 c112: d_0_3 <= 0
 c113: d_0_3 + p_0_3 - z_0_3 >= 0
 c114: load_0_3 - 2 z_0_3 <= 0
 c115: d_0_1 + load_0_1 - p_0_1 + 2 x_0_0_1 <= 2
 c116: d_0_1 + load_0_1 - p_0_1 - 2 x_0_0_1 >= -2
 c117: d_0_2 + load_0_2 - p_0_2 + 2 x_0_0_2 <= 2
 c118: d_0_2 + load_0_2 - p_0_2 - 2 x_0_0_2 >= -2
 c119: d_0_3 + load_0_3 - p_0_3 + 2 x_0_0_3 <= 2
 c120: d_0_3 + load_0_3 - p_0_3 - 2 x_0_0_3 >= -2
 c121: d_0_2 - load_0_1 + load_0_2 - p_0_2 + 2 x_0_1_2 <= 2
 c122: d_0_2 - load_0_1 + load_0_2 - p_0_2 - 2 x_0_1_2 >= -2
 c123: d_0_3 - load_0_1 + load_0_3 - p_0_3 + 2 x_0_1_3 <= 2
 c124: d_0_3 - load_0_1 + load_0_3 - p_0_3 - 2 x_0_1_3 >= -2
 c125: d_0_1 + load_0_1 - load_0_2 - p_0_1 + 2 x_0_2_1 <= 2
 c126: d_0_1 + load_0_1 - load_0_2 - p_0_1 - 2 x_0_2_1 >= -2
 c127: d_0_3 - load_0_2 + load_0_3 - p_0_3 + 2 x_0_2_3 <= 2
 c128: d_0_3 - load_0_2 + load_0_3 - p_0_3 - 2 x_0_2_3 >= -2
 c129: d_0_1 + load_0_1 - load_0_3 - p_0_1 + 2 x_0_3_1 <= 2
 c130: d_0_1 + load_0_1 - load_0_3 - p_0_1 - 2 x_0_3_1 >= -2
 c131: d_0_2 + load_0_2 - load_0_3 - p_0_2 + 2 x_0_3_2 <= 2
 c132: d_0_2 + load_0_2 - load_0_3 - p_0_2 - 2 x_0_3_2 >= -2
 c133: - d_0_1 - d_0_2 - d_0_3 + p_0_1 + p_0_2 + p_0_3 >= 0
 c134: x_0_0_1 + x_0_0_2 + x_0_0_3 + x_0_1_0 + x_0_1_2 + x_0_1_3 + x_0_2_0 + x_0_2_1 + x_0_2_3 + x_0_3_0 + x_0_3_1 + x_0_3_2 <= 100
 c135: p_1_1 <= 0
 c136: d_1_1 <= 0
 c137: d_1_1 + p_1_1 - z_1_1 >= 0
 c138: load_1_1 - 3 z_1_1 <= 0
 c139: p_1_2 - 3 z_1_2 <= 0
 c140: d_1_2 - 2 z_1_2 <= 0
 c141: 3 d_1_2 + 2 p_1_2 - 6 z_1_2 <= 0
 c142: d_1_2 + p_1_2 - z_1_2 >= 0
 c143: load_1_2 - 3 z_1_2 <= 0
 c144: p_1_3 - 3 z_1_3 <= 0
 c145: d_1_3 <= 0
 c146: d_1_3 + p_1_3 - z_1_3 >= 0
 c147: load_1_3 - 3 z_1_3 <= 0
 c148: d_1_1 + load_1_1 - p_1_1 + 3 x_1_0_1 <= 3
 c149: d_1_1 + load_1_1 - p_1_1 - 3 x_1_0_1 >= -3
 c150: d_1_2 + load_1_2 - p_1_2 + 3 x_1_0_2 <= 3
 c151: d_1_2 + load_1_2 - p_1_2 - 3 x_1_0_2 >= -3
 c152: d_1_3 + load_1_3 - p_1_3 + 3 x_1_0_3 <= 3
 c153: d_1_3 + load_1_3 - p_1_3 - 3 x_1_0_3 >= -3
 c154: d_1_2 - load_1_1 + load_1_2 - p_1_2 + 3 x_1_1_2 <= 3
 c155: d_1_2 - load_1_1 + load_1_2 - p_1_2 - 3 x_1_1_2 >= -3
 c156: d_1_3 - load_1_1 + load_1_3 - p_1_3 + 3 x_1_1_3 <= 3
 c157: d_1_3 - load_1_1 + load_1_3 - p_1_3 - 3 x_1_1_3 >= -3
 c158: d_1_1 + load_1_1 - load_1_2 - p_1_1 + 3 x_1_2_1 <= 3
 c159: d_1_1 + load_1_1 - load_1_2 - p_1_1 - 3 x_1_2_1 >= -3
 c160: d_1_3 - load_1_2 + load_1_3 - p_1_3 + 3 x_1_2_3 <= 3
 c161: d_1_3 - load_1_2 + load_1_3 - p_1_3 - 3 x_1_2_3 >= -3
 c162: d_1_1 + load_1_1 - load_1_3 - p_1_1 + 3 x_1_3_1 <= 3
 c163: d_1_1 + load_1_1 - load_1_3 - p_1_1 - 3 x_1_3_1 >= -3
 c164: d_1_2 + load_1_2 - load_1_3 - p_1_2 + 3 x_1_3_2 <= 3
 c165: d_1_2 + load_1_2 - load_1_3 - p_1_2 - 3 x_1_3_2 >= -3
 c166: - d_1_1 - d_1_2 - d_1_3 + p_1_1 + p_1_2 + p_1_3 >= 0
 c167: x_1_0_1 + x_1_0_2 + x_1_0_3 + x_1_1_0 + x_1_1_2 + x_1_1_3 + x_1_2_0 + x_1_2_1 + x_1_2_3 + x_1_3_0 + x_1_3_1 + x_1_3_2 <= 100
 c168: 103 z_0_1 + 103 z_0_2 <= 303
 c169: 103 z_0_1 + 103 z_0_3 <= 303
 c170: 103 z_0_2 + 103 z_0_3 <= 303
 c171: 104 z_0_1 + 104 z_0_2 + 104 z_0_3 <= 408
 c172: 103 z_1_1 + 103 z_1_2 <= 303
 c173: 103 z_1_1 + 103 z_1_3 <= 303
 c174: 103 z_1_2 + 103 z_1_3 <= 303
 c175: 104 z_1_1 + 104 z_1_2 + 104 z_1_3 <= 408
 c176: Y_1 - d_0_1 - d_1_1 + p_0_1 + p_1_1 = 0
 c177: - Y_1 + r_1 = 0
 c178: e_1 - r_1 >= -1
 c179: e_1 + r_1 >= 1
 c180: Y_2 - d_0_2 - d_1_2 + p_0_2 + p_1_2 = 3
 c181: - 0.5 Y_2 + r_2 = 0
 c182: e_2 - r_2 >= -1
 c183: e_2 + r_2 >= 1
 c184: Y_3 - d_0_3 - d_1_3 + p_0_3 + p_1_3 = 4
 c185: - 0.33333333333333331 Y_3 + r_3 = 0
 c186: e_3 - r_3 >= -1
 c187: e_3 + r_3 >= 1
 c188: Y_1 <= 0
 c189: - Y_1 <= 0
 c190: Y_2 - 2 z_0_2 - 2 z_1_2 <= 3
 c191: - Y_2 - 3 z_0_2 - 3 z_1_2 <= -3
 c192: Y_3 <= 4
 c193: - Y_3 - 4 z_0_3 - 4 z_1_3 <= -4
 c194: 0 G <= 200
 c195: h_1_2 - r_1 + r_2 >= 0
 c196: h_1_2 + r_1 - r_2 >= 0
 c197: h_1_3 - r_1 + r_3 >= 0
 c198: h_1_3 + r_1 - r_3 >= 0
 c199: h_2_3 - r_2 + r_3 >= 0
 c200: h_2_3 + r_2 - r_3 >= 0
 c201: state_g_1_0 >= 0
 c202: - 0.66666666666666663 state_1_0 + state_g_1_0 <= 0
 c203: d_0_1 + d_1_1 + p_0_1 + p_1_1 = 0
 c204: state_1_0 + z_0_1 + z_1_1 = 1
 c205: state_1_0 = 1
 c206: Y_1 = 0
 c207: - G + state_g_1_0 = 0
 c208: zprod_1 = 0
 c209: state_g_2_0 >= 0
 c210: - 0.66666666666666663 state_2_0 + state_g_2_0 <= 0
 c211: state_g_2_1 >= 0
 c212: - 0.66666666666666663 state_2_1 + state_g_2_1 <= 0
 c213: state_g_2_2 >= 0
 c214: - 0.66666666666666663 state_2_2 + state_g_2_2 <= 0
 c215: state_g_2_3 >= 0
 c216: - 0.66666666666666663 state_2_3 + state_g_2_3 <= 0
 c217: state_g_2_4 >= 0
 c218: - 0.66666666666666663 state_2_4 + state_g_2_4 <= 0
 c219: state_g_2_5 >= 0
 c220: - 0.66666666666666663 state_2_5 + state_g_2_5 <= 0
 c221: d_0_2 + d_1_2 + p_0_2 + p_1_2 - 3 state_2_0 - 2 state_2_1 - state_2_2 - state_2_4 - 2 state_2_5 = 0
 c222: state_2_3 + z_0_2 + z_1_2 = 1
 c223: state_2_0 + state_2_1 + state_2_2 + state_2_3 + state_2_4 + state_2_5 = 1
 c224: Y_2 - state_2_1 - 2 state_2_2 - 3 state_2_3 - 4 state_2_4 - 5 state_2_5 = 0
 c225: - G + state_g_2_0 + state_g_2_1 + state_g_2_2 + state_g_2_3 + state_g_2_4 + state_g_2_5 = 0
 c226: - state_g_2_1 - 2 state_g_2_2 - 3 state_g_2_3 - 4 state_g_2_4 - 5 state_g_2_5 + zprod_2 = 0
 c227: state_g_3_1 >= 0
 c228: - 0.66666666666666663 state_3_1 + state_g_3_1 <= 0
 c229: state_g_3_2 >= 0
 c230: - 0.66666666666666663 state_3_2 + state_g_3_2 <= 0
 c231: state_g_3_3 >= 0
 c232: - 0.66666666666666663 state_3_3 + state_g_3_3 <= 0
 c233: state_g_3_4 >= 0
 c234: - 0.66666666666666663 state_3_4 + state_g_3_4 <= 0
 c235: d_0_3 + d_1_3 + p_0_3 + p_1_3 - 3 state_3_1 - 2 state_3_2 - state_3_3 = 0
 c236: state_3_4 + z_0_3 + z_1_3 = 1
 c237: state_3_1 + state_3_2 + state_3_3 + state_3_4 = 1
 c238: Y_3 - state_3_1 - 2 state_3_2 - 3 state_3_3 - 4 state_3_4 = 0
 c239: - G + state_g_3_1 + state_g_3_2 + state_g_3_3 + state_g_3_4 = 0
 c240: - state_g_3_1 - 2 state_g_3_2 - 3 state_g_3_3 - 4 state_g_3_4 + zprod_3 = 0
 c241: - h_1_2 - h_1_3 - h_2_3 + 3 zprod_1 + 1.5 zprod_2 + zprod_3 >= 0
Bounds
 0 <= G <= 0.66666666666666663
 0 <= Y_1 <= 0
 0 <= Y_2 <= 5
 1 <= Y_3 <= 4
 0 <= conn_0_0_1 <= 3
 0 <= conn_0_0_2 <= 3
 0 <= conn_0_0_3 <= 3
 0 <= conn_0_1_0 <= 3
 0 <= conn_0_1_2 <= 3
 0 <= conn_0_1_3 <= 3
 0 <= conn_0_2_0 <= 3
 0 <= conn_0_2_1 <= 3
 0 <= conn_0_2_3 <= 3
 0 <= conn_0_3_0 <= 3
 0 <= conn_0_3_1 <= 3
 0 <= conn_0_3_2 <= 3
 0 <= conn_1_0_1 <= 3
 0 <= conn_1_0_2 <= 3
 0 <= conn_1_0_3 <= 3
 0 <= conn_1_1_0 <= 3
 0 <= conn_1_1_2 <= 3
 0 <= conn_1_1_3 <= 3
 0 <= conn_1_2_0 <= 3
 0 <= conn_1_2_1 <= 3
 0 <= conn_1_2_3 <= 3
 0 <= conn_1_3_0 <= 3
 0 <= conn_1_3_1 <= 3
 0 <= conn_1_3_2 <= 3
 0 <= d_0_1 <= 0
 0 <= d_0_2 <= 2
 0 <= d_0_3 <= 0
 0 <= d_1_1 <= 0
 0 <= d_1_2 <= 2
 0 <= d_1_3 <= 0
 0 <= e_1 <= 1
 0 <= e_2 <= 1.5
 0 <= e_3 <= 1
 0 <= h_1_2 <= 2.5
 0 <= h_1_3 <= 1.3333333333333333
 0 <= h_2_3 <= 3.833333333333333
 0 <= load_0_1 <= 2
 0 <= load_0_2 <= 2
 0 <= load_0_3 <= 2
 0 <= load_1_1 <= 3
 0 <= load_1_2 <= 3
 0 <= load_1_3 <= 3
 0 <= ord_0_1 <= 3
 0 <= ord_0_2 <= 3
 0 <= ord_0_3 <= 3
 0 <= ord_1_1 <= 3
 0 <= ord_1_2 <= 3
 0 <= ord_1_3 <= 3
 0 <= p_0_1 <= 0
 0 <= p_0_2 <= 2
 0 <= p_0_3 <= 2
 0 <= p_1_1 <= 0
 0 <= p_1_2 <= 3
 0 <= p_1_3 <= 3
 0 <= r_1 <= 0
 0 <= r_2 <= 2.5
 0 <= r_3 <= 1.3333333333333333
 0 <= r_max <= 2.5
 0 <= r_min <= 2.5
 0 <= state_1_0 <= 1
 0 <= state_2_0 <= 1
 0 <= state_2_1 <= 1
 0 <= state_2_2 <= 1
 0 <= state_2_3 <= 1
 0 <= state_2_4 <= 1
 0 <= state_2_5 <= 1
 0 <= state_3_1 <= 1
 0 <= state_3_2 <= 1
 0 <= state_3_3 <= 1
 0 <= state_3_4 <= 1
 0 <= state_g_1_0 <= 0.66666666666666663
 0 <= state_g_2_0 <= 0.66666666666666663
 0 <= state_g_2_1 <= 0.66666666666666663
 0 <= state_g_2_2 <= 0.66666666666666663
 0 <= state_g_2_3 <= 0.66666666666666663
 0 <= state_g_2_4 <= 0.66666666666666663
 0 <= state_g_2_5 <= 0.66666666666666663
 0 <= state_g_3_1 <= 0.66666666666666663
 0 <= state_g_3_2 <= 0.66666666666666663
 0 <= state_g_3_3 <= 0.66666666666666663
 0 <= state_g_3_4 <= 0.66666666666666663
 0 <= x_0_0_1 <= 1
 0 <= x_0_0_2 <= 1
 0 <= x_0_0_3 <= 1
 0 <= x_0_1_0 <= 1
 0 <= x_0_1_2 <= 1
 0 <= x_0_1_3 <= 1
 0 <= x_0_2_0 <= 1
 0 <= x_0_2_1 <= 1
 0 <= x_0_2_3 <= 1
 0 <= x_0_3_0 <= 1
 0 <= x_0_3_1 <= 1
 0 <= x_0_3_2 <= 1
 0 <= x_1_0_1 <= 1
 0 <= x_1_0_2 <= 1
 0 <= x_1_0_3 <= 1
 0 <= x_1_1_0 <= 1
 0 <= x_1_1_2 <= 1
 0 <= x_1_1_3 <= 1
 0 <= x_1_2_0 <= 1
 0 <= x_1_2_1 <= 1
 0 <= x_1_2_3 <= 1
 0 <= x_1_3_0 <= 1
 0 <= x_1_3_1 <= 1
 0 <= x_1_3_2 <= 1
 0 <= z_0_1 <= 1
 0 <= z_0_2 <= 1
 0 <= z_0_3 <= 1
 0 <= z_1_1 <= 1
 0 <= z_1_2 <= 1
 0 <= z_1_3 <= 1
 0 <= zprod_1 <= 0
 0 <= zprod_2 <= 5
 0 <= zprod_3 <= 4
Generals
 Y_1
 Y_2
 Y_3
 load_0_1
 load_0_2
 load_0_3
 load_1_1
 load_1_2
 load_1_3
Binaries
 state_1_0
 state_2_0
 state_2_1
 state_2_2
 state_2_3
 state_2_4
 state_2_5
 state_3_1
 state_3_2
 state_3_3
 state_3_4
 x_0_0_1
 x_0_0_2
 x_0_0_3
 x_0_1_0
 x_0_1_2
 x_0_1_3
 x_0_2_0
 x_0_2_1
 x_0_2_3
 x_0_3_0
 x_0_3_1
 x_0_3_2
 x_1_0_1
 x_1_0_2
 x_1_0_3
 x_1_1_0
 x_1_1_2
 x_1_1_3
 x_1_2_0
 x_1_2_1
 x_1_2_3
 x_1_3_0
 x_1_3_1
 x_1_3_2
 z_0_1
 z_0_2
 z_0_3
 z_1_1
 z_1_2
 z_1_3
End
