\ ExactEBRP compact MILP generated from C++ command-line runner
Minimize
 obj: G + 0.046875 e_1 + 0.14999999999999999 e_2 + 0.056062500000000001 e_3 + 0.049903799999999998 e_4 + 0.023653799999999999 e_5 + 0.0552273 e_6 + 0.059999999999999998 e_7 + 0.042499950000000002 e_8 + 0.048333300000000003 e_9 + 0.021315750000000001 e_10
Subject To
 c1: x_0_0_1 + x_0_0_10 + x_0_0_2 + x_0_0_3 + x_0_0_4 + x_0_0_5 + x_0_0_6 + x_0_0_7 + x_0_0_8 + x_0_0_9 - x_0_10_0 - x_0_1_0 - x_0_2_0 - x_0_3_0 - x_0_4_0 - x_0_5_0 - x_0_6_0 - x_0_7_0 - x_0_8_0 - x_0_9_0 = 0
 c2: x_0_0_1 + x_0_0_10 + x_0_0_2 + x_0_0_3 + x_0_0_4 + x_0_0_5 + x_0_0_6 + x_0_0_7 + x_0_0_8 + x_0_0_9 <= 1
 c3: x_0_0_1 + x_0_10_1 + x_0_2_1 + x_0_3_1 + x_0_4_1 + x_0_5_1 + x_0_6_1 + x_0_7_1 + x_0_8_1 + x_0_9_1 - z_0_1 = 0
 c4: x_0_1_0 + x_0_1_10 + x_0_1_2 + x_0_1_3 + x_0_1_4 + x_0_1_5 + x_0_1_6 + x_0_1_7 + x_0_1_8 + x_0_1_9 - z_0_1 = 0
 c5: x_0_0_2 + x_0_10_2 + x_0_1_2 + x_0_3_2 + x_0_4_2 + x_0_5_2 + x_0_6_2 + x_0_7_2 + x_0_8_2 + x_0_9_2 - z_0_2 = 0
 c6: x_0_2_0 + x_0_2_1 + x_0_2_10 + x_0_2_3 + x_0_2_4 + x_0_2_5 + x_0_2_6 + x_0_2_7 + x_0_2_8 + x_0_2_9 - z_0_2 = 0
 c7: x_0_0_3 + x_0_10_3 + x_0_1_3 + x_0_2_3 + x_0_4_3 + x_0_5_3 + x_0_6_3 + x_0_7_3 + x_0_8_3 + x_0_9_3 - z_0_3 = 0
 c8: x_0_3_0 + x_0_3_1 + x_0_3_10 + x_0_3_2 + x_0_3_4 + x_0_3_5 + x_0_3_6 + x_0_3_7 + x_0_3_8 + x_0_3_9 - z_0_3 = 0
 c9: x_0_0_4 + x_0_10_4 + x_0_1_4 + x_0_2_4 + x_0_3_4 + x_0_5_4 + x_0_6_4 + x_0_7_4 + x_0_8_4 + x_0_9_4 - z_0_4 = 0
 c10: x_0_4_0 + x_0_4_1 + x_0_4_10 + x_0_4_2 + x_0_4_3 + x_0_4_5 + x_0_4_6 + x_0_4_7 + x_0_4_8 + x_0_4_9 - z_0_4 = 0
 c11: x_0_0_5 + x_0_10_5 + x_0_1_5 + x_0_2_5 + x_0_3_5 + x_0_4_5 + x_0_6_5 + x_0_7_5 + x_0_8_5 + x_0_9_5 - z_0_5 = 0
 c12: x_0_5_0 + x_0_5_1 + x_0_5_10 + x_0_5_2 + x_0_5_3 + x_0_5_4 + x_0_5_6 + x_0_5_7 + x_0_5_8 + x_0_5_9 - z_0_5 = 0
 c13: x_0_0_6 + x_0_10_6 + x_0_1_6 + x_0_2_6 + x_0_3_6 + x_0_4_6 + x_0_5_6 + x_0_7_6 + x_0_8_6 + x_0_9_6 - z_0_6 = 0
 c14: x_0_6_0 + x_0_6_1 + x_0_6_10 + x_0_6_2 + x_0_6_3 + x_0_6_4 + x_0_6_5 + x_0_6_7 + x_0_6_8 + x_0_6_9 - z_0_6 = 0
 c15: x_0_0_7 + x_0_10_7 + x_0_1_7 + x_0_2_7 + x_0_3_7 + x_0_4_7 + x_0_5_7 + x_0_6_7 + x_0_8_7 + x_0_9_7 - z_0_7 = 0
 c16: x_0_7_0 + x_0_7_1 + x_0_7_10 + x_0_7_2 + x_0_7_3 + x_0_7_4 + x_0_7_5 + x_0_7_6 + x_0_7_8 + x_0_7_9 - z_0_7 = 0
 c17: x_0_0_8 + x_0_10_8 + x_0_1_8 + x_0_2_8 + x_0_3_8 + x_0_4_8 + x_0_5_8 + x_0_6_8 + x_0_7_8 + x_0_9_8 - z_0_8 = 0
 c18: x_0_8_0 + x_0_8_1 + x_0_8_10 + x_0_8_2 + x_0_8_3 + x_0_8_4 + x_0_8_5 + x_0_8_6 + x_0_8_7 + x_0_8_9 - z_0_8 = 0
 c19: x_0_0_9 + x_0_10_9 + x_0_1_9 + x_0_2_9 + x_0_3_9 + x_0_4_9 + x_0_5_9 + x_0_6_9 + x_0_7_9 + x_0_8_9 - z_0_9 = 0
 c20: x_0_9_0 + x_0_9_1 + x_0_9_10 + x_0_9_2 + x_0_9_3 + x_0_9_4 + x_0_9_5 + x_0_9_6 + x_0_9_7 + x_0_9_8 - z_0_9 = 0
 c21: x_0_0_10 + x_0_1_10 + x_0_2_10 + x_0_3_10 + x_0_4_10 + x_0_5_10 + x_0_6_10 + x_0_7_10 + x_0_8_10 + x_0_9_10 - z_0_10 = 0
 c22: x_0_10_0 + x_0_10_1 + x_0_10_2 + x_0_10_3 + x_0_10_4 + x_0_10_5 + x_0_10_6 + x_0_10_7 + x_0_10_8 + x_0_10_9 - z_0_10 = 0
 c23: x_1_0_1 + x_1_0_10 + x_1_0_2 + x_1_0_3 + x_1_0_4 + x_1_0_5 + x_1_0_6 + x_1_0_7 + x_1_0_8 + x_1_0_9 - x_1_10_0 - x_1_1_0 - x_1_2_0 - x_1_3_0 - x_1_4_0 - x_1_5_0 - x_1_6_0 - x_1_7_0 - x_1_8_0 - x_1_9_0 = 0
 c24: x_1_0_1 + x_1_0_10 + x_1_0_2 + x_1_0_3 + x_1_0_4 + x_1_0_5 + x_1_0_6 + x_1_0_7 + x_1_0_8 + x_1_0_9 <= 1
 c25: x_1_0_1 + x_1_10_1 + x_1_2_1 + x_1_3_1 + x_1_4_1 + x_1_5_1 + x_1_6_1 + x_1_7_1 + x_1_8_1 + x_1_9_1 - z_1_1 = 0
 c26: x_1_1_0 + x_1_1_10 + x_1_1_2 + x_1_1_3 + x_1_1_4 + x_1_1_5 + x_1_1_6 + x_1_1_7 + x_1_1_8 + x_1_1_9 - z_1_1 = 0
 c27: x_1_0_2 + x_1_10_2 + x_1_1_2 + x_1_3_2 + x_1_4_2 + x_1_5_2 + x_1_6_2 + x_1_7_2 + x_1_8_2 + x_1_9_2 - z_1_2 = 0
 c28: x_1_2_0 + x_1_2_1 + x_1_2_10 + x_1_2_3 + x_1_2_4 + x_1_2_5 + x_1_2_6 + x_1_2_7 + x_1_2_8 + x_1_2_9 - z_1_2 = 0
 c29: x_1_0_3 + x_1_10_3 + x_1_1_3 + x_1_2_3 + x_1_4_3 + x_1_5_3 + x_1_6_3 + x_1_7_3 + x_1_8_3 + x_1_9_3 - z_1_3 = 0
 c30: x_1_3_0 + x_1_3_1 + x_1_3_10 + x_1_3_2 + x_1_3_4 + x_1_3_5 + x_1_3_6 + x_1_3_7 + x_1_3_8 + x_1_3_9 - z_1_3 = 0
 c31: x_1_0_4 + x_1_10_4 + x_1_1_4 + x_1_2_4 + x_1_3_4 + x_1_5_4 + x_1_6_4 + x_1_7_4 + x_1_8_4 + x_1_9_4 - z_1_4 = 0
 c32: x_1_4_0 + x_1_4_1 + x_1_4_10 + x_1_4_2 + x_1_4_3 + x_1_4_5 + x_1_4_6 + x_1_4_7 + x_1_4_8 + x_1_4_9 - z_1_4 = 0
 c33: x_1_0_5 + x_1_10_5 + x_1_1_5 + x_1_2_5 + x_1_3_5 + x_1_4_5 + x_1_6_5 + x_1_7_5 + x_1_8_5 + x_1_9_5 - z_1_5 = 0
 c34: x_1_5_0 + x_1_5_1 + x_1_5_10 + x_1_5_2 + x_1_5_3 + x_1_5_4 + x_1_5_6 + x_1_5_7 + x_1_5_8 + x_1_5_9 - z_1_5 = 0
 c35: x_1_0_6 + x_1_10_6 + x_1_1_6 + x_1_2_6 + x_1_3_6 + x_1_4_6 + x_1_5_6 + x_1_7_6 + x_1_8_6 + x_1_9_6 - z_1_6 = 0
 c36: x_1_6_0 + x_1_6_1 + x_1_6_10 + x_1_6_2 + x_1_6_3 + x_1_6_4 + x_1_6_5 + x_1_6_7 + x_1_6_8 + x_1_6_9 - z_1_6 = 0
 c37: x_1_0_7 + x_1_10_7 + x_1_1_7 + x_1_2_7 + x_1_3_7 + x_1_4_7 + x_1_5_7 + x_1_6_7 + x_1_8_7 + x_1_9_7 - z_1_7 = 0
 c38: x_1_7_0 + x_1_7_1 + x_1_7_10 + x_1_7_2 + x_1_7_3 + x_1_7_4 + x_1_7_5 + x_1_7_6 + x_1_7_8 + x_1_7_9 - z_1_7 = 0
 c39: x_1_0_8 + x_1_10_8 + x_1_1_8 + x_1_2_8 + x_1_3_8 + x_1_4_8 + x_1_5_8 + x_1_6_8 + x_1_7_8 + x_1_9_8 - z_1_8 = 0
 c40: x_1_8_0 + x_1_8_1 + x_1_8_10 + x_1_8_2 + x_1_8_3 + x_1_8_4 + x_1_8_5 + x_1_8_6 + x_1_8_7 + x_1_8_9 - z_1_8 = 0
 c41: x_1_0_9 + x_1_10_9 + x_1_1_9 + x_1_2_9 + x_1_3_9 + x_1_4_9 + x_1_5_9 + x_1_6_9 + x_1_7_9 + x_1_8_9 - z_1_9 = 0
 c42: x_1_9_0 + x_1_9_1 + x_1_9_10 + x_1_9_2 + x_1_9_3 + x_1_9_4 + x_1_9_5 + x_1_9_6 + x_1_9_7 + x_1_9_8 - z_1_9 = 0
 c43: x_1_0_10 + x_1_1_10 + x_1_2_10 + x_1_3_10 + x_1_4_10 + x_1_5_10 + x_1_6_10 + x_1_7_10 + x_1_8_10 + x_1_9_10 - z_1_10 = 0
 c44: x_1_10_0 + x_1_10_1 + x_1_10_2 + x_1_10_3 + x_1_10_4 + x_1_10_5 + x_1_10_6 + x_1_10_7 + x_1_10_8 + x_1_10_9 - z_1_10 = 0
 c45: z_0_1 + z_1_1 <= 1
 c46: z_0_2 + z_1_2 <= 1
 c47: z_0_3 + z_1_3 <= 1
 c48: z_0_4 + z_1_4 <= 1
 c49: z_0_5 + z_1_5 <= 1
 c50: z_0_6 + z_1_6 <= 1
 c51: z_0_7 + z_1_7 <= 1
 c52: z_0_8 + z_1_8 <= 1
 c53: z_0_9 + z_1_9 <= 1
 c54: z_0_10 + z_1_10 <= 1
 c55: ord_0_1 - z_0_1 >= 0
 c56: ord_0_1 - 10 z_0_1 <= 0
 c57: ord_0_2 - z_0_2 >= 0
 c58: ord_0_2 - 10 z_0_2 <= 0
 c59: ord_0_3 - z_0_3 >= 0
 c60: ord_0_3 - 10 z_0_3 <= 0
 c61: ord_0_4 - z_0_4 >= 0
 c62: ord_0_4 - 10 z_0_4 <= 0
 c63: ord_0_5 - z_0_5 >= 0
 c64: ord_0_5 - 10 z_0_5 <= 0
 c65: ord_0_6 - z_0_6 >= 0
 c66: ord_0_6 - 10 z_0_6 <= 0
 c67: ord_0_7 - z_0_7 >= 0
 c68: ord_0_7 - 10 z_0_7 <= 0
 c69: ord_0_8 - z_0_8 >= 0
 c70: ord_0_8 - 10 z_0_8 <= 0
 c71: ord_0_9 - z_0_9 >= 0
 c72: ord_0_9 - 10 z_0_9 <= 0
 c73: ord_0_10 - z_0_10 >= 0
 c74: ord_0_10 - 10 z_0_10 <= 0
 c75: ord_0_1 - ord_0_2 + 10 x_0_1_2 <= 9
 c76: ord_0_1 - ord_0_3 + 10 x_0_1_3 <= 9
 c77: ord_0_1 - ord_0_4 + 10 x_0_1_4 <= 9
 c78: ord_0_1 - ord_0_5 + 10 x_0_1_5 <= 9
 c79: ord_0_1 - ord_0_6 + 10 x_0_1_6 <= 9
 c80: ord_0_1 - ord_0_7 + 10 x_0_1_7 <= 9
 c81: ord_0_1 - ord_0_8 + 10 x_0_1_8 <= 9
 c82: ord_0_1 - ord_0_9 + 10 x_0_1_9 <= 9
 c83: ord_0_1 - ord_0_10 + 10 x_0_1_10 <= 9
 c84: - ord_0_1 + ord_0_2 + 10 x_0_2_1 <= 9
 c85: ord_0_2 - ord_0_3 + 10 x_0_2_3 <= 9
 c86: ord_0_2 - ord_0_4 + 10 x_0_2_4 <= 9
 c87: ord_0_2 - ord_0_5 + 10 x_0_2_5 <= 9
 c88: ord_0_2 - ord_0_6 + 10 x_0_2_6 <= 9
 c89: ord_0_2 - ord_0_7 + 10 x_0_2_7 <= 9
 c90: ord_0_2 - ord_0_8 + 10 x_0_2_8 <= 9
 c91: ord_0_2 - ord_0_9 + 10 x_0_2_9 <= 9
 c92: - ord_0_10 + ord_0_2 + 10 x_0_2_10 <= 9
 c93: - ord_0_1 + ord_0_3 + 10 x_0_3_1 <= 9
 c94: - ord_0_2 + ord_0_3 + 10 x_0_3_2 <= 9
 c95: ord_0_3 - ord_0_4 + 10 x_0_3_4 <= 9
 c96: ord_0_3 - ord_0_5 + 10 x_0_3_5 <= 9
 c97: ord_0_3 - ord_0_6 + 10 x_0_3_6 <= 9
 c98: ord_0_3 - ord_0_7 + 10 x_0_3_7 <= 9
 c99: ord_0_3 - ord_0_8 + 10 x_0_3_8 <= 9
 c100: ord_0_3 - ord_0_9 + 10 x_0_3_9 <= 9
 c101: - ord_0_10 + ord_0_3 + 10 x_0_3_10 <= 9
 c102: - ord_0_1 + ord_0_4 + 10 x_0_4_1 <= 9
 c103: - ord_0_2 + ord_0_4 + 10 x_0_4_2 <= 9
 c104: - ord_0_3 + ord_0_4 + 10 x_0_4_3 <= 9
 c105: ord_0_4 - ord_0_5 + 10 x_0_4_5 <= 9
 c106: ord_0_4 - ord_0_6 + 10 x_0_4_6 <= 9
 c107: ord_0_4 - ord_0_7 + 10 x_0_4_7 <= 9
 c108: ord_0_4 - ord_0_8 + 10 x_0_4_8 <= 9
 c109: ord_0_4 - ord_0_9 + 10 x_0_4_9 <= 9
 c110: - ord_0_10 + ord_0_4 + 10 x_0_4_10 <= 9
 c111: - ord_0_1 + ord_0_5 + 10 x_0_5_1 <= 9
 c112: - ord_0_2 + ord_0_5 + 10 x_0_5_2 <= 9
 c113: - ord_0_3 + ord_0_5 + 10 x_0_5_3 <= 9
 c114: - ord_0_4 + ord_0_5 + 10 x_0_5_4 <= 9
 c115: ord_0_5 - ord_0_6 + 10 x_0_5_6 <= 9
 c116: ord_0_5 - ord_0_7 + 10 x_0_5_7 <= 9
 c117: ord_0_5 - ord_0_8 + 10 x_0_5_8 <= 9
 c118: ord_0_5 - ord_0_9 + 10 x_0_5_9 <= 9
 c119: - ord_0_10 + ord_0_5 + 10 x_0_5_10 <= 9
 c120: - ord_0_1 + ord_0_6 + 10 x_0_6_1 <= 9
 c121: - ord_0_2 + ord_0_6 + 10 x_0_6_2 <= 9
 c122: - ord_0_3 + ord_0_6 + 10 x_0_6_3 <= 9
 c123: - ord_0_4 + ord_0_6 + 10 x_0_6_4 <= 9
 c124: - ord_0_5 + ord_0_6 + 10 x_0_6_5 <= 9
 c125: ord_0_6 - ord_0_7 + 10 x_0_6_7 <= 9
 c126: ord_0_6 - ord_0_8 + 10 x_0_6_8 <= 9
 c127: ord_0_6 - ord_0_9 + 10 x_0_6_9 <= 9
 c128: - ord_0_10 + ord_0_6 + 10 x_0_6_10 <= 9
 c129: - ord_0_1 + ord_0_7 + 10 x_0_7_1 <= 9
 c130: - ord_0_2 + ord_0_7 + 10 x_0_7_2 <= 9
 c131: - ord_0_3 + ord_0_7 + 10 x_0_7_3 <= 9
 c132: - ord_0_4 + ord_0_7 + 10 x_0_7_4 <= 9
 c133: - ord_0_5 + ord_0_7 + 10 x_0_7_5 <= 9
 c134: - ord_0_6 + ord_0_7 + 10 x_0_7_6 <= 9
 c135: ord_0_7 - ord_0_8 + 10 x_0_7_8 <= 9
 c136: ord_0_7 - ord_0_9 + 10 x_0_7_9 <= 9
 c137: - ord_0_10 + ord_0_7 + 10 x_0_7_10 <= 9
 c138: - ord_0_1 + ord_0_8 + 10 x_0_8_1 <= 9
 c139: - ord_0_2 + ord_0_8 + 10 x_0_8_2 <= 9
 c140: - ord_0_3 + ord_0_8 + 10 x_0_8_3 <= 9
 c141: - ord_0_4 + ord_0_8 + 10 x_0_8_4 <= 9
 c142: - ord_0_5 + ord_0_8 + 10 x_0_8_5 <= 9
 c143: - ord_0_6 + ord_0_8 + 10 x_0_8_6 <= 9
 c144: - ord_0_7 + ord_0_8 + 10 x_0_8_7 <= 9
 c145: ord_0_8 - ord_0_9 + 10 x_0_8_9 <= 9
 c146: - ord_0_10 + ord_0_8 + 10 x_0_8_10 <= 9
 c147: - ord_0_1 + ord_0_9 + 10 x_0_9_1 <= 9
 c148: - ord_0_2 + ord_0_9 + 10 x_0_9_2 <= 9
 c149: - ord_0_3 + ord_0_9 + 10 x_0_9_3 <= 9
 c150: - ord_0_4 + ord_0_9 + 10 x_0_9_4 <= 9
 c151: - ord_0_5 + ord_0_9 + 10 x_0_9_5 <= 9
 c152: - ord_0_6 + ord_0_9 + 10 x_0_9_6 <= 9
 c153: - ord_0_7 + ord_0_9 + 10 x_0_9_7 <= 9
 c154: - ord_0_8 + ord_0_9 + 10 x_0_9_8 <= 9
 c155: - ord_0_10 + ord_0_9 + 10 x_0_9_10 <= 9
 c156: - ord_0_1 + ord_0_10 + 10 x_0_10_1 <= 9
 c157: ord_0_10 - ord_0_2 + 10 x_0_10_2 <= 9
 c158: ord_0_10 - ord_0_3 + 10 x_0_10_3 <= 9
 c159: ord_0_10 - ord_0_4 + 10 x_0_10_4 <= 9
 c160: ord_0_10 - ord_0_5 + 10 x_0_10_5 <= 9
 c161: ord_0_10 - ord_0_6 + 10 x_0_10_6 <= 9
 c162: ord_0_10 - ord_0_7 + 10 x_0_10_7 <= 9
 c163: ord_0_10 - ord_0_8 + 10 x_0_10_8 <= 9
 c164: ord_0_10 - ord_0_9 + 10 x_0_10_9 <= 9
 c165: ord_1_1 - z_1_1 >= 0
 c166: ord_1_1 - 10 z_1_1 <= 0
 c167: ord_1_2 - z_1_2 >= 0
 c168: ord_1_2 - 10 z_1_2 <= 0
 c169: ord_1_3 - z_1_3 >= 0
 c170: ord_1_3 - 10 z_1_3 <= 0
 c171: ord_1_4 - z_1_4 >= 0
 c172: ord_1_4 - 10 z_1_4 <= 0
 c173: ord_1_5 - z_1_5 >= 0
 c174: ord_1_5 - 10 z_1_5 <= 0
 c175: ord_1_6 - z_1_6 >= 0
 c176: ord_1_6 - 10 z_1_6 <= 0
 c177: ord_1_7 - z_1_7 >= 0
 c178: ord_1_7 - 10 z_1_7 <= 0
 c179: ord_1_8 - z_1_8 >= 0
 c180: ord_1_8 - 10 z_1_8 <= 0
 c181: ord_1_9 - z_1_9 >= 0
 c182: ord_1_9 - 10 z_1_9 <= 0
 c183: ord_1_10 - z_1_10 >= 0
 c184: ord_1_10 - 10 z_1_10 <= 0
 c185: ord_1_1 - ord_1_2 + 10 x_1_1_2 <= 9
 c186: ord_1_1 - ord_1_3 + 10 x_1_1_3 <= 9
 c187: ord_1_1 - ord_1_4 + 10 x_1_1_4 <= 9
 c188: ord_1_1 - ord_1_5 + 10 x_1_1_5 <= 9
 c189: ord_1_1 - ord_1_6 + 10 x_1_1_6 <= 9
 c190: ord_1_1 - ord_1_7 + 10 x_1_1_7 <= 9
 c191: ord_1_1 - ord_1_8 + 10 x_1_1_8 <= 9
 c192: ord_1_1 - ord_1_9 + 10 x_1_1_9 <= 9
 c193: ord_1_1 - ord_1_10 + 10 x_1_1_10 <= 9
 c194: - ord_1_1 + ord_1_2 + 10 x_1_2_1 <= 9
 c195: ord_1_2 - ord_1_3 + 10 x_1_2_3 <= 9
 c196: ord_1_2 - ord_1_4 + 10 x_1_2_4 <= 9
 c197: ord_1_2 - ord_1_5 + 10 x_1_2_5 <= 9
 c198: ord_1_2 - ord_1_6 + 10 x_1_2_6 <= 9
 c199: ord_1_2 - ord_1_7 + 10 x_1_2_7 <= 9
 c200: ord_1_2 - ord_1_8 + 10 x_1_2_8 <= 9
 c201: ord_1_2 - ord_1_9 + 10 x_1_2_9 <= 9
 c202: - ord_1_10 + ord_1_2 + 10 x_1_2_10 <= 9
 c203: - ord_1_1 + ord_1_3 + 10 x_1_3_1 <= 9
 c204: - ord_1_2 + ord_1_3 + 10 x_1_3_2 <= 9
 c205: ord_1_3 - ord_1_4 + 10 x_1_3_4 <= 9
 c206: ord_1_3 - ord_1_5 + 10 x_1_3_5 <= 9
 c207: ord_1_3 - ord_1_6 + 10 x_1_3_6 <= 9
 c208: ord_1_3 - ord_1_7 + 10 x_1_3_7 <= 9
 c209: ord_1_3 - ord_1_8 + 10 x_1_3_8 <= 9
 c210: ord_1_3 - ord_1_9 + 10 x_1_3_9 <= 9
 c211: - ord_1_10 + ord_1_3 + 10 x_1_3_10 <= 9
 c212: - ord_1_1 + ord_1_4 + 10 x_1_4_1 <= 9
 c213: - ord_1_2 + ord_1_4 + 10 x_1_4_2 <= 9
 c214: - ord_1_3 + ord_1_4 + 10 x_1_4_3 <= 9
 c215: ord_1_4 - ord_1_5 + 10 x_1_4_5 <= 9
 c216: ord_1_4 - ord_1_6 + 10 x_1_4_6 <= 9
 c217: ord_1_4 - ord_1_7 + 10 x_1_4_7 <= 9
 c218: ord_1_4 - ord_1_8 + 10 x_1_4_8 <= 9
 c219: ord_1_4 - ord_1_9 + 10 x_1_4_9 <= 9
 c220: - ord_1_10 + ord_1_4 + 10 x_1_4_10 <= 9
 c221: - ord_1_1 + ord_1_5 + 10 x_1_5_1 <= 9
 c222: - ord_1_2 + ord_1_5 + 10 x_1_5_2 <= 9
 c223: - ord_1_3 + ord_1_5 + 10 x_1_5_3 <= 9
 c224: - ord_1_4 + ord_1_5 + 10 x_1_5_4 <= 9
 c225: ord_1_5 - ord_1_6 + 10 x_1_5_6 <= 9
 c226: ord_1_5 - ord_1_7 + 10 x_1_5_7 <= 9
 c227: ord_1_5 - ord_1_8 + 10 x_1_5_8 <= 9
 c228: ord_1_5 - ord_1_9 + 10 x_1_5_9 <= 9
 c229: - ord_1_10 + ord_1_5 + 10 x_1_5_10 <= 9
 c230: - ord_1_1 + ord_1_6 + 10 x_1_6_1 <= 9
 c231: - ord_1_2 + ord_1_6 + 10 x_1_6_2 <= 9
 c232: - ord_1_3 + ord_1_6 + 10 x_1_6_3 <= 9
 c233: - ord_1_4 + ord_1_6 + 10 x_1_6_4 <= 9
 c234: - ord_1_5 + ord_1_6 + 10 x_1_6_5 <= 9
 c235: ord_1_6 - ord_1_7 + 10 x_1_6_7 <= 9
 c236: ord_1_6 - ord_1_8 + 10 x_1_6_8 <= 9
 c237: ord_1_6 - ord_1_9 + 10 x_1_6_9 <= 9
 c238: - ord_1_10 + ord_1_6 + 10 x_1_6_10 <= 9
 c239: - ord_1_1 + ord_1_7 + 10 x_1_7_1 <= 9
 c240: - ord_1_2 + ord_1_7 + 10 x_1_7_2 <= 9
 c241: - ord_1_3 + ord_1_7 + 10 x_1_7_3 <= 9
 c242: - ord_1_4 + ord_1_7 + 10 x_1_7_4 <= 9
 c243: - ord_1_5 + ord_1_7 + 10 x_1_7_5 <= 9
 c244: - ord_1_6 + ord_1_7 + 10 x_1_7_6 <= 9
 c245: ord_1_7 - ord_1_8 + 10 x_1_7_8 <= 9
 c246: ord_1_7 - ord_1_9 + 10 x_1_7_9 <= 9
 c247: - ord_1_10 + ord_1_7 + 10 x_1_7_10 <= 9
 c248: - ord_1_1 + ord_1_8 + 10 x_1_8_1 <= 9
 c249: - ord_1_2 + ord_1_8 + 10 x_1_8_2 <= 9
 c250: - ord_1_3 + ord_1_8 + 10 x_1_8_3 <= 9
 c251: - ord_1_4 + ord_1_8 + 10 x_1_8_4 <= 9
 c252: - ord_1_5 + ord_1_8 + 10 x_1_8_5 <= 9
 c253: - ord_1_6 + ord_1_8 + 10 x_1_8_6 <= 9
 c254: - ord_1_7 + ord_1_8 + 10 x_1_8_7 <= 9
 c255: ord_1_8 - ord_1_9 + 10 x_1_8_9 <= 9
 c256: - ord_1_10 + ord_1_8 + 10 x_1_8_10 <= 9
 c257: - ord_1_1 + ord_1_9 + 10 x_1_9_1 <= 9
 c258: - ord_1_2 + ord_1_9 + 10 x_1_9_2 <= 9
 c259: - ord_1_3 + ord_1_9 + 10 x_1_9_3 <= 9
 c260: - ord_1_4 + ord_1_9 + 10 x_1_9_4 <= 9
 c261: - ord_1_5 + ord_1_9 + 10 x_1_9_5 <= 9
 c262: - ord_1_6 + ord_1_9 + 10 x_1_9_6 <= 9
 c263: - ord_1_7 + ord_1_9 + 10 x_1_9_7 <= 9
 c264: - ord_1_8 + ord_1_9 + 10 x_1_9_8 <= 9
 c265: - ord_1_10 + ord_1_9 + 10 x_1_9_10 <= 9
 c266: - ord_1_1 + ord_1_10 + 10 x_1_10_1 <= 9
 c267: ord_1_10 - ord_1_2 + 10 x_1_10_2 <= 9
 c268: ord_1_10 - ord_1_3 + 10 x_1_10_3 <= 9
 c269: ord_1_10 - ord_1_4 + 10 x_1_10_4 <= 9
 c270: ord_1_10 - ord_1_5 + 10 x_1_10_5 <= 9
 c271: ord_1_10 - ord_1_6 + 10 x_1_10_6 <= 9
 c272: ord_1_10 - ord_1_7 + 10 x_1_10_7 <= 9
 c273: ord_1_10 - ord_1_8 + 10 x_1_10_8 <= 9
 c274: ord_1_10 - ord_1_9 + 10 x_1_10_9 <= 9
 c275: p_0_1 - 6 z_0_1 <= 0
 c276: d_0_1 - 20 z_0_1 <= 0
 c277: mode_0_1 - z_0_1 <= 0
 c278: - 6 mode_0_1 + p_0_1 <= 0
 c279: d_0_1 + 20 mode_0_1 - 20 z_0_1 <= 0
 c280: d_0_1 + p_0_1 - z_0_1 >= 0
 c281: load_0_1 - 20 z_0_1 <= 0
 c282: p_0_2 - 20 z_0_2 <= 0
 c283: d_0_2 - 10 z_0_2 <= 0
 c284: mode_0_2 - z_0_2 <= 0
 c285: - 20 mode_0_2 + p_0_2 <= 0
 c286: d_0_2 + 10 mode_0_2 - 10 z_0_2 <= 0
 c287: d_0_2 + p_0_2 - z_0_2 >= 0
 c288: load_0_2 - 20 z_0_2 <= 0
 c289: p_0_3 - 3 z_0_3 <= 0
 c290: d_0_3 - 20 z_0_3 <= 0
 c291: mode_0_3 - z_0_3 <= 0
 c292: - 3 mode_0_3 + p_0_3 <= 0
 c293: d_0_3 + 20 mode_0_3 - 20 z_0_3 <= 0
 c294: d_0_3 + p_0_3 - z_0_3 >= 0
 c295: load_0_3 - 20 z_0_3 <= 0
 c296: p_0_4 - 5 z_0_4 <= 0
 c297: d_0_4 - 20 z_0_4 <= 0
 c298: mode_0_4 - z_0_4 <= 0
 c299: - 5 mode_0_4 + p_0_4 <= 0
 c300: d_0_4 + 20 mode_0_4 - 20 z_0_4 <= 0
 c301: d_0_4 + p_0_4 - z_0_4 >= 0
 c302: load_0_4 - 20 z_0_4 <= 0
 c303: p_0_5 - 18 z_0_5 <= 0
 c304: d_0_5 - 20 z_0_5 <= 0
 c305: mode_0_5 - z_0_5 <= 0
 c306: - 18 mode_0_5 + p_0_5 <= 0
 c307: d_0_5 + 20 mode_0_5 - 20 z_0_5 <= 0
 c308: d_0_5 + p_0_5 - z_0_5 >= 0
 c309: load_0_5 - 20 z_0_5 <= 0
 c310: p_0_6 - 3 z_0_6 <= 0
 c311: d_0_6 - 20 z_0_6 <= 0
 c312: mode_0_6 - z_0_6 <= 0
 c313: - 3 mode_0_6 + p_0_6 <= 0
 c314: d_0_6 + 20 mode_0_6 - 20 z_0_6 <= 0
 c315: d_0_6 + p_0_6 - z_0_6 >= 0
 c316: load_0_6 - 20 z_0_6 <= 0
 c317: p_0_7 <= 0
 c318: d_0_7 - 20 z_0_7 <= 0
 c319: mode_0_7 - z_0_7 <= 0
 c320: p_0_7 <= 0
 c321: d_0_7 + 20 mode_0_7 - 20 z_0_7 <= 0
 c322: d_0_7 + p_0_7 - z_0_7 >= 0
 c323: load_0_7 - 20 z_0_7 <= 0
 c324: p_0_8 - z_0_8 <= 0
 c325: d_0_8 - 20 z_0_8 <= 0
 c326: mode_0_8 - z_0_8 <= 0
 c327: - mode_0_8 + p_0_8 <= 0
 c328: d_0_8 + 20 mode_0_8 - 20 z_0_8 <= 0
 c329: d_0_8 + p_0_8 - z_0_8 >= 0
 c330: load_0_8 - 20 z_0_8 <= 0
 c331: p_0_9 - 6 z_0_9 <= 0
 c332: d_0_9 - 20 z_0_9 <= 0
 c333: mode_0_9 - z_0_9 <= 0
 c334: - 6 mode_0_9 + p_0_9 <= 0
 c335: d_0_9 + 20 mode_0_9 - 20 z_0_9 <= 0
 c336: d_0_9 + p_0_9 - z_0_9 >= 0
 c337: load_0_9 - 20 z_0_9 <= 0
 c338: p_0_10 - 20 z_0_10 <= 0
 c339: d_0_10 - 20 z_0_10 <= 0
 c340: mode_0_10 - z_0_10 <= 0
 c341: - 20 mode_0_10 + p_0_10 <= 0
 c342: d_0_10 + 20 mode_0_10 - 20 z_0_10 <= 0
 c343: d_0_10 + p_0_10 - z_0_10 >= 0
 c344: load_0_10 - 20 z_0_10 <= 0
 c345: d_0_1 + load_0_1 - p_0_1 + 20 x_0_0_1 <= 20
 c346: d_0_1 + load_0_1 - p_0_1 - 20 x_0_0_1 >= -20
 c347: d_0_2 + load_0_2 - p_0_2 + 20 x_0_0_2 <= 20
 c348: d_0_2 + load_0_2 - p_0_2 - 20 x_0_0_2 >= -20
 c349: d_0_3 + load_0_3 - p_0_3 + 20 x_0_0_3 <= 20
 c350: d_0_3 + load_0_3 - p_0_3 - 20 x_0_0_3 >= -20
 c351: d_0_4 + load_0_4 - p_0_4 + 20 x_0_0_4 <= 20
 c352: d_0_4 + load_0_4 - p_0_4 - 20 x_0_0_4 >= -20
 c353: d_0_5 + load_0_5 - p_0_5 + 20 x_0_0_5 <= 20
 c354: d_0_5 + load_0_5 - p_0_5 - 20 x_0_0_5 >= -20
 c355: d_0_6 + load_0_6 - p_0_6 + 20 x_0_0_6 <= 20
 c356: d_0_6 + load_0_6 - p_0_6 - 20 x_0_0_6 >= -20
 c357: d_0_7 + load_0_7 - p_0_7 + 20 x_0_0_7 <= 20
 c358: d_0_7 + load_0_7 - p_0_7 - 20 x_0_0_7 >= -20
 c359: d_0_8 + load_0_8 - p_0_8 + 20 x_0_0_8 <= 20
 c360: d_0_8 + load_0_8 - p_0_8 - 20 x_0_0_8 >= -20
 c361: d_0_9 + load_0_9 - p_0_9 + 20 x_0_0_9 <= 20
 c362: d_0_9 + load_0_9 - p_0_9 - 20 x_0_0_9 >= -20
 c363: d_0_10 + load_0_10 - p_0_10 + 20 x_0_0_10 <= 20
 c364: d_0_10 + load_0_10 - p_0_10 - 20 x_0_0_10 >= -20
 c365: d_0_2 - load_0_1 + load_0_2 - p_0_2 + 20 x_0_1_2 <= 20
 c366: d_0_2 - load_0_1 + load_0_2 - p_0_2 - 20 x_0_1_2 >= -20
 c367: d_0_3 - load_0_1 + load_0_3 - p_0_3 + 20 x_0_1_3 <= 20
 c368: d_0_3 - load_0_1 + load_0_3 - p_0_3 - 20 x_0_1_3 >= -20
 c369: d_0_4 - load_0_1 + load_0_4 - p_0_4 + 20 x_0_1_4 <= 20
 c370: d_0_4 - load_0_1 + load_0_4 - p_0_4 - 20 x_0_1_4 >= -20
 c371: d_0_5 - load_0_1 + load_0_5 - p_0_5 + 20 x_0_1_5 <= 20
 c372: d_0_5 - load_0_1 + load_0_5 - p_0_5 - 20 x_0_1_5 >= -20
 c373: d_0_6 - load_0_1 + load_0_6 - p_0_6 + 20 x_0_1_6 <= 20
 c374: d_0_6 - load_0_1 + load_0_6 - p_0_6 - 20 x_0_1_6 >= -20
 c375: d_0_7 - load_0_1 + load_0_7 - p_0_7 + 20 x_0_1_7 <= 20
 c376: d_0_7 - load_0_1 + load_0_7 - p_0_7 - 20 x_0_1_7 >= -20
 c377: d_0_8 - load_0_1 + load_0_8 - p_0_8 + 20 x_0_1_8 <= 20
 c378: d_0_8 - load_0_1 + load_0_8 - p_0_8 - 20 x_0_1_8 >= -20
 c379: d_0_9 - load_0_1 + load_0_9 - p_0_9 + 20 x_0_1_9 <= 20
 c380: d_0_9 - load_0_1 + load_0_9 - p_0_9 - 20 x_0_1_9 >= -20
 c381: d_0_10 - load_0_1 + load_0_10 - p_0_10 + 20 x_0_1_10 <= 20
 c382: d_0_10 - load_0_1 + load_0_10 - p_0_10 - 20 x_0_1_10 >= -20
 c383: d_0_1 + load_0_1 - load_0_2 - p_0_1 + 20 x_0_2_1 <= 20
 c384: d_0_1 + load_0_1 - load_0_2 - p_0_1 - 20 x_0_2_1 >= -20
 c385: d_0_3 - load_0_2 + load_0_3 - p_0_3 + 20 x_0_2_3 <= 20
 c386: d_0_3 - load_0_2 + load_0_3 - p_0_3 - 20 x_0_2_3 >= -20
 c387: d_0_4 - load_0_2 + load_0_4 - p_0_4 + 20 x_0_2_4 <= 20
 c388: d_0_4 - load_0_2 + load_0_4 - p_0_4 - 20 x_0_2_4 >= -20
 c389: d_0_5 - load_0_2 + load_0_5 - p_0_5 + 20 x_0_2_5 <= 20
 c390: d_0_5 - load_0_2 + load_0_5 - p_0_5 - 20 x_0_2_5 >= -20
 c391: d_0_6 - load_0_2 + load_0_6 - p_0_6 + 20 x_0_2_6 <= 20
 c392: d_0_6 - load_0_2 + load_0_6 - p_0_6 - 20 x_0_2_6 >= -20
 c393: d_0_7 - load_0_2 + load_0_7 - p_0_7 + 20 x_0_2_7 <= 20
 c394: d_0_7 - load_0_2 + load_0_7 - p_0_7 - 20 x_0_2_7 >= -20
 c395: d_0_8 - load_0_2 + load_0_8 - p_0_8 + 20 x_0_2_8 <= 20
 c396: d_0_8 - load_0_2 + load_0_8 - p_0_8 - 20 x_0_2_8 >= -20
 c397: d_0_9 - load_0_2 + load_0_9 - p_0_9 + 20 x_0_2_9 <= 20
 c398: d_0_9 - load_0_2 + load_0_9 - p_0_9 - 20 x_0_2_9 >= -20
 c399: d_0_10 + load_0_10 - load_0_2 - p_0_10 + 20 x_0_2_10 <= 20
 c400: d_0_10 + load_0_10 - load_0_2 - p_0_10 - 20 x_0_2_10 >= -20
 c401: d_0_1 + load_0_1 - load_0_3 - p_0_1 + 20 x_0_3_1 <= 20
 c402: d_0_1 + load_0_1 - load_0_3 - p_0_1 - 20 x_0_3_1 >= -20
 c403: d_0_2 + load_0_2 - load_0_3 - p_0_2 + 20 x_0_3_2 <= 20
 c404: d_0_2 + load_0_2 - load_0_3 - p_0_2 - 20 x_0_3_2 >= -20
 c405: d_0_4 - load_0_3 + load_0_4 - p_0_4 + 20 x_0_3_4 <= 20
 c406: d_0_4 - load_0_3 + load_0_4 - p_0_4 - 20 x_0_3_4 >= -20
 c407: d_0_5 - load_0_3 + load_0_5 - p_0_5 + 20 x_0_3_5 <= 20
 c408: d_0_5 - load_0_3 + load_0_5 - p_0_5 - 20 x_0_3_5 >= -20
 c409: d_0_6 - load_0_3 + load_0_6 - p_0_6 + 20 x_0_3_6 <= 20
 c410: d_0_6 - load_0_3 + load_0_6 - p_0_6 - 20 x_0_3_6 >= -20
 c411: d_0_7 - load_0_3 + load_0_7 - p_0_7 + 20 x_0_3_7 <= 20
 c412: d_0_7 - load_0_3 + load_0_7 - p_0_7 - 20 x_0_3_7 >= -20
 c413: d_0_8 - load_0_3 + load_0_8 - p_0_8 + 20 x_0_3_8 <= 20
 c414: d_0_8 - load_0_3 + load_0_8 - p_0_8 - 20 x_0_3_8 >= -20
 c415: d_0_9 - load_0_3 + load_0_9 - p_0_9 + 20 x_0_3_9 <= 20
 c416: d_0_9 - load_0_3 + load_0_9 - p_0_9 - 20 x_0_3_9 >= -20
 c417: d_0_10 + load_0_10 - load_0_3 - p_0_10 + 20 x_0_3_10 <= 20
 c418: d_0_10 + load_0_10 - load_0_3 - p_0_10 - 20 x_0_3_10 >= -20
 c419: d_0_1 + load_0_1 - load_0_4 - p_0_1 + 20 x_0_4_1 <= 20
 c420: d_0_1 + load_0_1 - load_0_4 - p_0_1 - 20 x_0_4_1 >= -20
 c421: d_0_2 + load_0_2 - load_0_4 - p_0_2 + 20 x_0_4_2 <= 20
 c422: d_0_2 + load_0_2 - load_0_4 - p_0_2 - 20 x_0_4_2 >= -20
 c423: d_0_3 + load_0_3 - load_0_4 - p_0_3 + 20 x_0_4_3 <= 20
 c424: d_0_3 + load_0_3 - load_0_4 - p_0_3 - 20 x_0_4_3 >= -20
 c425: d_0_5 - load_0_4 + load_0_5 - p_0_5 + 20 x_0_4_5 <= 20
 c426: d_0_5 - load_0_4 + load_0_5 - p_0_5 - 20 x_0_4_5 >= -20
 c427: d_0_6 - load_0_4 + load_0_6 - p_0_6 + 20 x_0_4_6 <= 20
 c428: d_0_6 - load_0_4 + load_0_6 - p_0_6 - 20 x_0_4_6 >= -20
 c429: d_0_7 - load_0_4 + load_0_7 - p_0_7 + 20 x_0_4_7 <= 20
 c430: d_0_7 - load_0_4 + load_0_7 - p_0_7 - 20 x_0_4_7 >= -20
 c431: d_0_8 - load_0_4 + load_0_8 - p_0_8 + 20 x_0_4_8 <= 20
 c432: d_0_8 - load_0_4 + load_0_8 - p_0_8 - 20 x_0_4_8 >= -20
 c433: d_0_9 - load_0_4 + load_0_9 - p_0_9 + 20 x_0_4_9 <= 20
 c434: d_0_9 - load_0_4 + load_0_9 - p_0_9 - 20 x_0_4_9 >= -20
 c435: d_0_10 + load_0_10 - load_0_4 - p_0_10 + 20 x_0_4_10 <= 20
 c436: d_0_10 + load_0_10 - load_0_4 - p_0_10 - 20 x_0_4_10 >= -20
 c437: d_0_1 + load_0_1 - load_0_5 - p_0_1 + 20 x_0_5_1 <= 20
 c438: d_0_1 + load_0_1 - load_0_5 - p_0_1 - 20 x_0_5_1 >= -20
 c439: d_0_2 + load_0_2 - load_0_5 - p_0_2 + 20 x_0_5_2 <= 20
 c440: d_0_2 + load_0_2 - load_0_5 - p_0_2 - 20 x_0_5_2 >= -20
 c441: d_0_3 + load_0_3 - load_0_5 - p_0_3 + 20 x_0_5_3 <= 20
 c442: d_0_3 + load_0_3 - load_0_5 - p_0_3 - 20 x_0_5_3 >= -20
 c443: d_0_4 + load_0_4 - load_0_5 - p_0_4 + 20 x_0_5_4 <= 20
 c444: d_0_4 + load_0_4 - load_0_5 - p_0_4 - 20 x_0_5_4 >= -20
 c445: d_0_6 - load_0_5 + load_0_6 - p_0_6 + 20 x_0_5_6 <= 20
 c446: d_0_6 - load_0_5 + load_0_6 - p_0_6 - 20 x_0_5_6 >= -20
 c447: d_0_7 - load_0_5 + load_0_7 - p_0_7 + 20 x_0_5_7 <= 20
 c448: d_0_7 - load_0_5 + load_0_7 - p_0_7 - 20 x_0_5_7 >= -20
 c449: d_0_8 - load_0_5 + load_0_8 - p_0_8 + 20 x_0_5_8 <= 20
 c450: d_0_8 - load_0_5 + load_0_8 - p_0_8 - 20 x_0_5_8 >= -20
 c451: d_0_9 - load_0_5 + load_0_9 - p_0_9 + 20 x_0_5_9 <= 20
 c452: d_0_9 - load_0_5 + load_0_9 - p_0_9 - 20 x_0_5_9 >= -20
 c453: d_0_10 + load_0_10 - load_0_5 - p_0_10 + 20 x_0_5_10 <= 20
 c454: d_0_10 + load_0_10 - load_0_5 - p_0_10 - 20 x_0_5_10 >= -20
 c455: d_0_1 + load_0_1 - load_0_6 - p_0_1 + 20 x_0_6_1 <= 20
 c456: d_0_1 + load_0_1 - load_0_6 - p_0_1 - 20 x_0_6_1 >= -20
 c457: d_0_2 + load_0_2 - load_0_6 - p_0_2 + 20 x_0_6_2 <= 20
 c458: d_0_2 + load_0_2 - load_0_6 - p_0_2 - 20 x_0_6_2 >= -20
 c459: d_0_3 + load_0_3 - load_0_6 - p_0_3 + 20 x_0_6_3 <= 20
 c460: d_0_3 + load_0_3 - load_0_6 - p_0_3 - 20 x_0_6_3 >= -20
 c461: d_0_4 + load_0_4 - load_0_6 - p_0_4 + 20 x_0_6_4 <= 20
 c462: d_0_4 + load_0_4 - load_0_6 - p_0_4 - 20 x_0_6_4 >= -20
 c463: d_0_5 + load_0_5 - load_0_6 - p_0_5 + 20 x_0_6_5 <= 20
 c464: d_0_5 + load_0_5 - load_0_6 - p_0_5 - 20 x_0_6_5 >= -20
 c465: d_0_7 - load_0_6 + load_0_7 - p_0_7 + 20 x_0_6_7 <= 20
 c466: d_0_7 - load_0_6 + load_0_7 - p_0_7 - 20 x_0_6_7 >= -20
 c467: d_0_8 - load_0_6 + load_0_8 - p_0_8 + 20 x_0_6_8 <= 20
 c468: d_0_8 - load_0_6 + load_0_8 - p_0_8 - 20 x_0_6_8 >= -20
 c469: d_0_9 - load_0_6 + load_0_9 - p_0_9 + 20 x_0_6_9 <= 20
 c470: d_0_9 - load_0_6 + load_0_9 - p_0_9 - 20 x_0_6_9 >= -20
 c471: d_0_10 + load_0_10 - load_0_6 - p_0_10 + 20 x_0_6_10 <= 20
 c472: d_0_10 + load_0_10 - load_0_6 - p_0_10 - 20 x_0_6_10 >= -20
 c473: d_0_1 + load_0_1 - load_0_7 - p_0_1 + 20 x_0_7_1 <= 20
 c474: d_0_1 + load_0_1 - load_0_7 - p_0_1 - 20 x_0_7_1 >= -20
 c475: d_0_2 + load_0_2 - load_0_7 - p_0_2 + 20 x_0_7_2 <= 20
 c476: d_0_2 + load_0_2 - load_0_7 - p_0_2 - 20 x_0_7_2 >= -20
 c477: d_0_3 + load_0_3 - load_0_7 - p_0_3 + 20 x_0_7_3 <= 20
 c478: d_0_3 + load_0_3 - load_0_7 - p_0_3 - 20 x_0_7_3 >= -20
 c479: d_0_4 + load_0_4 - load_0_7 - p_0_4 + 20 x_0_7_4 <= 20
 c480: d_0_4 + load_0_4 - load_0_7 - p_0_4 - 20 x_0_7_4 >= -20
 c481: d_0_5 + load_0_5 - load_0_7 - p_0_5 + 20 x_0_7_5 <= 20
 c482: d_0_5 + load_0_5 - load_0_7 - p_0_5 - 20 x_0_7_5 >= -20
 c483: d_0_6 + load_0_6 - load_0_7 - p_0_6 + 20 x_0_7_6 <= 20
 c484: d_0_6 + load_0_6 - load_0_7 - p_0_6 - 20 x_0_7_6 >= -20
 c485: d_0_8 - load_0_7 + load_0_8 - p_0_8 + 20 x_0_7_8 <= 20
 c486: d_0_8 - load_0_7 + load_0_8 - p_0_8 - 20 x_0_7_8 >= -20
 c487: d_0_9 - load_0_7 + load_0_9 - p_0_9 + 20 x_0_7_9 <= 20
 c488: d_0_9 - load_0_7 + load_0_9 - p_0_9 - 20 x_0_7_9 >= -20
 c489: d_0_10 + load_0_10 - load_0_7 - p_0_10 + 20 x_0_7_10 <= 20
 c490: d_0_10 + load_0_10 - load_0_7 - p_0_10 - 20 x_0_7_10 >= -20
 c491: d_0_1 + load_0_1 - load_0_8 - p_0_1 + 20 x_0_8_1 <= 20
 c492: d_0_1 + load_0_1 - load_0_8 - p_0_1 - 20 x_0_8_1 >= -20
 c493: d_0_2 + load_0_2 - load_0_8 - p_0_2 + 20 x_0_8_2 <= 20
 c494: d_0_2 + load_0_2 - load_0_8 - p_0_2 - 20 x_0_8_2 >= -20
 c495: d_0_3 + load_0_3 - load_0_8 - p_0_3 + 20 x_0_8_3 <= 20
 c496: d_0_3 + load_0_3 - load_0_8 - p_0_3 - 20 x_0_8_3 >= -20
 c497: d_0_4 + load_0_4 - load_0_8 - p_0_4 + 20 x_0_8_4 <= 20
 c498: d_0_4 + load_0_4 - load_0_8 - p_0_4 - 20 x_0_8_4 >= -20
 c499: d_0_5 + load_0_5 - load_0_8 - p_0_5 + 20 x_0_8_5 <= 20
 c500: d_0_5 + load_0_5 - load_0_8 - p_0_5 - 20 x_0_8_5 >= -20
 c501: d_0_6 + load_0_6 - load_0_8 - p_0_6 + 20 x_0_8_6 <= 20
 c502: d_0_6 + load_0_6 - load_0_8 - p_0_6 - 20 x_0_8_6 >= -20
 c503: d_0_7 + load_0_7 - load_0_8 - p_0_7 + 20 x_0_8_7 <= 20
 c504: d_0_7 + load_0_7 - load_0_8 - p_0_7 - 20 x_0_8_7 >= -20
 c505: d_0_9 - load_0_8 + load_0_9 - p_0_9 + 20 x_0_8_9 <= 20
 c506: d_0_9 - load_0_8 + load_0_9 - p_0_9 - 20 x_0_8_9 >= -20
 c507: d_0_10 + load_0_10 - load_0_8 - p_0_10 + 20 x_0_8_10 <= 20
 c508: d_0_10 + load_0_10 - load_0_8 - p_0_10 - 20 x_0_8_10 >= -20
 c509: d_0_1 + load_0_1 - load_0_9 - p_0_1 + 20 x_0_9_1 <= 20
 c510: d_0_1 + load_0_1 - load_0_9 - p_0_1 - 20 x_0_9_1 >= -20
 c511: d_0_2 + load_0_2 - load_0_9 - p_0_2 + 20 x_0_9_2 <= 20
 c512: d_0_2 + load_0_2 - load_0_9 - p_0_2 - 20 x_0_9_2 >= -20
 c513: d_0_3 + load_0_3 - load_0_9 - p_0_3 + 20 x_0_9_3 <= 20
 c514: d_0_3 + load_0_3 - load_0_9 - p_0_3 - 20 x_0_9_3 >= -20
 c515: d_0_4 + load_0_4 - load_0_9 - p_0_4 + 20 x_0_9_4 <= 20
 c516: d_0_4 + load_0_4 - load_0_9 - p_0_4 - 20 x_0_9_4 >= -20
 c517: d_0_5 + load_0_5 - load_0_9 - p_0_5 + 20 x_0_9_5 <= 20
 c518: d_0_5 + load_0_5 - load_0_9 - p_0_5 - 20 x_0_9_5 >= -20
 c519: d_0_6 + load_0_6 - load_0_9 - p_0_6 + 20 x_0_9_6 <= 20
 c520: d_0_6 + load_0_6 - load_0_9 - p_0_6 - 20 x_0_9_6 >= -20
 c521: d_0_7 + load_0_7 - load_0_9 - p_0_7 + 20 x_0_9_7 <= 20
 c522: d_0_7 + load_0_7 - load_0_9 - p_0_7 - 20 x_0_9_7 >= -20
 c523: d_0_8 + load_0_8 - load_0_9 - p_0_8 + 20 x_0_9_8 <= 20
 c524: d_0_8 + load_0_8 - load_0_9 - p_0_8 - 20 x_0_9_8 >= -20
 c525: d_0_10 + load_0_10 - load_0_9 - p_0_10 + 20 x_0_9_10 <= 20
 c526: d_0_10 + load_0_10 - load_0_9 - p_0_10 - 20 x_0_9_10 >= -20
 c527: d_0_1 + load_0_1 - load_0_10 - p_0_1 + 20 x_0_10_1 <= 20
 c528: d_0_1 + load_0_1 - load_0_10 - p_0_1 - 20 x_0_10_1 >= -20
 c529: d_0_2 - load_0_10 + load_0_2 - p_0_2 + 20 x_0_10_2 <= 20
 c530: d_0_2 - load_0_10 + load_0_2 - p_0_2 - 20 x_0_10_2 >= -20
 c531: d_0_3 - load_0_10 + load_0_3 - p_0_3 + 20 x_0_10_3 <= 20
 c532: d_0_3 - load_0_10 + load_0_3 - p_0_3 - 20 x_0_10_3 >= -20
 c533: d_0_4 - load_0_10 + load_0_4 - p_0_4 + 20 x_0_10_4 <= 20
 c534: d_0_4 - load_0_10 + load_0_4 - p_0_4 - 20 x_0_10_4 >= -20
 c535: d_0_5 - load_0_10 + load_0_5 - p_0_5 + 20 x_0_10_5 <= 20
 c536: d_0_5 - load_0_10 + load_0_5 - p_0_5 - 20 x_0_10_5 >= -20
 c537: d_0_6 - load_0_10 + load_0_6 - p_0_6 + 20 x_0_10_6 <= 20
 c538: d_0_6 - load_0_10 + load_0_6 - p_0_6 - 20 x_0_10_6 >= -20
 c539: d_0_7 - load_0_10 + load_0_7 - p_0_7 + 20 x_0_10_7 <= 20
 c540: d_0_7 - load_0_10 + load_0_7 - p_0_7 - 20 x_0_10_7 >= -20
 c541: d_0_8 - load_0_10 + load_0_8 - p_0_8 + 20 x_0_10_8 <= 20
 c542: d_0_8 - load_0_10 + load_0_8 - p_0_8 - 20 x_0_10_8 >= -20
 c543: d_0_9 - load_0_10 + load_0_9 - p_0_9 + 20 x_0_10_9 <= 20
 c544: d_0_9 - load_0_10 + load_0_9 - p_0_9 - 20 x_0_10_9 >= -20
 c545: - d_0_1 - d_0_10 - d_0_2 - d_0_3 - d_0_4 - d_0_5 - d_0_6 - d_0_7 - d_0_8 - d_0_9 + p_0_1 + p_0_10 + p_0_2 + p_0_3 + p_0_4 + p_0_5 + p_0_6 + p_0_7 + p_0_8 + p_0_9 >= 0
 c546: 120 p_0_1 + 120 p_0_10 + 120 p_0_2 + 120 p_0_3 + 120 p_0_4 + 120 p_0_5 + 120 p_0_6 + 120 p_0_7 + 120 p_0_8 + 120 p_0_9 + 339.67976825226879 x_0_0_1 + 224.76867693619124 x_0_0_10 + 268.18783875151559 x_0_0_2 + 335.17981546756471 x_0_0_3 + 178.29812511391734 x_0_0_4 + 262.62406613087313 x_0_0_5 + 235.44951925925173 x_0_0_6 + 277.52320328773664 x_0_0_7 + 176.96528974035212 x_0_0_8 + 242.99073179215836 x_0_0_9 + 224.76867693619124 x_0_10_0 + 116.29099119366674 x_0_10_1 + 449.46599593054549 x_0_10_2 + 502.84122543824611 x_0_10_3 + 47.233457656973378 x_0_10_4 + 458.45147879763505 x_0_10_5 + 430.47644360632904 x_0_10_6 + 61.320109592255669 x_0_10_7 + 386.39780525325369 x_0_10_8 + 377.84173551511384 x_0_10_9 + 339.67976825226879 x_0_1_0 + 116.29099119366674 x_0_1_10 + 546.32247714642187 x_0_1_2 + 612.56008424809443 x_0_1_3 + 161.47589260849824 x_0_1_4 + 560.11981909031726 x_0_1_5 + 545.27794047111161 x_0_1_6 + 64.879543117236793 x_0_1_7 + 494.29437106990395 x_0_1_8 + 484.41153918895134 x_0_1_9 + 268.18783875151559 x_0_2_0 + 546.32247714642187 x_0_2_1 + 449.46599593054549 x_0_2_10 + 470.88835979005108 x_0_2_3 + 404.65686830804498 x_0_2_4 + 41.484585903404501 x_0_2_5 + 357.28341633732288 x_0_2_6 + 482.13730605518907 x_0_2_7 + 111.01649406374004 x_0_2_8 + 445.0887893852817 x_0_2_9 + 335.17981546756471 x_0_3_0 + 612.56008424809443 x_0_3_1 + 502.84122543824611 x_0_3_10 + 470.88835979005108 x_0_3_2 + 468.50747653049308 x_0_3_4 + 437.0045533745087 x_0_3_5 + 115.4826848494734 x_0_3_6 + 564.12446944773944 x_0_3_7 + 366.06256341118615 x_0_3_8 + 131.72266041785372 x_0_3_9 + 178.29812511391734 x_0_4_0 + 161.47589260849824 x_0_4_1 + 47.233457656973378 x_0_4_10 + 404.65686830804498 x_0_4_2 + 468.50747653049308 x_0_4_3 + 412.43400100874584 x_0_4_5 + 390.46537312041437 x_0_4_6 + 100.92723568092839 x_0_4_7 + 339.35882068264442 x_0_4_8 + 347.32130062404809 x_0_4_9 + 262.62406613087313 x_0_5_0 + 560.11981909031726 x_0_5_1 + 458.45147879763505 x_0_5_10 + 41.484585903404501 x_0_5_2 + 437.0045533745087 x_0_5_3 + 412.43400100874584 x_0_5_4 + 324.94550256829535 x_0_5_6 + 495.40371812050279 x_0_5_7 + 90.557926480386172 x_0_5_8 + 419.61218116934418 x_0_5_9 + 235.44951925925173 x_0_6_0 + 545.27794047111161 x_0_6_1 + 430.47644360632904 x_0_6_10 + 357.28341633732288 x_0_6_2 + 115.4826848494734 x_0_6_3 + 390.46537312041437 x_0_6_4 + 324.94550256829535 x_0_6_5 + 490.37528816621415 x_0_6_7 + 250.98056148714295 x_0_6_8 + 127.55087586083765 x_0_6_9 + 277.52320328773664 x_0_7_0 + 64.879543117236793 x_0_7_1 + 61.320109592255669 x_0_7_10 + 482.13730605518907 x_0_7_2 + 564.12446944773944 x_0_7_3 + 100.92723568092839 x_0_7_4 + 495.40371812050279 x_0_7_5 + 490.37528816621415 x_0_7_6 + 429.51383760910494 x_0_7_8 + 439.07122252564204 x_0_7_9 + 176.96528974035212 x_0_8_0 + 494.29437106990395 x_0_8_1 + 386.39780525325369 x_0_8_10 + 111.01649406374004 x_0_8_2 + 366.06256341118615 x_0_8_3 + 339.35882068264442 x_0_8_4 + 90.557926480386172 x_0_8_5 + 250.98056148714295 x_0_8_6 + 429.51383760910494 x_0_8_7 + 334.08151371859361 x_0_8_9 + 242.99073179215836 x_0_9_0 + 484.41153918895134 x_0_9_1 + 377.84173551511384 x_0_9_10 + 445.0887893852817 x_0_9_2 + 131.72266041785372 x_0_9_3 + 347.32130062404809 x_0_9_4 + 419.61218116934418 x_0_9_5 + 127.55087586083765 x_0_9_6 + 439.07122252564204 x_0_9_7 + 334.08151371859361 x_0_9_8 <= 2400
 c547: p_1_1 - 6 z_1_1 <= 0
 c548: d_1_1 - 20 z_1_1 <= 0
 c549: mode_1_1 - z_1_1 <= 0
 c550: - 6 mode_1_1 + p_1_1 <= 0
 c551: d_1_1 + 20 mode_1_1 - 20 z_1_1 <= 0
 c552: d_1_1 + p_1_1 - z_1_1 >= 0
 c553: load_1_1 - 20 z_1_1 <= 0
 c554: p_1_2 - 20 z_1_2 <= 0
 c555: d_1_2 - 10 z_1_2 <= 0
 c556: mode_1_2 - z_1_2 <= 0
 c557: - 20 mode_1_2 + p_1_2 <= 0
 c558: d_1_2 + 10 mode_1_2 - 10 z_1_2 <= 0
 c559: d_1_2 + p_1_2 - z_1_2 >= 0
 c560: load_1_2 - 20 z_1_2 <= 0
 c561: p_1_3 - 3 z_1_3 <= 0
 c562: d_1_3 - 20 z_1_3 <= 0
 c563: mode_1_3 - z_1_3 <= 0
 c564: - 3 mode_1_3 + p_1_3 <= 0
 c565: d_1_3 + 20 mode_1_3 - 20 z_1_3 <= 0
 c566: d_1_3 + p_1_3 - z_1_3 >= 0
 c567: load_1_3 - 20 z_1_3 <= 0
 c568: p_1_4 - 5 z_1_4 <= 0
 c569: d_1_4 - 20 z_1_4 <= 0
 c570: mode_1_4 - z_1_4 <= 0
 c571: - 5 mode_1_4 + p_1_4 <= 0
 c572: d_1_4 + 20 mode_1_4 - 20 z_1_4 <= 0
 c573: d_1_4 + p_1_4 - z_1_4 >= 0
 c574: load_1_4 - 20 z_1_4 <= 0
 c575: p_1_5 - 18 z_1_5 <= 0
 c576: d_1_5 - 20 z_1_5 <= 0
 c577: mode_1_5 - z_1_5 <= 0
 c578: - 18 mode_1_5 + p_1_5 <= 0
 c579: d_1_5 + 20 mode_1_5 - 20 z_1_5 <= 0
 c580: d_1_5 + p_1_5 - z_1_5 >= 0
 c581: load_1_5 - 20 z_1_5 <= 0
 c582: p_1_6 - 3 z_1_6 <= 0
 c583: d_1_6 - 20 z_1_6 <= 0
 c584: mode_1_6 - z_1_6 <= 0
 c585: - 3 mode_1_6 + p_1_6 <= 0
 c586: d_1_6 + 20 mode_1_6 - 20 z_1_6 <= 0
 c587: d_1_6 + p_1_6 - z_1_6 >= 0
 c588: load_1_6 - 20 z_1_6 <= 0
 c589: p_1_7 <= 0
 c590: d_1_7 - 20 z_1_7 <= 0
 c591: mode_1_7 - z_1_7 <= 0
 c592: p_1_7 <= 0
 c593: d_1_7 + 20 mode_1_7 - 20 z_1_7 <= 0
 c594: d_1_7 + p_1_7 - z_1_7 >= 0
 c595: load_1_7 - 20 z_1_7 <= 0
 c596: p_1_8 - z_1_8 <= 0
 c597: d_1_8 - 20 z_1_8 <= 0
 c598: mode_1_8 - z_1_8 <= 0
 c599: - mode_1_8 + p_1_8 <= 0
 c600: d_1_8 + 20 mode_1_8 - 20 z_1_8 <= 0
 c601: d_1_8 + p_1_8 - z_1_8 >= 0
 c602: load_1_8 - 20 z_1_8 <= 0
 c603: p_1_9 - 6 z_1_9 <= 0
 c604: d_1_9 - 20 z_1_9 <= 0
 c605: mode_1_9 - z_1_9 <= 0
 c606: - 6 mode_1_9 + p_1_9 <= 0
 c607: d_1_9 + 20 mode_1_9 - 20 z_1_9 <= 0
 c608: d_1_9 + p_1_9 - z_1_9 >= 0
 c609: load_1_9 - 20 z_1_9 <= 0
 c610: p_1_10 - 20 z_1_10 <= 0
 c611: d_1_10 - 20 z_1_10 <= 0
 c612: mode_1_10 - z_1_10 <= 0
 c613: - 20 mode_1_10 + p_1_10 <= 0
 c614: d_1_10 + 20 mode_1_10 - 20 z_1_10 <= 0
 c615: d_1_10 + p_1_10 - z_1_10 >= 0
 c616: load_1_10 - 20 z_1_10 <= 0
 c617: d_1_1 + load_1_1 - p_1_1 + 20 x_1_0_1 <= 20
 c618: d_1_1 + load_1_1 - p_1_1 - 20 x_1_0_1 >= -20
 c619: d_1_2 + load_1_2 - p_1_2 + 20 x_1_0_2 <= 20
 c620: d_1_2 + load_1_2 - p_1_2 - 20 x_1_0_2 >= -20
 c621: d_1_3 + load_1_3 - p_1_3 + 20 x_1_0_3 <= 20
 c622: d_1_3 + load_1_3 - p_1_3 - 20 x_1_0_3 >= -20
 c623: d_1_4 + load_1_4 - p_1_4 + 20 x_1_0_4 <= 20
 c624: d_1_4 + load_1_4 - p_1_4 - 20 x_1_0_4 >= -20
 c625: d_1_5 + load_1_5 - p_1_5 + 20 x_1_0_5 <= 20
 c626: d_1_5 + load_1_5 - p_1_5 - 20 x_1_0_5 >= -20
 c627: d_1_6 + load_1_6 - p_1_6 + 20 x_1_0_6 <= 20
 c628: d_1_6 + load_1_6 - p_1_6 - 20 x_1_0_6 >= -20
 c629: d_1_7 + load_1_7 - p_1_7 + 20 x_1_0_7 <= 20
 c630: d_1_7 + load_1_7 - p_1_7 - 20 x_1_0_7 >= -20
 c631: d_1_8 + load_1_8 - p_1_8 + 20 x_1_0_8 <= 20
 c632: d_1_8 + load_1_8 - p_1_8 - 20 x_1_0_8 >= -20
 c633: d_1_9 + load_1_9 - p_1_9 + 20 x_1_0_9 <= 20
 c634: d_1_9 + load_1_9 - p_1_9 - 20 x_1_0_9 >= -20
 c635: d_1_10 + load_1_10 - p_1_10 + 20 x_1_0_10 <= 20
 c636: d_1_10 + load_1_10 - p_1_10 - 20 x_1_0_10 >= -20
 c637: d_1_2 - load_1_1 + load_1_2 - p_1_2 + 20 x_1_1_2 <= 20
 c638: d_1_2 - load_1_1 + load_1_2 - p_1_2 - 20 x_1_1_2 >= -20
 c639: d_1_3 - load_1_1 + load_1_3 - p_1_3 + 20 x_1_1_3 <= 20
 c640: d_1_3 - load_1_1 + load_1_3 - p_1_3 - 20 x_1_1_3 >= -20
 c641: d_1_4 - load_1_1 + load_1_4 - p_1_4 + 20 x_1_1_4 <= 20
 c642: d_1_4 - load_1_1 + load_1_4 - p_1_4 - 20 x_1_1_4 >= -20
 c643: d_1_5 - load_1_1 + load_1_5 - p_1_5 + 20 x_1_1_5 <= 20
 c644: d_1_5 - load_1_1 + load_1_5 - p_1_5 - 20 x_1_1_5 >= -20
 c645: d_1_6 - load_1_1 + load_1_6 - p_1_6 + 20 x_1_1_6 <= 20
 c646: d_1_6 - load_1_1 + load_1_6 - p_1_6 - 20 x_1_1_6 >= -20
 c647: d_1_7 - load_1_1 + load_1_7 - p_1_7 + 20 x_1_1_7 <= 20
 c648: d_1_7 - load_1_1 + load_1_7 - p_1_7 - 20 x_1_1_7 >= -20
 c649: d_1_8 - load_1_1 + load_1_8 - p_1_8 + 20 x_1_1_8 <= 20
 c650: d_1_8 - load_1_1 + load_1_8 - p_1_8 - 20 x_1_1_8 >= -20
 c651: d_1_9 - load_1_1 + load_1_9 - p_1_9 + 20 x_1_1_9 <= 20
 c652: d_1_9 - load_1_1 + load_1_9 - p_1_9 - 20 x_1_1_9 >= -20
 c653: d_1_10 - load_1_1 + load_1_10 - p_1_10 + 20 x_1_1_10 <= 20
 c654: d_1_10 - load_1_1 + load_1_10 - p_1_10 - 20 x_1_1_10 >= -20
 c655: d_1_1 + load_1_1 - load_1_2 - p_1_1 + 20 x_1_2_1 <= 20
 c656: d_1_1 + load_1_1 - load_1_2 - p_1_1 - 20 x_1_2_1 >= -20
 c657: d_1_3 - load_1_2 + load_1_3 - p_1_3 + 20 x_1_2_3 <= 20
 c658: d_1_3 - load_1_2 + load_1_3 - p_1_3 - 20 x_1_2_3 >= -20
 c659: d_1_4 - load_1_2 + load_1_4 - p_1_4 + 20 x_1_2_4 <= 20
 c660: d_1_4 - load_1_2 + load_1_4 - p_1_4 - 20 x_1_2_4 >= -20
 c661: d_1_5 - load_1_2 + load_1_5 - p_1_5 + 20 x_1_2_5 <= 20
 c662: d_1_5 - load_1_2 + load_1_5 - p_1_5 - 20 x_1_2_5 >= -20
 c663: d_1_6 - load_1_2 + load_1_6 - p_1_6 + 20 x_1_2_6 <= 20
 c664: d_1_6 - load_1_2 + load_1_6 - p_1_6 - 20 x_1_2_6 >= -20
 c665: d_1_7 - load_1_2 + load_1_7 - p_1_7 + 20 x_1_2_7 <= 20
 c666: d_1_7 - load_1_2 + load_1_7 - p_1_7 - 20 x_1_2_7 >= -20
 c667: d_1_8 - load_1_2 + load_1_8 - p_1_8 + 20 x_1_2_8 <= 20
 c668: d_1_8 - load_1_2 + load_1_8 - p_1_8 - 20 x_1_2_8 >= -20
 c669: d_1_9 - load_1_2 + load_1_9 - p_1_9 + 20 x_1_2_9 <= 20
 c670: d_1_9 - load_1_2 + load_1_9 - p_1_9 - 20 x_1_2_9 >= -20
 c671: d_1_10 + load_1_10 - load_1_2 - p_1_10 + 20 x_1_2_10 <= 20
 c672: d_1_10 + load_1_10 - load_1_2 - p_1_10 - 20 x_1_2_10 >= -20
 c673: d_1_1 + load_1_1 - load_1_3 - p_1_1 + 20 x_1_3_1 <= 20
 c674: d_1_1 + load_1_1 - load_1_3 - p_1_1 - 20 x_1_3_1 >= -20
 c675: d_1_2 + load_1_2 - load_1_3 - p_1_2 + 20 x_1_3_2 <= 20
 c676: d_1_2 + load_1_2 - load_1_3 - p_1_2 - 20 x_1_3_2 >= -20
 c677: d_1_4 - load_1_3 + load_1_4 - p_1_4 + 20 x_1_3_4 <= 20
 c678: d_1_4 - load_1_3 + load_1_4 - p_1_4 - 20 x_1_3_4 >= -20
 c679: d_1_5 - load_1_3 + load_1_5 - p_1_5 + 20 x_1_3_5 <= 20
 c680: d_1_5 - load_1_3 + load_1_5 - p_1_5 - 20 x_1_3_5 >= -20
 c681: d_1_6 - load_1_3 + load_1_6 - p_1_6 + 20 x_1_3_6 <= 20
 c682: d_1_6 - load_1_3 + load_1_6 - p_1_6 - 20 x_1_3_6 >= -20
 c683: d_1_7 - load_1_3 + load_1_7 - p_1_7 + 20 x_1_3_7 <= 20
 c684: d_1_7 - load_1_3 + load_1_7 - p_1_7 - 20 x_1_3_7 >= -20
 c685: d_1_8 - load_1_3 + load_1_8 - p_1_8 + 20 x_1_3_8 <= 20
 c686: d_1_8 - load_1_3 + load_1_8 - p_1_8 - 20 x_1_3_8 >= -20
 c687: d_1_9 - load_1_3 + load_1_9 - p_1_9 + 20 x_1_3_9 <= 20
 c688: d_1_9 - load_1_3 + load_1_9 - p_1_9 - 20 x_1_3_9 >= -20
 c689: d_1_10 + load_1_10 - load_1_3 - p_1_10 + 20 x_1_3_10 <= 20
 c690: d_1_10 + load_1_10 - load_1_3 - p_1_10 - 20 x_1_3_10 >= -20
 c691: d_1_1 + load_1_1 - load_1_4 - p_1_1 + 20 x_1_4_1 <= 20
 c692: d_1_1 + load_1_1 - load_1_4 - p_1_1 - 20 x_1_4_1 >= -20
 c693: d_1_2 + load_1_2 - load_1_4 - p_1_2 + 20 x_1_4_2 <= 20
 c694: d_1_2 + load_1_2 - load_1_4 - p_1_2 - 20 x_1_4_2 >= -20
 c695: d_1_3 + load_1_3 - load_1_4 - p_1_3 + 20 x_1_4_3 <= 20
 c696: d_1_3 + load_1_3 - load_1_4 - p_1_3 - 20 x_1_4_3 >= -20
 c697: d_1_5 - load_1_4 + load_1_5 - p_1_5 + 20 x_1_4_5 <= 20
 c698: d_1_5 - load_1_4 + load_1_5 - p_1_5 - 20 x_1_4_5 >= -20
 c699: d_1_6 - load_1_4 + load_1_6 - p_1_6 + 20 x_1_4_6 <= 20
 c700: d_1_6 - load_1_4 + load_1_6 - p_1_6 - 20 x_1_4_6 >= -20
 c701: d_1_7 - load_1_4 + load_1_7 - p_1_7 + 20 x_1_4_7 <= 20
 c702: d_1_7 - load_1_4 + load_1_7 - p_1_7 - 20 x_1_4_7 >= -20
 c703: d_1_8 - load_1_4 + load_1_8 - p_1_8 + 20 x_1_4_8 <= 20
 c704: d_1_8 - load_1_4 + load_1_8 - p_1_8 - 20 x_1_4_8 >= -20
 c705: d_1_9 - load_1_4 + load_1_9 - p_1_9 + 20 x_1_4_9 <= 20
 c706: d_1_9 - load_1_4 + load_1_9 - p_1_9 - 20 x_1_4_9 >= -20
 c707: d_1_10 + load_1_10 - load_1_4 - p_1_10 + 20 x_1_4_10 <= 20
 c708: d_1_10 + load_1_10 - load_1_4 - p_1_10 - 20 x_1_4_10 >= -20
 c709: d_1_1 + load_1_1 - load_1_5 - p_1_1 + 20 x_1_5_1 <= 20
 c710: d_1_1 + load_1_1 - load_1_5 - p_1_1 - 20 x_1_5_1 >= -20
 c711: d_1_2 + load_1_2 - load_1_5 - p_1_2 + 20 x_1_5_2 <= 20
 c712: d_1_2 + load_1_2 - load_1_5 - p_1_2 - 20 x_1_5_2 >= -20
 c713: d_1_3 + load_1_3 - load_1_5 - p_1_3 + 20 x_1_5_3 <= 20
 c714: d_1_3 + load_1_3 - load_1_5 - p_1_3 - 20 x_1_5_3 >= -20
 c715: d_1_4 + load_1_4 - load_1_5 - p_1_4 + 20 x_1_5_4 <= 20
 c716: d_1_4 + load_1_4 - load_1_5 - p_1_4 - 20 x_1_5_4 >= -20
 c717: d_1_6 - load_1_5 + load_1_6 - p_1_6 + 20 x_1_5_6 <= 20
 c718: d_1_6 - load_1_5 + load_1_6 - p_1_6 - 20 x_1_5_6 >= -20
 c719: d_1_7 - load_1_5 + load_1_7 - p_1_7 + 20 x_1_5_7 <= 20
 c720: d_1_7 - load_1_5 + load_1_7 - p_1_7 - 20 x_1_5_7 >= -20
 c721: d_1_8 - load_1_5 + load_1_8 - p_1_8 + 20 x_1_5_8 <= 20
 c722: d_1_8 - load_1_5 + load_1_8 - p_1_8 - 20 x_1_5_8 >= -20
 c723: d_1_9 - load_1_5 + load_1_9 - p_1_9 + 20 x_1_5_9 <= 20
 c724: d_1_9 - load_1_5 + load_1_9 - p_1_9 - 20 x_1_5_9 >= -20
 c725: d_1_10 + load_1_10 - load_1_5 - p_1_10 + 20 x_1_5_10 <= 20
 c726: d_1_10 + load_1_10 - load_1_5 - p_1_10 - 20 x_1_5_10 >= -20
 c727: d_1_1 + load_1_1 - load_1_6 - p_1_1 + 20 x_1_6_1 <= 20
 c728: d_1_1 + load_1_1 - load_1_6 - p_1_1 - 20 x_1_6_1 >= -20
 c729: d_1_2 + load_1_2 - load_1_6 - p_1_2 + 20 x_1_6_2 <= 20
 c730: d_1_2 + load_1_2 - load_1_6 - p_1_2 - 20 x_1_6_2 >= -20
 c731: d_1_3 + load_1_3 - load_1_6 - p_1_3 + 20 x_1_6_3 <= 20
 c732: d_1_3 + load_1_3 - load_1_6 - p_1_3 - 20 x_1_6_3 >= -20
 c733: d_1_4 + load_1_4 - load_1_6 - p_1_4 + 20 x_1_6_4 <= 20
 c734: d_1_4 + load_1_4 - load_1_6 - p_1_4 - 20 x_1_6_4 >= -20
 c735: d_1_5 + load_1_5 - load_1_6 - p_1_5 + 20 x_1_6_5 <= 20
 c736: d_1_5 + load_1_5 - load_1_6 - p_1_5 - 20 x_1_6_5 >= -20
 c737: d_1_7 - load_1_6 + load_1_7 - p_1_7 + 20 x_1_6_7 <= 20
 c738: d_1_7 - load_1_6 + load_1_7 - p_1_7 - 20 x_1_6_7 >= -20
 c739: d_1_8 - load_1_6 + load_1_8 - p_1_8 + 20 x_1_6_8 <= 20
 c740: d_1_8 - load_1_6 + load_1_8 - p_1_8 - 20 x_1_6_8 >= -20
 c741: d_1_9 - load_1_6 + load_1_9 - p_1_9 + 20 x_1_6_9 <= 20
 c742: d_1_9 - load_1_6 + load_1_9 - p_1_9 - 20 x_1_6_9 >= -20
 c743: d_1_10 + load_1_10 - load_1_6 - p_1_10 + 20 x_1_6_10 <= 20
 c744: d_1_10 + load_1_10 - load_1_6 - p_1_10 - 20 x_1_6_10 >= -20
 c745: d_1_1 + load_1_1 - load_1_7 - p_1_1 + 20 x_1_7_1 <= 20
 c746: d_1_1 + load_1_1 - load_1_7 - p_1_1 - 20 x_1_7_1 >= -20
 c747: d_1_2 + load_1_2 - load_1_7 - p_1_2 + 20 x_1_7_2 <= 20
 c748: d_1_2 + load_1_2 - load_1_7 - p_1_2 - 20 x_1_7_2 >= -20
 c749: d_1_3 + load_1_3 - load_1_7 - p_1_3 + 20 x_1_7_3 <= 20
 c750: d_1_3 + load_1_3 - load_1_7 - p_1_3 - 20 x_1_7_3 >= -20
 c751: d_1_4 + load_1_4 - load_1_7 - p_1_4 + 20 x_1_7_4 <= 20
 c752: d_1_4 + load_1_4 - load_1_7 - p_1_4 - 20 x_1_7_4 >= -20
 c753: d_1_5 + load_1_5 - load_1_7 - p_1_5 + 20 x_1_7_5 <= 20
 c754: d_1_5 + load_1_5 - load_1_7 - p_1_5 - 20 x_1_7_5 >= -20
 c755: d_1_6 + load_1_6 - load_1_7 - p_1_6 + 20 x_1_7_6 <= 20
 c756: d_1_6 + load_1_6 - load_1_7 - p_1_6 - 20 x_1_7_6 >= -20
 c757: d_1_8 - load_1_7 + load_1_8 - p_1_8 + 20 x_1_7_8 <= 20
 c758: d_1_8 - load_1_7 + load_1_8 - p_1_8 - 20 x_1_7_8 >= -20
 c759: d_1_9 - load_1_7 + load_1_9 - p_1_9 + 20 x_1_7_9 <= 20
 c760: d_1_9 - load_1_7 + load_1_9 - p_1_9 - 20 x_1_7_9 >= -20
 c761: d_1_10 + load_1_10 - load_1_7 - p_1_10 + 20 x_1_7_10 <= 20
 c762: d_1_10 + load_1_10 - load_1_7 - p_1_10 - 20 x_1_7_10 >= -20
 c763: d_1_1 + load_1_1 - load_1_8 - p_1_1 + 20 x_1_8_1 <= 20
 c764: d_1_1 + load_1_1 - load_1_8 - p_1_1 - 20 x_1_8_1 >= -20
 c765: d_1_2 + load_1_2 - load_1_8 - p_1_2 + 20 x_1_8_2 <= 20
 c766: d_1_2 + load_1_2 - load_1_8 - p_1_2 - 20 x_1_8_2 >= -20
 c767: d_1_3 + load_1_3 - load_1_8 - p_1_3 + 20 x_1_8_3 <= 20
 c768: d_1_3 + load_1_3 - load_1_8 - p_1_3 - 20 x_1_8_3 >= -20
 c769: d_1_4 + load_1_4 - load_1_8 - p_1_4 + 20 x_1_8_4 <= 20
 c770: d_1_4 + load_1_4 - load_1_8 - p_1_4 - 20 x_1_8_4 >= -20
 c771: d_1_5 + load_1_5 - load_1_8 - p_1_5 + 20 x_1_8_5 <= 20
 c772: d_1_5 + load_1_5 - load_1_8 - p_1_5 - 20 x_1_8_5 >= -20
 c773: d_1_6 + load_1_6 - load_1_8 - p_1_6 + 20 x_1_8_6 <= 20
 c774: d_1_6 + load_1_6 - load_1_8 - p_1_6 - 20 x_1_8_6 >= -20
 c775: d_1_7 + load_1_7 - load_1_8 - p_1_7 + 20 x_1_8_7 <= 20
 c776: d_1_7 + load_1_7 - load_1_8 - p_1_7 - 20 x_1_8_7 >= -20
 c777: d_1_9 - load_1_8 + load_1_9 - p_1_9 + 20 x_1_8_9 <= 20
 c778: d_1_9 - load_1_8 + load_1_9 - p_1_9 - 20 x_1_8_9 >= -20
 c779: d_1_10 + load_1_10 - load_1_8 - p_1_10 + 20 x_1_8_10 <= 20
 c780: d_1_10 + load_1_10 - load_1_8 - p_1_10 - 20 x_1_8_10 >= -20
 c781: d_1_1 + load_1_1 - load_1_9 - p_1_1 + 20 x_1_9_1 <= 20
 c782: d_1_1 + load_1_1 - load_1_9 - p_1_1 - 20 x_1_9_1 >= -20
 c783: d_1_2 + load_1_2 - load_1_9 - p_1_2 + 20 x_1_9_2 <= 20
 c784: d_1_2 + load_1_2 - load_1_9 - p_1_2 - 20 x_1_9_2 >= -20
 c785: d_1_3 + load_1_3 - load_1_9 - p_1_3 + 20 x_1_9_3 <= 20
 c786: d_1_3 + load_1_3 - load_1_9 - p_1_3 - 20 x_1_9_3 >= -20
 c787: d_1_4 + load_1_4 - load_1_9 - p_1_4 + 20 x_1_9_4 <= 20
 c788: d_1_4 + load_1_4 - load_1_9 - p_1_4 - 20 x_1_9_4 >= -20
 c789: d_1_5 + load_1_5 - load_1_9 - p_1_5 + 20 x_1_9_5 <= 20
 c790: d_1_5 + load_1_5 - load_1_9 - p_1_5 - 20 x_1_9_5 >= -20
 c791: d_1_6 + load_1_6 - load_1_9 - p_1_6 + 20 x_1_9_6 <= 20
 c792: d_1_6 + load_1_6 - load_1_9 - p_1_6 - 20 x_1_9_6 >= -20
 c793: d_1_7 + load_1_7 - load_1_9 - p_1_7 + 20 x_1_9_7 <= 20
 c794: d_1_7 + load_1_7 - load_1_9 - p_1_7 - 20 x_1_9_7 >= -20
 c795: d_1_8 + load_1_8 - load_1_9 - p_1_8 + 20 x_1_9_8 <= 20
 c796: d_1_8 + load_1_8 - load_1_9 - p_1_8 - 20 x_1_9_8 >= -20
 c797: d_1_10 + load_1_10 - load_1_9 - p_1_10 + 20 x_1_9_10 <= 20
 c798: d_1_10 + load_1_10 - load_1_9 - p_1_10 - 20 x_1_9_10 >= -20
 c799: d_1_1 + load_1_1 - load_1_10 - p_1_1 + 20 x_1_10_1 <= 20
 c800: d_1_1 + load_1_1 - load_1_10 - p_1_1 - 20 x_1_10_1 >= -20
 c801: d_1_2 - load_1_10 + load_1_2 - p_1_2 + 20 x_1_10_2 <= 20
 c802: d_1_2 - load_1_10 + load_1_2 - p_1_2 - 20 x_1_10_2 >= -20
 c803: d_1_3 - load_1_10 + load_1_3 - p_1_3 + 20 x_1_10_3 <= 20
 c804: d_1_3 - load_1_10 + load_1_3 - p_1_3 - 20 x_1_10_3 >= -20
 c805: d_1_4 - load_1_10 + load_1_4 - p_1_4 + 20 x_1_10_4 <= 20
 c806: d_1_4 - load_1_10 + load_1_4 - p_1_4 - 20 x_1_10_4 >= -20
 c807: d_1_5 - load_1_10 + load_1_5 - p_1_5 + 20 x_1_10_5 <= 20
 c808: d_1_5 - load_1_10 + load_1_5 - p_1_5 - 20 x_1_10_5 >= -20
 c809: d_1_6 - load_1_10 + load_1_6 - p_1_6 + 20 x_1_10_6 <= 20
 c810: d_1_6 - load_1_10 + load_1_6 - p_1_6 - 20 x_1_10_6 >= -20
 c811: d_1_7 - load_1_10 + load_1_7 - p_1_7 + 20 x_1_10_7 <= 20
 c812: d_1_7 - load_1_10 + load_1_7 - p_1_7 - 20 x_1_10_7 >= -20
 c813: d_1_8 - load_1_10 + load_1_8 - p_1_8 + 20 x_1_10_8 <= 20
 c814: d_1_8 - load_1_10 + load_1_8 - p_1_8 - 20 x_1_10_8 >= -20
 c815: d_1_9 - load_1_10 + load_1_9 - p_1_9 + 20 x_1_10_9 <= 20
 c816: d_1_9 - load_1_10 + load_1_9 - p_1_9 - 20 x_1_10_9 >= -20
 c817: - d_1_1 - d_1_10 - d_1_2 - d_1_3 - d_1_4 - d_1_5 - d_1_6 - d_1_7 - d_1_8 - d_1_9 + p_1_1 + p_1_10 + p_1_2 + p_1_3 + p_1_4 + p_1_5 + p_1_6 + p_1_7 + p_1_8 + p_1_9 >= 0
 c818: 120 p_1_1 + 120 p_1_10 + 120 p_1_2 + 120 p_1_3 + 120 p_1_4 + 120 p_1_5 + 120 p_1_6 + 120 p_1_7 + 120 p_1_8 + 120 p_1_9 + 339.67976825226879 x_1_0_1 + 224.76867693619124 x_1_0_10 + 268.18783875151559 x_1_0_2 + 335.17981546756471 x_1_0_3 + 178.29812511391734 x_1_0_4 + 262.62406613087313 x_1_0_5 + 235.44951925925173 x_1_0_6 + 277.52320328773664 x_1_0_7 + 176.96528974035212 x_1_0_8 + 242.99073179215836 x_1_0_9 + 224.76867693619124 x_1_10_0 + 116.29099119366674 x_1_10_1 + 449.46599593054549 x_1_10_2 + 502.84122543824611 x_1_10_3 + 47.233457656973378 x_1_10_4 + 458.45147879763505 x_1_10_5 + 430.47644360632904 x_1_10_6 + 61.320109592255669 x_1_10_7 + 386.39780525325369 x_1_10_8 + 377.84173551511384 x_1_10_9 + 339.67976825226879 x_1_1_0 + 116.29099119366674 x_1_1_10 + 546.32247714642187 x_1_1_2 + 612.56008424809443 x_1_1_3 + 161.47589260849824 x_1_1_4 + 560.11981909031726 x_1_1_5 + 545.27794047111161 x_1_1_6 + 64.879543117236793 x_1_1_7 + 494.29437106990395 x_1_1_8 + 484.41153918895134 x_1_1_9 + 268.18783875151559 x_1_2_0 + 546.32247714642187 x_1_2_1 + 449.46599593054549 x_1_2_10 + 470.88835979005108 x_1_2_3 + 404.65686830804498 x_1_2_4 + 41.484585903404501 x_1_2_5 + 357.28341633732288 x_1_2_6 + 482.13730605518907 x_1_2_7 + 111.01649406374004 x_1_2_8 + 445.0887893852817 x_1_2_9 + 335.17981546756471 x_1_3_0 + 612.56008424809443 x_1_3_1 + 502.84122543824611 x_1_3_10 + 470.88835979005108 x_1_3_2 + 468.50747653049308 x_1_3_4 + 437.0045533745087 x_1_3_5 + 115.4826848494734 x_1_3_6 + 564.12446944773944 x_1_3_7 + 366.06256341118615 x_1_3_8 + 131.72266041785372 x_1_3_9 + 178.29812511391734 x_1_4_0 + 161.47589260849824 x_1_4_1 + 47.233457656973378 x_1_4_10 + 404.65686830804498 x_1_4_2 + 468.50747653049308 x_1_4_3 + 412.43400100874584 x_1_4_5 + 390.46537312041437 x_1_4_6 + 100.92723568092839 x_1_4_7 + 339.35882068264442 x_1_4_8 + 347.32130062404809 x_1_4_9 + 262.62406613087313 x_1_5_0 + 560.11981909031726 x_1_5_1 + 458.45147879763505 x_1_5_10 + 41.484585903404501 x_1_5_2 + 437.0045533745087 x_1_5_3 + 412.43400100874584 x_1_5_4 + 324.94550256829535 x_1_5_6 + 495.40371812050279 x_1_5_7 + 90.557926480386172 x_1_5_8 + 419.61218116934418 x_1_5_9 + 235.44951925925173 x_1_6_0 + 545.27794047111161 x_1_6_1 + 430.47644360632904 x_1_6_10 + 357.28341633732288 x_1_6_2 + 115.4826848494734 x_1_6_3 + 390.46537312041437 x_1_6_4 + 324.94550256829535 x_1_6_5 + 490.37528816621415 x_1_6_7 + 250.98056148714295 x_1_6_8 + 127.55087586083765 x_1_6_9 + 277.52320328773664 x_1_7_0 + 64.879543117236793 x_1_7_1 + 61.320109592255669 x_1_7_10 + 482.13730605518907 x_1_7_2 + 564.12446944773944 x_1_7_3 + 100.92723568092839 x_1_7_4 + 495.40371812050279 x_1_7_5 + 490.37528816621415 x_1_7_6 + 429.51383760910494 x_1_7_8 + 439.07122252564204 x_1_7_9 + 176.96528974035212 x_1_8_0 + 494.29437106990395 x_1_8_1 + 386.39780525325369 x_1_8_10 + 111.01649406374004 x_1_8_2 + 366.06256341118615 x_1_8_3 + 339.35882068264442 x_1_8_4 + 90.557926480386172 x_1_8_5 + 250.98056148714295 x_1_8_6 + 429.51383760910494 x_1_8_7 + 334.08151371859361 x_1_8_9 + 242.99073179215836 x_1_9_0 + 484.41153918895134 x_1_9_1 + 377.84173551511384 x_1_9_10 + 445.0887893852817 x_1_9_2 + 131.72266041785372 x_1_9_3 + 347.32130062404809 x_1_9_4 + 419.61218116934418 x_1_9_5 + 127.55087586083765 x_1_9_6 + 439.07122252564204 x_1_9_7 + 334.08151371859361 x_1_9_8 <= 2400
 c819: Y_1 - d_0_1 - d_1_1 + p_0_1 + p_1_1 = 6
 c820: - 0.041666666666666664 Y_1 + r_1 = 0
 c821: e_1 - r_1 >= -1
 c822: e_1 + r_1 >= 1
 c823: Y_2 - d_0_2 - d_1_2 + p_0_2 + p_1_2 = 26
 c824: - 0.14285714285714285 Y_2 + r_2 = 0
 c825: e_2 - r_2 >= -1
 c826: e_2 + r_2 >= 1
 c827: Y_3 - d_0_3 - d_1_3 + p_0_3 + p_1_3 = 3
 c828: - 0.025000000000000001 Y_3 + r_3 = 0
 c829: e_3 - r_3 >= -1
 c830: e_3 + r_3 >= 1
 c831: Y_4 - d_0_4 - d_1_4 + p_0_4 + p_1_4 = 5
 c832: - 0.038461538461538464 Y_4 + r_4 = 0
 c833: e_4 - r_4 >= -1
 c834: e_4 + r_4 >= 1
 c835: Y_5 - d_0_5 - d_1_5 + p_0_5 + p_1_5 = 18
 c836: - 0.038461538461538464 Y_5 + r_5 = 0
 c837: e_5 - r_5 >= -1
 c838: e_5 + r_5 >= 1
 c839: Y_6 - d_0_6 - d_1_6 + p_0_6 + p_1_6 = 3
 c840: - 0.030303030303030304 Y_6 + r_6 = 0
 c841: e_6 - r_6 >= -1
 c842: e_6 + r_6 >= 1
 c843: Y_7 - d_0_7 - d_1_7 + p_0_7 + p_1_7 = 0
 c844: - 0.125 Y_7 + r_7 = 0
 c845: e_7 - r_7 >= -1
 c846: e_7 + r_7 >= 1
 c847: Y_8 - d_0_8 - d_1_8 + p_0_8 + p_1_8 = 1
 c848: - 0.33333333333333331 Y_8 + r_8 = 0
 c849: e_8 - r_8 >= -1
 c850: e_8 + r_8 >= 1
 c851: Y_9 - d_0_9 - d_1_9 + p_0_9 + p_1_9 = 6
 c852: - 0.037037037037037035 Y_9 + r_9 = 0
 c853: e_9 - r_9 >= -1
 c854: e_9 + r_9 >= 1
 c855: Y_10 - d_0_10 - d_1_10 + p_0_10 + p_1_10 = 24
 c856: - 0.052631578947368418 Y_10 + r_10 = 0
 c857: e_10 - r_10 >= -1
 c858: e_10 + r_10 >= 1
 c859: h_1_2 - r_1 + r_2 >= 0
 c860: h_1_2 + r_1 - r_2 >= 0
 c861: h_1_3 - r_1 + r_3 >= 0
 c862: h_1_3 + r_1 - r_3 >= 0
 c863: h_1_4 - r_1 + r_4 >= 0
 c864: h_1_4 + r_1 - r_4 >= 0
 c865: h_1_5 - r_1 + r_5 >= 0
 c866: h_1_5 + r_1 - r_5 >= 0
 c867: h_1_6 - r_1 + r_6 >= 0
 c868: h_1_6 + r_1 - r_6 >= 0
 c869: h_1_7 - r_1 + r_7 >= 0
 c870: h_1_7 + r_1 - r_7 >= 0
 c871: h_1_8 - r_1 + r_8 >= 0
 c872: h_1_8 + r_1 - r_8 >= 0
 c873: h_1_9 - r_1 + r_9 >= 0
 c874: h_1_9 + r_1 - r_9 >= 0
 c875: h_1_10 - r_1 + r_10 >= 0
 c876: h_1_10 + r_1 - r_10 >= 0
 c877: h_2_3 - r_2 + r_3 >= 0
 c878: h_2_3 + r_2 - r_3 >= 0
 c879: h_2_4 - r_2 + r_4 >= 0
 c880: h_2_4 + r_2 - r_4 >= 0
 c881: h_2_5 - r_2 + r_5 >= 0
 c882: h_2_5 + r_2 - r_5 >= 0
 c883: h_2_6 - r_2 + r_6 >= 0
 c884: h_2_6 + r_2 - r_6 >= 0
 c885: h_2_7 - r_2 + r_7 >= 0
 c886: h_2_7 + r_2 - r_7 >= 0
 c887: h_2_8 - r_2 + r_8 >= 0
 c888: h_2_8 + r_2 - r_8 >= 0
 c889: h_2_9 - r_2 + r_9 >= 0
 c890: h_2_9 + r_2 - r_9 >= 0
 c891: h_2_10 + r_10 - r_2 >= 0
 c892: h_2_10 - r_10 + r_2 >= 0
 c893: h_3_4 - r_3 + r_4 >= 0
 c894: h_3_4 + r_3 - r_4 >= 0
 c895: h_3_5 - r_3 + r_5 >= 0
 c896: h_3_5 + r_3 - r_5 >= 0
 c897: h_3_6 - r_3 + r_6 >= 0
 c898: h_3_6 + r_3 - r_6 >= 0
 c899: h_3_7 - r_3 + r_7 >= 0
 c900: h_3_7 + r_3 - r_7 >= 0
 c901: h_3_8 - r_3 + r_8 >= 0
 c902: h_3_8 + r_3 - r_8 >= 0
 c903: h_3_9 - r_3 + r_9 >= 0
 c904: h_3_9 + r_3 - r_9 >= 0
 c905: h_3_10 + r_10 - r_3 >= 0
 c906: h_3_10 - r_10 + r_3 >= 0
 c907: h_4_5 - r_4 + r_5 >= 0
 c908: h_4_5 + r_4 - r_5 >= 0
 c909: h_4_6 - r_4 + r_6 >= 0
 c910: h_4_6 + r_4 - r_6 >= 0
 c911: h_4_7 - r_4 + r_7 >= 0
 c912: h_4_7 + r_4 - r_7 >= 0
 c913: h_4_8 - r_4 + r_8 >= 0
 c914: h_4_8 + r_4 - r_8 >= 0
 c915: h_4_9 - r_4 + r_9 >= 0
 c916: h_4_9 + r_4 - r_9 >= 0
 c917: h_4_10 + r_10 - r_4 >= 0
 c918: h_4_10 - r_10 + r_4 >= 0
 c919: h_5_6 - r_5 + r_6 >= 0
 c920: h_5_6 + r_5 - r_6 >= 0
 c921: h_5_7 - r_5 + r_7 >= 0
 c922: h_5_7 + r_5 - r_7 >= 0
 c923: h_5_8 - r_5 + r_8 >= 0
 c924: h_5_8 + r_5 - r_8 >= 0
 c925: h_5_9 - r_5 + r_9 >= 0
 c926: h_5_9 + r_5 - r_9 >= 0
 c927: h_5_10 + r_10 - r_5 >= 0
 c928: h_5_10 - r_10 + r_5 >= 0
 c929: h_6_7 - r_6 + r_7 >= 0
 c930: h_6_7 + r_6 - r_7 >= 0
 c931: h_6_8 - r_6 + r_8 >= 0
 c932: h_6_8 + r_6 - r_8 >= 0
 c933: h_6_9 - r_6 + r_9 >= 0
 c934: h_6_9 + r_6 - r_9 >= 0
 c935: h_6_10 + r_10 - r_6 >= 0
 c936: h_6_10 - r_10 + r_6 >= 0
 c937: h_7_8 - r_7 + r_8 >= 0
 c938: h_7_8 + r_7 - r_8 >= 0
 c939: h_7_9 - r_7 + r_9 >= 0
 c940: h_7_9 + r_7 - r_9 >= 0
 c941: h_7_10 + r_10 - r_7 >= 0
 c942: h_7_10 - r_10 + r_7 >= 0
 c943: h_8_9 - r_8 + r_9 >= 0
 c944: h_8_9 + r_8 - r_9 >= 0
 c945: h_8_10 + r_10 - r_8 >= 0
 c946: h_8_10 - r_10 + r_8 >= 0
 c947: h_9_10 + r_10 - r_9 >= 0
 c948: h_9_10 - r_10 + r_9 >= 0
 c949: Y_1 - bit_1_0 - 2 bit_1_1 - 4 bit_1_2 - 8 bit_1_3 - 16 bit_1_4 = 0
 c950: - prod_1_0 - 2 prod_1_1 - 4 prod_1_2 - 8 prod_1_3 - 16 prod_1_4 + zprod_1 = 0
 c951: - G + prod_1_0 <= 0
 c952: - bit_1_0 + prod_1_0 <= 0
 c953: - G - bit_1_0 + prod_1_0 >= -1
 c954: - G + prod_1_1 <= 0
 c955: - bit_1_1 + prod_1_1 <= 0
 c956: - G - bit_1_1 + prod_1_1 >= -1
 c957: - G + prod_1_2 <= 0
 c958: - bit_1_2 + prod_1_2 <= 0
 c959: - G - bit_1_2 + prod_1_2 >= -1
 c960: - G + prod_1_3 <= 0
 c961: - bit_1_3 + prod_1_3 <= 0
 c962: - G - bit_1_3 + prod_1_3 >= -1
 c963: - G + prod_1_4 <= 0
 c964: - bit_1_4 + prod_1_4 <= 0
 c965: - G - bit_1_4 + prod_1_4 >= -1
 c966: Y_2 - bit_2_0 - 2 bit_2_1 - 4 bit_2_2 - 8 bit_2_3 - 16 bit_2_4 - 32 bit_2_5 = 0
 c967: - prod_2_0 - 2 prod_2_1 - 4 prod_2_2 - 8 prod_2_3 - 16 prod_2_4 - 32 prod_2_5 + zprod_2 = 0
 c968: - G + prod_2_0 <= 0
 c969: - bit_2_0 + prod_2_0 <= 0
 c970: - G - bit_2_0 + prod_2_0 >= -1
 c971: - G + prod_2_1 <= 0
 c972: - bit_2_1 + prod_2_1 <= 0
 c973: - G - bit_2_1 + prod_2_1 >= -1
 c974: - G + prod_2_2 <= 0
 c975: - bit_2_2 + prod_2_2 <= 0
 c976: - G - bit_2_2 + prod_2_2 >= -1
 c977: - G + prod_2_3 <= 0
 c978: - bit_2_3 + prod_2_3 <= 0
 c979: - G - bit_2_3 + prod_2_3 >= -1
 c980: - G + prod_2_4 <= 0
 c981: - bit_2_4 + prod_2_4 <= 0
 c982: - G - bit_2_4 + prod_2_4 >= -1
 c983: - G + prod_2_5 <= 0
 c984: - bit_2_5 + prod_2_5 <= 0
 c985: - G - bit_2_5 + prod_2_5 >= -1
 c986: Y_3 - bit_3_0 - 2 bit_3_1 - 4 bit_3_2 - 8 bit_3_3 - 16 bit_3_4 - 32 bit_3_5 = 0
 c987: - prod_3_0 - 2 prod_3_1 - 4 prod_3_2 - 8 prod_3_3 - 16 prod_3_4 - 32 prod_3_5 + zprod_3 = 0
 c988: - G + prod_3_0 <= 0
 c989: - bit_3_0 + prod_3_0 <= 0
 c990: - G - bit_3_0 + prod_3_0 >= -1
 c991: - G + prod_3_1 <= 0
 c992: - bit_3_1 + prod_3_1 <= 0
 c993: - G - bit_3_1 + prod_3_1 >= -1
 c994: - G + prod_3_2 <= 0
 c995: - bit_3_2 + prod_3_2 <= 0
 c996: - G - bit_3_2 + prod_3_2 >= -1
 c997: - G + prod_3_3 <= 0
 c998: - bit_3_3 + prod_3_3 <= 0
 c999: - G - bit_3_3 + prod_3_3 >= -1
 c1000: - G + prod_3_4 <= 0
 c1001: - bit_3_4 + prod_3_4 <= 0
 c1002: - G - bit_3_4 + prod_3_4 >= -1
 c1003: - G + prod_3_5 <= 0
 c1004: - bit_3_5 + prod_3_5 <= 0
 c1005: - G - bit_3_5 + prod_3_5 >= -1
 c1006: Y_4 - bit_4_0 - 2 bit_4_1 - 4 bit_4_2 - 8 bit_4_3 - 16 bit_4_4 - 32 bit_4_5 = 0
 c1007: - prod_4_0 - 2 prod_4_1 - 4 prod_4_2 - 8 prod_4_3 - 16 prod_4_4 - 32 prod_4_5 + zprod_4 = 0
 c1008: - G + prod_4_0 <= 0
 c1009: - bit_4_0 + prod_4_0 <= 0
 c1010: - G - bit_4_0 + prod_4_0 >= -1
 c1011: - G + prod_4_1 <= 0
 c1012: - bit_4_1 + prod_4_1 <= 0
 c1013: - G - bit_4_1 + prod_4_1 >= -1
 c1014: - G + prod_4_2 <= 0
 c1015: - bit_4_2 + prod_4_2 <= 0
 c1016: - G - bit_4_2 + prod_4_2 >= -1
 c1017: - G + prod_4_3 <= 0
 c1018: - bit_4_3 + prod_4_3 <= 0
 c1019: - G - bit_4_3 + prod_4_3 >= -1
 c1020: - G + prod_4_4 <= 0
 c1021: - bit_4_4 + prod_4_4 <= 0
 c1022: - G - bit_4_4 + prod_4_4 >= -1
 c1023: - G + prod_4_5 <= 0
 c1024: - bit_4_5 + prod_4_5 <= 0
 c1025: - G - bit_4_5 + prod_4_5 >= -1
 c1026: Y_5 - bit_5_0 - 2 bit_5_1 - 4 bit_5_2 - 8 bit_5_3 - 16 bit_5_4 - 32 bit_5_5 = 0
 c1027: - prod_5_0 - 2 prod_5_1 - 4 prod_5_2 - 8 prod_5_3 - 16 prod_5_4 - 32 prod_5_5 + zprod_5 = 0
 c1028: - G + prod_5_0 <= 0
 c1029: - bit_5_0 + prod_5_0 <= 0
 c1030: - G - bit_5_0 + prod_5_0 >= -1
 c1031: - G + prod_5_1 <= 0
 c1032: - bit_5_1 + prod_5_1 <= 0
 c1033: - G - bit_5_1 + prod_5_1 >= -1
 c1034: - G + prod_5_2 <= 0
 c1035: - bit_5_2 + prod_5_2 <= 0
 c1036: - G - bit_5_2 + prod_5_2 >= -1
 c1037: - G + prod_5_3 <= 0
 c1038: - bit_5_3 + prod_5_3 <= 0
 c1039: - G - bit_5_3 + prod_5_3 >= -1
 c1040: - G + prod_5_4 <= 0
 c1041: - bit_5_4 + prod_5_4 <= 0
 c1042: - G - bit_5_4 + prod_5_4 >= -1
 c1043: - G + prod_5_5 <= 0
 c1044: - bit_5_5 + prod_5_5 <= 0
 c1045: - G - bit_5_5 + prod_5_5 >= -1
 c1046: Y_6 - bit_6_0 - 2 bit_6_1 - 4 bit_6_2 - 8 bit_6_3 - 16 bit_6_4 - 32 bit_6_5 = 0
 c1047: - prod_6_0 - 2 prod_6_1 - 4 prod_6_2 - 8 prod_6_3 - 16 prod_6_4 - 32 prod_6_5 + zprod_6 = 0
 c1048: - G + prod_6_0 <= 0
 c1049: - bit_6_0 + prod_6_0 <= 0
 c1050: - G - bit_6_0 + prod_6_0 >= -1
 c1051: - G + prod_6_1 <= 0
 c1052: - bit_6_1 + prod_6_1 <= 0
 c1053: - G - bit_6_1 + prod_6_1 >= -1
 c1054: - G + prod_6_2 <= 0
 c1055: - bit_6_2 + prod_6_2 <= 0
 c1056: - G - bit_6_2 + prod_6_2 >= -1
 c1057: - G + prod_6_3 <= 0
 c1058: - bit_6_3 + prod_6_3 <= 0
 c1059: - G - bit_6_3 + prod_6_3 >= -1
 c1060: - G + prod_6_4 <= 0
 c1061: - bit_6_4 + prod_6_4 <= 0
 c1062: - G - bit_6_4 + prod_6_4 >= -1
 c1063: - G + prod_6_5 <= 0
 c1064: - bit_6_5 + prod_6_5 <= 0
 c1065: - G - bit_6_5 + prod_6_5 >= -1
 c1066: Y_7 - bit_7_0 - 2 bit_7_1 - 4 bit_7_2 - 8 bit_7_3 - 16 bit_7_4 = 0
 c1067: - prod_7_0 - 2 prod_7_1 - 4 prod_7_2 - 8 prod_7_3 - 16 prod_7_4 + zprod_7 = 0
 c1068: - G + prod_7_0 <= 0
 c1069: - bit_7_0 + prod_7_0 <= 0
 c1070: - G - bit_7_0 + prod_7_0 >= -1
 c1071: - G + prod_7_1 <= 0
 c1072: - bit_7_1 + prod_7_1 <= 0
 c1073: - G - bit_7_1 + prod_7_1 >= -1
 c1074: - G + prod_7_2 <= 0
 c1075: - bit_7_2 + prod_7_2 <= 0
 c1076: - G - bit_7_2 + prod_7_2 >= -1
 c1077: - G + prod_7_3 <= 0
 c1078: - bit_7_3 + prod_7_3 <= 0
 c1079: - G - bit_7_3 + prod_7_3 >= -1
 c1080: - G + prod_7_4 <= 0
 c1081: - bit_7_4 + prod_7_4 <= 0
 c1082: - G - bit_7_4 + prod_7_4 >= -1
 c1083: Y_8 - bit_8_0 - 2 bit_8_1 - 4 bit_8_2 - 8 bit_8_3 - 16 bit_8_4 = 0
 c1084: - prod_8_0 - 2 prod_8_1 - 4 prod_8_2 - 8 prod_8_3 - 16 prod_8_4 + zprod_8 = 0
 c1085: - G + prod_8_0 <= 0
 c1086: - bit_8_0 + prod_8_0 <= 0
 c1087: - G - bit_8_0 + prod_8_0 >= -1
 c1088: - G + prod_8_1 <= 0
 c1089: - bit_8_1 + prod_8_1 <= 0
 c1090: - G - bit_8_1 + prod_8_1 >= -1
 c1091: - G + prod_8_2 <= 0
 c1092: - bit_8_2 + prod_8_2 <= 0
 c1093: - G - bit_8_2 + prod_8_2 >= -1
 c1094: - G + prod_8_3 <= 0
 c1095: - bit_8_3 + prod_8_3 <= 0
 c1096: - G - bit_8_3 + prod_8_3 >= -1
 c1097: - G + prod_8_4 <= 0
 c1098: - bit_8_4 + prod_8_4 <= 0
 c1099: - G - bit_8_4 + prod_8_4 >= -1
 c1100: Y_9 - bit_9_0 - 2 bit_9_1 - 4 bit_9_2 - 8 bit_9_3 - 16 bit_9_4 = 0
 c1101: - prod_9_0 - 2 prod_9_1 - 4 prod_9_2 - 8 prod_9_3 - 16 prod_9_4 + zprod_9 = 0
 c1102: - G + prod_9_0 <= 0
 c1103: - bit_9_0 + prod_9_0 <= 0
 c1104: - G - bit_9_0 + prod_9_0 >= -1
 c1105: - G + prod_9_1 <= 0
 c1106: - bit_9_1 + prod_9_1 <= 0
 c1107: - G - bit_9_1 + prod_9_1 >= -1
 c1108: - G + prod_9_2 <= 0
 c1109: - bit_9_2 + prod_9_2 <= 0
 c1110: - G - bit_9_2 + prod_9_2 >= -1
 c1111: - G + prod_9_3 <= 0
 c1112: - bit_9_3 + prod_9_3 <= 0
 c1113: - G - bit_9_3 + prod_9_3 >= -1
 c1114: - G + prod_9_4 <= 0
 c1115: - bit_9_4 + prod_9_4 <= 0
 c1116: - G - bit_9_4 + prod_9_4 >= -1
 c1117: Y_10 - bit_10_0 - 2 bit_10_1 - 4 bit_10_2 - 8 bit_10_3 - 16 bit_10_4 - 32 bit_10_5 = 0
 c1118: - prod_10_0 - 2 prod_10_1 - 4 prod_10_2 - 8 prod_10_3 - 16 prod_10_4 - 32 prod_10_5 + zprod_10 = 0
 c1119: - G + prod_10_0 <= 0
 c1120: - bit_10_0 + prod_10_0 <= 0
 c1121: - G - bit_10_0 + prod_10_0 >= -1
 c1122: - G + prod_10_1 <= 0
 c1123: - bit_10_1 + prod_10_1 <= 0
 c1124: - G - bit_10_1 + prod_10_1 >= -1
 c1125: - G + prod_10_2 <= 0
 c1126: - bit_10_2 + prod_10_2 <= 0
 c1127: - G - bit_10_2 + prod_10_2 >= -1
 c1128: - G + prod_10_3 <= 0
 c1129: - bit_10_3 + prod_10_3 <= 0
 c1130: - G - bit_10_3 + prod_10_3 >= -1
 c1131: - G + prod_10_4 <= 0
 c1132: - bit_10_4 + prod_10_4 <= 0
 c1133: - G - bit_10_4 + prod_10_4 >= -1
 c1134: - G + prod_10_5 <= 0
 c1135: - bit_10_5 + prod_10_5 <= 0
 c1136: - G - bit_10_5 + prod_10_5 >= -1
 c1137: - h_1_10 - h_1_2 - h_1_3 - h_1_4 - h_1_5 - h_1_6 - h_1_7 - h_1_8 - h_1_9 - h_2_10 - h_2_3 - h_2_4 - h_2_5 - h_2_6 - h_2_7 - h_2_8 - h_2_9 - h_3_10 - h_3_4 - h_3_5 - h_3_6 - h_3_7 - h_3_8 - h_3_9 - h_4_10 - h_4_5 - h_4_6 - h_4_7 - h_4_8 - h_4_9 - h_5_10 - h_5_6 - h_5_7 - h_5_8 - h_5_9 - h_6_10 - h_6_7 - h_6_8 - h_6_9 - h_7_10 - h_7_8 - h_7_9 - h_8_10 - h_8_9 - h_9_10 + 0.41666666666666669 zprod_1 + 0.52631578947368418 zprod_10 + 1.4285714285714286 zprod_2 + 0.25 zprod_3 + 0.38461538461538464 zprod_4 + 0.38461538461538464 zprod_5 + 0.30303030303030304 zprod_6 + 1.25 zprod_7 + 3.3333333333333335 zprod_8 + 0.37037037037037035 zprod_9 >= 0
Bounds
 0 <= G <= 1
 0 <= Y_1 <= 29
 0 <= Y_10 <= 48
 0 <= Y_2 <= 36
 0 <= Y_3 <= 44
 0 <= Y_4 <= 34
 0 <= Y_5 <= 50
 0 <= Y_6 <= 34
 0 <= Y_7 <= 28
 0 <= Y_8 <= 25
 0 <= Y_9 <= 29
 0 <= bit_10_0 <= 1
 0 <= bit_10_1 <= 1
 0 <= bit_10_2 <= 1
 0 <= bit_10_3 <= 1
 0 <= bit_10_4 <= 1
 0 <= bit_10_5 <= 1
 0 <= bit_1_0 <= 1
 0 <= bit_1_1 <= 1
 0 <= bit_1_2 <= 1
 0 <= bit_1_3 <= 1
 0 <= bit_1_4 <= 1
 0 <= bit_2_0 <= 1
 0 <= bit_2_1 <= 1
 0 <= bit_2_2 <= 1
 0 <= bit_2_3 <= 1
 0 <= bit_2_4 <= 1
 0 <= bit_2_5 <= 1
 0 <= bit_3_0 <= 1
 0 <= bit_3_1 <= 1
 0 <= bit_3_2 <= 1
 0 <= bit_3_3 <= 1
 0 <= bit_3_4 <= 1
 0 <= bit_3_5 <= 1
 0 <= bit_4_0 <= 1
 0 <= bit_4_1 <= 1
 0 <= bit_4_2 <= 1
 0 <= bit_4_3 <= 1
 0 <= bit_4_4 <= 1
 0 <= bit_4_5 <= 1
 0 <= bit_5_0 <= 1
 0 <= bit_5_1 <= 1
 0 <= bit_5_2 <= 1
 0 <= bit_5_3 <= 1
 0 <= bit_5_4 <= 1
 0 <= bit_5_5 <= 1
 0 <= bit_6_0 <= 1
 0 <= bit_6_1 <= 1
 0 <= bit_6_2 <= 1
 0 <= bit_6_3 <= 1
 0 <= bit_6_4 <= 1
 0 <= bit_6_5 <= 1
 0 <= bit_7_0 <= 1
 0 <= bit_7_1 <= 1
 0 <= bit_7_2 <= 1
 0 <= bit_7_3 <= 1
 0 <= bit_7_4 <= 1
 0 <= bit_8_0 <= 1
 0 <= bit_8_1 <= 1
 0 <= bit_8_2 <= 1
 0 <= bit_8_3 <= 1
 0 <= bit_8_4 <= 1
 0 <= bit_9_0 <= 1
 0 <= bit_9_1 <= 1
 0 <= bit_9_2 <= 1
 0 <= bit_9_3 <= 1
 0 <= bit_9_4 <= 1
 0 <= d_0_1 <= 20
 0 <= d_0_10 <= 20
 0 <= d_0_2 <= 10
 0 <= d_0_3 <= 20
 0 <= d_0_4 <= 20
 0 <= d_0_5 <= 20
 0 <= d_0_6 <= 20
 0 <= d_0_7 <= 20
 0 <= d_0_8 <= 20
 0 <= d_0_9 <= 20
 0 <= d_1_1 <= 20
 0 <= d_1_10 <= 20
 0 <= d_1_2 <= 10
 0 <= d_1_3 <= 20
 0 <= d_1_4 <= 20
 0 <= d_1_5 <= 20
 0 <= d_1_6 <= 20
 0 <= d_1_7 <= 20
 0 <= d_1_8 <= 20
 0 <= d_1_9 <= 20
 0 <= e_1 <= 1
 0 <= e_10 <= 1.5263157894736841
 0 <= e_2 <= 4.1428571428571432
 0 <= e_3 <= 1
 0 <= e_4 <= 1
 0 <= e_5 <= 1
 0 <= e_6 <= 1
 0 <= e_7 <= 2.5
 0 <= e_8 <= 7.3333333333333339
 0 <= e_9 <= 1
 0 <= h_1_10 <= 3.7346491228070171
 0 <= h_1_2 <= 6.3511904761904763
 0 <= h_1_3 <= 2.3083333333333336
 0 <= h_1_4 <= 2.516025641025641
 0 <= h_1_5 <= 3.1314102564102564
 0 <= h_1_6 <= 2.2386363636363633
 0 <= h_1_7 <= 4.708333333333333
 0 <= h_1_8 <= 9.5416666666666679
 0 <= h_1_9 <= 2.2824074074074074
 0 <= h_2_10 <= 7.6691729323308273
 0 <= h_2_3 <= 6.2428571428571438
 0 <= h_2_4 <= 6.4505494505494507
 0 <= h_2_5 <= 7.0659340659340666
 0 <= h_2_6 <= 6.1731601731601735
 0 <= h_2_7 <= 8.6428571428571423
 0 <= h_2_8 <= 13.476190476190478
 0 <= h_2_9 <= 6.2169312169312176
 0 <= h_3_10 <= 3.6263157894736842
 0 <= h_3_4 <= 2.407692307692308
 0 <= h_3_5 <= 3.023076923076923
 0 <= h_3_6 <= 2.1303030303030304
 0 <= h_3_7 <= 4.5999999999999996
 0 <= h_3_8 <= 9.4333333333333336
 0 <= h_3_9 <= 2.174074074074074
 0 <= h_4_10 <= 3.8340080971659916
 0 <= h_4_5 <= 3.2307692307692308
 0 <= h_4_6 <= 2.3379953379953378
 0 <= h_4_7 <= 4.8076923076923075
 0 <= h_4_8 <= 9.6410256410256423
 0 <= h_4_9 <= 2.3817663817663819
 0 <= h_5_10 <= 4.4493927125506074
 0 <= h_5_6 <= 2.9533799533799536
 0 <= h_5_7 <= 5.4230769230769234
 0 <= h_5_8 <= 10.256410256410257
 0 <= h_5_9 <= 2.9971509971509973
 0 <= h_6_10 <= 3.5566188197767143
 0 <= h_6_7 <= 4.5303030303030303
 0 <= h_6_8 <= 9.3636363636363633
 0 <= h_6_9 <= 2.1043771043771047
 0 <= h_7_10 <= 6.0263157894736841
 0 <= h_7_8 <= 11.833333333333334
 0 <= h_7_9 <= 4.5740740740740744
 0 <= h_8_10 <= 10.859649122807017
 0 <= h_8_9 <= 9.4074074074074083
 0 <= h_9_10 <= 3.6003898635477585
 0 <= load_0_1 <= 20
 0 <= load_0_10 <= 20
 0 <= load_0_2 <= 20
 0 <= load_0_3 <= 20
 0 <= load_0_4 <= 20
 0 <= load_0_5 <= 20
 0 <= load_0_6 <= 20
 0 <= load_0_7 <= 20
 0 <= load_0_8 <= 20
 0 <= load_0_9 <= 20
 0 <= load_1_1 <= 20
 0 <= load_1_10 <= 20
 0 <= load_1_2 <= 20
 0 <= load_1_3 <= 20
 0 <= load_1_4 <= 20
 0 <= load_1_5 <= 20
 0 <= load_1_6 <= 20
 0 <= load_1_7 <= 20
 0 <= load_1_8 <= 20
 0 <= load_1_9 <= 20
 0 <= mode_0_1 <= 1
 0 <= mode_0_10 <= 1
 0 <= mode_0_2 <= 1
 0 <= mode_0_3 <= 1
 0 <= mode_0_4 <= 1
 0 <= mode_0_5 <= 1
 0 <= mode_0_6 <= 1
 0 <= mode_0_7 <= 1
 0 <= mode_0_8 <= 1
 0 <= mode_0_9 <= 1
 0 <= mode_1_1 <= 1
 0 <= mode_1_10 <= 1
 0 <= mode_1_2 <= 1
 0 <= mode_1_3 <= 1
 0 <= mode_1_4 <= 1
 0 <= mode_1_5 <= 1
 0 <= mode_1_6 <= 1
 0 <= mode_1_7 <= 1
 0 <= mode_1_8 <= 1
 0 <= mode_1_9 <= 1
 0 <= ord_0_1 <= 10
 0 <= ord_0_10 <= 10
 0 <= ord_0_2 <= 10
 0 <= ord_0_3 <= 10
 0 <= ord_0_4 <= 10
 0 <= ord_0_5 <= 10
 0 <= ord_0_6 <= 10
 0 <= ord_0_7 <= 10
 0 <= ord_0_8 <= 10
 0 <= ord_0_9 <= 10
 0 <= ord_1_1 <= 10
 0 <= ord_1_10 <= 10
 0 <= ord_1_2 <= 10
 0 <= ord_1_3 <= 10
 0 <= ord_1_4 <= 10
 0 <= ord_1_5 <= 10
 0 <= ord_1_6 <= 10
 0 <= ord_1_7 <= 10
 0 <= ord_1_8 <= 10
 0 <= ord_1_9 <= 10
 0 <= p_0_1 <= 6
 0 <= p_0_10 <= 20
 0 <= p_0_2 <= 20
 0 <= p_0_3 <= 3
 0 <= p_0_4 <= 5
 0 <= p_0_5 <= 18
 0 <= p_0_6 <= 3
 0 <= p_0_7 <= 0
 0 <= p_0_8 <= 1
 0 <= p_0_9 <= 6
 0 <= p_1_1 <= 6
 0 <= p_1_10 <= 20
 0 <= p_1_2 <= 20
 0 <= p_1_3 <= 3
 0 <= p_1_4 <= 5
 0 <= p_1_5 <= 18
 0 <= p_1_6 <= 3
 0 <= p_1_7 <= 0
 0 <= p_1_8 <= 1
 0 <= p_1_9 <= 6
 0 <= prod_10_0 <= 1
 0 <= prod_10_1 <= 1
 0 <= prod_10_2 <= 1
 0 <= prod_10_3 <= 1
 0 <= prod_10_4 <= 1
 0 <= prod_10_5 <= 1
 0 <= prod_1_0 <= 1
 0 <= prod_1_1 <= 1
 0 <= prod_1_2 <= 1
 0 <= prod_1_3 <= 1
 0 <= prod_1_4 <= 1
 0 <= prod_2_0 <= 1
 0 <= prod_2_1 <= 1
 0 <= prod_2_2 <= 1
 0 <= prod_2_3 <= 1
 0 <= prod_2_4 <= 1
 0 <= prod_2_5 <= 1
 0 <= prod_3_0 <= 1
 0 <= prod_3_1 <= 1
 0 <= prod_3_2 <= 1
 0 <= prod_3_3 <= 1
 0 <= prod_3_4 <= 1
 0 <= prod_3_5 <= 1
 0 <= prod_4_0 <= 1
 0 <= prod_4_1 <= 1
 0 <= prod_4_2 <= 1
 0 <= prod_4_3 <= 1
 0 <= prod_4_4 <= 1
 0 <= prod_4_5 <= 1
 0 <= prod_5_0 <= 1
 0 <= prod_5_1 <= 1
 0 <= prod_5_2 <= 1
 0 <= prod_5_3 <= 1
 0 <= prod_5_4 <= 1
 0 <= prod_5_5 <= 1
 0 <= prod_6_0 <= 1
 0 <= prod_6_1 <= 1
 0 <= prod_6_2 <= 1
 0 <= prod_6_3 <= 1
 0 <= prod_6_4 <= 1
 0 <= prod_6_5 <= 1
 0 <= prod_7_0 <= 1
 0 <= prod_7_1 <= 1
 0 <= prod_7_2 <= 1
 0 <= prod_7_3 <= 1
 0 <= prod_7_4 <= 1
 0 <= prod_8_0 <= 1
 0 <= prod_8_1 <= 1
 0 <= prod_8_2 <= 1
 0 <= prod_8_3 <= 1
 0 <= prod_8_4 <= 1
 0 <= prod_9_0 <= 1
 0 <= prod_9_1 <= 1
 0 <= prod_9_2 <= 1
 0 <= prod_9_3 <= 1
 0 <= prod_9_4 <= 1
 0 <= r_1 <= 1.2083333333333333
 0 <= r_10 <= 2.5263157894736841
 0 <= r_2 <= 5.1428571428571432
 0 <= r_3 <= 1.1000000000000001
 0 <= r_4 <= 1.3076923076923077
 0 <= r_5 <= 1.9230769230769231
 0 <= r_6 <= 1.0303030303030303
 0 <= r_7 <= 3.5
 0 <= r_8 <= 8.3333333333333339
 0 <= r_9 <= 1.0740740740740742
 0 <= x_0_0_1 <= 1
 0 <= x_0_0_10 <= 1
 0 <= x_0_0_2 <= 1
 0 <= x_0_0_3 <= 1
 0 <= x_0_0_4 <= 1
 0 <= x_0_0_5 <= 1
 0 <= x_0_0_6 <= 1
 0 <= x_0_0_7 <= 1
 0 <= x_0_0_8 <= 1
 0 <= x_0_0_9 <= 1
 0 <= x_0_10_0 <= 1
 0 <= x_0_10_1 <= 1
 0 <= x_0_10_2 <= 1
 0 <= x_0_10_3 <= 1
 0 <= x_0_10_4 <= 1
 0 <= x_0_10_5 <= 1
 0 <= x_0_10_6 <= 1
 0 <= x_0_10_7 <= 1
 0 <= x_0_10_8 <= 1
 0 <= x_0_10_9 <= 1
 0 <= x_0_1_0 <= 1
 0 <= x_0_1_10 <= 1
 0 <= x_0_1_2 <= 1
 0 <= x_0_1_3 <= 1
 0 <= x_0_1_4 <= 1
 0 <= x_0_1_5 <= 1
 0 <= x_0_1_6 <= 1
 0 <= x_0_1_7 <= 1
 0 <= x_0_1_8 <= 1
 0 <= x_0_1_9 <= 1
 0 <= x_0_2_0 <= 1
 0 <= x_0_2_1 <= 1
 0 <= x_0_2_10 <= 1
 0 <= x_0_2_3 <= 1
 0 <= x_0_2_4 <= 1
 0 <= x_0_2_5 <= 1
 0 <= x_0_2_6 <= 1
 0 <= x_0_2_7 <= 1
 0 <= x_0_2_8 <= 1
 0 <= x_0_2_9 <= 1
 0 <= x_0_3_0 <= 1
 0 <= x_0_3_1 <= 1
 0 <= x_0_3_10 <= 1
 0 <= x_0_3_2 <= 1
 0 <= x_0_3_4 <= 1
 0 <= x_0_3_5 <= 1
 0 <= x_0_3_6 <= 1
 0 <= x_0_3_7 <= 1
 0 <= x_0_3_8 <= 1
 0 <= x_0_3_9 <= 1
 0 <= x_0_4_0 <= 1
 0 <= x_0_4_1 <= 1
 0 <= x_0_4_10 <= 1
 0 <= x_0_4_2 <= 1
 0 <= x_0_4_3 <= 1
 0 <= x_0_4_5 <= 1
 0 <= x_0_4_6 <= 1
 0 <= x_0_4_7 <= 1
 0 <= x_0_4_8 <= 1
 0 <= x_0_4_9 <= 1
 0 <= x_0_5_0 <= 1
 0 <= x_0_5_1 <= 1
 0 <= x_0_5_10 <= 1
 0 <= x_0_5_2 <= 1
 0 <= x_0_5_3 <= 1
 0 <= x_0_5_4 <= 1
 0 <= x_0_5_6 <= 1
 0 <= x_0_5_7 <= 1
 0 <= x_0_5_8 <= 1
 0 <= x_0_5_9 <= 1
 0 <= x_0_6_0 <= 1
 0 <= x_0_6_1 <= 1
 0 <= x_0_6_10 <= 1
 0 <= x_0_6_2 <= 1
 0 <= x_0_6_3 <= 1
 0 <= x_0_6_4 <= 1
 0 <= x_0_6_5 <= 1
 0 <= x_0_6_7 <= 1
 0 <= x_0_6_8 <= 1
 0 <= x_0_6_9 <= 1
 0 <= x_0_7_0 <= 1
 0 <= x_0_7_1 <= 1
 0 <= x_0_7_10 <= 1
 0 <= x_0_7_2 <= 1
 0 <= x_0_7_3 <= 1
 0 <= x_0_7_4 <= 1
 0 <= x_0_7_5 <= 1
 0 <= x_0_7_6 <= 1
 0 <= x_0_7_8 <= 1
 0 <= x_0_7_9 <= 1
 0 <= x_0_8_0 <= 1
 0 <= x_0_8_1 <= 1
 0 <= x_0_8_10 <= 1
 0 <= x_0_8_2 <= 1
 0 <= x_0_8_3 <= 1
 0 <= x_0_8_4 <= 1
 0 <= x_0_8_5 <= 1
 0 <= x_0_8_6 <= 1
 0 <= x_0_8_7 <= 1
 0 <= x_0_8_9 <= 1
 0 <= x_0_9_0 <= 1
 0 <= x_0_9_1 <= 1
 0 <= x_0_9_10 <= 1
 0 <= x_0_9_2 <= 1
 0 <= x_0_9_3 <= 1
 0 <= x_0_9_4 <= 1
 0 <= x_0_9_5 <= 1
 0 <= x_0_9_6 <= 1
 0 <= x_0_9_7 <= 1
 0 <= x_0_9_8 <= 1
 0 <= x_1_0_1 <= 1
 0 <= x_1_0_10 <= 1
 0 <= x_1_0_2 <= 1
 0 <= x_1_0_3 <= 1
 0 <= x_1_0_4 <= 1
 0 <= x_1_0_5 <= 1
 0 <= x_1_0_6 <= 1
 0 <= x_1_0_7 <= 1
 0 <= x_1_0_8 <= 1
 0 <= x_1_0_9 <= 1
 0 <= x_1_10_0 <= 1
 0 <= x_1_10_1 <= 1
 0 <= x_1_10_2 <= 1
 0 <= x_1_10_3 <= 1
 0 <= x_1_10_4 <= 1
 0 <= x_1_10_5 <= 1
 0 <= x_1_10_6 <= 1
 0 <= x_1_10_7 <= 1
 0 <= x_1_10_8 <= 1
 0 <= x_1_10_9 <= 1
 0 <= x_1_1_0 <= 1
 0 <= x_1_1_10 <= 1
 0 <= x_1_1_2 <= 1
 0 <= x_1_1_3 <= 1
 0 <= x_1_1_4 <= 1
 0 <= x_1_1_5 <= 1
 0 <= x_1_1_6 <= 1
 0 <= x_1_1_7 <= 1
 0 <= x_1_1_8 <= 1
 0 <= x_1_1_9 <= 1
 0 <= x_1_2_0 <= 1
 0 <= x_1_2_1 <= 1
 0 <= x_1_2_10 <= 1
 0 <= x_1_2_3 <= 1
 0 <= x_1_2_4 <= 1
 0 <= x_1_2_5 <= 1
 0 <= x_1_2_6 <= 1
 0 <= x_1_2_7 <= 1
 0 <= x_1_2_8 <= 1
 0 <= x_1_2_9 <= 1
 0 <= x_1_3_0 <= 1
 0 <= x_1_3_1 <= 1
 0 <= x_1_3_10 <= 1
 0 <= x_1_3_2 <= 1
 0 <= x_1_3_4 <= 1
 0 <= x_1_3_5 <= 1
 0 <= x_1_3_6 <= 1
 0 <= x_1_3_7 <= 1
 0 <= x_1_3_8 <= 1
 0 <= x_1_3_9 <= 1
 0 <= x_1_4_0 <= 1
 0 <= x_1_4_1 <= 1
 0 <= x_1_4_10 <= 1
 0 <= x_1_4_2 <= 1
 0 <= x_1_4_3 <= 1
 0 <= x_1_4_5 <= 1
 0 <= x_1_4_6 <= 1
 0 <= x_1_4_7 <= 1
 0 <= x_1_4_8 <= 1
 0 <= x_1_4_9 <= 1
 0 <= x_1_5_0 <= 1
 0 <= x_1_5_1 <= 1
 0 <= x_1_5_10 <= 1
 0 <= x_1_5_2 <= 1
 0 <= x_1_5_3 <= 1
 0 <= x_1_5_4 <= 1
 0 <= x_1_5_6 <= 1
 0 <= x_1_5_7 <= 1
 0 <= x_1_5_8 <= 1
 0 <= x_1_5_9 <= 1
 0 <= x_1_6_0 <= 1
 0 <= x_1_6_1 <= 1
 0 <= x_1_6_10 <= 1
 0 <= x_1_6_2 <= 1
 0 <= x_1_6_3 <= 1
 0 <= x_1_6_4 <= 1
 0 <= x_1_6_5 <= 1
 0 <= x_1_6_7 <= 1
 0 <= x_1_6_8 <= 1
 0 <= x_1_6_9 <= 1
 0 <= x_1_7_0 <= 1
 0 <= x_1_7_1 <= 1
 0 <= x_1_7_10 <= 1
 0 <= x_1_7_2 <= 1
 0 <= x_1_7_3 <= 1
 0 <= x_1_7_4 <= 1
 0 <= x_1_7_5 <= 1
 0 <= x_1_7_6 <= 1
 0 <= x_1_7_8 <= 1
 0 <= x_1_7_9 <= 1
 0 <= x_1_8_0 <= 1
 0 <= x_1_8_1 <= 1
 0 <= x_1_8_10 <= 1
 0 <= x_1_8_2 <= 1
 0 <= x_1_8_3 <= 1
 0 <= x_1_8_4 <= 1
 0 <= x_1_8_5 <= 1
 0 <= x_1_8_6 <= 1
 0 <= x_1_8_7 <= 1
 0 <= x_1_8_9 <= 1
 0 <= x_1_9_0 <= 1
 0 <= x_1_9_1 <= 1
 0 <= x_1_9_10 <= 1
 0 <= x_1_9_2 <= 1
 0 <= x_1_9_3 <= 1
 0 <= x_1_9_4 <= 1
 0 <= x_1_9_5 <= 1
 0 <= x_1_9_6 <= 1
 0 <= x_1_9_7 <= 1
 0 <= x_1_9_8 <= 1
 0 <= z_0_1 <= 1
 0 <= z_0_10 <= 1
 0 <= z_0_2 <= 1
 0 <= z_0_3 <= 1
 0 <= z_0_4 <= 1
 0 <= z_0_5 <= 1
 0 <= z_0_6 <= 1
 0 <= z_0_7 <= 1
 0 <= z_0_8 <= 1
 0 <= z_0_9 <= 1
 0 <= z_1_1 <= 1
 0 <= z_1_10 <= 1
 0 <= z_1_2 <= 1
 0 <= z_1_3 <= 1
 0 <= z_1_4 <= 1
 0 <= z_1_5 <= 1
 0 <= z_1_6 <= 1
 0 <= z_1_7 <= 1
 0 <= z_1_8 <= 1
 0 <= z_1_9 <= 1
 0 <= zprod_1 <= 29
 0 <= zprod_10 <= 48
 0 <= zprod_2 <= 36
 0 <= zprod_3 <= 44
 0 <= zprod_4 <= 34
 0 <= zprod_5 <= 50
 0 <= zprod_6 <= 34
 0 <= zprod_7 <= 28
 0 <= zprod_8 <= 25
 0 <= zprod_9 <= 29
Generals
 Y_1
 Y_10
 Y_2
 Y_3
 Y_4
 Y_5
 Y_6
 Y_7
 Y_8
 Y_9
 d_0_1
 d_0_10
 d_0_2
 d_0_3
 d_0_4
 d_0_5
 d_0_6
 d_0_7
 d_0_8
 d_0_9
 d_1_1
 d_1_10
 d_1_2
 d_1_3
 d_1_4
 d_1_5
 d_1_6
 d_1_7
 d_1_8
 d_1_9
 load_0_1
 load_0_10
 load_0_2
 load_0_3
 load_0_4
 load_0_5
 load_0_6
 load_0_7
 load_0_8
 load_0_9
 load_1_1
 load_1_10
 load_1_2
 load_1_3
 load_1_4
 load_1_5
 load_1_6
 load_1_7
 load_1_8
 load_1_9
 p_0_1
 p_0_10
 p_0_2
 p_0_3
 p_0_4
 p_0_5
 p_0_6
 p_0_7
 p_0_8
 p_0_9
 p_1_1
 p_1_10
 p_1_2
 p_1_3
 p_1_4
 p_1_5
 p_1_6
 p_1_7
 p_1_8
 p_1_9
Binaries
 bit_10_0
 bit_10_1
 bit_10_2
 bit_10_3
 bit_10_4
 bit_10_5
 bit_1_0
 bit_1_1
 bit_1_2
 bit_1_3
 bit_1_4
 bit_2_0
 bit_2_1
 bit_2_2
 bit_2_3
 bit_2_4
 bit_2_5
 bit_3_0
 bit_3_1
 bit_3_2
 bit_3_3
 bit_3_4
 bit_3_5
 bit_4_0
 bit_4_1
 bit_4_2
 bit_4_3
 bit_4_4
 bit_4_5
 bit_5_0
 bit_5_1
 bit_5_2
 bit_5_3
 bit_5_4
 bit_5_5
 bit_6_0
 bit_6_1
 bit_6_2
 bit_6_3
 bit_6_4
 bit_6_5
 bit_7_0
 bit_7_1
 bit_7_2
 bit_7_3
 bit_7_4
 bit_8_0
 bit_8_1
 bit_8_2
 bit_8_3
 bit_8_4
 bit_9_0
 bit_9_1
 bit_9_2
 bit_9_3
 bit_9_4
 mode_0_1
 mode_0_10
 mode_0_2
 mode_0_3
 mode_0_4
 mode_0_5
 mode_0_6
 mode_0_7
 mode_0_8
 mode_0_9
 mode_1_1
 mode_1_10
 mode_1_2
 mode_1_3
 mode_1_4
 mode_1_5
 mode_1_6
 mode_1_7
 mode_1_8
 mode_1_9
 x_0_0_1
 x_0_0_10
 x_0_0_2
 x_0_0_3
 x_0_0_4
 x_0_0_5
 x_0_0_6
 x_0_0_7
 x_0_0_8
 x_0_0_9
 x_0_10_0
 x_0_10_1
 x_0_10_2
 x_0_10_3
 x_0_10_4
 x_0_10_5
 x_0_10_6
 x_0_10_7
 x_0_10_8
 x_0_10_9
 x_0_1_0
 x_0_1_10
 x_0_1_2
 x_0_1_3
 x_0_1_4
 x_0_1_5
 x_0_1_6
 x_0_1_7
 x_0_1_8
 x_0_1_9
 x_0_2_0
 x_0_2_1
 x_0_2_10
 x_0_2_3
 x_0_2_4
 x_0_2_5
 x_0_2_6
 x_0_2_7
 x_0_2_8
 x_0_2_9
 x_0_3_0
 x_0_3_1
 x_0_3_10
 x_0_3_2
 x_0_3_4
 x_0_3_5
 x_0_3_6
 x_0_3_7
 x_0_3_8
 x_0_3_9
 x_0_4_0
 x_0_4_1
 x_0_4_10
 x_0_4_2
 x_0_4_3
 x_0_4_5
 x_0_4_6
 x_0_4_7
 x_0_4_8
 x_0_4_9
 x_0_5_0
 x_0_5_1
 x_0_5_10
 x_0_5_2
 x_0_5_3
 x_0_5_4
 x_0_5_6
 x_0_5_7
 x_0_5_8
 x_0_5_9
 x_0_6_0
 x_0_6_1
 x_0_6_10
 x_0_6_2
 x_0_6_3
 x_0_6_4
 x_0_6_5
 x_0_6_7
 x_0_6_8
 x_0_6_9
 x_0_7_0
 x_0_7_1
 x_0_7_10
 x_0_7_2
 x_0_7_3
 x_0_7_4
 x_0_7_5
 x_0_7_6
 x_0_7_8
 x_0_7_9
 x_0_8_0
 x_0_8_1
 x_0_8_10
 x_0_8_2
 x_0_8_3
 x_0_8_4
 x_0_8_5
 x_0_8_6
 x_0_8_7
 x_0_8_9
 x_0_9_0
 x_0_9_1
 x_0_9_10
 x_0_9_2
 x_0_9_3
 x_0_9_4
 x_0_9_5
 x_0_9_6
 x_0_9_7
 x_0_9_8
 x_1_0_1
 x_1_0_10
 x_1_0_2
 x_1_0_3
 x_1_0_4
 x_1_0_5
 x_1_0_6
 x_1_0_7
 x_1_0_8
 x_1_0_9
 x_1_10_0
 x_1_10_1
 x_1_10_2
 x_1_10_3
 x_1_10_4
 x_1_10_5
 x_1_10_6
 x_1_10_7
 x_1_10_8
 x_1_10_9
 x_1_1_0
 x_1_1_10
 x_1_1_2
 x_1_1_3
 x_1_1_4
 x_1_1_5
 x_1_1_6
 x_1_1_7
 x_1_1_8
 x_1_1_9
 x_1_2_0
 x_1_2_1
 x_1_2_10
 x_1_2_3
 x_1_2_4
 x_1_2_5
 x_1_2_6
 x_1_2_7
 x_1_2_8
 x_1_2_9
 x_1_3_0
 x_1_3_1
 x_1_3_10
 x_1_3_2
 x_1_3_4
 x_1_3_5
 x_1_3_6
 x_1_3_7
 x_1_3_8
 x_1_3_9
 x_1_4_0
 x_1_4_1
 x_1_4_10
 x_1_4_2
 x_1_4_3
 x_1_4_5
 x_1_4_6
 x_1_4_7
 x_1_4_8
 x_1_4_9
 x_1_5_0
 x_1_5_1
 x_1_5_10
 x_1_5_2
 x_1_5_3
 x_1_5_4
 x_1_5_6
 x_1_5_7
 x_1_5_8
 x_1_5_9
 x_1_6_0
 x_1_6_1
 x_1_6_10
 x_1_6_2
 x_1_6_3
 x_1_6_4
 x_1_6_5
 x_1_6_7
 x_1_6_8
 x_1_6_9
 x_1_7_0
 x_1_7_1
 x_1_7_10
 x_1_7_2
 x_1_7_3
 x_1_7_4
 x_1_7_5
 x_1_7_6
 x_1_7_8
 x_1_7_9
 x_1_8_0
 x_1_8_1
 x_1_8_10
 x_1_8_2
 x_1_8_3
 x_1_8_4
 x_1_8_5
 x_1_8_6
 x_1_8_7
 x_1_8_9
 x_1_9_0
 x_1_9_1
 x_1_9_10
 x_1_9_2
 x_1_9_3
 x_1_9_4
 x_1_9_5
 x_1_9_6
 x_1_9_7
 x_1_9_8
 z_0_1
 z_0_10
 z_0_2
 z_0_3
 z_0_4
 z_0_5
 z_0_6
 z_0_7
 z_0_8
 z_0_9
 z_1_1
 z_1_10
 z_1_2
 z_1_3
 z_1_4
 z_1_5
 z_1_6
 z_1_7
 z_1_8
 z_1_9
End
