\ ExactEBRP compact MILP generated from C++ command-line runner
Minimize
 obj: G + 0.04972215 e_1 + 0.01361745 e_2 + 0.033625049999999997 e_3 + 0.01479165 e_4 + 0.14999999999999999 e_5 + 0.01368495 e_6 + 0.024213000000000002 e_7 + 0.1420833 e_8 + 0.084027749999999998 e_9 + 0.023333400000000001 e_10
Subject To
 c1: x_0_0_1 + x_0_0_10 + x_0_0_2 + x_0_0_3 + x_0_0_4 + x_0_0_5 + x_0_0_6 + x_0_0_7 + x_0_0_8 + x_0_0_9 - x_0_10_0 - x_0_1_0 - x_0_2_0 - x_0_3_0 - x_0_4_0 - x_0_5_0 - x_0_6_0 - x_0_7_0 - x_0_8_0 - x_0_9_0 = 0
 c2: x_0_0_1 + x_0_0_10 + x_0_0_2 + x_0_0_3 + x_0_0_4 + x_0_0_5 + x_0_0_6 + x_0_0_7 + x_0_0_8 + x_0_0_9 <= 1
 c3: x_0_0_1 + x_0_10_1 + x_0_2_1 + x_0_3_1 + x_0_4_1 + x_0_5_1 + x_0_6_1 + x_0_7_1 + x_0_8_1 + x_0_9_1 - z_0_1 = 0
 c4: x_0_1_0 + x_0_1_10 + x_0_1_2 + x_0_1_3 + x_0_1_4 + x_0_1_5 + x_0_1_6 + x_0_1_7 + x_0_1_8 + x_0_1_9 - z_0_1 = 0
 c5: x_0_0_2 + x_0_10_2 + x_0_1_2 + x_0_3_2 + x_0_4_2 + x_0_5_2 + x_0_6_2 + x_0_7_2 + x_0_8_2 + x_0_9_2 - z_0_2 = 0
 c6: x_0_2_0 + x_0_2_1 + x_0_2_10 + x_0_2_3 + x_0_2_4 + x_0_2_5 + x_0_2_6 + x_0_2_7 + x_0_2_8 + x_0_2_9 - z_0_2 = 0
 c7: x_0_0_3 + x_0_10_3 + x_0_1_3 + x_0_2_3 + x_0_4_3 + x_0_5_3 + x_0_6_3 + x_0_7_3 + x_0_8_3 + x_0_9_3 - z_0_3 = 0
 c8: x_0_3_0 + x_0_3_1 + x_0_3_10 + x_0_3_2 + x_0_3_4 + x_0_3_5 + x_0_3_6 + x_0_3_7 + x_0_3_8 + x_0_3_9 - z_0_3 = 0
 c9: x_0_0_4 + x_0_10_4 + x_0_1_4 + x_0_2_4 + x_0_3_4 + x_0_5_4 + x_0_6_4 + x_0_7_4 + x_0_8_4 + x_0_9_4 - z_0_4 = 0
 c10: x_0_4_0 + x_0_4_1 + x_0_4_10 + x_0_4_2 + x_0_4_3 + x_0_4_5 + x_0_4_6 + x_0_4_7 + x_0_4_8 + x_0_4_9 - z_0_4 = 0
 c11: x_0_0_5 + x_0_10_5 + x_0_1_5 + x_0_2_5 + x_0_3_5 + x_0_4_5 + x_0_6_5 + x_0_7_5 + x_0_8_5 + x_0_9_5 - z_0_5 = 0
 c12: x_0_5_0 + x_0_5_1 + x_0_5_10 + x_0_5_2 + x_0_5_3 + x_0_5_4 + x_0_5_6 + x_0_5_7 + x_0_5_8 + x_0_5_9 - z_0_5 = 0
 c13: x_0_0_6 + x_0_10_6 + x_0_1_6 + x_0_2_6 + x_0_3_6 + x_0_4_6 + x_0_5_6 + x_0_7_6 + x_0_8_6 + x_0_9_6 - z_0_6 = 0
 c14: x_0_6_0 + x_0_6_1 + x_0_6_10 + x_0_6_2 + x_0_6_3 + x_0_6_4 + x_0_6_5 + x_0_6_7 + x_0_6_8 + x_0_6_9 - z_0_6 = 0
 c15: x_0_0_7 + x_0_10_7 + x_0_1_7 + x_0_2_7 + x_0_3_7 + x_0_4_7 + x_0_5_7 + x_0_6_7 + x_0_8_7 + x_0_9_7 - z_0_7 = 0
 c16: x_0_7_0 + x_0_7_1 + x_0_7_10 + x_0_7_2 + x_0_7_3 + x_0_7_4 + x_0_7_5 + x_0_7_6 + x_0_7_8 + x_0_7_9 - z_0_7 = 0
 c17: x_0_0_8 + x_0_10_8 + x_0_1_8 + x_0_2_8 + x_0_3_8 + x_0_4_8 + x_0_5_8 + x_0_6_8 + x_0_7_8 + x_0_9_8 - z_0_8 = 0
 c18: x_0_8_0 + x_0_8_1 + x_0_8_10 + x_0_8_2 + x_0_8_3 + x_0_8_4 + x_0_8_5 + x_0_8_6 + x_0_8_7 + x_0_8_9 - z_0_8 = 0
 c19: x_0_0_9 + x_0_10_9 + x_0_1_9 + x_0_2_9 + x_0_3_9 + x_0_4_9 + x_0_5_9 + x_0_6_9 + x_0_7_9 + x_0_8_9 - z_0_9 = 0
 c20: x_0_9_0 + x_0_9_1 + x_0_9_10 + x_0_9_2 + x_0_9_3 + x_0_9_4 + x_0_9_5 + x_0_9_6 + x_0_9_7 + x_0_9_8 - z_0_9 = 0
 c21: x_0_0_10 + x_0_1_10 + x_0_2_10 + x_0_3_10 + x_0_4_10 + x_0_5_10 + x_0_6_10 + x_0_7_10 + x_0_8_10 + x_0_9_10 - z_0_10 = 0
 c22: x_0_10_0 + x_0_10_1 + x_0_10_2 + x_0_10_3 + x_0_10_4 + x_0_10_5 + x_0_10_6 + x_0_10_7 + x_0_10_8 + x_0_10_9 - z_0_10 = 0
 c23: z_0_1 <= 1
 c24: z_0_2 <= 1
 c25: z_0_3 <= 1
 c26: z_0_4 <= 1
 c27: z_0_5 <= 1
 c28: z_0_6 <= 1
 c29: z_0_7 <= 1
 c30: z_0_8 <= 1
 c31: z_0_9 <= 1
 c32: z_0_10 <= 1
 c33: ord_0_1 - z_0_1 >= 0
 c34: ord_0_1 - 10 z_0_1 <= 0
 c35: ord_0_2 - z_0_2 >= 0
 c36: ord_0_2 - 10 z_0_2 <= 0
 c37: ord_0_3 - z_0_3 >= 0
 c38: ord_0_3 - 10 z_0_3 <= 0
 c39: ord_0_4 - z_0_4 >= 0
 c40: ord_0_4 - 10 z_0_4 <= 0
 c41: ord_0_5 - z_0_5 >= 0
 c42: ord_0_5 - 10 z_0_5 <= 0
 c43: ord_0_6 - z_0_6 >= 0
 c44: ord_0_6 - 10 z_0_6 <= 0
 c45: ord_0_7 - z_0_7 >= 0
 c46: ord_0_7 - 10 z_0_7 <= 0
 c47: ord_0_8 - z_0_8 >= 0
 c48: ord_0_8 - 10 z_0_8 <= 0
 c49: ord_0_9 - z_0_9 >= 0
 c50: ord_0_9 - 10 z_0_9 <= 0
 c51: ord_0_10 - z_0_10 >= 0
 c52: ord_0_10 - 10 z_0_10 <= 0
 c53: ord_0_1 - ord_0_2 + 10 x_0_1_2 <= 9
 c54: ord_0_1 - ord_0_3 + 10 x_0_1_3 <= 9
 c55: ord_0_1 - ord_0_4 + 10 x_0_1_4 <= 9
 c56: ord_0_1 - ord_0_5 + 10 x_0_1_5 <= 9
 c57: ord_0_1 - ord_0_6 + 10 x_0_1_6 <= 9
 c58: ord_0_1 - ord_0_7 + 10 x_0_1_7 <= 9
 c59: ord_0_1 - ord_0_8 + 10 x_0_1_8 <= 9
 c60: ord_0_1 - ord_0_9 + 10 x_0_1_9 <= 9
 c61: ord_0_1 - ord_0_10 + 10 x_0_1_10 <= 9
 c62: - ord_0_1 + ord_0_2 + 10 x_0_2_1 <= 9
 c63: ord_0_2 - ord_0_3 + 10 x_0_2_3 <= 9
 c64: ord_0_2 - ord_0_4 + 10 x_0_2_4 <= 9
 c65: ord_0_2 - ord_0_5 + 10 x_0_2_5 <= 9
 c66: ord_0_2 - ord_0_6 + 10 x_0_2_6 <= 9
 c67: ord_0_2 - ord_0_7 + 10 x_0_2_7 <= 9
 c68: ord_0_2 - ord_0_8 + 10 x_0_2_8 <= 9
 c69: ord_0_2 - ord_0_9 + 10 x_0_2_9 <= 9
 c70: - ord_0_10 + ord_0_2 + 10 x_0_2_10 <= 9
 c71: - ord_0_1 + ord_0_3 + 10 x_0_3_1 <= 9
 c72: - ord_0_2 + ord_0_3 + 10 x_0_3_2 <= 9
 c73: ord_0_3 - ord_0_4 + 10 x_0_3_4 <= 9
 c74: ord_0_3 - ord_0_5 + 10 x_0_3_5 <= 9
 c75: ord_0_3 - ord_0_6 + 10 x_0_3_6 <= 9
 c76: ord_0_3 - ord_0_7 + 10 x_0_3_7 <= 9
 c77: ord_0_3 - ord_0_8 + 10 x_0_3_8 <= 9
 c78: ord_0_3 - ord_0_9 + 10 x_0_3_9 <= 9
 c79: - ord_0_10 + ord_0_3 + 10 x_0_3_10 <= 9
 c80: - ord_0_1 + ord_0_4 + 10 x_0_4_1 <= 9
 c81: - ord_0_2 + ord_0_4 + 10 x_0_4_2 <= 9
 c82: - ord_0_3 + ord_0_4 + 10 x_0_4_3 <= 9
 c83: ord_0_4 - ord_0_5 + 10 x_0_4_5 <= 9
 c84: ord_0_4 - ord_0_6 + 10 x_0_4_6 <= 9
 c85: ord_0_4 - ord_0_7 + 10 x_0_4_7 <= 9
 c86: ord_0_4 - ord_0_8 + 10 x_0_4_8 <= 9
 c87: ord_0_4 - ord_0_9 + 10 x_0_4_9 <= 9
 c88: - ord_0_10 + ord_0_4 + 10 x_0_4_10 <= 9
 c89: - ord_0_1 + ord_0_5 + 10 x_0_5_1 <= 9
 c90: - ord_0_2 + ord_0_5 + 10 x_0_5_2 <= 9
 c91: - ord_0_3 + ord_0_5 + 10 x_0_5_3 <= 9
 c92: - ord_0_4 + ord_0_5 + 10 x_0_5_4 <= 9
 c93: ord_0_5 - ord_0_6 + 10 x_0_5_6 <= 9
 c94: ord_0_5 - ord_0_7 + 10 x_0_5_7 <= 9
 c95: ord_0_5 - ord_0_8 + 10 x_0_5_8 <= 9
 c96: ord_0_5 - ord_0_9 + 10 x_0_5_9 <= 9
 c97: - ord_0_10 + ord_0_5 + 10 x_0_5_10 <= 9
 c98: - ord_0_1 + ord_0_6 + 10 x_0_6_1 <= 9
 c99: - ord_0_2 + ord_0_6 + 10 x_0_6_2 <= 9
 c100: - ord_0_3 + ord_0_6 + 10 x_0_6_3 <= 9
 c101: - ord_0_4 + ord_0_6 + 10 x_0_6_4 <= 9
 c102: - ord_0_5 + ord_0_6 + 10 x_0_6_5 <= 9
 c103: ord_0_6 - ord_0_7 + 10 x_0_6_7 <= 9
 c104: ord_0_6 - ord_0_8 + 10 x_0_6_8 <= 9
 c105: ord_0_6 - ord_0_9 + 10 x_0_6_9 <= 9
 c106: - ord_0_10 + ord_0_6 + 10 x_0_6_10 <= 9
 c107: - ord_0_1 + ord_0_7 + 10 x_0_7_1 <= 9
 c108: - ord_0_2 + ord_0_7 + 10 x_0_7_2 <= 9
 c109: - ord_0_3 + ord_0_7 + 10 x_0_7_3 <= 9
 c110: - ord_0_4 + ord_0_7 + 10 x_0_7_4 <= 9
 c111: - ord_0_5 + ord_0_7 + 10 x_0_7_5 <= 9
 c112: - ord_0_6 + ord_0_7 + 10 x_0_7_6 <= 9
 c113: ord_0_7 - ord_0_8 + 10 x_0_7_8 <= 9
 c114: ord_0_7 - ord_0_9 + 10 x_0_7_9 <= 9
 c115: - ord_0_10 + ord_0_7 + 10 x_0_7_10 <= 9
 c116: - ord_0_1 + ord_0_8 + 10 x_0_8_1 <= 9
 c117: - ord_0_2 + ord_0_8 + 10 x_0_8_2 <= 9
 c118: - ord_0_3 + ord_0_8 + 10 x_0_8_3 <= 9
 c119: - ord_0_4 + ord_0_8 + 10 x_0_8_4 <= 9
 c120: - ord_0_5 + ord_0_8 + 10 x_0_8_5 <= 9
 c121: - ord_0_6 + ord_0_8 + 10 x_0_8_6 <= 9
 c122: - ord_0_7 + ord_0_8 + 10 x_0_8_7 <= 9
 c123: ord_0_8 - ord_0_9 + 10 x_0_8_9 <= 9
 c124: - ord_0_10 + ord_0_8 + 10 x_0_8_10 <= 9
 c125: - ord_0_1 + ord_0_9 + 10 x_0_9_1 <= 9
 c126: - ord_0_2 + ord_0_9 + 10 x_0_9_2 <= 9
 c127: - ord_0_3 + ord_0_9 + 10 x_0_9_3 <= 9
 c128: - ord_0_4 + ord_0_9 + 10 x_0_9_4 <= 9
 c129: - ord_0_5 + ord_0_9 + 10 x_0_9_5 <= 9
 c130: - ord_0_6 + ord_0_9 + 10 x_0_9_6 <= 9
 c131: - ord_0_7 + ord_0_9 + 10 x_0_9_7 <= 9
 c132: - ord_0_8 + ord_0_9 + 10 x_0_9_8 <= 9
 c133: - ord_0_10 + ord_0_9 + 10 x_0_9_10 <= 9
 c134: - ord_0_1 + ord_0_10 + 10 x_0_10_1 <= 9
 c135: ord_0_10 - ord_0_2 + 10 x_0_10_2 <= 9
 c136: ord_0_10 - ord_0_3 + 10 x_0_10_3 <= 9
 c137: ord_0_10 - ord_0_4 + 10 x_0_10_4 <= 9
 c138: ord_0_10 - ord_0_5 + 10 x_0_10_5 <= 9
 c139: ord_0_10 - ord_0_6 + 10 x_0_10_6 <= 9
 c140: ord_0_10 - ord_0_7 + 10 x_0_10_7 <= 9
 c141: ord_0_10 - ord_0_8 + 10 x_0_10_8 <= 9
 c142: ord_0_10 - ord_0_9 + 10 x_0_10_9 <= 9
 c143: p_0_1 - 19 z_0_1 <= 0
 c144: d_0_1 - 3 z_0_1 <= 0
 c145: mode_0_1 - z_0_1 <= 0
 c146: - 19 mode_0_1 + p_0_1 <= 0
 c147: d_0_1 + 3 mode_0_1 - 3 z_0_1 <= 0
 c148: d_0_1 + p_0_1 - z_0_1 >= 0
 c149: load_0_1 - 30 z_0_1 <= 0
 c150: p_0_2 - 5 z_0_2 <= 0
 c151: d_0_2 - 23 z_0_2 <= 0
 c152: mode_0_2 - z_0_2 <= 0
 c153: - 5 mode_0_2 + p_0_2 <= 0
 c154: d_0_2 + 23 mode_0_2 - 23 z_0_2 <= 0
 c155: d_0_2 + p_0_2 - z_0_2 >= 0
 c156: load_0_2 - 30 z_0_2 <= 0
 c157: p_0_3 - 30 z_0_3 <= 0
 c158: d_0_3 - 4 z_0_3 <= 0
 c159: mode_0_3 - z_0_3 <= 0
 c160: - 30 mode_0_3 + p_0_3 <= 0
 c161: d_0_3 + 4 mode_0_3 - 4 z_0_3 <= 0
 c162: d_0_3 + p_0_3 - z_0_3 >= 0
 c163: load_0_3 - 30 z_0_3 <= 0
 c164: p_0_4 - 3 z_0_4 <= 0
 c165: d_0_4 - 30 z_0_4 <= 0
 c166: mode_0_4 - z_0_4 <= 0
 c167: - 3 mode_0_4 + p_0_4 <= 0
 c168: d_0_4 + 30 mode_0_4 - 30 z_0_4 <= 0
 c169: d_0_4 + p_0_4 - z_0_4 >= 0
 c170: load_0_4 - 30 z_0_4 <= 0
 c171: p_0_5 - 19 z_0_5 <= 0
 c172: d_0_5 - 8 z_0_5 <= 0
 c173: mode_0_5 - z_0_5 <= 0
 c174: - 19 mode_0_5 + p_0_5 <= 0
 c175: d_0_5 + 8 mode_0_5 - 8 z_0_5 <= 0
 c176: d_0_5 + p_0_5 - z_0_5 >= 0
 c177: load_0_5 - 30 z_0_5 <= 0
 c178: p_0_6 - 7 z_0_6 <= 0
 c179: d_0_6 - 28 z_0_6 <= 0
 c180: mode_0_6 - z_0_6 <= 0
 c181: - 7 mode_0_6 + p_0_6 <= 0
 c182: d_0_6 + 28 mode_0_6 - 28 z_0_6 <= 0
 c183: d_0_6 + p_0_6 - z_0_6 >= 0
 c184: load_0_6 - 30 z_0_6 <= 0
 c185: p_0_7 - 28 z_0_7 <= 0
 c186: d_0_7 - 3 z_0_7 <= 0
 c187: mode_0_7 - z_0_7 <= 0
 c188: - 28 mode_0_7 + p_0_7 <= 0
 c189: d_0_7 + 3 mode_0_7 - 3 z_0_7 <= 0
 c190: d_0_7 + p_0_7 - z_0_7 >= 0
 c191: load_0_7 - 30 z_0_7 <= 0
 c192: p_0_8 - 18 z_0_8 <= 0
 c193: d_0_8 - 2 z_0_8 <= 0
 c194: mode_0_8 - z_0_8 <= 0
 c195: - 18 mode_0_8 + p_0_8 <= 0
 c196: d_0_8 + 2 mode_0_8 - 2 z_0_8 <= 0
 c197: d_0_8 + p_0_8 - z_0_8 >= 0
 c198: load_0_8 - 30 z_0_8 <= 0
 c199: p_0_9 - 30 z_0_9 <= 0
 c200: d_0_9 - 6 z_0_9 <= 0
 c201: mode_0_9 - z_0_9 <= 0
 c202: - 30 mode_0_9 + p_0_9 <= 0
 c203: d_0_9 + 6 mode_0_9 - 6 z_0_9 <= 0
 c204: d_0_9 + p_0_9 - z_0_9 >= 0
 c205: load_0_9 - 30 z_0_9 <= 0
 c206: p_0_10 - 27 z_0_10 <= 0
 c207: d_0_10 <= 0
 c208: mode_0_10 - z_0_10 <= 0
 c209: - 27 mode_0_10 + p_0_10 <= 0
 c210: d_0_10 <= 0
 c211: d_0_10 + p_0_10 - z_0_10 >= 0
 c212: load_0_10 - 30 z_0_10 <= 0
 c213: d_0_1 + load_0_1 - p_0_1 + 30 x_0_0_1 <= 30
 c214: d_0_1 + load_0_1 - p_0_1 - 30 x_0_0_1 >= -30
 c215: d_0_2 + load_0_2 - p_0_2 + 30 x_0_0_2 <= 30
 c216: d_0_2 + load_0_2 - p_0_2 - 30 x_0_0_2 >= -30
 c217: d_0_3 + load_0_3 - p_0_3 + 30 x_0_0_3 <= 30
 c218: d_0_3 + load_0_3 - p_0_3 - 30 x_0_0_3 >= -30
 c219: d_0_4 + load_0_4 - p_0_4 + 30 x_0_0_4 <= 30
 c220: d_0_4 + load_0_4 - p_0_4 - 30 x_0_0_4 >= -30
 c221: d_0_5 + load_0_5 - p_0_5 + 30 x_0_0_5 <= 30
 c222: d_0_5 + load_0_5 - p_0_5 - 30 x_0_0_5 >= -30
 c223: d_0_6 + load_0_6 - p_0_6 + 30 x_0_0_6 <= 30
 c224: d_0_6 + load_0_6 - p_0_6 - 30 x_0_0_6 >= -30
 c225: d_0_7 + load_0_7 - p_0_7 + 30 x_0_0_7 <= 30
 c226: d_0_7 + load_0_7 - p_0_7 - 30 x_0_0_7 >= -30
 c227: d_0_8 + load_0_8 - p_0_8 + 30 x_0_0_8 <= 30
 c228: d_0_8 + load_0_8 - p_0_8 - 30 x_0_0_8 >= -30
 c229: d_0_9 + load_0_9 - p_0_9 + 30 x_0_0_9 <= 30
 c230: d_0_9 + load_0_9 - p_0_9 - 30 x_0_0_9 >= -30
 c231: d_0_10 + load_0_10 - p_0_10 + 30 x_0_0_10 <= 30
 c232: d_0_10 + load_0_10 - p_0_10 - 30 x_0_0_10 >= -30
 c233: d_0_2 - load_0_1 + load_0_2 - p_0_2 + 30 x_0_1_2 <= 30
 c234: d_0_2 - load_0_1 + load_0_2 - p_0_2 - 30 x_0_1_2 >= -30
 c235: d_0_3 - load_0_1 + load_0_3 - p_0_3 + 30 x_0_1_3 <= 30
 c236: d_0_3 - load_0_1 + load_0_3 - p_0_3 - 30 x_0_1_3 >= -30
 c237: d_0_4 - load_0_1 + load_0_4 - p_0_4 + 30 x_0_1_4 <= 30
 c238: d_0_4 - load_0_1 + load_0_4 - p_0_4 - 30 x_0_1_4 >= -30
 c239: d_0_5 - load_0_1 + load_0_5 - p_0_5 + 30 x_0_1_5 <= 30
 c240: d_0_5 - load_0_1 + load_0_5 - p_0_5 - 30 x_0_1_5 >= -30
 c241: d_0_6 - load_0_1 + load_0_6 - p_0_6 + 30 x_0_1_6 <= 30
 c242: d_0_6 - load_0_1 + load_0_6 - p_0_6 - 30 x_0_1_6 >= -30
 c243: d_0_7 - load_0_1 + load_0_7 - p_0_7 + 30 x_0_1_7 <= 30
 c244: d_0_7 - load_0_1 + load_0_7 - p_0_7 - 30 x_0_1_7 >= -30
 c245: d_0_8 - load_0_1 + load_0_8 - p_0_8 + 30 x_0_1_8 <= 30
 c246: d_0_8 - load_0_1 + load_0_8 - p_0_8 - 30 x_0_1_8 >= -30
 c247: d_0_9 - load_0_1 + load_0_9 - p_0_9 + 30 x_0_1_9 <= 30
 c248: d_0_9 - load_0_1 + load_0_9 - p_0_9 - 30 x_0_1_9 >= -30
 c249: d_0_10 - load_0_1 + load_0_10 - p_0_10 + 30 x_0_1_10 <= 30
 c250: d_0_10 - load_0_1 + load_0_10 - p_0_10 - 30 x_0_1_10 >= -30
 c251: d_0_1 + load_0_1 - load_0_2 - p_0_1 + 30 x_0_2_1 <= 30
 c252: d_0_1 + load_0_1 - load_0_2 - p_0_1 - 30 x_0_2_1 >= -30
 c253: d_0_3 - load_0_2 + load_0_3 - p_0_3 + 30 x_0_2_3 <= 30
 c254: d_0_3 - load_0_2 + load_0_3 - p_0_3 - 30 x_0_2_3 >= -30
 c255: d_0_4 - load_0_2 + load_0_4 - p_0_4 + 30 x_0_2_4 <= 30
 c256: d_0_4 - load_0_2 + load_0_4 - p_0_4 - 30 x_0_2_4 >= -30
 c257: d_0_5 - load_0_2 + load_0_5 - p_0_5 + 30 x_0_2_5 <= 30
 c258: d_0_5 - load_0_2 + load_0_5 - p_0_5 - 30 x_0_2_5 >= -30
 c259: d_0_6 - load_0_2 + load_0_6 - p_0_6 + 30 x_0_2_6 <= 30
 c260: d_0_6 - load_0_2 + load_0_6 - p_0_6 - 30 x_0_2_6 >= -30
 c261: d_0_7 - load_0_2 + load_0_7 - p_0_7 + 30 x_0_2_7 <= 30
 c262: d_0_7 - load_0_2 + load_0_7 - p_0_7 - 30 x_0_2_7 >= -30
 c263: d_0_8 - load_0_2 + load_0_8 - p_0_8 + 30 x_0_2_8 <= 30
 c264: d_0_8 - load_0_2 + load_0_8 - p_0_8 - 30 x_0_2_8 >= -30
 c265: d_0_9 - load_0_2 + load_0_9 - p_0_9 + 30 x_0_2_9 <= 30
 c266: d_0_9 - load_0_2 + load_0_9 - p_0_9 - 30 x_0_2_9 >= -30
 c267: d_0_10 + load_0_10 - load_0_2 - p_0_10 + 30 x_0_2_10 <= 30
 c268: d_0_10 + load_0_10 - load_0_2 - p_0_10 - 30 x_0_2_10 >= -30
 c269: d_0_1 + load_0_1 - load_0_3 - p_0_1 + 30 x_0_3_1 <= 30
 c270: d_0_1 + load_0_1 - load_0_3 - p_0_1 - 30 x_0_3_1 >= -30
 c271: d_0_2 + load_0_2 - load_0_3 - p_0_2 + 30 x_0_3_2 <= 30
 c272: d_0_2 + load_0_2 - load_0_3 - p_0_2 - 30 x_0_3_2 >= -30
 c273: d_0_4 - load_0_3 + load_0_4 - p_0_4 + 30 x_0_3_4 <= 30
 c274: d_0_4 - load_0_3 + load_0_4 - p_0_4 - 30 x_0_3_4 >= -30
 c275: d_0_5 - load_0_3 + load_0_5 - p_0_5 + 30 x_0_3_5 <= 30
 c276: d_0_5 - load_0_3 + load_0_5 - p_0_5 - 30 x_0_3_5 >= -30
 c277: d_0_6 - load_0_3 + load_0_6 - p_0_6 + 30 x_0_3_6 <= 30
 c278: d_0_6 - load_0_3 + load_0_6 - p_0_6 - 30 x_0_3_6 >= -30
 c279: d_0_7 - load_0_3 + load_0_7 - p_0_7 + 30 x_0_3_7 <= 30
 c280: d_0_7 - load_0_3 + load_0_7 - p_0_7 - 30 x_0_3_7 >= -30
 c281: d_0_8 - load_0_3 + load_0_8 - p_0_8 + 30 x_0_3_8 <= 30
 c282: d_0_8 - load_0_3 + load_0_8 - p_0_8 - 30 x_0_3_8 >= -30
 c283: d_0_9 - load_0_3 + load_0_9 - p_0_9 + 30 x_0_3_9 <= 30
 c284: d_0_9 - load_0_3 + load_0_9 - p_0_9 - 30 x_0_3_9 >= -30
 c285: d_0_10 + load_0_10 - load_0_3 - p_0_10 + 30 x_0_3_10 <= 30
 c286: d_0_10 + load_0_10 - load_0_3 - p_0_10 - 30 x_0_3_10 >= -30
 c287: d_0_1 + load_0_1 - load_0_4 - p_0_1 + 30 x_0_4_1 <= 30
 c288: d_0_1 + load_0_1 - load_0_4 - p_0_1 - 30 x_0_4_1 >= -30
 c289: d_0_2 + load_0_2 - load_0_4 - p_0_2 + 30 x_0_4_2 <= 30
 c290: d_0_2 + load_0_2 - load_0_4 - p_0_2 - 30 x_0_4_2 >= -30
 c291: d_0_3 + load_0_3 - load_0_4 - p_0_3 + 30 x_0_4_3 <= 30
 c292: d_0_3 + load_0_3 - load_0_4 - p_0_3 - 30 x_0_4_3 >= -30
 c293: d_0_5 - load_0_4 + load_0_5 - p_0_5 + 30 x_0_4_5 <= 30
 c294: d_0_5 - load_0_4 + load_0_5 - p_0_5 - 30 x_0_4_5 >= -30
 c295: d_0_6 - load_0_4 + load_0_6 - p_0_6 + 30 x_0_4_6 <= 30
 c296: d_0_6 - load_0_4 + load_0_6 - p_0_6 - 30 x_0_4_6 >= -30
 c297: d_0_7 - load_0_4 + load_0_7 - p_0_7 + 30 x_0_4_7 <= 30
 c298: d_0_7 - load_0_4 + load_0_7 - p_0_7 - 30 x_0_4_7 >= -30
 c299: d_0_8 - load_0_4 + load_0_8 - p_0_8 + 30 x_0_4_8 <= 30
 c300: d_0_8 - load_0_4 + load_0_8 - p_0_8 - 30 x_0_4_8 >= -30
 c301: d_0_9 - load_0_4 + load_0_9 - p_0_9 + 30 x_0_4_9 <= 30
 c302: d_0_9 - load_0_4 + load_0_9 - p_0_9 - 30 x_0_4_9 >= -30
 c303: d_0_10 + load_0_10 - load_0_4 - p_0_10 + 30 x_0_4_10 <= 30
 c304: d_0_10 + load_0_10 - load_0_4 - p_0_10 - 30 x_0_4_10 >= -30
 c305: d_0_1 + load_0_1 - load_0_5 - p_0_1 + 30 x_0_5_1 <= 30
 c306: d_0_1 + load_0_1 - load_0_5 - p_0_1 - 30 x_0_5_1 >= -30
 c307: d_0_2 + load_0_2 - load_0_5 - p_0_2 + 30 x_0_5_2 <= 30
 c308: d_0_2 + load_0_2 - load_0_5 - p_0_2 - 30 x_0_5_2 >= -30
 c309: d_0_3 + load_0_3 - load_0_5 - p_0_3 + 30 x_0_5_3 <= 30
 c310: d_0_3 + load_0_3 - load_0_5 - p_0_3 - 30 x_0_5_3 >= -30
 c311: d_0_4 + load_0_4 - load_0_5 - p_0_4 + 30 x_0_5_4 <= 30
 c312: d_0_4 + load_0_4 - load_0_5 - p_0_4 - 30 x_0_5_4 >= -30
 c313: d_0_6 - load_0_5 + load_0_6 - p_0_6 + 30 x_0_5_6 <= 30
 c314: d_0_6 - load_0_5 + load_0_6 - p_0_6 - 30 x_0_5_6 >= -30
 c315: d_0_7 - load_0_5 + load_0_7 - p_0_7 + 30 x_0_5_7 <= 30
 c316: d_0_7 - load_0_5 + load_0_7 - p_0_7 - 30 x_0_5_7 >= -30
 c317: d_0_8 - load_0_5 + load_0_8 - p_0_8 + 30 x_0_5_8 <= 30
 c318: d_0_8 - load_0_5 + load_0_8 - p_0_8 - 30 x_0_5_8 >= -30
 c319: d_0_9 - load_0_5 + load_0_9 - p_0_9 + 30 x_0_5_9 <= 30
 c320: d_0_9 - load_0_5 + load_0_9 - p_0_9 - 30 x_0_5_9 >= -30
 c321: d_0_10 + load_0_10 - load_0_5 - p_0_10 + 30 x_0_5_10 <= 30
 c322: d_0_10 + load_0_10 - load_0_5 - p_0_10 - 30 x_0_5_10 >= -30
 c323: d_0_1 + load_0_1 - load_0_6 - p_0_1 + 30 x_0_6_1 <= 30
 c324: d_0_1 + load_0_1 - load_0_6 - p_0_1 - 30 x_0_6_1 >= -30
 c325: d_0_2 + load_0_2 - load_0_6 - p_0_2 + 30 x_0_6_2 <= 30
 c326: d_0_2 + load_0_2 - load_0_6 - p_0_2 - 30 x_0_6_2 >= -30
 c327: d_0_3 + load_0_3 - load_0_6 - p_0_3 + 30 x_0_6_3 <= 30
 c328: d_0_3 + load_0_3 - load_0_6 - p_0_3 - 30 x_0_6_3 >= -30
 c329: d_0_4 + load_0_4 - load_0_6 - p_0_4 + 30 x_0_6_4 <= 30
 c330: d_0_4 + load_0_4 - load_0_6 - p_0_4 - 30 x_0_6_4 >= -30
 c331: d_0_5 + load_0_5 - load_0_6 - p_0_5 + 30 x_0_6_5 <= 30
 c332: d_0_5 + load_0_5 - load_0_6 - p_0_5 - 30 x_0_6_5 >= -30
 c333: d_0_7 - load_0_6 + load_0_7 - p_0_7 + 30 x_0_6_7 <= 30
 c334: d_0_7 - load_0_6 + load_0_7 - p_0_7 - 30 x_0_6_7 >= -30
 c335: d_0_8 - load_0_6 + load_0_8 - p_0_8 + 30 x_0_6_8 <= 30
 c336: d_0_8 - load_0_6 + load_0_8 - p_0_8 - 30 x_0_6_8 >= -30
 c337: d_0_9 - load_0_6 + load_0_9 - p_0_9 + 30 x_0_6_9 <= 30
 c338: d_0_9 - load_0_6 + load_0_9 - p_0_9 - 30 x_0_6_9 >= -30
 c339: d_0_10 + load_0_10 - load_0_6 - p_0_10 + 30 x_0_6_10 <= 30
 c340: d_0_10 + load_0_10 - load_0_6 - p_0_10 - 30 x_0_6_10 >= -30
 c341: d_0_1 + load_0_1 - load_0_7 - p_0_1 + 30 x_0_7_1 <= 30
 c342: d_0_1 + load_0_1 - load_0_7 - p_0_1 - 30 x_0_7_1 >= -30
 c343: d_0_2 + load_0_2 - load_0_7 - p_0_2 + 30 x_0_7_2 <= 30
 c344: d_0_2 + load_0_2 - load_0_7 - p_0_2 - 30 x_0_7_2 >= -30
 c345: d_0_3 + load_0_3 - load_0_7 - p_0_3 + 30 x_0_7_3 <= 30
 c346: d_0_3 + load_0_3 - load_0_7 - p_0_3 - 30 x_0_7_3 >= -30
 c347: d_0_4 + load_0_4 - load_0_7 - p_0_4 + 30 x_0_7_4 <= 30
 c348: d_0_4 + load_0_4 - load_0_7 - p_0_4 - 30 x_0_7_4 >= -30
 c349: d_0_5 + load_0_5 - load_0_7 - p_0_5 + 30 x_0_7_5 <= 30
 c350: d_0_5 + load_0_5 - load_0_7 - p_0_5 - 30 x_0_7_5 >= -30
 c351: d_0_6 + load_0_6 - load_0_7 - p_0_6 + 30 x_0_7_6 <= 30
 c352: d_0_6 + load_0_6 - load_0_7 - p_0_6 - 30 x_0_7_6 >= -30
 c353: d_0_8 - load_0_7 + load_0_8 - p_0_8 + 30 x_0_7_8 <= 30
 c354: d_0_8 - load_0_7 + load_0_8 - p_0_8 - 30 x_0_7_8 >= -30
 c355: d_0_9 - load_0_7 + load_0_9 - p_0_9 + 30 x_0_7_9 <= 30
 c356: d_0_9 - load_0_7 + load_0_9 - p_0_9 - 30 x_0_7_9 >= -30
 c357: d_0_10 + load_0_10 - load_0_7 - p_0_10 + 30 x_0_7_10 <= 30
 c358: d_0_10 + load_0_10 - load_0_7 - p_0_10 - 30 x_0_7_10 >= -30
 c359: d_0_1 + load_0_1 - load_0_8 - p_0_1 + 30 x_0_8_1 <= 30
 c360: d_0_1 + load_0_1 - load_0_8 - p_0_1 - 30 x_0_8_1 >= -30
 c361: d_0_2 + load_0_2 - load_0_8 - p_0_2 + 30 x_0_8_2 <= 30
 c362: d_0_2 + load_0_2 - load_0_8 - p_0_2 - 30 x_0_8_2 >= -30
 c363: d_0_3 + load_0_3 - load_0_8 - p_0_3 + 30 x_0_8_3 <= 30
 c364: d_0_3 + load_0_3 - load_0_8 - p_0_3 - 30 x_0_8_3 >= -30
 c365: d_0_4 + load_0_4 - load_0_8 - p_0_4 + 30 x_0_8_4 <= 30
 c366: d_0_4 + load_0_4 - load_0_8 - p_0_4 - 30 x_0_8_4 >= -30
 c367: d_0_5 + load_0_5 - load_0_8 - p_0_5 + 30 x_0_8_5 <= 30
 c368: d_0_5 + load_0_5 - load_0_8 - p_0_5 - 30 x_0_8_5 >= -30
 c369: d_0_6 + load_0_6 - load_0_8 - p_0_6 + 30 x_0_8_6 <= 30
 c370: d_0_6 + load_0_6 - load_0_8 - p_0_6 - 30 x_0_8_6 >= -30
 c371: d_0_7 + load_0_7 - load_0_8 - p_0_7 + 30 x_0_8_7 <= 30
 c372: d_0_7 + load_0_7 - load_0_8 - p_0_7 - 30 x_0_8_7 >= -30
 c373: d_0_9 - load_0_8 + load_0_9 - p_0_9 + 30 x_0_8_9 <= 30
 c374: d_0_9 - load_0_8 + load_0_9 - p_0_9 - 30 x_0_8_9 >= -30
 c375: d_0_10 + load_0_10 - load_0_8 - p_0_10 + 30 x_0_8_10 <= 30
 c376: d_0_10 + load_0_10 - load_0_8 - p_0_10 - 30 x_0_8_10 >= -30
 c377: d_0_1 + load_0_1 - load_0_9 - p_0_1 + 30 x_0_9_1 <= 30
 c378: d_0_1 + load_0_1 - load_0_9 - p_0_1 - 30 x_0_9_1 >= -30
 c379: d_0_2 + load_0_2 - load_0_9 - p_0_2 + 30 x_0_9_2 <= 30
 c380: d_0_2 + load_0_2 - load_0_9 - p_0_2 - 30 x_0_9_2 >= -30
 c381: d_0_3 + load_0_3 - load_0_9 - p_0_3 + 30 x_0_9_3 <= 30
 c382: d_0_3 + load_0_3 - load_0_9 - p_0_3 - 30 x_0_9_3 >= -30
 c383: d_0_4 + load_0_4 - load_0_9 - p_0_4 + 30 x_0_9_4 <= 30
 c384: d_0_4 + load_0_4 - load_0_9 - p_0_4 - 30 x_0_9_4 >= -30
 c385: d_0_5 + load_0_5 - load_0_9 - p_0_5 + 30 x_0_9_5 <= 30
 c386: d_0_5 + load_0_5 - load_0_9 - p_0_5 - 30 x_0_9_5 >= -30
 c387: d_0_6 + load_0_6 - load_0_9 - p_0_6 + 30 x_0_9_6 <= 30
 c388: d_0_6 + load_0_6 - load_0_9 - p_0_6 - 30 x_0_9_6 >= -30
 c389: d_0_7 + load_0_7 - load_0_9 - p_0_7 + 30 x_0_9_7 <= 30
 c390: d_0_7 + load_0_7 - load_0_9 - p_0_7 - 30 x_0_9_7 >= -30
 c391: d_0_8 + load_0_8 - load_0_9 - p_0_8 + 30 x_0_9_8 <= 30
 c392: d_0_8 + load_0_8 - load_0_9 - p_0_8 - 30 x_0_9_8 >= -30
 c393: d_0_10 + load_0_10 - load_0_9 - p_0_10 + 30 x_0_9_10 <= 30
 c394: d_0_10 + load_0_10 - load_0_9 - p_0_10 - 30 x_0_9_10 >= -30
 c395: d_0_1 + load_0_1 - load_0_10 - p_0_1 + 30 x_0_10_1 <= 30
 c396: d_0_1 + load_0_1 - load_0_10 - p_0_1 - 30 x_0_10_1 >= -30
 c397: d_0_2 - load_0_10 + load_0_2 - p_0_2 + 30 x_0_10_2 <= 30
 c398: d_0_2 - load_0_10 + load_0_2 - p_0_2 - 30 x_0_10_2 >= -30
 c399: d_0_3 - load_0_10 + load_0_3 - p_0_3 + 30 x_0_10_3 <= 30
 c400: d_0_3 - load_0_10 + load_0_3 - p_0_3 - 30 x_0_10_3 >= -30
 c401: d_0_4 - load_0_10 + load_0_4 - p_0_4 + 30 x_0_10_4 <= 30
 c402: d_0_4 - load_0_10 + load_0_4 - p_0_4 - 30 x_0_10_4 >= -30
 c403: d_0_5 - load_0_10 + load_0_5 - p_0_5 + 30 x_0_10_5 <= 30
 c404: d_0_5 - load_0_10 + load_0_5 - p_0_5 - 30 x_0_10_5 >= -30
 c405: d_0_6 - load_0_10 + load_0_6 - p_0_6 + 30 x_0_10_6 <= 30
 c406: d_0_6 - load_0_10 + load_0_6 - p_0_6 - 30 x_0_10_6 >= -30
 c407: d_0_7 - load_0_10 + load_0_7 - p_0_7 + 30 x_0_10_7 <= 30
 c408: d_0_7 - load_0_10 + load_0_7 - p_0_7 - 30 x_0_10_7 >= -30
 c409: d_0_8 - load_0_10 + load_0_8 - p_0_8 + 30 x_0_10_8 <= 30
 c410: d_0_8 - load_0_10 + load_0_8 - p_0_8 - 30 x_0_10_8 >= -30
 c411: d_0_9 - load_0_10 + load_0_9 - p_0_9 + 30 x_0_10_9 <= 30
 c412: d_0_9 - load_0_10 + load_0_9 - p_0_9 - 30 x_0_10_9 >= -30
 c413: - d_0_1 - d_0_10 - d_0_2 - d_0_3 - d_0_4 - d_0_5 - d_0_6 - d_0_7 - d_0_8 - d_0_9 + p_0_1 + p_0_10 + p_0_2 + p_0_3 + p_0_4 + p_0_5 + p_0_6 + p_0_7 + p_0_8 + p_0_9 >= 0
 c414: 120 p_0_1 + 120 p_0_10 + 120 p_0_2 + 120 p_0_3 + 120 p_0_4 + 120 p_0_5 + 120 p_0_6 + 120 p_0_7 + 120 p_0_8 + 120 p_0_9 + 295.88111605471357 x_0_0_1 + 271.13824852952541 x_0_0_10 + 254.14637487526329 x_0_0_2 + 331.58994326150815 x_0_0_3 + 261.19765182625332 x_0_0_4 + 150.56104980302521 x_0_0_5 + 256.2410828654842 x_0_0_6 + 332.12528735889873 x_0_0_7 + 226.65453914615304 x_0_0_8 + 260.83838174941644 x_0_0_9 + 271.13824852952541 x_0_10_0 + 30.352485572517484 x_0_10_1 + 440.26583103758117 x_0_10_2 + 564.05787035265485 x_0_10_3 + 12.369497250423672 x_0_10_4 + 345.83921074534464 x_0_10_5 + 487.265161098075 x_0_10_6 + 71.876689570113044 x_0_10_7 + 441.96786594974014 x_0_10_8 + 467.19675255384203 x_0_10_9 + 295.88111605471357 x_0_1_0 + 30.352485572517484 x_0_1_10 + 451.99400023800166 x_0_1_2 + 593.51835399934032 x_0_1_3 + 42.719068289884689 x_0_1_4 + 361.14723629998093 x_0_1_5 + 516.5932388813693 x_0_1_6 + 69.357495933884152 x_0_1_7 + 456.97636269782652 x_0_1_8 + 497.1793363956744 x_0_1_9 + 254.14637487526329 x_0_2_0 + 451.99400023800166 x_0_2_1 + 440.26583103758117 x_0_2_10 + 474.9886866229163 x_0_2_3 + 435.70304002051961 x_0_2_4 + 106.44369239285101 x_0_2_5 + 421.00561381805619 x_0_2_6 + 511.99928041021599 x_0_2_7 + 54.026675921509799 x_0_2_8 + 453.23483402548641 x_0_2_9 + 331.58994326150815 x_0_3_0 + 593.51835399934032 x_0_3_1 + 564.05787035265485 x_0_3_10 + 474.9886866229163 x_0_3_2 + 552.00332591494669 x_0_3_4 + 417.77328055060588 x_0_3_5 + 77.43759802586797 x_0_3_6 + 604.53700186921424 x_0_3_7 + 422.36072035913048 x_0_3_8 + 106.90852490739978 x_0_3_9 + 261.19765182625332 x_0_4_0 + 42.719068289884689 x_0_4_1 + 12.369497250423672 x_0_4_10 + 435.70304002051961 x_0_4_2 + 552.00332591494669 x_0_4_3 + 339.89669260590159 x_0_4_5 + 475.2674686486514 x_0_4_6 + 76.702790113086522 x_0_4_7 + 436.02603419781349 x_0_4_8 + 454.94370804330487 x_0_4_9 + 150.56104980302521 x_0_5_0 + 361.14723629998093 x_0_5_1 + 345.83921074534464 x_0_5_10 + 106.44369239285101 x_0_5_2 + 417.77328055060588 x_0_5_3 + 339.89669260590159 x_0_5_4 + 353.47834151741102 x_0_5_6 + 416.5969978732299 x_0_5_7 + 96.138399304879144 x_0_5_8 + 376.42854746671441 x_0_5_9 + 256.2410828654842 x_0_6_0 + 516.5932388813693 x_0_6_1 + 487.265161098075 x_0_6_10 + 421.00561381805619 x_0_6_2 + 77.43759802586797 x_0_6_3 + 475.2674686486514 x_0_6_4 + 353.47834151741102 x_0_6_5 + 529.26941684883911 x_0_6_7 + 370.49044523110177 x_0_6_8 + 54.918740315062841 x_0_6_9 + 332.12528735889873 x_0_7_0 + 69.357495933884152 x_0_7_1 + 71.876689570113044 x_0_7_10 + 511.99928041021599 x_0_7_2 + 604.53700186921424 x_0_7_3 + 76.702790113086522 x_0_7_4 + 416.5969978732299 x_0_7_5 + 529.26941684883911 x_0_7_6 + 512.72385854742299 x_0_7_8 + 503.14241056071501 x_0_7_9 + 226.65453914615304 x_0_8_0 + 456.97636269782652 x_0_8_1 + 441.96786594974014 x_0_8_10 + 54.026675921509799 x_0_8_2 + 422.36072035913048 x_0_8_3 + 436.02603419781349 x_0_8_4 + 96.138399304879144 x_0_8_5 + 370.49044523110177 x_0_8_6 + 512.72385854742299 x_0_8_7 + 405.03114745498777 x_0_8_9 + 260.83838174941644 x_0_9_0 + 497.1793363956744 x_0_9_1 + 467.19675255384203 x_0_9_10 + 453.23483402548641 x_0_9_2 + 106.90852490739978 x_0_9_3 + 454.94370804330487 x_0_9_4 + 376.42854746671441 x_0_9_5 + 54.918740315062841 x_0_9_6 + 503.14241056071501 x_0_9_7 + 405.03114745498777 x_0_9_8 <= 3600
 c415: Y_1 - d_0_1 + p_0_1 = 19
 c416: - 0.33333333333333331 Y_1 + r_1 = 0
 c417: e_1 - r_1 >= -1
 c418: e_1 + r_1 >= 1
 c419: Y_2 - d_0_2 + p_0_2 = 5
 c420: - 0.045454545454545456 Y_2 + r_2 = 0
 c421: e_2 - r_2 >= -1
 c422: e_2 + r_2 >= 1
 c423: Y_3 - d_0_3 + p_0_3 = 43
 c424: - 0.10000000000000001 Y_3 + r_3 = 0
 c425: e_3 - r_3 >= -1
 c426: e_3 + r_3 >= 1
 c427: Y_4 - d_0_4 + p_0_4 = 3
 c428: - 0.026315789473684209 Y_4 + r_4 = 0
 c429: e_4 - r_4 >= -1
 c430: e_4 + r_4 >= 1
 c431: Y_5 - d_0_5 + p_0_5 = 19
 c432: - Y_5 + r_5 = 0
 c433: e_5 - r_5 >= -1
 c434: e_5 + r_5 >= 1
 c435: Y_6 - d_0_6 + p_0_6 = 7
 c436: - 0.03125 Y_6 + r_6 = 0
 c437: e_6 - r_6 >= -1
 c438: e_6 + r_6 >= 1
 c439: Y_7 - d_0_7 + p_0_7 = 28
 c440: - 0.1111111111111111 Y_7 + r_7 = 0
 c441: e_7 - r_7 >= -1
 c442: e_7 + r_7 >= 1
 c443: Y_8 - d_0_8 + p_0_8 = 18
 c444: - Y_8 + r_8 = 0
 c445: e_8 - r_8 >= -1
 c446: e_8 + r_8 >= 1
 c447: Y_9 - d_0_9 + p_0_9 = 32
 c448: - 0.33333333333333331 Y_9 + r_9 = 0
 c449: e_9 - r_9 >= -1
 c450: e_9 + r_9 >= 1
 c451: Y_10 - d_0_10 + p_0_10 = 27
 c452: - 0.1111111111111111 Y_10 + r_10 = 0
 c453: e_10 - r_10 >= -1
 c454: e_10 + r_10 >= 1
 c455: h_1_2 - r_1 + r_2 >= 0
 c456: h_1_2 + r_1 - r_2 >= 0
 c457: h_1_3 - r_1 + r_3 >= 0
 c458: h_1_3 + r_1 - r_3 >= 0
 c459: h_1_4 - r_1 + r_4 >= 0
 c460: h_1_4 + r_1 - r_4 >= 0
 c461: h_1_5 - r_1 + r_5 >= 0
 c462: h_1_5 + r_1 - r_5 >= 0
 c463: h_1_6 - r_1 + r_6 >= 0
 c464: h_1_6 + r_1 - r_6 >= 0
 c465: h_1_7 - r_1 + r_7 >= 0
 c466: h_1_7 + r_1 - r_7 >= 0
 c467: h_1_8 - r_1 + r_8 >= 0
 c468: h_1_8 + r_1 - r_8 >= 0
 c469: h_1_9 - r_1 + r_9 >= 0
 c470: h_1_9 + r_1 - r_9 >= 0
 c471: h_1_10 - r_1 + r_10 >= 0
 c472: h_1_10 + r_1 - r_10 >= 0
 c473: h_2_3 - r_2 + r_3 >= 0
 c474: h_2_3 + r_2 - r_3 >= 0
 c475: h_2_4 - r_2 + r_4 >= 0
 c476: h_2_4 + r_2 - r_4 >= 0
 c477: h_2_5 - r_2 + r_5 >= 0
 c478: h_2_5 + r_2 - r_5 >= 0
 c479: h_2_6 - r_2 + r_6 >= 0
 c480: h_2_6 + r_2 - r_6 >= 0
 c481: h_2_7 - r_2 + r_7 >= 0
 c482: h_2_7 + r_2 - r_7 >= 0
 c483: h_2_8 - r_2 + r_8 >= 0
 c484: h_2_8 + r_2 - r_8 >= 0
 c485: h_2_9 - r_2 + r_9 >= 0
 c486: h_2_9 + r_2 - r_9 >= 0
 c487: h_2_10 + r_10 - r_2 >= 0
 c488: h_2_10 - r_10 + r_2 >= 0
 c489: h_3_4 - r_3 + r_4 >= 0
 c490: h_3_4 + r_3 - r_4 >= 0
 c491: h_3_5 - r_3 + r_5 >= 0
 c492: h_3_5 + r_3 - r_5 >= 0
 c493: h_3_6 - r_3 + r_6 >= 0
 c494: h_3_6 + r_3 - r_6 >= 0
 c495: h_3_7 - r_3 + r_7 >= 0
 c496: h_3_7 + r_3 - r_7 >= 0
 c497: h_3_8 - r_3 + r_8 >= 0
 c498: h_3_8 + r_3 - r_8 >= 0
 c499: h_3_9 - r_3 + r_9 >= 0
 c500: h_3_9 + r_3 - r_9 >= 0
 c501: h_3_10 + r_10 - r_3 >= 0
 c502: h_3_10 - r_10 + r_3 >= 0
 c503: h_4_5 - r_4 + r_5 >= 0
 c504: h_4_5 + r_4 - r_5 >= 0
 c505: h_4_6 - r_4 + r_6 >= 0
 c506: h_4_6 + r_4 - r_6 >= 0
 c507: h_4_7 - r_4 + r_7 >= 0
 c508: h_4_7 + r_4 - r_7 >= 0
 c509: h_4_8 - r_4 + r_8 >= 0
 c510: h_4_8 + r_4 - r_8 >= 0
 c511: h_4_9 - r_4 + r_9 >= 0
 c512: h_4_9 + r_4 - r_9 >= 0
 c513: h_4_10 + r_10 - r_4 >= 0
 c514: h_4_10 - r_10 + r_4 >= 0
 c515: h_5_6 - r_5 + r_6 >= 0
 c516: h_5_6 + r_5 - r_6 >= 0
 c517: h_5_7 - r_5 + r_7 >= 0
 c518: h_5_7 + r_5 - r_7 >= 0
 c519: h_5_8 - r_5 + r_8 >= 0
 c520: h_5_8 + r_5 - r_8 >= 0
 c521: h_5_9 - r_5 + r_9 >= 0
 c522: h_5_9 + r_5 - r_9 >= 0
 c523: h_5_10 + r_10 - r_5 >= 0
 c524: h_5_10 - r_10 + r_5 >= 0
 c525: h_6_7 - r_6 + r_7 >= 0
 c526: h_6_7 + r_6 - r_7 >= 0
 c527: h_6_8 - r_6 + r_8 >= 0
 c528: h_6_8 + r_6 - r_8 >= 0
 c529: h_6_9 - r_6 + r_9 >= 0
 c530: h_6_9 + r_6 - r_9 >= 0
 c531: h_6_10 + r_10 - r_6 >= 0
 c532: h_6_10 - r_10 + r_6 >= 0
 c533: h_7_8 - r_7 + r_8 >= 0
 c534: h_7_8 + r_7 - r_8 >= 0
 c535: h_7_9 - r_7 + r_9 >= 0
 c536: h_7_9 + r_7 - r_9 >= 0
 c537: h_7_10 + r_10 - r_7 >= 0
 c538: h_7_10 - r_10 + r_7 >= 0
 c539: h_8_9 - r_8 + r_9 >= 0
 c540: h_8_9 + r_8 - r_9 >= 0
 c541: h_8_10 + r_10 - r_8 >= 0
 c542: h_8_10 - r_10 + r_8 >= 0
 c543: h_9_10 + r_10 - r_9 >= 0
 c544: h_9_10 - r_10 + r_9 >= 0
 c545: Y_1 - bit_1_0 - 2 bit_1_1 - 4 bit_1_2 - 8 bit_1_3 - 16 bit_1_4 = 0
 c546: - prod_1_0 - 2 prod_1_1 - 4 prod_1_2 - 8 prod_1_3 - 16 prod_1_4 + zprod_1 = 0
 c547: - G + prod_1_0 <= 0
 c548: - bit_1_0 + prod_1_0 <= 0
 c549: - G - bit_1_0 + prod_1_0 >= -1
 c550: - G + prod_1_1 <= 0
 c551: - bit_1_1 + prod_1_1 <= 0
 c552: - G - bit_1_1 + prod_1_1 >= -1
 c553: - G + prod_1_2 <= 0
 c554: - bit_1_2 + prod_1_2 <= 0
 c555: - G - bit_1_2 + prod_1_2 >= -1
 c556: - G + prod_1_3 <= 0
 c557: - bit_1_3 + prod_1_3 <= 0
 c558: - G - bit_1_3 + prod_1_3 >= -1
 c559: - G + prod_1_4 <= 0
 c560: - bit_1_4 + prod_1_4 <= 0
 c561: - G - bit_1_4 + prod_1_4 >= -1
 c562: Y_2 - bit_2_0 - 2 bit_2_1 - 4 bit_2_2 - 8 bit_2_3 - 16 bit_2_4 = 0
 c563: - prod_2_0 - 2 prod_2_1 - 4 prod_2_2 - 8 prod_2_3 - 16 prod_2_4 + zprod_2 = 0
 c564: - G + prod_2_0 <= 0
 c565: - bit_2_0 + prod_2_0 <= 0
 c566: - G - bit_2_0 + prod_2_0 >= -1
 c567: - G + prod_2_1 <= 0
 c568: - bit_2_1 + prod_2_1 <= 0
 c569: - G - bit_2_1 + prod_2_1 >= -1
 c570: - G + prod_2_2 <= 0
 c571: - bit_2_2 + prod_2_2 <= 0
 c572: - G - bit_2_2 + prod_2_2 >= -1
 c573: - G + prod_2_3 <= 0
 c574: - bit_2_3 + prod_2_3 <= 0
 c575: - G - bit_2_3 + prod_2_3 >= -1
 c576: - G + prod_2_4 <= 0
 c577: - bit_2_4 + prod_2_4 <= 0
 c578: - G - bit_2_4 + prod_2_4 >= -1
 c579: Y_3 - bit_3_0 - 2 bit_3_1 - 4 bit_3_2 - 8 bit_3_3 - 16 bit_3_4 - 32 bit_3_5 = 0
 c580: - prod_3_0 - 2 prod_3_1 - 4 prod_3_2 - 8 prod_3_3 - 16 prod_3_4 - 32 prod_3_5 + zprod_3 = 0
 c581: - G + prod_3_0 <= 0
 c582: - bit_3_0 + prod_3_0 <= 0
 c583: - G - bit_3_0 + prod_3_0 >= -1
 c584: - G + prod_3_1 <= 0
 c585: - bit_3_1 + prod_3_1 <= 0
 c586: - G - bit_3_1 + prod_3_1 >= -1
 c587: - G + prod_3_2 <= 0
 c588: - bit_3_2 + prod_3_2 <= 0
 c589: - G - bit_3_2 + prod_3_2 >= -1
 c590: - G + prod_3_3 <= 0
 c591: - bit_3_3 + prod_3_3 <= 0
 c592: - G - bit_3_3 + prod_3_3 >= -1
 c593: - G + prod_3_4 <= 0
 c594: - bit_3_4 + prod_3_4 <= 0
 c595: - G - bit_3_4 + prod_3_4 >= -1
 c596: - G + prod_3_5 <= 0
 c597: - bit_3_5 + prod_3_5 <= 0
 c598: - G - bit_3_5 + prod_3_5 >= -1
 c599: Y_4 - bit_4_0 - 2 bit_4_1 - 4 bit_4_2 - 8 bit_4_3 - 16 bit_4_4 - 32 bit_4_5 = 0
 c600: - prod_4_0 - 2 prod_4_1 - 4 prod_4_2 - 8 prod_4_3 - 16 prod_4_4 - 32 prod_4_5 + zprod_4 = 0
 c601: - G + prod_4_0 <= 0
 c602: - bit_4_0 + prod_4_0 <= 0
 c603: - G - bit_4_0 + prod_4_0 >= -1
 c604: - G + prod_4_1 <= 0
 c605: - bit_4_1 + prod_4_1 <= 0
 c606: - G - bit_4_1 + prod_4_1 >= -1
 c607: - G + prod_4_2 <= 0
 c608: - bit_4_2 + prod_4_2 <= 0
 c609: - G - bit_4_2 + prod_4_2 >= -1
 c610: - G + prod_4_3 <= 0
 c611: - bit_4_3 + prod_4_3 <= 0
 c612: - G - bit_4_3 + prod_4_3 >= -1
 c613: - G + prod_4_4 <= 0
 c614: - bit_4_4 + prod_4_4 <= 0
 c615: - G - bit_4_4 + prod_4_4 >= -1
 c616: - G + prod_4_5 <= 0
 c617: - bit_4_5 + prod_4_5 <= 0
 c618: - G - bit_4_5 + prod_4_5 >= -1
 c619: Y_5 - bit_5_0 - 2 bit_5_1 - 4 bit_5_2 - 8 bit_5_3 - 16 bit_5_4 = 0
 c620: - prod_5_0 - 2 prod_5_1 - 4 prod_5_2 - 8 prod_5_3 - 16 prod_5_4 + zprod_5 = 0
 c621: - G + prod_5_0 <= 0
 c622: - bit_5_0 + prod_5_0 <= 0
 c623: - G - bit_5_0 + prod_5_0 >= -1
 c624: - G + prod_5_1 <= 0
 c625: - bit_5_1 + prod_5_1 <= 0
 c626: - G - bit_5_1 + prod_5_1 >= -1
 c627: - G + prod_5_2 <= 0
 c628: - bit_5_2 + prod_5_2 <= 0
 c629: - G - bit_5_2 + prod_5_2 >= -1
 c630: - G + prod_5_3 <= 0
 c631: - bit_5_3 + prod_5_3 <= 0
 c632: - G - bit_5_3 + prod_5_3 >= -1
 c633: - G + prod_5_4 <= 0
 c634: - bit_5_4 + prod_5_4 <= 0
 c635: - G - bit_5_4 + prod_5_4 >= -1
 c636: Y_6 - bit_6_0 - 2 bit_6_1 - 4 bit_6_2 - 8 bit_6_3 - 16 bit_6_4 - 32 bit_6_5 = 0
 c637: - prod_6_0 - 2 prod_6_1 - 4 prod_6_2 - 8 prod_6_3 - 16 prod_6_4 - 32 prod_6_5 + zprod_6 = 0
 c638: - G + prod_6_0 <= 0
 c639: - bit_6_0 + prod_6_0 <= 0
 c640: - G - bit_6_0 + prod_6_0 >= -1
 c641: - G + prod_6_1 <= 0
 c642: - bit_6_1 + prod_6_1 <= 0
 c643: - G - bit_6_1 + prod_6_1 >= -1
 c644: - G + prod_6_2 <= 0
 c645: - bit_6_2 + prod_6_2 <= 0
 c646: - G - bit_6_2 + prod_6_2 >= -1
 c647: - G + prod_6_3 <= 0
 c648: - bit_6_3 + prod_6_3 <= 0
 c649: - G - bit_6_3 + prod_6_3 >= -1
 c650: - G + prod_6_4 <= 0
 c651: - bit_6_4 + prod_6_4 <= 0
 c652: - G - bit_6_4 + prod_6_4 >= -1
 c653: - G + prod_6_5 <= 0
 c654: - bit_6_5 + prod_6_5 <= 0
 c655: - G - bit_6_5 + prod_6_5 >= -1
 c656: Y_7 - bit_7_0 - 2 bit_7_1 - 4 bit_7_2 - 8 bit_7_3 - 16 bit_7_4 = 0
 c657: - prod_7_0 - 2 prod_7_1 - 4 prod_7_2 - 8 prod_7_3 - 16 prod_7_4 + zprod_7 = 0
 c658: - G + prod_7_0 <= 0
 c659: - bit_7_0 + prod_7_0 <= 0
 c660: - G - bit_7_0 + prod_7_0 >= -1
 c661: - G + prod_7_1 <= 0
 c662: - bit_7_1 + prod_7_1 <= 0
 c663: - G - bit_7_1 + prod_7_1 >= -1
 c664: - G + prod_7_2 <= 0
 c665: - bit_7_2 + prod_7_2 <= 0
 c666: - G - bit_7_2 + prod_7_2 >= -1
 c667: - G + prod_7_3 <= 0
 c668: - bit_7_3 + prod_7_3 <= 0
 c669: - G - bit_7_3 + prod_7_3 >= -1
 c670: - G + prod_7_4 <= 0
 c671: - bit_7_4 + prod_7_4 <= 0
 c672: - G - bit_7_4 + prod_7_4 >= -1
 c673: Y_8 - bit_8_0 - 2 bit_8_1 - 4 bit_8_2 - 8 bit_8_3 - 16 bit_8_4 = 0
 c674: - prod_8_0 - 2 prod_8_1 - 4 prod_8_2 - 8 prod_8_3 - 16 prod_8_4 + zprod_8 = 0
 c675: - G + prod_8_0 <= 0
 c676: - bit_8_0 + prod_8_0 <= 0
 c677: - G - bit_8_0 + prod_8_0 >= -1
 c678: - G + prod_8_1 <= 0
 c679: - bit_8_1 + prod_8_1 <= 0
 c680: - G - bit_8_1 + prod_8_1 >= -1
 c681: - G + prod_8_2 <= 0
 c682: - bit_8_2 + prod_8_2 <= 0
 c683: - G - bit_8_2 + prod_8_2 >= -1
 c684: - G + prod_8_3 <= 0
 c685: - bit_8_3 + prod_8_3 <= 0
 c686: - G - bit_8_3 + prod_8_3 >= -1
 c687: - G + prod_8_4 <= 0
 c688: - bit_8_4 + prod_8_4 <= 0
 c689: - G - bit_8_4 + prod_8_4 >= -1
 c690: Y_9 - bit_9_0 - 2 bit_9_1 - 4 bit_9_2 - 8 bit_9_3 - 16 bit_9_4 - 32 bit_9_5 = 0
 c691: - prod_9_0 - 2 prod_9_1 - 4 prod_9_2 - 8 prod_9_3 - 16 prod_9_4 - 32 prod_9_5 + zprod_9 = 0
 c692: - G + prod_9_0 <= 0
 c693: - bit_9_0 + prod_9_0 <= 0
 c694: - G - bit_9_0 + prod_9_0 >= -1
 c695: - G + prod_9_1 <= 0
 c696: - bit_9_1 + prod_9_1 <= 0
 c697: - G - bit_9_1 + prod_9_1 >= -1
 c698: - G + prod_9_2 <= 0
 c699: - bit_9_2 + prod_9_2 <= 0
 c700: - G - bit_9_2 + prod_9_2 >= -1
 c701: - G + prod_9_3 <= 0
 c702: - bit_9_3 + prod_9_3 <= 0
 c703: - G - bit_9_3 + prod_9_3 >= -1
 c704: - G + prod_9_4 <= 0
 c705: - bit_9_4 + prod_9_4 <= 0
 c706: - G - bit_9_4 + prod_9_4 >= -1
 c707: - G + prod_9_5 <= 0
 c708: - bit_9_5 + prod_9_5 <= 0
 c709: - G - bit_9_5 + prod_9_5 >= -1
 c710: Y_10 - bit_10_0 - 2 bit_10_1 - 4 bit_10_2 - 8 bit_10_3 - 16 bit_10_4 = 0
 c711: - prod_10_0 - 2 prod_10_1 - 4 prod_10_2 - 8 prod_10_3 - 16 prod_10_4 + zprod_10 = 0
 c712: - G + prod_10_0 <= 0
 c713: - bit_10_0 + prod_10_0 <= 0
 c714: - G - bit_10_0 + prod_10_0 >= -1
 c715: - G + prod_10_1 <= 0
 c716: - bit_10_1 + prod_10_1 <= 0
 c717: - G - bit_10_1 + prod_10_1 >= -1
 c718: - G + prod_10_2 <= 0
 c719: - bit_10_2 + prod_10_2 <= 0
 c720: - G - bit_10_2 + prod_10_2 >= -1
 c721: - G + prod_10_3 <= 0
 c722: - bit_10_3 + prod_10_3 <= 0
 c723: - G - bit_10_3 + prod_10_3 >= -1
 c724: - G + prod_10_4 <= 0
 c725: - bit_10_4 + prod_10_4 <= 0
 c726: - G - bit_10_4 + prod_10_4 >= -1
 c727: - h_1_10 - h_1_2 - h_1_3 - h_1_4 - h_1_5 - h_1_6 - h_1_7 - h_1_8 - h_1_9 - h_2_10 - h_2_3 - h_2_4 - h_2_5 - h_2_6 - h_2_7 - h_2_8 - h_2_9 - h_3_10 - h_3_4 - h_3_5 - h_3_6 - h_3_7 - h_3_8 - h_3_9 - h_4_10 - h_4_5 - h_4_6 - h_4_7 - h_4_8 - h_4_9 - h_5_10 - h_5_6 - h_5_7 - h_5_8 - h_5_9 - h_6_10 - h_6_7 - h_6_8 - h_6_9 - h_7_10 - h_7_8 - h_7_9 - h_8_10 - h_8_9 - h_9_10 + 3.3333333333333335 zprod_1 + 1.1111111111111112 zprod_10 + 0.45454545454545453 zprod_2 + zprod_3 + 0.26315789473684209 zprod_4 + 10 zprod_5 + 0.3125 zprod_6 + 1.1111111111111112 zprod_7 + 10 zprod_8 + 3.3333333333333335 zprod_9 >= 0
Bounds
 0 <= G <= 1
 0 <= Y_1 <= 22
 0 <= Y_10 <= 27
 0 <= Y_2 <= 28
 0 <= Y_3 <= 47
 0 <= Y_4 <= 40
 0 <= Y_5 <= 27
 0 <= Y_6 <= 35
 0 <= Y_7 <= 31
 0 <= Y_8 <= 20
 0 <= Y_9 <= 38
 0 <= bit_10_0 <= 1
 0 <= bit_10_1 <= 1
 0 <= bit_10_2 <= 1
 0 <= bit_10_3 <= 1
 0 <= bit_10_4 <= 1
 0 <= bit_1_0 <= 1
 0 <= bit_1_1 <= 1
 0 <= bit_1_2 <= 1
 0 <= bit_1_3 <= 1
 0 <= bit_1_4 <= 1
 0 <= bit_2_0 <= 1
 0 <= bit_2_1 <= 1
 0 <= bit_2_2 <= 1
 0 <= bit_2_3 <= 1
 0 <= bit_2_4 <= 1
 0 <= bit_3_0 <= 1
 0 <= bit_3_1 <= 1
 0 <= bit_3_2 <= 1
 0 <= bit_3_3 <= 1
 0 <= bit_3_4 <= 1
 0 <= bit_3_5 <= 1
 0 <= bit_4_0 <= 1
 0 <= bit_4_1 <= 1
 0 <= bit_4_2 <= 1
 0 <= bit_4_3 <= 1
 0 <= bit_4_4 <= 1
 0 <= bit_4_5 <= 1
 0 <= bit_5_0 <= 1
 0 <= bit_5_1 <= 1
 0 <= bit_5_2 <= 1
 0 <= bit_5_3 <= 1
 0 <= bit_5_4 <= 1
 0 <= bit_6_0 <= 1
 0 <= bit_6_1 <= 1
 0 <= bit_6_2 <= 1
 0 <= bit_6_3 <= 1
 0 <= bit_6_4 <= 1
 0 <= bit_6_5 <= 1
 0 <= bit_7_0 <= 1
 0 <= bit_7_1 <= 1
 0 <= bit_7_2 <= 1
 0 <= bit_7_3 <= 1
 0 <= bit_7_4 <= 1
 0 <= bit_8_0 <= 1
 0 <= bit_8_1 <= 1
 0 <= bit_8_2 <= 1
 0 <= bit_8_3 <= 1
 0 <= bit_8_4 <= 1
 0 <= bit_9_0 <= 1
 0 <= bit_9_1 <= 1
 0 <= bit_9_2 <= 1
 0 <= bit_9_3 <= 1
 0 <= bit_9_4 <= 1
 0 <= bit_9_5 <= 1
 0 <= d_0_1 <= 3
 0 <= d_0_10 <= 0
 0 <= d_0_2 <= 23
 0 <= d_0_3 <= 4
 0 <= d_0_4 <= 30
 0 <= d_0_5 <= 8
 0 <= d_0_6 <= 28
 0 <= d_0_7 <= 3
 0 <= d_0_8 <= 2
 0 <= d_0_9 <= 6
 0 <= e_1 <= 6.333333333333333
 0 <= e_10 <= 2
 0 <= e_2 <= 1
 0 <= e_3 <= 3.7000000000000002
 0 <= e_4 <= 1
 0 <= e_5 <= 26
 0 <= e_6 <= 1
 0 <= e_7 <= 2.4444444444444446
 0 <= e_8 <= 19
 0 <= e_9 <= 11.666666666666666
 0 <= h_1_10 <= 10.333333333333332
 0 <= h_1_2 <= 8.6060606060606055
 0 <= h_1_3 <= 12.033333333333333
 0 <= h_1_4 <= 8.3859649122807021
 0 <= h_1_5 <= 34.333333333333336
 0 <= h_1_6 <= 8.4270833333333321
 0 <= h_1_7 <= 10.777777777777779
 0 <= h_1_8 <= 27.333333333333332
 0 <= h_1_9 <= 20
 0 <= h_2_10 <= 4.2727272727272725
 0 <= h_2_3 <= 5.9727272727272727
 0 <= h_2_4 <= 2.3253588516746411
 0 <= h_2_5 <= 28.272727272727273
 0 <= h_2_6 <= 2.3664772727272725
 0 <= h_2_7 <= 4.7171717171717171
 0 <= h_2_8 <= 21.272727272727273
 0 <= h_2_9 <= 13.939393939393939
 0 <= h_3_10 <= 7.7000000000000002
 0 <= h_3_4 <= 5.7526315789473683
 0 <= h_3_5 <= 31.699999999999999
 0 <= h_3_6 <= 5.7937500000000002
 0 <= h_3_7 <= 8.1444444444444457
 0 <= h_3_8 <= 24.699999999999999
 0 <= h_3_9 <= 17.366666666666667
 0 <= h_4_10 <= 4.0526315789473681
 0 <= h_4_5 <= 28.05263157894737
 0 <= h_4_6 <= 2.1463815789473681
 0 <= h_4_7 <= 4.4970760233918128
 0 <= h_4_8 <= 21.05263157894737
 0 <= h_4_9 <= 13.719298245614034
 0 <= h_5_10 <= 30
 0 <= h_5_6 <= 28.09375
 0 <= h_5_7 <= 30.444444444444443
 0 <= h_5_8 <= 47
 0 <= h_5_9 <= 39.666666666666664
 0 <= h_6_10 <= 4.09375
 0 <= h_6_7 <= 4.5381944444444446
 0 <= h_6_8 <= 21.09375
 0 <= h_6_9 <= 13.760416666666666
 0 <= h_7_10 <= 6.4444444444444446
 0 <= h_7_8 <= 23.444444444444443
 0 <= h_7_9 <= 16.111111111111111
 0 <= h_8_10 <= 23
 0 <= h_8_9 <= 32.666666666666664
 0 <= h_9_10 <= 15.666666666666666
 0 <= load_0_1 <= 30
 0 <= load_0_10 <= 30
 0 <= load_0_2 <= 30
 0 <= load_0_3 <= 30
 0 <= load_0_4 <= 30
 0 <= load_0_5 <= 30
 0 <= load_0_6 <= 30
 0 <= load_0_7 <= 30
 0 <= load_0_8 <= 30
 0 <= load_0_9 <= 30
 0 <= mode_0_1 <= 1
 0 <= mode_0_10 <= 1
 0 <= mode_0_2 <= 1
 0 <= mode_0_3 <= 1
 0 <= mode_0_4 <= 1
 0 <= mode_0_5 <= 1
 0 <= mode_0_6 <= 1
 0 <= mode_0_7 <= 1
 0 <= mode_0_8 <= 1
 0 <= mode_0_9 <= 1
 0 <= ord_0_1 <= 10
 0 <= ord_0_10 <= 10
 0 <= ord_0_2 <= 10
 0 <= ord_0_3 <= 10
 0 <= ord_0_4 <= 10
 0 <= ord_0_5 <= 10
 0 <= ord_0_6 <= 10
 0 <= ord_0_7 <= 10
 0 <= ord_0_8 <= 10
 0 <= ord_0_9 <= 10
 0 <= p_0_1 <= 19
 0 <= p_0_10 <= 27
 0 <= p_0_2 <= 5
 0 <= p_0_3 <= 30
 0 <= p_0_4 <= 3
 0 <= p_0_5 <= 19
 0 <= p_0_6 <= 7
 0 <= p_0_7 <= 28
 0 <= p_0_8 <= 18
 0 <= p_0_9 <= 30
 0 <= prod_10_0 <= 1
 0 <= prod_10_1 <= 1
 0 <= prod_10_2 <= 1
 0 <= prod_10_3 <= 1
 0 <= prod_10_4 <= 1
 0 <= prod_1_0 <= 1
 0 <= prod_1_1 <= 1
 0 <= prod_1_2 <= 1
 0 <= prod_1_3 <= 1
 0 <= prod_1_4 <= 1
 0 <= prod_2_0 <= 1
 0 <= prod_2_1 <= 1
 0 <= prod_2_2 <= 1
 0 <= prod_2_3 <= 1
 0 <= prod_2_4 <= 1
 0 <= prod_3_0 <= 1
 0 <= prod_3_1 <= 1
 0 <= prod_3_2 <= 1
 0 <= prod_3_3 <= 1
 0 <= prod_3_4 <= 1
 0 <= prod_3_5 <= 1
 0 <= prod_4_0 <= 1
 0 <= prod_4_1 <= 1
 0 <= prod_4_2 <= 1
 0 <= prod_4_3 <= 1
 0 <= prod_4_4 <= 1
 0 <= prod_4_5 <= 1
 0 <= prod_5_0 <= 1
 0 <= prod_5_1 <= 1
 0 <= prod_5_2 <= 1
 0 <= prod_5_3 <= 1
 0 <= prod_5_4 <= 1
 0 <= prod_6_0 <= 1
 0 <= prod_6_1 <= 1
 0 <= prod_6_2 <= 1
 0 <= prod_6_3 <= 1
 0 <= prod_6_4 <= 1
 0 <= prod_6_5 <= 1
 0 <= prod_7_0 <= 1
 0 <= prod_7_1 <= 1
 0 <= prod_7_2 <= 1
 0 <= prod_7_3 <= 1
 0 <= prod_7_4 <= 1
 0 <= prod_8_0 <= 1
 0 <= prod_8_1 <= 1
 0 <= prod_8_2 <= 1
 0 <= prod_8_3 <= 1
 0 <= prod_8_4 <= 1
 0 <= prod_9_0 <= 1
 0 <= prod_9_1 <= 1
 0 <= prod_9_2 <= 1
 0 <= prod_9_3 <= 1
 0 <= prod_9_4 <= 1
 0 <= prod_9_5 <= 1
 0 <= r_1 <= 7.333333333333333
 0 <= r_10 <= 3
 0 <= r_2 <= 1.2727272727272727
 0 <= r_3 <= 4.7000000000000002
 0 <= r_4 <= 1.0526315789473684
 0 <= r_5 <= 27
 0 <= r_6 <= 1.09375
 0 <= r_7 <= 3.4444444444444446
 0 <= r_8 <= 20
 0 <= r_9 <= 12.666666666666666
 0 <= x_0_0_1 <= 1
 0 <= x_0_0_10 <= 1
 0 <= x_0_0_2 <= 1
 0 <= x_0_0_3 <= 1
 0 <= x_0_0_4 <= 1
 0 <= x_0_0_5 <= 1
 0 <= x_0_0_6 <= 1
 0 <= x_0_0_7 <= 1
 0 <= x_0_0_8 <= 1
 0 <= x_0_0_9 <= 1
 0 <= x_0_10_0 <= 1
 0 <= x_0_10_1 <= 1
 0 <= x_0_10_2 <= 1
 0 <= x_0_10_3 <= 1
 0 <= x_0_10_4 <= 1
 0 <= x_0_10_5 <= 1
 0 <= x_0_10_6 <= 1
 0 <= x_0_10_7 <= 1
 0 <= x_0_10_8 <= 1
 0 <= x_0_10_9 <= 1
 0 <= x_0_1_0 <= 1
 0 <= x_0_1_10 <= 1
 0 <= x_0_1_2 <= 1
 0 <= x_0_1_3 <= 1
 0 <= x_0_1_4 <= 1
 0 <= x_0_1_5 <= 1
 0 <= x_0_1_6 <= 1
 0 <= x_0_1_7 <= 1
 0 <= x_0_1_8 <= 1
 0 <= x_0_1_9 <= 1
 0 <= x_0_2_0 <= 1
 0 <= x_0_2_1 <= 1
 0 <= x_0_2_10 <= 1
 0 <= x_0_2_3 <= 1
 0 <= x_0_2_4 <= 1
 0 <= x_0_2_5 <= 1
 0 <= x_0_2_6 <= 1
 0 <= x_0_2_7 <= 1
 0 <= x_0_2_8 <= 1
 0 <= x_0_2_9 <= 1
 0 <= x_0_3_0 <= 1
 0 <= x_0_3_1 <= 1
 0 <= x_0_3_10 <= 1
 0 <= x_0_3_2 <= 1
 0 <= x_0_3_4 <= 1
 0 <= x_0_3_5 <= 1
 0 <= x_0_3_6 <= 1
 0 <= x_0_3_7 <= 1
 0 <= x_0_3_8 <= 1
 0 <= x_0_3_9 <= 1
 0 <= x_0_4_0 <= 1
 0 <= x_0_4_1 <= 1
 0 <= x_0_4_10 <= 1
 0 <= x_0_4_2 <= 1
 0 <= x_0_4_3 <= 1
 0 <= x_0_4_5 <= 1
 0 <= x_0_4_6 <= 1
 0 <= x_0_4_7 <= 1
 0 <= x_0_4_8 <= 1
 0 <= x_0_4_9 <= 1
 0 <= x_0_5_0 <= 1
 0 <= x_0_5_1 <= 1
 0 <= x_0_5_10 <= 1
 0 <= x_0_5_2 <= 1
 0 <= x_0_5_3 <= 1
 0 <= x_0_5_4 <= 1
 0 <= x_0_5_6 <= 1
 0 <= x_0_5_7 <= 1
 0 <= x_0_5_8 <= 1
 0 <= x_0_5_9 <= 1
 0 <= x_0_6_0 <= 1
 0 <= x_0_6_1 <= 1
 0 <= x_0_6_10 <= 1
 0 <= x_0_6_2 <= 1
 0 <= x_0_6_3 <= 1
 0 <= x_0_6_4 <= 1
 0 <= x_0_6_5 <= 1
 0 <= x_0_6_7 <= 1
 0 <= x_0_6_8 <= 1
 0 <= x_0_6_9 <= 1
 0 <= x_0_7_0 <= 1
 0 <= x_0_7_1 <= 1
 0 <= x_0_7_10 <= 1
 0 <= x_0_7_2 <= 1
 0 <= x_0_7_3 <= 1
 0 <= x_0_7_4 <= 1
 0 <= x_0_7_5 <= 1
 0 <= x_0_7_6 <= 1
 0 <= x_0_7_8 <= 1
 0 <= x_0_7_9 <= 1
 0 <= x_0_8_0 <= 1
 0 <= x_0_8_1 <= 1
 0 <= x_0_8_10 <= 1
 0 <= x_0_8_2 <= 1
 0 <= x_0_8_3 <= 1
 0 <= x_0_8_4 <= 1
 0 <= x_0_8_5 <= 1
 0 <= x_0_8_6 <= 1
 0 <= x_0_8_7 <= 1
 0 <= x_0_8_9 <= 1
 0 <= x_0_9_0 <= 1
 0 <= x_0_9_1 <= 1
 0 <= x_0_9_10 <= 1
 0 <= x_0_9_2 <= 1
 0 <= x_0_9_3 <= 1
 0 <= x_0_9_4 <= 1
 0 <= x_0_9_5 <= 1
 0 <= x_0_9_6 <= 1
 0 <= x_0_9_7 <= 1
 0 <= x_0_9_8 <= 1
 0 <= z_0_1 <= 1
 0 <= z_0_10 <= 1
 0 <= z_0_2 <= 1
 0 <= z_0_3 <= 1
 0 <= z_0_4 <= 1
 0 <= z_0_5 <= 1
 0 <= z_0_6 <= 1
 0 <= z_0_7 <= 1
 0 <= z_0_8 <= 1
 0 <= z_0_9 <= 1
 0 <= zprod_1 <= 22
 0 <= zprod_10 <= 27
 0 <= zprod_2 <= 28
 0 <= zprod_3 <= 47
 0 <= zprod_4 <= 40
 0 <= zprod_5 <= 27
 0 <= zprod_6 <= 35
 0 <= zprod_7 <= 31
 0 <= zprod_8 <= 20
 0 <= zprod_9 <= 38
Generals
 Y_1
 Y_10
 Y_2
 Y_3
 Y_4
 Y_5
 Y_6
 Y_7
 Y_8
 Y_9
 d_0_1
 d_0_10
 d_0_2
 d_0_3
 d_0_4
 d_0_5
 d_0_6
 d_0_7
 d_0_8
 d_0_9
 load_0_1
 load_0_10
 load_0_2
 load_0_3
 load_0_4
 load_0_5
 load_0_6
 load_0_7
 load_0_8
 load_0_9
 p_0_1
 p_0_10
 p_0_2
 p_0_3
 p_0_4
 p_0_5
 p_0_6
 p_0_7
 p_0_8
 p_0_9
Binaries
 bit_10_0
 bit_10_1
 bit_10_2
 bit_10_3
 bit_10_4
 bit_1_0
 bit_1_1
 bit_1_2
 bit_1_3
 bit_1_4
 bit_2_0
 bit_2_1
 bit_2_2
 bit_2_3
 bit_2_4
 bit_3_0
 bit_3_1
 bit_3_2
 bit_3_3
 bit_3_4
 bit_3_5
 bit_4_0
 bit_4_1
 bit_4_2
 bit_4_3
 bit_4_4
 bit_4_5
 bit_5_0
 bit_5_1
 bit_5_2
 bit_5_3
 bit_5_4
 bit_6_0
 bit_6_1
 bit_6_2
 bit_6_3
 bit_6_4
 bit_6_5
 bit_7_0
 bit_7_1
 bit_7_2
 bit_7_3
 bit_7_4
 bit_8_0
 bit_8_1
 bit_8_2
 bit_8_3
 bit_8_4
 bit_9_0
 bit_9_1
 bit_9_2
 bit_9_3
 bit_9_4
 bit_9_5
 mode_0_1
 mode_0_10
 mode_0_2
 mode_0_3
 mode_0_4
 mode_0_5
 mode_0_6
 mode_0_7
 mode_0_8
 mode_0_9
 x_0_0_1
 x_0_0_10
 x_0_0_2
 x_0_0_3
 x_0_0_4
 x_0_0_5
 x_0_0_6
 x_0_0_7
 x_0_0_8
 x_0_0_9
 x_0_10_0
 x_0_10_1
 x_0_10_2
 x_0_10_3
 x_0_10_4
 x_0_10_5
 x_0_10_6
 x_0_10_7
 x_0_10_8
 x_0_10_9
 x_0_1_0
 x_0_1_10
 x_0_1_2
 x_0_1_3
 x_0_1_4
 x_0_1_5
 x_0_1_6
 x_0_1_7
 x_0_1_8
 x_0_1_9
 x_0_2_0
 x_0_2_1
 x_0_2_10
 x_0_2_3
 x_0_2_4
 x_0_2_5
 x_0_2_6
 x_0_2_7
 x_0_2_8
 x_0_2_9
 x_0_3_0
 x_0_3_1
 x_0_3_10
 x_0_3_2
 x_0_3_4
 x_0_3_5
 x_0_3_6
 x_0_3_7
 x_0_3_8
 x_0_3_9
 x_0_4_0
 x_0_4_1
 x_0_4_10
 x_0_4_2
 x_0_4_3
 x_0_4_5
 x_0_4_6
 x_0_4_7
 x_0_4_8
 x_0_4_9
 x_0_5_0
 x_0_5_1
 x_0_5_10
 x_0_5_2
 x_0_5_3
 x_0_5_4
 x_0_5_6
 x_0_5_7
 x_0_5_8
 x_0_5_9
 x_0_6_0
 x_0_6_1
 x_0_6_10
 x_0_6_2
 x_0_6_3
 x_0_6_4
 x_0_6_5
 x_0_6_7
 x_0_6_8
 x_0_6_9
 x_0_7_0
 x_0_7_1
 x_0_7_10
 x_0_7_2
 x_0_7_3
 x_0_7_4
 x_0_7_5
 x_0_7_6
 x_0_7_8
 x_0_7_9
 x_0_8_0
 x_0_8_1
 x_0_8_10
 x_0_8_2
 x_0_8_3
 x_0_8_4
 x_0_8_5
 x_0_8_6
 x_0_8_7
 x_0_8_9
 x_0_9_0
 x_0_9_1
 x_0_9_10
 x_0_9_2
 x_0_9_3
 x_0_9_4
 x_0_9_5
 x_0_9_6
 x_0_9_7
 x_0_9_8
 z_0_1
 z_0_10
 z_0_2
 z_0_3
 z_0_4
 z_0_5
 z_0_6
 z_0_7
 z_0_8
 z_0_9
End
