\ ExactEBRP compact MILP generated from C++ command-line runner
Minimize
 obj: G + 0.034642799999999994 e_1 + 0.075357149999999998 e_2 + 0.077166600000000002 e_3 + 0.023333400000000001 e_4 + 0.036287849999999996 e_5 + 0.055000050000000002 e_6 + 0.14999999999999999 e_7 + 0.14999999999999999 e_8 + 0.07281254999999999 e_9 + 0.10249994999999999 e_10
Subject To
 c1: h_1_10 + h_1_2 + h_1_3 + h_1_4 + h_1_5 + h_1_6 + h_1_7 + h_1_8 + h_1_9 + h_2_10 + h_2_3 + h_2_4 + h_2_5 + h_2_6 + h_2_7 + h_2_8 + h_2_9 + h_3_10 + h_3_4 + h_3_5 + h_3_6 + h_3_7 + h_3_8 + h_3_9 + h_4_10 + h_4_5 + h_4_6 + h_4_7 + h_4_8 + h_4_9 + h_5_10 + h_5_6 + h_5_7 + h_5_8 + h_5_9 + h_6_10 + h_6_7 + h_6_8 + h_6_9 + h_7_10 + h_7_8 + h_7_9 + h_8_10 + h_8_9 + h_9_10 - 0.11720681740442651 r_1 - 0.11720681740442651 r_10 - 0.11720681740442651 r_2 - 0.11720681740442651 r_3 - 0.11720681740442651 r_4 - 0.11720681740442651 r_5 - 0.11720681740442651 r_6 - 0.11720681740442651 r_7 - 0.11720681740442651 r_8 - 0.11720681740442651 r_9 <= 0
 c2: h_1_10 + h_1_2 + h_1_3 + h_1_4 + h_1_5 + h_1_6 + h_1_7 + h_1_8 + h_1_9 + h_2_10 + h_2_3 + h_2_4 + h_2_5 + h_2_6 + h_2_7 + h_2_8 + h_2_9 + h_3_10 + h_3_4 + h_3_5 + h_3_6 + h_3_7 + h_3_8 + h_3_9 + h_4_10 + h_4_5 + h_4_6 + h_4_7 + h_4_8 + h_4_9 + h_5_10 + h_5_6 + h_5_7 + h_5_8 + h_5_9 + h_6_10 + h_6_7 + h_6_8 + h_6_9 + h_7_10 + h_7_8 + h_7_9 + h_8_10 + h_8_9 + h_9_10 - 0.058603408702213255 r_1 - 0.058603408702213255 r_10 - 0.058603408702213255 r_2 - 0.058603408702213255 r_3 - 0.058603408702213255 r_4 - 0.058603408702213255 r_5 - 0.058603408702213255 r_6 - 0.058603408702213255 r_7 - 0.058603408702213255 r_8 - 0.058603408702213255 r_9 >= 0
 c3: - 0.0058603408702213259 bit_1_0 + prod_1_0 >= 0
 c4: - 0.011720681740442652 bit_1_0 + prod_1_0 <= 0
 c5: - G - 0.011720681740442652 bit_1_0 + prod_1_0 >= -0.011720681740442652
 c6: - G - 0.0058603408702213259 bit_1_0 + prod_1_0 <= -0.0058603408702213259
 c7: - 0.0058603408702213259 bit_1_1 + prod_1_1 >= 0
 c8: - 0.011720681740442652 bit_1_1 + prod_1_1 <= 0
 c9: - G - 0.011720681740442652 bit_1_1 + prod_1_1 >= -0.011720681740442652
 c10: - G - 0.0058603408702213259 bit_1_1 + prod_1_1 <= -0.0058603408702213259
 c11: - 0.0058603408702213259 bit_1_2 + prod_1_2 >= 0
 c12: - 0.011720681740442652 bit_1_2 + prod_1_2 <= 0
 c13: - G - 0.011720681740442652 bit_1_2 + prod_1_2 >= -0.011720681740442652
 c14: - G - 0.0058603408702213259 bit_1_2 + prod_1_2 <= -0.0058603408702213259
 c15: - 0.0058603408702213259 bit_1_3 + prod_1_3 >= 0
 c16: - 0.011720681740442652 bit_1_3 + prod_1_3 <= 0
 c17: - G - 0.011720681740442652 bit_1_3 + prod_1_3 >= -0.011720681740442652
 c18: - G - 0.0058603408702213259 bit_1_3 + prod_1_3 <= -0.0058603408702213259
 c19: - 0.0058603408702213259 bit_1_4 + prod_1_4 >= 0
 c20: - 0.011720681740442652 bit_1_4 + prod_1_4 <= 0
 c21: - G - 0.011720681740442652 bit_1_4 + prod_1_4 >= -0.011720681740442652
 c22: - G - 0.0058603408702213259 bit_1_4 + prod_1_4 <= -0.0058603408702213259
 c23: - 0.0058603408702213259 bit_2_0 + prod_2_0 >= 0
 c24: - 0.011720681740442652 bit_2_0 + prod_2_0 <= 0
 c25: - G - 0.011720681740442652 bit_2_0 + prod_2_0 >= -0.011720681740442652
 c26: - G - 0.0058603408702213259 bit_2_0 + prod_2_0 <= -0.0058603408702213259
 c27: - 0.0058603408702213259 bit_2_1 + prod_2_1 >= 0
 c28: - 0.011720681740442652 bit_2_1 + prod_2_1 <= 0
 c29: - G - 0.011720681740442652 bit_2_1 + prod_2_1 >= -0.011720681740442652
 c30: - G - 0.0058603408702213259 bit_2_1 + prod_2_1 <= -0.0058603408702213259
 c31: - 0.0058603408702213259 bit_2_2 + prod_2_2 >= 0
 c32: - 0.011720681740442652 bit_2_2 + prod_2_2 <= 0
 c33: - G - 0.011720681740442652 bit_2_2 + prod_2_2 >= -0.011720681740442652
 c34: - G - 0.0058603408702213259 bit_2_2 + prod_2_2 <= -0.0058603408702213259
 c35: - 0.0058603408702213259 bit_2_3 + prod_2_3 >= 0
 c36: - 0.011720681740442652 bit_2_3 + prod_2_3 <= 0
 c37: - G - 0.011720681740442652 bit_2_3 + prod_2_3 >= -0.011720681740442652
 c38: - G - 0.0058603408702213259 bit_2_3 + prod_2_3 <= -0.0058603408702213259
 c39: - 0.0058603408702213259 bit_2_4 + prod_2_4 >= 0
 c40: - 0.011720681740442652 bit_2_4 + prod_2_4 <= 0
 c41: - G - 0.011720681740442652 bit_2_4 + prod_2_4 >= -0.011720681740442652
 c42: - G - 0.0058603408702213259 bit_2_4 + prod_2_4 <= -0.0058603408702213259
 c43: - 0.0058603408702213259 bit_2_5 + prod_2_5 >= 0
 c44: - 0.011720681740442652 bit_2_5 + prod_2_5 <= 0
 c45: - G - 0.011720681740442652 bit_2_5 + prod_2_5 >= -0.011720681740442652
 c46: - G - 0.0058603408702213259 bit_2_5 + prod_2_5 <= -0.0058603408702213259
 c47: - 0.0058603408702213259 bit_3_0 + prod_3_0 >= 0
 c48: - 0.011720681740442652 bit_3_0 + prod_3_0 <= 0
 c49: - G - 0.011720681740442652 bit_3_0 + prod_3_0 >= -0.011720681740442652
 c50: - G - 0.0058603408702213259 bit_3_0 + prod_3_0 <= -0.0058603408702213259
 c51: - 0.0058603408702213259 bit_3_1 + prod_3_1 >= 0
 c52: - 0.011720681740442652 bit_3_1 + prod_3_1 <= 0
 c53: - G - 0.011720681740442652 bit_3_1 + prod_3_1 >= -0.011720681740442652
 c54: - G - 0.0058603408702213259 bit_3_1 + prod_3_1 <= -0.0058603408702213259
 c55: - 0.0058603408702213259 bit_3_2 + prod_3_2 >= 0
 c56: - 0.011720681740442652 bit_3_2 + prod_3_2 <= 0
 c57: - G - 0.011720681740442652 bit_3_2 + prod_3_2 >= -0.011720681740442652
 c58: - G - 0.0058603408702213259 bit_3_2 + prod_3_2 <= -0.0058603408702213259
 c59: - 0.0058603408702213259 bit_3_3 + prod_3_3 >= 0
 c60: - 0.011720681740442652 bit_3_3 + prod_3_3 <= 0
 c61: - G - 0.011720681740442652 bit_3_3 + prod_3_3 >= -0.011720681740442652
 c62: - G - 0.0058603408702213259 bit_3_3 + prod_3_3 <= -0.0058603408702213259
 c63: - 0.0058603408702213259 bit_3_4 + prod_3_4 >= 0
 c64: - 0.011720681740442652 bit_3_4 + prod_3_4 <= 0
 c65: - G - 0.011720681740442652 bit_3_4 + prod_3_4 >= -0.011720681740442652
 c66: - G - 0.0058603408702213259 bit_3_4 + prod_3_4 <= -0.0058603408702213259
 c67: - 0.0058603408702213259 bit_4_0 + prod_4_0 >= 0
 c68: - 0.011720681740442652 bit_4_0 + prod_4_0 <= 0
 c69: - G - 0.011720681740442652 bit_4_0 + prod_4_0 >= -0.011720681740442652
 c70: - G - 0.0058603408702213259 bit_4_0 + prod_4_0 <= -0.0058603408702213259
 c71: - 0.0058603408702213259 bit_4_1 + prod_4_1 >= 0
 c72: - 0.011720681740442652 bit_4_1 + prod_4_1 <= 0
 c73: - G - 0.011720681740442652 bit_4_1 + prod_4_1 >= -0.011720681740442652
 c74: - G - 0.0058603408702213259 bit_4_1 + prod_4_1 <= -0.0058603408702213259
 c75: - 0.0058603408702213259 bit_4_2 + prod_4_2 >= 0
 c76: - 0.011720681740442652 bit_4_2 + prod_4_2 <= 0
 c77: - G - 0.011720681740442652 bit_4_2 + prod_4_2 >= -0.011720681740442652
 c78: - G - 0.0058603408702213259 bit_4_2 + prod_4_2 <= -0.0058603408702213259
 c79: - 0.0058603408702213259 bit_4_3 + prod_4_3 >= 0
 c80: - 0.011720681740442652 bit_4_3 + prod_4_3 <= 0
 c81: - G - 0.011720681740442652 bit_4_3 + prod_4_3 >= -0.011720681740442652
 c82: - G - 0.0058603408702213259 bit_4_3 + prod_4_3 <= -0.0058603408702213259
 c83: - 0.0058603408702213259 bit_4_4 + prod_4_4 >= 0
 c84: - 0.011720681740442652 bit_4_4 + prod_4_4 <= 0
 c85: - G - 0.011720681740442652 bit_4_4 + prod_4_4 >= -0.011720681740442652
 c86: - G - 0.0058603408702213259 bit_4_4 + prod_4_4 <= -0.0058603408702213259
 c87: - 0.0058603408702213259 bit_5_0 + prod_5_0 >= 0
 c88: - 0.011720681740442652 bit_5_0 + prod_5_0 <= 0
 c89: - G - 0.011720681740442652 bit_5_0 + prod_5_0 >= -0.011720681740442652
 c90: - G - 0.0058603408702213259 bit_5_0 + prod_5_0 <= -0.0058603408702213259
 c91: - 0.0058603408702213259 bit_5_1 + prod_5_1 >= 0
 c92: - 0.011720681740442652 bit_5_1 + prod_5_1 <= 0
 c93: - G - 0.011720681740442652 bit_5_1 + prod_5_1 >= -0.011720681740442652
 c94: - G - 0.0058603408702213259 bit_5_1 + prod_5_1 <= -0.0058603408702213259
 c95: - 0.0058603408702213259 bit_5_2 + prod_5_2 >= 0
 c96: - 0.011720681740442652 bit_5_2 + prod_5_2 <= 0
 c97: - G - 0.011720681740442652 bit_5_2 + prod_5_2 >= -0.011720681740442652
 c98: - G - 0.0058603408702213259 bit_5_2 + prod_5_2 <= -0.0058603408702213259
 c99: - 0.0058603408702213259 bit_5_3 + prod_5_3 >= 0
 c100: - 0.011720681740442652 bit_5_3 + prod_5_3 <= 0
 c101: - G - 0.011720681740442652 bit_5_3 + prod_5_3 >= -0.011720681740442652
 c102: - G - 0.0058603408702213259 bit_5_3 + prod_5_3 <= -0.0058603408702213259
 c103: - 0.0058603408702213259 bit_5_4 + prod_5_4 >= 0
 c104: - 0.011720681740442652 bit_5_4 + prod_5_4 <= 0
 c105: - G - 0.011720681740442652 bit_5_4 + prod_5_4 >= -0.011720681740442652
 c106: - G - 0.0058603408702213259 bit_5_4 + prod_5_4 <= -0.0058603408702213259
 c107: - 0.0058603408702213259 bit_5_5 + prod_5_5 >= 0
 c108: - 0.011720681740442652 bit_5_5 + prod_5_5 <= 0
 c109: - G - 0.011720681740442652 bit_5_5 + prod_5_5 >= -0.011720681740442652
 c110: - G - 0.0058603408702213259 bit_5_5 + prod_5_5 <= -0.0058603408702213259
 c111: - 0.0058603408702213259 bit_6_0 + prod_6_0 >= 0
 c112: - 0.011720681740442652 bit_6_0 + prod_6_0 <= 0
 c113: - G - 0.011720681740442652 bit_6_0 + prod_6_0 >= -0.011720681740442652
 c114: - G - 0.0058603408702213259 bit_6_0 + prod_6_0 <= -0.0058603408702213259
 c115: - 0.0058603408702213259 bit_6_1 + prod_6_1 >= 0
 c116: - 0.011720681740442652 bit_6_1 + prod_6_1 <= 0
 c117: - G - 0.011720681740442652 bit_6_1 + prod_6_1 >= -0.011720681740442652
 c118: - G - 0.0058603408702213259 bit_6_1 + prod_6_1 <= -0.0058603408702213259
 c119: - 0.0058603408702213259 bit_6_2 + prod_6_2 >= 0
 c120: - 0.011720681740442652 bit_6_2 + prod_6_2 <= 0
 c121: - G - 0.011720681740442652 bit_6_2 + prod_6_2 >= -0.011720681740442652
 c122: - G - 0.0058603408702213259 bit_6_2 + prod_6_2 <= -0.0058603408702213259
 c123: - 0.0058603408702213259 bit_6_3 + prod_6_3 >= 0
 c124: - 0.011720681740442652 bit_6_3 + prod_6_3 <= 0
 c125: - G - 0.011720681740442652 bit_6_3 + prod_6_3 >= -0.011720681740442652
 c126: - G - 0.0058603408702213259 bit_6_3 + prod_6_3 <= -0.0058603408702213259
 c127: - 0.0058603408702213259 bit_6_4 + prod_6_4 >= 0
 c128: - 0.011720681740442652 bit_6_4 + prod_6_4 <= 0
 c129: - G - 0.011720681740442652 bit_6_4 + prod_6_4 >= -0.011720681740442652
 c130: - G - 0.0058603408702213259 bit_6_4 + prod_6_4 <= -0.0058603408702213259
 c131: - 0.0058603408702213259 bit_7_0 + prod_7_0 >= 0
 c132: - 0.011720681740442652 bit_7_0 + prod_7_0 <= 0
 c133: - G - 0.011720681740442652 bit_7_0 + prod_7_0 >= -0.011720681740442652
 c134: - G - 0.0058603408702213259 bit_7_0 + prod_7_0 <= -0.0058603408702213259
 c135: - 0.0058603408702213259 bit_7_1 + prod_7_1 >= 0
 c136: - 0.011720681740442652 bit_7_1 + prod_7_1 <= 0
 c137: - G - 0.011720681740442652 bit_7_1 + prod_7_1 >= -0.011720681740442652
 c138: - G - 0.0058603408702213259 bit_7_1 + prod_7_1 <= -0.0058603408702213259
 c139: - 0.0058603408702213259 bit_7_2 + prod_7_2 >= 0
 c140: - 0.011720681740442652 bit_7_2 + prod_7_2 <= 0
 c141: - G - 0.011720681740442652 bit_7_2 + prod_7_2 >= -0.011720681740442652
 c142: - G - 0.0058603408702213259 bit_7_2 + prod_7_2 <= -0.0058603408702213259
 c143: - 0.0058603408702213259 bit_7_3 + prod_7_3 >= 0
 c144: - 0.011720681740442652 bit_7_3 + prod_7_3 <= 0
 c145: - G - 0.011720681740442652 bit_7_3 + prod_7_3 >= -0.011720681740442652
 c146: - G - 0.0058603408702213259 bit_7_3 + prod_7_3 <= -0.0058603408702213259
 c147: - 0.0058603408702213259 bit_7_4 + prod_7_4 >= 0
 c148: - 0.011720681740442652 bit_7_4 + prod_7_4 <= 0
 c149: - G - 0.011720681740442652 bit_7_4 + prod_7_4 >= -0.011720681740442652
 c150: - G - 0.0058603408702213259 bit_7_4 + prod_7_4 <= -0.0058603408702213259
 c151: - 0.0058603408702213259 bit_7_5 + prod_7_5 >= 0
 c152: - 0.011720681740442652 bit_7_5 + prod_7_5 <= 0
 c153: - G - 0.011720681740442652 bit_7_5 + prod_7_5 >= -0.011720681740442652
 c154: - G - 0.0058603408702213259 bit_7_5 + prod_7_5 <= -0.0058603408702213259
 c155: - 0.0058603408702213259 bit_8_0 + prod_8_0 >= 0
 c156: - 0.011720681740442652 bit_8_0 + prod_8_0 <= 0
 c157: - G - 0.011720681740442652 bit_8_0 + prod_8_0 >= -0.011720681740442652
 c158: - G - 0.0058603408702213259 bit_8_0 + prod_8_0 <= -0.0058603408702213259
 c159: - 0.0058603408702213259 bit_8_1 + prod_8_1 >= 0
 c160: - 0.011720681740442652 bit_8_1 + prod_8_1 <= 0
 c161: - G - 0.011720681740442652 bit_8_1 + prod_8_1 >= -0.011720681740442652
 c162: - G - 0.0058603408702213259 bit_8_1 + prod_8_1 <= -0.0058603408702213259
 c163: - 0.0058603408702213259 bit_8_2 + prod_8_2 >= 0
 c164: - 0.011720681740442652 bit_8_2 + prod_8_2 <= 0
 c165: - G - 0.011720681740442652 bit_8_2 + prod_8_2 >= -0.011720681740442652
 c166: - G - 0.0058603408702213259 bit_8_2 + prod_8_2 <= -0.0058603408702213259
 c167: - 0.0058603408702213259 bit_8_3 + prod_8_3 >= 0
 c168: - 0.011720681740442652 bit_8_3 + prod_8_3 <= 0
 c169: - G - 0.011720681740442652 bit_8_3 + prod_8_3 >= -0.011720681740442652
 c170: - G - 0.0058603408702213259 bit_8_3 + prod_8_3 <= -0.0058603408702213259
 c171: - 0.0058603408702213259 bit_8_4 + prod_8_4 >= 0
 c172: - 0.011720681740442652 bit_8_4 + prod_8_4 <= 0
 c173: - G - 0.011720681740442652 bit_8_4 + prod_8_4 >= -0.011720681740442652
 c174: - G - 0.0058603408702213259 bit_8_4 + prod_8_4 <= -0.0058603408702213259
 c175: - 0.0058603408702213259 bit_9_0 + prod_9_0 >= 0
 c176: - 0.011720681740442652 bit_9_0 + prod_9_0 <= 0
 c177: - G - 0.011720681740442652 bit_9_0 + prod_9_0 >= -0.011720681740442652
 c178: - G - 0.0058603408702213259 bit_9_0 + prod_9_0 <= -0.0058603408702213259
 c179: - 0.0058603408702213259 bit_9_1 + prod_9_1 >= 0
 c180: - 0.011720681740442652 bit_9_1 + prod_9_1 <= 0
 c181: - G - 0.011720681740442652 bit_9_1 + prod_9_1 >= -0.011720681740442652
 c182: - G - 0.0058603408702213259 bit_9_1 + prod_9_1 <= -0.0058603408702213259
 c183: - 0.0058603408702213259 bit_9_2 + prod_9_2 >= 0
 c184: - 0.011720681740442652 bit_9_2 + prod_9_2 <= 0
 c185: - G - 0.011720681740442652 bit_9_2 + prod_9_2 >= -0.011720681740442652
 c186: - G - 0.0058603408702213259 bit_9_2 + prod_9_2 <= -0.0058603408702213259
 c187: - 0.0058603408702213259 bit_9_3 + prod_9_3 >= 0
 c188: - 0.011720681740442652 bit_9_3 + prod_9_3 <= 0
 c189: - G - 0.011720681740442652 bit_9_3 + prod_9_3 >= -0.011720681740442652
 c190: - G - 0.0058603408702213259 bit_9_3 + prod_9_3 <= -0.0058603408702213259
 c191: - 0.0058603408702213259 bit_9_4 + prod_9_4 >= 0
 c192: - 0.011720681740442652 bit_9_4 + prod_9_4 <= 0
 c193: - G - 0.011720681740442652 bit_9_4 + prod_9_4 >= -0.011720681740442652
 c194: - G - 0.0058603408702213259 bit_9_4 + prod_9_4 <= -0.0058603408702213259
 c195: - 0.0058603408702213259 bit_9_5 + prod_9_5 >= 0
 c196: - 0.011720681740442652 bit_9_5 + prod_9_5 <= 0
 c197: - G - 0.011720681740442652 bit_9_5 + prod_9_5 >= -0.011720681740442652
 c198: - G - 0.0058603408702213259 bit_9_5 + prod_9_5 <= -0.0058603408702213259
 c199: - 0.0058603408702213259 bit_10_0 + prod_10_0 >= 0
 c200: - 0.011720681740442652 bit_10_0 + prod_10_0 <= 0
 c201: - G - 0.011720681740442652 bit_10_0 + prod_10_0 >= -0.011720681740442652
 c202: - G - 0.0058603408702213259 bit_10_0 + prod_10_0 <= -0.0058603408702213259
 c203: - 0.0058603408702213259 bit_10_1 + prod_10_1 >= 0
 c204: - 0.011720681740442652 bit_10_1 + prod_10_1 <= 0
 c205: - G - 0.011720681740442652 bit_10_1 + prod_10_1 >= -0.011720681740442652
 c206: - G - 0.0058603408702213259 bit_10_1 + prod_10_1 <= -0.0058603408702213259
 c207: - 0.0058603408702213259 bit_10_2 + prod_10_2 >= 0
 c208: - 0.011720681740442652 bit_10_2 + prod_10_2 <= 0
 c209: - G - 0.011720681740442652 bit_10_2 + prod_10_2 >= -0.011720681740442652
 c210: - G - 0.0058603408702213259 bit_10_2 + prod_10_2 <= -0.0058603408702213259
 c211: - 0.0058603408702213259 bit_10_3 + prod_10_3 >= 0
 c212: - 0.011720681740442652 bit_10_3 + prod_10_3 <= 0
 c213: - G - 0.011720681740442652 bit_10_3 + prod_10_3 >= -0.011720681740442652
 c214: - G - 0.0058603408702213259 bit_10_3 + prod_10_3 <= -0.0058603408702213259
 c215: - 0.0058603408702213259 bit_10_4 + prod_10_4 >= 0
 c216: - 0.011720681740442652 bit_10_4 + prod_10_4 <= 0
 c217: - G - 0.011720681740442652 bit_10_4 + prod_10_4 >= -0.011720681740442652
 c218: - G - 0.0058603408702213259 bit_10_4 + prod_10_4 <= -0.0058603408702213259
 c219: - 0.0058603408702213259 bit_10_5 + prod_10_5 >= 0
 c220: - 0.011720681740442652 bit_10_5 + prod_10_5 <= 0
 c221: - G - 0.011720681740442652 bit_10_5 + prod_10_5 >= -0.011720681740442652
 c222: - G - 0.0058603408702213259 bit_10_5 + prod_10_5 <= -0.0058603408702213259
 c223: 9 h_1_2 - 0.11720681740442651 r_1 - 0.11720681740442651 r_10 - 0.11720681740442651 r_2 - 0.11720681740442651 r_3 - 0.11720681740442651 r_4 - 0.11720681740442651 r_5 - 0.11720681740442651 r_6 - 0.11720681740442651 r_7 - 0.11720681740442651 r_8 - 0.11720681740442651 r_9 <= 0
 c224: 9 h_1_3 - 0.11720681740442651 r_1 - 0.11720681740442651 r_10 - 0.11720681740442651 r_2 - 0.11720681740442651 r_3 - 0.11720681740442651 r_4 - 0.11720681740442651 r_5 - 0.11720681740442651 r_6 - 0.11720681740442651 r_7 - 0.11720681740442651 r_8 - 0.11720681740442651 r_9 <= 0
 c225: 9 h_1_4 - 0.11720681740442651 r_1 - 0.11720681740442651 r_10 - 0.11720681740442651 r_2 - 0.11720681740442651 r_3 - 0.11720681740442651 r_4 - 0.11720681740442651 r_5 - 0.11720681740442651 r_6 - 0.11720681740442651 r_7 - 0.11720681740442651 r_8 - 0.11720681740442651 r_9 <= 0
 c226: 9 h_1_5 - 0.11720681740442651 r_1 - 0.11720681740442651 r_10 - 0.11720681740442651 r_2 - 0.11720681740442651 r_3 - 0.11720681740442651 r_4 - 0.11720681740442651 r_5 - 0.11720681740442651 r_6 - 0.11720681740442651 r_7 - 0.11720681740442651 r_8 - 0.11720681740442651 r_9 <= 0
 c227: 9 h_1_6 - 0.11720681740442651 r_1 - 0.11720681740442651 r_10 - 0.11720681740442651 r_2 - 0.11720681740442651 r_3 - 0.11720681740442651 r_4 - 0.11720681740442651 r_5 - 0.11720681740442651 r_6 - 0.11720681740442651 r_7 - 0.11720681740442651 r_8 - 0.11720681740442651 r_9 <= 0
 c228: 9 h_1_7 - 0.11720681740442651 r_1 - 0.11720681740442651 r_10 - 0.11720681740442651 r_2 - 0.11720681740442651 r_3 - 0.11720681740442651 r_4 - 0.11720681740442651 r_5 - 0.11720681740442651 r_6 - 0.11720681740442651 r_7 - 0.11720681740442651 r_8 - 0.11720681740442651 r_9 <= 0
 c229: 9 h_1_8 - 0.11720681740442651 r_1 - 0.11720681740442651 r_10 - 0.11720681740442651 r_2 - 0.11720681740442651 r_3 - 0.11720681740442651 r_4 - 0.11720681740442651 r_5 - 0.11720681740442651 r_6 - 0.11720681740442651 r_7 - 0.11720681740442651 r_8 - 0.11720681740442651 r_9 <= 0
 c230: 9 h_1_9 - 0.11720681740442651 r_1 - 0.11720681740442651 r_10 - 0.11720681740442651 r_2 - 0.11720681740442651 r_3 - 0.11720681740442651 r_4 - 0.11720681740442651 r_5 - 0.11720681740442651 r_6 - 0.11720681740442651 r_7 - 0.11720681740442651 r_8 - 0.11720681740442651 r_9 <= 0
 c231: 9 h_1_10 - 0.11720681740442651 r_1 - 0.11720681740442651 r_10 - 0.11720681740442651 r_2 - 0.11720681740442651 r_3 - 0.11720681740442651 r_4 - 0.11720681740442651 r_5 - 0.11720681740442651 r_6 - 0.11720681740442651 r_7 - 0.11720681740442651 r_8 - 0.11720681740442651 r_9 <= 0
 c232: 9 h_2_3 - 0.11720681740442651 r_1 - 0.11720681740442651 r_10 - 0.11720681740442651 r_2 - 0.11720681740442651 r_3 - 0.11720681740442651 r_4 - 0.11720681740442651 r_5 - 0.11720681740442651 r_6 - 0.11720681740442651 r_7 - 0.11720681740442651 r_8 - 0.11720681740442651 r_9 <= 0
 c233: 9 h_2_4 - 0.11720681740442651 r_1 - 0.11720681740442651 r_10 - 0.11720681740442651 r_2 - 0.11720681740442651 r_3 - 0.11720681740442651 r_4 - 0.11720681740442651 r_5 - 0.11720681740442651 r_6 - 0.11720681740442651 r_7 - 0.11720681740442651 r_8 - 0.11720681740442651 r_9 <= 0
 c234: 9 h_2_5 - 0.11720681740442651 r_1 - 0.11720681740442651 r_10 - 0.11720681740442651 r_2 - 0.11720681740442651 r_3 - 0.11720681740442651 r_4 - 0.11720681740442651 r_5 - 0.11720681740442651 r_6 - 0.11720681740442651 r_7 - 0.11720681740442651 r_8 - 0.11720681740442651 r_9 <= 0
 c235: 9 h_2_6 - 0.11720681740442651 r_1 - 0.11720681740442651 r_10 - 0.11720681740442651 r_2 - 0.11720681740442651 r_3 - 0.11720681740442651 r_4 - 0.11720681740442651 r_5 - 0.11720681740442651 r_6 - 0.11720681740442651 r_7 - 0.11720681740442651 r_8 - 0.11720681740442651 r_9 <= 0
 c236: 9 h_2_7 - 0.11720681740442651 r_1 - 0.11720681740442651 r_10 - 0.11720681740442651 r_2 - 0.11720681740442651 r_3 - 0.11720681740442651 r_4 - 0.11720681740442651 r_5 - 0.11720681740442651 r_6 - 0.11720681740442651 r_7 - 0.11720681740442651 r_8 - 0.11720681740442651 r_9 <= 0
 c237: 9 h_2_8 - 0.11720681740442651 r_1 - 0.11720681740442651 r_10 - 0.11720681740442651 r_2 - 0.11720681740442651 r_3 - 0.11720681740442651 r_4 - 0.11720681740442651 r_5 - 0.11720681740442651 r_6 - 0.11720681740442651 r_7 - 0.11720681740442651 r_8 - 0.11720681740442651 r_9 <= 0
 c238: 9 h_2_9 - 0.11720681740442651 r_1 - 0.11720681740442651 r_10 - 0.11720681740442651 r_2 - 0.11720681740442651 r_3 - 0.11720681740442651 r_4 - 0.11720681740442651 r_5 - 0.11720681740442651 r_6 - 0.11720681740442651 r_7 - 0.11720681740442651 r_8 - 0.11720681740442651 r_9 <= 0
 c239: 9 h_2_10 - 0.11720681740442651 r_1 - 0.11720681740442651 r_10 - 0.11720681740442651 r_2 - 0.11720681740442651 r_3 - 0.11720681740442651 r_4 - 0.11720681740442651 r_5 - 0.11720681740442651 r_6 - 0.11720681740442651 r_7 - 0.11720681740442651 r_8 - 0.11720681740442651 r_9 <= 0
 c240: 9 h_3_4 - 0.11720681740442651 r_1 - 0.11720681740442651 r_10 - 0.11720681740442651 r_2 - 0.11720681740442651 r_3 - 0.11720681740442651 r_4 - 0.11720681740442651 r_5 - 0.11720681740442651 r_6 - 0.11720681740442651 r_7 - 0.11720681740442651 r_8 - 0.11720681740442651 r_9 <= 0
 c241: 9 h_3_5 - 0.11720681740442651 r_1 - 0.11720681740442651 r_10 - 0.11720681740442651 r_2 - 0.11720681740442651 r_3 - 0.11720681740442651 r_4 - 0.11720681740442651 r_5 - 0.11720681740442651 r_6 - 0.11720681740442651 r_7 - 0.11720681740442651 r_8 - 0.11720681740442651 r_9 <= 0
 c242: 9 h_3_6 - 0.11720681740442651 r_1 - 0.11720681740442651 r_10 - 0.11720681740442651 r_2 - 0.11720681740442651 r_3 - 0.11720681740442651 r_4 - 0.11720681740442651 r_5 - 0.11720681740442651 r_6 - 0.11720681740442651 r_7 - 0.11720681740442651 r_8 - 0.11720681740442651 r_9 <= 0
 c243: 9 h_3_7 - 0.11720681740442651 r_1 - 0.11720681740442651 r_10 - 0.11720681740442651 r_2 - 0.11720681740442651 r_3 - 0.11720681740442651 r_4 - 0.11720681740442651 r_5 - 0.11720681740442651 r_6 - 0.11720681740442651 r_7 - 0.11720681740442651 r_8 - 0.11720681740442651 r_9 <= 0
 c244: 9 h_3_8 - 0.11720681740442651 r_1 - 0.11720681740442651 r_10 - 0.11720681740442651 r_2 - 0.11720681740442651 r_3 - 0.11720681740442651 r_4 - 0.11720681740442651 r_5 - 0.11720681740442651 r_6 - 0.11720681740442651 r_7 - 0.11720681740442651 r_8 - 0.11720681740442651 r_9 <= 0
 c245: 9 h_3_9 - 0.11720681740442651 r_1 - 0.11720681740442651 r_10 - 0.11720681740442651 r_2 - 0.11720681740442651 r_3 - 0.11720681740442651 r_4 - 0.11720681740442651 r_5 - 0.11720681740442651 r_6 - 0.11720681740442651 r_7 - 0.11720681740442651 r_8 - 0.11720681740442651 r_9 <= 0
 c246: 9 h_3_10 - 0.11720681740442651 r_1 - 0.11720681740442651 r_10 - 0.11720681740442651 r_2 - 0.11720681740442651 r_3 - 0.11720681740442651 r_4 - 0.11720681740442651 r_5 - 0.11720681740442651 r_6 - 0.11720681740442651 r_7 - 0.11720681740442651 r_8 - 0.11720681740442651 r_9 <= 0
 c247: 9 h_4_5 - 0.11720681740442651 r_1 - 0.11720681740442651 r_10 - 0.11720681740442651 r_2 - 0.11720681740442651 r_3 - 0.11720681740442651 r_4 - 0.11720681740442651 r_5 - 0.11720681740442651 r_6 - 0.11720681740442651 r_7 - 0.11720681740442651 r_8 - 0.11720681740442651 r_9 <= 0
 c248: 9 h_4_6 - 0.11720681740442651 r_1 - 0.11720681740442651 r_10 - 0.11720681740442651 r_2 - 0.11720681740442651 r_3 - 0.11720681740442651 r_4 - 0.11720681740442651 r_5 - 0.11720681740442651 r_6 - 0.11720681740442651 r_7 - 0.11720681740442651 r_8 - 0.11720681740442651 r_9 <= 0
 c249: 9 h_4_7 - 0.11720681740442651 r_1 - 0.11720681740442651 r_10 - 0.11720681740442651 r_2 - 0.11720681740442651 r_3 - 0.11720681740442651 r_4 - 0.11720681740442651 r_5 - 0.11720681740442651 r_6 - 0.11720681740442651 r_7 - 0.11720681740442651 r_8 - 0.11720681740442651 r_9 <= 0
 c250: 9 h_4_8 - 0.11720681740442651 r_1 - 0.11720681740442651 r_10 - 0.11720681740442651 r_2 - 0.11720681740442651 r_3 - 0.11720681740442651 r_4 - 0.11720681740442651 r_5 - 0.11720681740442651 r_6 - 0.11720681740442651 r_7 - 0.11720681740442651 r_8 - 0.11720681740442651 r_9 <= 0
 c251: 9 h_4_9 - 0.11720681740442651 r_1 - 0.11720681740442651 r_10 - 0.11720681740442651 r_2 - 0.11720681740442651 r_3 - 0.11720681740442651 r_4 - 0.11720681740442651 r_5 - 0.11720681740442651 r_6 - 0.11720681740442651 r_7 - 0.11720681740442651 r_8 - 0.11720681740442651 r_9 <= 0
 c252: 9 h_4_10 - 0.11720681740442651 r_1 - 0.11720681740442651 r_10 - 0.11720681740442651 r_2 - 0.11720681740442651 r_3 - 0.11720681740442651 r_4 - 0.11720681740442651 r_5 - 0.11720681740442651 r_6 - 0.11720681740442651 r_7 - 0.11720681740442651 r_8 - 0.11720681740442651 r_9 <= 0
 c253: 9 h_5_6 - 0.11720681740442651 r_1 - 0.11720681740442651 r_10 - 0.11720681740442651 r_2 - 0.11720681740442651 r_3 - 0.11720681740442651 r_4 - 0.11720681740442651 r_5 - 0.11720681740442651 r_6 - 0.11720681740442651 r_7 - 0.11720681740442651 r_8 - 0.11720681740442651 r_9 <= 0
 c254: 9 h_5_7 - 0.11720681740442651 r_1 - 0.11720681740442651 r_10 - 0.11720681740442651 r_2 - 0.11720681740442651 r_3 - 0.11720681740442651 r_4 - 0.11720681740442651 r_5 - 0.11720681740442651 r_6 - 0.11720681740442651 r_7 - 0.11720681740442651 r_8 - 0.11720681740442651 r_9 <= 0
 c255: 9 h_5_8 - 0.11720681740442651 r_1 - 0.11720681740442651 r_10 - 0.11720681740442651 r_2 - 0.11720681740442651 r_3 - 0.11720681740442651 r_4 - 0.11720681740442651 r_5 - 0.11720681740442651 r_6 - 0.11720681740442651 r_7 - 0.11720681740442651 r_8 - 0.11720681740442651 r_9 <= 0
 c256: 9 h_5_9 - 0.11720681740442651 r_1 - 0.11720681740442651 r_10 - 0.11720681740442651 r_2 - 0.11720681740442651 r_3 - 0.11720681740442651 r_4 - 0.11720681740442651 r_5 - 0.11720681740442651 r_6 - 0.11720681740442651 r_7 - 0.11720681740442651 r_8 - 0.11720681740442651 r_9 <= 0
 c257: 9 h_5_10 - 0.11720681740442651 r_1 - 0.11720681740442651 r_10 - 0.11720681740442651 r_2 - 0.11720681740442651 r_3 - 0.11720681740442651 r_4 - 0.11720681740442651 r_5 - 0.11720681740442651 r_6 - 0.11720681740442651 r_7 - 0.11720681740442651 r_8 - 0.11720681740442651 r_9 <= 0
 c258: 9 h_6_7 - 0.11720681740442651 r_1 - 0.11720681740442651 r_10 - 0.11720681740442651 r_2 - 0.11720681740442651 r_3 - 0.11720681740442651 r_4 - 0.11720681740442651 r_5 - 0.11720681740442651 r_6 - 0.11720681740442651 r_7 - 0.11720681740442651 r_8 - 0.11720681740442651 r_9 <= 0
 c259: 9 h_6_8 - 0.11720681740442651 r_1 - 0.11720681740442651 r_10 - 0.11720681740442651 r_2 - 0.11720681740442651 r_3 - 0.11720681740442651 r_4 - 0.11720681740442651 r_5 - 0.11720681740442651 r_6 - 0.11720681740442651 r_7 - 0.11720681740442651 r_8 - 0.11720681740442651 r_9 <= 0
 c260: 9 h_6_9 - 0.11720681740442651 r_1 - 0.11720681740442651 r_10 - 0.11720681740442651 r_2 - 0.11720681740442651 r_3 - 0.11720681740442651 r_4 - 0.11720681740442651 r_5 - 0.11720681740442651 r_6 - 0.11720681740442651 r_7 - 0.11720681740442651 r_8 - 0.11720681740442651 r_9 <= 0
 c261: 9 h_6_10 - 0.11720681740442651 r_1 - 0.11720681740442651 r_10 - 0.11720681740442651 r_2 - 0.11720681740442651 r_3 - 0.11720681740442651 r_4 - 0.11720681740442651 r_5 - 0.11720681740442651 r_6 - 0.11720681740442651 r_7 - 0.11720681740442651 r_8 - 0.11720681740442651 r_9 <= 0
 c262: 9 h_7_8 - 0.11720681740442651 r_1 - 0.11720681740442651 r_10 - 0.11720681740442651 r_2 - 0.11720681740442651 r_3 - 0.11720681740442651 r_4 - 0.11720681740442651 r_5 - 0.11720681740442651 r_6 - 0.11720681740442651 r_7 - 0.11720681740442651 r_8 - 0.11720681740442651 r_9 <= 0
 c263: 9 h_7_9 - 0.11720681740442651 r_1 - 0.11720681740442651 r_10 - 0.11720681740442651 r_2 - 0.11720681740442651 r_3 - 0.11720681740442651 r_4 - 0.11720681740442651 r_5 - 0.11720681740442651 r_6 - 0.11720681740442651 r_7 - 0.11720681740442651 r_8 - 0.11720681740442651 r_9 <= 0
 c264: 9 h_7_10 - 0.11720681740442651 r_1 - 0.11720681740442651 r_10 - 0.11720681740442651 r_2 - 0.11720681740442651 r_3 - 0.11720681740442651 r_4 - 0.11720681740442651 r_5 - 0.11720681740442651 r_6 - 0.11720681740442651 r_7 - 0.11720681740442651 r_8 - 0.11720681740442651 r_9 <= 0
 c265: 9 h_8_9 - 0.11720681740442651 r_1 - 0.11720681740442651 r_10 - 0.11720681740442651 r_2 - 0.11720681740442651 r_3 - 0.11720681740442651 r_4 - 0.11720681740442651 r_5 - 0.11720681740442651 r_6 - 0.11720681740442651 r_7 - 0.11720681740442651 r_8 - 0.11720681740442651 r_9 <= 0
 c266: 9 h_8_10 - 0.11720681740442651 r_1 - 0.11720681740442651 r_10 - 0.11720681740442651 r_2 - 0.11720681740442651 r_3 - 0.11720681740442651 r_4 - 0.11720681740442651 r_5 - 0.11720681740442651 r_6 - 0.11720681740442651 r_7 - 0.11720681740442651 r_8 - 0.11720681740442651 r_9 <= 0
 c267: 9 h_9_10 - 0.11720681740442651 r_1 - 0.11720681740442651 r_10 - 0.11720681740442651 r_2 - 0.11720681740442651 r_3 - 0.11720681740442651 r_4 - 0.11720681740442651 r_5 - 0.11720681740442651 r_6 - 0.11720681740442651 r_7 - 0.11720681740442651 r_8 - 0.11720681740442651 r_9 <= 0
 c268: - d_0_2 - d_1_2 - d_2_2 + p_0_2 + p_1_2 + p_2_2 >= 11
 c269: - d_0_3 - d_1_3 - d_2_3 + p_0_3 + p_1_3 + p_2_3 >= 8
 c270: d_0_6 + d_1_6 + d_2_6 - p_0_6 - p_1_6 - p_2_6 >= 2
 c271: - d_0_7 - d_1_7 - d_2_7 + p_0_7 + p_1_7 + p_2_7 >= 6
 c272: - d_0_8 - d_1_8 - d_2_8 + p_0_8 + p_1_8 + p_2_8 >= 3
 c273: d_0_9 + d_1_9 + d_2_9 - p_0_9 - p_1_9 - p_2_9 >= 8
 c274: - d_0_10 - d_1_10 - d_2_10 + p_0_10 + p_1_10 + p_2_10 >= 2
 c275: r_1 - r_2 <= 0.15793956904459761
 c276: - r_1 + r_2 <= 0.15793956904459761
 c277: r_1 - r_3 <= 0.15793956904459761
 c278: - r_1 + r_3 <= 0.15793956904459761
 c279: r_1 - r_4 <= 0.15793956904459761
 c280: - r_1 + r_4 <= 0.15793956904459761
 c281: r_1 - r_5 <= 0.15793956904459761
 c282: - r_1 + r_5 <= 0.15793956904459761
 c283: r_1 - r_6 <= 0.15793956904459761
 c284: - r_1 + r_6 <= 0.15793956904459761
 c285: r_1 - r_7 <= 0.15793956904459761
 c286: - r_1 + r_7 <= 0.15793956904459761
 c287: r_1 - r_8 <= 0.15793956904459761
 c288: - r_1 + r_8 <= 0.15793956904459761
 c289: r_1 - r_9 <= 0.15793956904459761
 c290: - r_1 + r_9 <= 0.15793956904459761
 c291: r_1 - r_10 <= 0.15793956904459761
 c292: - r_1 + r_10 <= 0.15793956904459761
 c293: r_2 - r_3 <= 0.15793956904459761
 c294: - r_2 + r_3 <= 0.15793956904459761
 c295: r_2 - r_4 <= 0.15793956904459761
 c296: - r_2 + r_4 <= 0.15793956904459761
 c297: r_2 - r_5 <= 0.15793956904459761
 c298: - r_2 + r_5 <= 0.15793956904459761
 c299: r_2 - r_6 <= 0.15793956904459761
 c300: - r_2 + r_6 <= 0.15793956904459761
 c301: r_2 - r_7 <= 0.15793956904459761
 c302: - r_2 + r_7 <= 0.15793956904459761
 c303: r_2 - r_8 <= 0.15793956904459761
 c304: - r_2 + r_8 <= 0.15793956904459761
 c305: r_2 - r_9 <= 0.15793956904459761
 c306: - r_2 + r_9 <= 0.15793956904459761
 c307: - r_10 + r_2 <= 0.15793956904459761
 c308: r_10 - r_2 <= 0.15793956904459761
 c309: r_3 - r_4 <= 0.15793956904459761
 c310: - r_3 + r_4 <= 0.15793956904459761
 c311: r_3 - r_5 <= 0.15793956904459761
 c312: - r_3 + r_5 <= 0.15793956904459761
 c313: r_3 - r_6 <= 0.15793956904459761
 c314: - r_3 + r_6 <= 0.15793956904459761
 c315: r_3 - r_7 <= 0.15793956904459761
 c316: - r_3 + r_7 <= 0.15793956904459761
 c317: r_3 - r_8 <= 0.15793956904459761
 c318: - r_3 + r_8 <= 0.15793956904459761
 c319: r_3 - r_9 <= 0.15793956904459761
 c320: - r_3 + r_9 <= 0.15793956904459761
 c321: - r_10 + r_3 <= 0.15793956904459761
 c322: r_10 - r_3 <= 0.15793956904459761
 c323: r_4 - r_5 <= 0.15793956904459761
 c324: - r_4 + r_5 <= 0.15793956904459761
 c325: r_4 - r_6 <= 0.15793956904459761
 c326: - r_4 + r_6 <= 0.15793956904459761
 c327: r_4 - r_7 <= 0.15793956904459761
 c328: - r_4 + r_7 <= 0.15793956904459761
 c329: r_4 - r_8 <= 0.15793956904459761
 c330: - r_4 + r_8 <= 0.15793956904459761
 c331: r_4 - r_9 <= 0.15793956904459761
 c332: - r_4 + r_9 <= 0.15793956904459761
 c333: - r_10 + r_4 <= 0.15793956904459761
 c334: r_10 - r_4 <= 0.15793956904459761
 c335: r_5 - r_6 <= 0.15793956904459761
 c336: - r_5 + r_6 <= 0.15793956904459761
 c337: r_5 - r_7 <= 0.15793956904459761
 c338: - r_5 + r_7 <= 0.15793956904459761
 c339: r_5 - r_8 <= 0.15793956904459761
 c340: - r_5 + r_8 <= 0.15793956904459761
 c341: r_5 - r_9 <= 0.15793956904459761
 c342: - r_5 + r_9 <= 0.15793956904459761
 c343: - r_10 + r_5 <= 0.15793956904459761
 c344: r_10 - r_5 <= 0.15793956904459761
 c345: r_6 - r_7 <= 0.15793956904459761
 c346: - r_6 + r_7 <= 0.15793956904459761
 c347: r_6 - r_8 <= 0.15793956904459761
 c348: - r_6 + r_8 <= 0.15793956904459761
 c349: r_6 - r_9 <= 0.15793956904459761
 c350: - r_6 + r_9 <= 0.15793956904459761
 c351: - r_10 + r_6 <= 0.15793956904459761
 c352: r_10 - r_6 <= 0.15793956904459761
 c353: r_7 - r_8 <= 0.15793956904459761
 c354: - r_7 + r_8 <= 0.15793956904459761
 c355: r_7 - r_9 <= 0.15793956904459761
 c356: - r_7 + r_9 <= 0.15793956904459761
 c357: - r_10 + r_7 <= 0.15793956904459761
 c358: r_10 - r_7 <= 0.15793956904459761
 c359: r_8 - r_9 <= 0.15793956904459761
 c360: - r_8 + r_9 <= 0.15793956904459761
 c361: - r_10 + r_8 <= 0.15793956904459761
 c362: r_10 - r_8 <= 0.15793956904459761
 c363: - r_10 + r_9 <= 0.15793956904459761
 c364: r_10 - r_9 <= 0.15793956904459761
 c365: 8.8827931825955737 r_1 - 0.11720681740442651 r_10 - 9.1172068174044263 r_2 - 0.11720681740442651 r_3 - 0.11720681740442651 r_4 - 0.11720681740442651 r_5 - 0.11720681740442651 r_6 - 0.11720681740442651 r_7 - 0.11720681740442651 r_8 - 0.11720681740442651 r_9 <= 0
 c366: - 9.1172068174044263 r_1 - 0.11720681740442651 r_10 + 8.8827931825955737 r_2 - 0.11720681740442651 r_3 - 0.11720681740442651 r_4 - 0.11720681740442651 r_5 - 0.11720681740442651 r_6 - 0.11720681740442651 r_7 - 0.11720681740442651 r_8 - 0.11720681740442651 r_9 <= 0
 c367: 8.8827931825955737 r_1 - 0.11720681740442651 r_10 - 0.11720681740442651 r_2 - 9.1172068174044263 r_3 - 0.11720681740442651 r_4 - 0.11720681740442651 r_5 - 0.11720681740442651 r_6 - 0.11720681740442651 r_7 - 0.11720681740442651 r_8 - 0.11720681740442651 r_9 <= 0
 c368: - 9.1172068174044263 r_1 - 0.11720681740442651 r_10 - 0.11720681740442651 r_2 + 8.8827931825955737 r_3 - 0.11720681740442651 r_4 - 0.11720681740442651 r_5 - 0.11720681740442651 r_6 - 0.11720681740442651 r_7 - 0.11720681740442651 r_8 - 0.11720681740442651 r_9 <= 0
 c369: 8.8827931825955737 r_1 - 0.11720681740442651 r_10 - 0.11720681740442651 r_2 - 0.11720681740442651 r_3 - 9.1172068174044263 r_4 - 0.11720681740442651 r_5 - 0.11720681740442651 r_6 - 0.11720681740442651 r_7 - 0.11720681740442651 r_8 - 0.11720681740442651 r_9 <= 0
 c370: - 9.1172068174044263 r_1 - 0.11720681740442651 r_10 - 0.11720681740442651 r_2 - 0.11720681740442651 r_3 + 8.8827931825955737 r_4 - 0.11720681740442651 r_5 - 0.11720681740442651 r_6 - 0.11720681740442651 r_7 - 0.11720681740442651 r_8 - 0.11720681740442651 r_9 <= 0
 c371: 8.8827931825955737 r_1 - 0.11720681740442651 r_10 - 0.11720681740442651 r_2 - 0.11720681740442651 r_3 - 0.11720681740442651 r_4 - 9.1172068174044263 r_5 - 0.11720681740442651 r_6 - 0.11720681740442651 r_7 - 0.11720681740442651 r_8 - 0.11720681740442651 r_9 <= 0
 c372: - 9.1172068174044263 r_1 - 0.11720681740442651 r_10 - 0.11720681740442651 r_2 - 0.11720681740442651 r_3 - 0.11720681740442651 r_4 + 8.8827931825955737 r_5 - 0.11720681740442651 r_6 - 0.11720681740442651 r_7 - 0.11720681740442651 r_8 - 0.11720681740442651 r_9 <= 0
 c373: 8.8827931825955737 r_1 - 0.11720681740442651 r_10 - 0.11720681740442651 r_2 - 0.11720681740442651 r_3 - 0.11720681740442651 r_4 - 0.11720681740442651 r_5 - 9.1172068174044263 r_6 - 0.11720681740442651 r_7 - 0.11720681740442651 r_8 - 0.11720681740442651 r_9 <= 0
 c374: - 9.1172068174044263 r_1 - 0.11720681740442651 r_10 - 0.11720681740442651 r_2 - 0.11720681740442651 r_3 - 0.11720681740442651 r_4 - 0.11720681740442651 r_5 + 8.8827931825955737 r_6 - 0.11720681740442651 r_7 - 0.11720681740442651 r_8 - 0.11720681740442651 r_9 <= 0
 c375: 8.8827931825955737 r_1 - 0.11720681740442651 r_10 - 0.11720681740442651 r_2 - 0.11720681740442651 r_3 - 0.11720681740442651 r_4 - 0.11720681740442651 r_5 - 0.11720681740442651 r_6 - 9.1172068174044263 r_7 - 0.11720681740442651 r_8 - 0.11720681740442651 r_9 <= 0
 c376: - 9.1172068174044263 r_1 - 0.11720681740442651 r_10 - 0.11720681740442651 r_2 - 0.11720681740442651 r_3 - 0.11720681740442651 r_4 - 0.11720681740442651 r_5 - 0.11720681740442651 r_6 + 8.8827931825955737 r_7 - 0.11720681740442651 r_8 - 0.11720681740442651 r_9 <= 0
 c377: 8.8827931825955737 r_1 - 0.11720681740442651 r_10 - 0.11720681740442651 r_2 - 0.11720681740442651 r_3 - 0.11720681740442651 r_4 - 0.11720681740442651 r_5 - 0.11720681740442651 r_6 - 0.11720681740442651 r_7 - 9.1172068174044263 r_8 - 0.11720681740442651 r_9 <= 0
 c378: - 9.1172068174044263 r_1 - 0.11720681740442651 r_10 - 0.11720681740442651 r_2 - 0.11720681740442651 r_3 - 0.11720681740442651 r_4 - 0.11720681740442651 r_5 - 0.11720681740442651 r_6 - 0.11720681740442651 r_7 + 8.8827931825955737 r_8 - 0.11720681740442651 r_9 <= 0
 c379: 8.8827931825955737 r_1 - 0.11720681740442651 r_10 - 0.11720681740442651 r_2 - 0.11720681740442651 r_3 - 0.11720681740442651 r_4 - 0.11720681740442651 r_5 - 0.11720681740442651 r_6 - 0.11720681740442651 r_7 - 0.11720681740442651 r_8 - 9.1172068174044263 r_9 <= 0
 c380: - 9.1172068174044263 r_1 - 0.11720681740442651 r_10 - 0.11720681740442651 r_2 - 0.11720681740442651 r_3 - 0.11720681740442651 r_4 - 0.11720681740442651 r_5 - 0.11720681740442651 r_6 - 0.11720681740442651 r_7 - 0.11720681740442651 r_8 + 8.8827931825955737 r_9 <= 0
 c381: 8.8827931825955737 r_1 - 9.1172068174044263 r_10 - 0.11720681740442651 r_2 - 0.11720681740442651 r_3 - 0.11720681740442651 r_4 - 0.11720681740442651 r_5 - 0.11720681740442651 r_6 - 0.11720681740442651 r_7 - 0.11720681740442651 r_8 - 0.11720681740442651 r_9 <= 0
 c382: - 9.1172068174044263 r_1 + 8.8827931825955737 r_10 - 0.11720681740442651 r_2 - 0.11720681740442651 r_3 - 0.11720681740442651 r_4 - 0.11720681740442651 r_5 - 0.11720681740442651 r_6 - 0.11720681740442651 r_7 - 0.11720681740442651 r_8 - 0.11720681740442651 r_9 <= 0
 c383: - 0.11720681740442651 r_1 - 0.11720681740442651 r_10 + 8.8827931825955737 r_2 - 9.1172068174044263 r_3 - 0.11720681740442651 r_4 - 0.11720681740442651 r_5 - 0.11720681740442651 r_6 - 0.11720681740442651 r_7 - 0.11720681740442651 r_8 - 0.11720681740442651 r_9 <= 0
 c384: - 0.11720681740442651 r_1 - 0.11720681740442651 r_10 - 9.1172068174044263 r_2 + 8.8827931825955737 r_3 - 0.11720681740442651 r_4 - 0.11720681740442651 r_5 - 0.11720681740442651 r_6 - 0.11720681740442651 r_7 - 0.11720681740442651 r_8 - 0.11720681740442651 r_9 <= 0
 c385: - 0.11720681740442651 r_1 - 0.11720681740442651 r_10 + 8.8827931825955737 r_2 - 0.11720681740442651 r_3 - 9.1172068174044263 r_4 - 0.11720681740442651 r_5 - 0.11720681740442651 r_6 - 0.11720681740442651 r_7 - 0.11720681740442651 r_8 - 0.11720681740442651 r_9 <= 0
 c386: - 0.11720681740442651 r_1 - 0.11720681740442651 r_10 - 9.1172068174044263 r_2 - 0.11720681740442651 r_3 + 8.8827931825955737 r_4 - 0.11720681740442651 r_5 - 0.11720681740442651 r_6 - 0.11720681740442651 r_7 - 0.11720681740442651 r_8 - 0.11720681740442651 r_9 <= 0
 c387: - 0.11720681740442651 r_1 - 0.11720681740442651 r_10 + 8.8827931825955737 r_2 - 0.11720681740442651 r_3 - 0.11720681740442651 r_4 - 9.1172068174044263 r_5 - 0.11720681740442651 r_6 - 0.11720681740442651 r_7 - 0.11720681740442651 r_8 - 0.11720681740442651 r_9 <= 0
 c388: - 0.11720681740442651 r_1 - 0.11720681740442651 r_10 - 9.1172068174044263 r_2 - 0.11720681740442651 r_3 - 0.11720681740442651 r_4 + 8.8827931825955737 r_5 - 0.11720681740442651 r_6 - 0.11720681740442651 r_7 - 0.11720681740442651 r_8 - 0.11720681740442651 r_9 <= 0
 c389: - 0.11720681740442651 r_1 - 0.11720681740442651 r_10 + 8.8827931825955737 r_2 - 0.11720681740442651 r_3 - 0.11720681740442651 r_4 - 0.11720681740442651 r_5 - 9.1172068174044263 r_6 - 0.11720681740442651 r_7 - 0.11720681740442651 r_8 - 0.11720681740442651 r_9 <= 0
 c390: - 0.11720681740442651 r_1 - 0.11720681740442651 r_10 - 9.1172068174044263 r_2 - 0.11720681740442651 r_3 - 0.11720681740442651 r_4 - 0.11720681740442651 r_5 + 8.8827931825955737 r_6 - 0.11720681740442651 r_7 - 0.11720681740442651 r_8 - 0.11720681740442651 r_9 <= 0
 c391: - 0.11720681740442651 r_1 - 0.11720681740442651 r_10 + 8.8827931825955737 r_2 - 0.11720681740442651 r_3 - 0.11720681740442651 r_4 - 0.11720681740442651 r_5 - 0.11720681740442651 r_6 - 9.1172068174044263 r_7 - 0.11720681740442651 r_8 - 0.11720681740442651 r_9 <= 0
 c392: - 0.11720681740442651 r_1 - 0.11720681740442651 r_10 - 9.1172068174044263 r_2 - 0.11720681740442651 r_3 - 0.11720681740442651 r_4 - 0.11720681740442651 r_5 - 0.11720681740442651 r_6 + 8.8827931825955737 r_7 - 0.11720681740442651 r_8 - 0.11720681740442651 r_9 <= 0
 c393: - 0.11720681740442651 r_1 - 0.11720681740442651 r_10 + 8.8827931825955737 r_2 - 0.11720681740442651 r_3 - 0.11720681740442651 r_4 - 0.11720681740442651 r_5 - 0.11720681740442651 r_6 - 0.11720681740442651 r_7 - 9.1172068174044263 r_8 - 0.11720681740442651 r_9 <= 0
 c394: - 0.11720681740442651 r_1 - 0.11720681740442651 r_10 - 9.1172068174044263 r_2 - 0.11720681740442651 r_3 - 0.11720681740442651 r_4 - 0.11720681740442651 r_5 - 0.11720681740442651 r_6 - 0.11720681740442651 r_7 + 8.8827931825955737 r_8 - 0.11720681740442651 r_9 <= 0
 c395: - 0.11720681740442651 r_1 - 0.11720681740442651 r_10 + 8.8827931825955737 r_2 - 0.11720681740442651 r_3 - 0.11720681740442651 r_4 - 0.11720681740442651 r_5 - 0.11720681740442651 r_6 - 0.11720681740442651 r_7 - 0.11720681740442651 r_8 - 9.1172068174044263 r_9 <= 0
 c396: - 0.11720681740442651 r_1 - 0.11720681740442651 r_10 - 9.1172068174044263 r_2 - 0.11720681740442651 r_3 - 0.11720681740442651 r_4 - 0.11720681740442651 r_5 - 0.11720681740442651 r_6 - 0.11720681740442651 r_7 - 0.11720681740442651 r_8 + 8.8827931825955737 r_9 <= 0
 c397: - 0.11720681740442651 r_1 - 9.1172068174044263 r_10 + 8.8827931825955737 r_2 - 0.11720681740442651 r_3 - 0.11720681740442651 r_4 - 0.11720681740442651 r_5 - 0.11720681740442651 r_6 - 0.11720681740442651 r_7 - 0.11720681740442651 r_8 - 0.11720681740442651 r_9 <= 0
 c398: - 0.11720681740442651 r_1 + 8.8827931825955737 r_10 - 9.1172068174044263 r_2 - 0.11720681740442651 r_3 - 0.11720681740442651 r_4 - 0.11720681740442651 r_5 - 0.11720681740442651 r_6 - 0.11720681740442651 r_7 - 0.11720681740442651 r_8 - 0.11720681740442651 r_9 <= 0
 c399: - 0.11720681740442651 r_1 - 0.11720681740442651 r_10 - 0.11720681740442651 r_2 + 8.8827931825955737 r_3 - 9.1172068174044263 r_4 - 0.11720681740442651 r_5 - 0.11720681740442651 r_6 - 0.11720681740442651 r_7 - 0.11720681740442651 r_8 - 0.11720681740442651 r_9 <= 0
 c400: - 0.11720681740442651 r_1 - 0.11720681740442651 r_10 - 0.11720681740442651 r_2 - 9.1172068174044263 r_3 + 8.8827931825955737 r_4 - 0.11720681740442651 r_5 - 0.11720681740442651 r_6 - 0.11720681740442651 r_7 - 0.11720681740442651 r_8 - 0.11720681740442651 r_9 <= 0
 c401: - 0.11720681740442651 r_1 - 0.11720681740442651 r_10 - 0.11720681740442651 r_2 + 8.8827931825955737 r_3 - 0.11720681740442651 r_4 - 9.1172068174044263 r_5 - 0.11720681740442651 r_6 - 0.11720681740442651 r_7 - 0.11720681740442651 r_8 - 0.11720681740442651 r_9 <= 0
 c402: - 0.11720681740442651 r_1 - 0.11720681740442651 r_10 - 0.11720681740442651 r_2 - 9.1172068174044263 r_3 - 0.11720681740442651 r_4 + 8.8827931825955737 r_5 - 0.11720681740442651 r_6 - 0.11720681740442651 r_7 - 0.11720681740442651 r_8 - 0.11720681740442651 r_9 <= 0
 c403: - 0.11720681740442651 r_1 - 0.11720681740442651 r_10 - 0.11720681740442651 r_2 + 8.8827931825955737 r_3 - 0.11720681740442651 r_4 - 0.11720681740442651 r_5 - 9.1172068174044263 r_6 - 0.11720681740442651 r_7 - 0.11720681740442651 r_8 - 0.11720681740442651 r_9 <= 0
 c404: - 0.11720681740442651 r_1 - 0.11720681740442651 r_10 - 0.11720681740442651 r_2 - 9.1172068174044263 r_3 - 0.11720681740442651 r_4 - 0.11720681740442651 r_5 + 8.8827931825955737 r_6 - 0.11720681740442651 r_7 - 0.11720681740442651 r_8 - 0.11720681740442651 r_9 <= 0
 c405: - 0.11720681740442651 r_1 - 0.11720681740442651 r_10 - 0.11720681740442651 r_2 + 8.8827931825955737 r_3 - 0.11720681740442651 r_4 - 0.11720681740442651 r_5 - 0.11720681740442651 r_6 - 9.1172068174044263 r_7 - 0.11720681740442651 r_8 - 0.11720681740442651 r_9 <= 0
 c406: - 0.11720681740442651 r_1 - 0.11720681740442651 r_10 - 0.11720681740442651 r_2 - 9.1172068174044263 r_3 - 0.11720681740442651 r_4 - 0.11720681740442651 r_5 - 0.11720681740442651 r_6 + 8.8827931825955737 r_7 - 0.11720681740442651 r_8 - 0.11720681740442651 r_9 <= 0
 c407: - 0.11720681740442651 r_1 - 0.11720681740442651 r_10 - 0.11720681740442651 r_2 + 8.8827931825955737 r_3 - 0.11720681740442651 r_4 - 0.11720681740442651 r_5 - 0.11720681740442651 r_6 - 0.11720681740442651 r_7 - 9.1172068174044263 r_8 - 0.11720681740442651 r_9 <= 0
 c408: - 0.11720681740442651 r_1 - 0.11720681740442651 r_10 - 0.11720681740442651 r_2 - 9.1172068174044263 r_3 - 0.11720681740442651 r_4 - 0.11720681740442651 r_5 - 0.11720681740442651 r_6 - 0.11720681740442651 r_7 + 8.8827931825955737 r_8 - 0.11720681740442651 r_9 <= 0
 c409: - 0.11720681740442651 r_1 - 0.11720681740442651 r_10 - 0.11720681740442651 r_2 + 8.8827931825955737 r_3 - 0.11720681740442651 r_4 - 0.11720681740442651 r_5 - 0.11720681740442651 r_6 - 0.11720681740442651 r_7 - 0.11720681740442651 r_8 - 9.1172068174044263 r_9 <= 0
 c410: - 0.11720681740442651 r_1 - 0.11720681740442651 r_10 - 0.11720681740442651 r_2 - 9.1172068174044263 r_3 - 0.11720681740442651 r_4 - 0.11720681740442651 r_5 - 0.11720681740442651 r_6 - 0.11720681740442651 r_7 - 0.11720681740442651 r_8 + 8.8827931825955737 r_9 <= 0
 c411: - 0.11720681740442651 r_1 - 9.1172068174044263 r_10 - 0.11720681740442651 r_2 + 8.8827931825955737 r_3 - 0.11720681740442651 r_4 - 0.11720681740442651 r_5 - 0.11720681740442651 r_6 - 0.11720681740442651 r_7 - 0.11720681740442651 r_8 - 0.11720681740442651 r_9 <= 0
 c412: - 0.11720681740442651 r_1 + 8.8827931825955737 r_10 - 0.11720681740442651 r_2 - 9.1172068174044263 r_3 - 0.11720681740442651 r_4 - 0.11720681740442651 r_5 - 0.11720681740442651 r_6 - 0.11720681740442651 r_7 - 0.11720681740442651 r_8 - 0.11720681740442651 r_9 <= 0
 c413: - 0.11720681740442651 r_1 - 0.11720681740442651 r_10 - 0.11720681740442651 r_2 - 0.11720681740442651 r_3 + 8.8827931825955737 r_4 - 9.1172068174044263 r_5 - 0.11720681740442651 r_6 - 0.11720681740442651 r_7 - 0.11720681740442651 r_8 - 0.11720681740442651 r_9 <= 0
 c414: - 0.11720681740442651 r_1 - 0.11720681740442651 r_10 - 0.11720681740442651 r_2 - 0.11720681740442651 r_3 - 9.1172068174044263 r_4 + 8.8827931825955737 r_5 - 0.11720681740442651 r_6 - 0.11720681740442651 r_7 - 0.11720681740442651 r_8 - 0.11720681740442651 r_9 <= 0
 c415: - 0.11720681740442651 r_1 - 0.11720681740442651 r_10 - 0.11720681740442651 r_2 - 0.11720681740442651 r_3 + 8.8827931825955737 r_4 - 0.11720681740442651 r_5 - 9.1172068174044263 r_6 - 0.11720681740442651 r_7 - 0.11720681740442651 r_8 - 0.11720681740442651 r_9 <= 0
 c416: - 0.11720681740442651 r_1 - 0.11720681740442651 r_10 - 0.11720681740442651 r_2 - 0.11720681740442651 r_3 - 9.1172068174044263 r_4 - 0.11720681740442651 r_5 + 8.8827931825955737 r_6 - 0.11720681740442651 r_7 - 0.11720681740442651 r_8 - 0.11720681740442651 r_9 <= 0
 c417: - 0.11720681740442651 r_1 - 0.11720681740442651 r_10 - 0.11720681740442651 r_2 - 0.11720681740442651 r_3 + 8.8827931825955737 r_4 - 0.11720681740442651 r_5 - 0.11720681740442651 r_6 - 9.1172068174044263 r_7 - 0.11720681740442651 r_8 - 0.11720681740442651 r_9 <= 0
 c418: - 0.11720681740442651 r_1 - 0.11720681740442651 r_10 - 0.11720681740442651 r_2 - 0.11720681740442651 r_3 - 9.1172068174044263 r_4 - 0.11720681740442651 r_5 - 0.11720681740442651 r_6 + 8.8827931825955737 r_7 - 0.11720681740442651 r_8 - 0.11720681740442651 r_9 <= 0
 c419: - 0.11720681740442651 r_1 - 0.11720681740442651 r_10 - 0.11720681740442651 r_2 - 0.11720681740442651 r_3 + 8.8827931825955737 r_4 - 0.11720681740442651 r_5 - 0.11720681740442651 r_6 - 0.11720681740442651 r_7 - 9.1172068174044263 r_8 - 0.11720681740442651 r_9 <= 0
 c420: - 0.11720681740442651 r_1 - 0.11720681740442651 r_10 - 0.11720681740442651 r_2 - 0.11720681740442651 r_3 - 9.1172068174044263 r_4 - 0.11720681740442651 r_5 - 0.11720681740442651 r_6 - 0.11720681740442651 r_7 + 8.8827931825955737 r_8 - 0.11720681740442651 r_9 <= 0
 c421: - 0.11720681740442651 r_1 - 0.11720681740442651 r_10 - 0.11720681740442651 r_2 - 0.11720681740442651 r_3 + 8.8827931825955737 r_4 - 0.11720681740442651 r_5 - 0.11720681740442651 r_6 - 0.11720681740442651 r_7 - 0.11720681740442651 r_8 - 9.1172068174044263 r_9 <= 0
 c422: - 0.11720681740442651 r_1 - 0.11720681740442651 r_10 - 0.11720681740442651 r_2 - 0.11720681740442651 r_3 - 9.1172068174044263 r_4 - 0.11720681740442651 r_5 - 0.11720681740442651 r_6 - 0.11720681740442651 r_7 - 0.11720681740442651 r_8 + 8.8827931825955737 r_9 <= 0
 c423: - 0.11720681740442651 r_1 - 9.1172068174044263 r_10 - 0.11720681740442651 r_2 - 0.11720681740442651 r_3 + 8.8827931825955737 r_4 - 0.11720681740442651 r_5 - 0.11720681740442651 r_6 - 0.11720681740442651 r_7 - 0.11720681740442651 r_8 - 0.11720681740442651 r_9 <= 0
 c424: - 0.11720681740442651 r_1 + 8.8827931825955737 r_10 - 0.11720681740442651 r_2 - 0.11720681740442651 r_3 - 9.1172068174044263 r_4 - 0.11720681740442651 r_5 - 0.11720681740442651 r_6 - 0.11720681740442651 r_7 - 0.11720681740442651 r_8 - 0.11720681740442651 r_9 <= 0
 c425: - 0.11720681740442651 r_1 - 0.11720681740442651 r_10 - 0.11720681740442651 r_2 - 0.11720681740442651 r_3 - 0.11720681740442651 r_4 + 8.8827931825955737 r_5 - 9.1172068174044263 r_6 - 0.11720681740442651 r_7 - 0.11720681740442651 r_8 - 0.11720681740442651 r_9 <= 0
 c426: - 0.11720681740442651 r_1 - 0.11720681740442651 r_10 - 0.11720681740442651 r_2 - 0.11720681740442651 r_3 - 0.11720681740442651 r_4 - 9.1172068174044263 r_5 + 8.8827931825955737 r_6 - 0.11720681740442651 r_7 - 0.11720681740442651 r_8 - 0.11720681740442651 r_9 <= 0
 c427: - 0.11720681740442651 r_1 - 0.11720681740442651 r_10 - 0.11720681740442651 r_2 - 0.11720681740442651 r_3 - 0.11720681740442651 r_4 + 8.8827931825955737 r_5 - 0.11720681740442651 r_6 - 9.1172068174044263 r_7 - 0.11720681740442651 r_8 - 0.11720681740442651 r_9 <= 0
 c428: - 0.11720681740442651 r_1 - 0.11720681740442651 r_10 - 0.11720681740442651 r_2 - 0.11720681740442651 r_3 - 0.11720681740442651 r_4 - 9.1172068174044263 r_5 - 0.11720681740442651 r_6 + 8.8827931825955737 r_7 - 0.11720681740442651 r_8 - 0.11720681740442651 r_9 <= 0
 c429: - 0.11720681740442651 r_1 - 0.11720681740442651 r_10 - 0.11720681740442651 r_2 - 0.11720681740442651 r_3 - 0.11720681740442651 r_4 + 8.8827931825955737 r_5 - 0.11720681740442651 r_6 - 0.11720681740442651 r_7 - 9.1172068174044263 r_8 - 0.11720681740442651 r_9 <= 0
 c430: - 0.11720681740442651 r_1 - 0.11720681740442651 r_10 - 0.11720681740442651 r_2 - 0.11720681740442651 r_3 - 0.11720681740442651 r_4 - 9.1172068174044263 r_5 - 0.11720681740442651 r_6 - 0.11720681740442651 r_7 + 8.8827931825955737 r_8 - 0.11720681740442651 r_9 <= 0
 c431: - 0.11720681740442651 r_1 - 0.11720681740442651 r_10 - 0.11720681740442651 r_2 - 0.11720681740442651 r_3 - 0.11720681740442651 r_4 + 8.8827931825955737 r_5 - 0.11720681740442651 r_6 - 0.11720681740442651 r_7 - 0.11720681740442651 r_8 - 9.1172068174044263 r_9 <= 0
 c432: - 0.11720681740442651 r_1 - 0.11720681740442651 r_10 - 0.11720681740442651 r_2 - 0.11720681740442651 r_3 - 0.11720681740442651 r_4 - 9.1172068174044263 r_5 - 0.11720681740442651 r_6 - 0.11720681740442651 r_7 - 0.11720681740442651 r_8 + 8.8827931825955737 r_9 <= 0
 c433: - 0.11720681740442651 r_1 - 9.1172068174044263 r_10 - 0.11720681740442651 r_2 - 0.11720681740442651 r_3 - 0.11720681740442651 r_4 + 8.8827931825955737 r_5 - 0.11720681740442651 r_6 - 0.11720681740442651 r_7 - 0.11720681740442651 r_8 - 0.11720681740442651 r_9 <= 0
 c434: - 0.11720681740442651 r_1 + 8.8827931825955737 r_10 - 0.11720681740442651 r_2 - 0.11720681740442651 r_3 - 0.11720681740442651 r_4 - 9.1172068174044263 r_5 - 0.11720681740442651 r_6 - 0.11720681740442651 r_7 - 0.11720681740442651 r_8 - 0.11720681740442651 r_9 <= 0
 c435: - 0.11720681740442651 r_1 - 0.11720681740442651 r_10 - 0.11720681740442651 r_2 - 0.11720681740442651 r_3 - 0.11720681740442651 r_4 - 0.11720681740442651 r_5 + 8.8827931825955737 r_6 - 9.1172068174044263 r_7 - 0.11720681740442651 r_8 - 0.11720681740442651 r_9 <= 0
 c436: - 0.11720681740442651 r_1 - 0.11720681740442651 r_10 - 0.11720681740442651 r_2 - 0.11720681740442651 r_3 - 0.11720681740442651 r_4 - 0.11720681740442651 r_5 - 9.1172068174044263 r_6 + 8.8827931825955737 r_7 - 0.11720681740442651 r_8 - 0.11720681740442651 r_9 <= 0
 c437: - 0.11720681740442651 r_1 - 0.11720681740442651 r_10 - 0.11720681740442651 r_2 - 0.11720681740442651 r_3 - 0.11720681740442651 r_4 - 0.11720681740442651 r_5 + 8.8827931825955737 r_6 - 0.11720681740442651 r_7 - 9.1172068174044263 r_8 - 0.11720681740442651 r_9 <= 0
 c438: - 0.11720681740442651 r_1 - 0.11720681740442651 r_10 - 0.11720681740442651 r_2 - 0.11720681740442651 r_3 - 0.11720681740442651 r_4 - 0.11720681740442651 r_5 - 9.1172068174044263 r_6 - 0.11720681740442651 r_7 + 8.8827931825955737 r_8 - 0.11720681740442651 r_9 <= 0
 c439: - 0.11720681740442651 r_1 - 0.11720681740442651 r_10 - 0.11720681740442651 r_2 - 0.11720681740442651 r_3 - 0.11720681740442651 r_4 - 0.11720681740442651 r_5 + 8.8827931825955737 r_6 - 0.11720681740442651 r_7 - 0.11720681740442651 r_8 - 9.1172068174044263 r_9 <= 0
 c440: - 0.11720681740442651 r_1 - 0.11720681740442651 r_10 - 0.11720681740442651 r_2 - 0.11720681740442651 r_3 - 0.11720681740442651 r_4 - 0.11720681740442651 r_5 - 9.1172068174044263 r_6 - 0.11720681740442651 r_7 - 0.11720681740442651 r_8 + 8.8827931825955737 r_9 <= 0
 c441: - 0.11720681740442651 r_1 - 9.1172068174044263 r_10 - 0.11720681740442651 r_2 - 0.11720681740442651 r_3 - 0.11720681740442651 r_4 - 0.11720681740442651 r_5 + 8.8827931825955737 r_6 - 0.11720681740442651 r_7 - 0.11720681740442651 r_8 - 0.11720681740442651 r_9 <= 0
 c442: - 0.11720681740442651 r_1 + 8.8827931825955737 r_10 - 0.11720681740442651 r_2 - 0.11720681740442651 r_3 - 0.11720681740442651 r_4 - 0.11720681740442651 r_5 - 9.1172068174044263 r_6 - 0.11720681740442651 r_7 - 0.11720681740442651 r_8 - 0.11720681740442651 r_9 <= 0
 c443: - 0.11720681740442651 r_1 - 0.11720681740442651 r_10 - 0.11720681740442651 r_2 - 0.11720681740442651 r_3 - 0.11720681740442651 r_4 - 0.11720681740442651 r_5 - 0.11720681740442651 r_6 + 8.8827931825955737 r_7 - 9.1172068174044263 r_8 - 0.11720681740442651 r_9 <= 0
 c444: - 0.11720681740442651 r_1 - 0.11720681740442651 r_10 - 0.11720681740442651 r_2 - 0.11720681740442651 r_3 - 0.11720681740442651 r_4 - 0.11720681740442651 r_5 - 0.11720681740442651 r_6 - 9.1172068174044263 r_7 + 8.8827931825955737 r_8 - 0.11720681740442651 r_9 <= 0
 c445: - 0.11720681740442651 r_1 - 0.11720681740442651 r_10 - 0.11720681740442651 r_2 - 0.11720681740442651 r_3 - 0.11720681740442651 r_4 - 0.11720681740442651 r_5 - 0.11720681740442651 r_6 + 8.8827931825955737 r_7 - 0.11720681740442651 r_8 - 9.1172068174044263 r_9 <= 0
 c446: - 0.11720681740442651 r_1 - 0.11720681740442651 r_10 - 0.11720681740442651 r_2 - 0.11720681740442651 r_3 - 0.11720681740442651 r_4 - 0.11720681740442651 r_5 - 0.11720681740442651 r_6 - 9.1172068174044263 r_7 - 0.11720681740442651 r_8 + 8.8827931825955737 r_9 <= 0
 c447: - 0.11720681740442651 r_1 - 9.1172068174044263 r_10 - 0.11720681740442651 r_2 - 0.11720681740442651 r_3 - 0.11720681740442651 r_4 - 0.11720681740442651 r_5 - 0.11720681740442651 r_6 + 8.8827931825955737 r_7 - 0.11720681740442651 r_8 - 0.11720681740442651 r_9 <= 0
 c448: - 0.11720681740442651 r_1 + 8.8827931825955737 r_10 - 0.11720681740442651 r_2 - 0.11720681740442651 r_3 - 0.11720681740442651 r_4 - 0.11720681740442651 r_5 - 0.11720681740442651 r_6 - 9.1172068174044263 r_7 - 0.11720681740442651 r_8 - 0.11720681740442651 r_9 <= 0
 c449: - 0.11720681740442651 r_1 - 0.11720681740442651 r_10 - 0.11720681740442651 r_2 - 0.11720681740442651 r_3 - 0.11720681740442651 r_4 - 0.11720681740442651 r_5 - 0.11720681740442651 r_6 - 0.11720681740442651 r_7 + 8.8827931825955737 r_8 - 9.1172068174044263 r_9 <= 0
 c450: - 0.11720681740442651 r_1 - 0.11720681740442651 r_10 - 0.11720681740442651 r_2 - 0.11720681740442651 r_3 - 0.11720681740442651 r_4 - 0.11720681740442651 r_5 - 0.11720681740442651 r_6 - 0.11720681740442651 r_7 - 9.1172068174044263 r_8 + 8.8827931825955737 r_9 <= 0
 c451: - 0.11720681740442651 r_1 - 9.1172068174044263 r_10 - 0.11720681740442651 r_2 - 0.11720681740442651 r_3 - 0.11720681740442651 r_4 - 0.11720681740442651 r_5 - 0.11720681740442651 r_6 - 0.11720681740442651 r_7 + 8.8827931825955737 r_8 - 0.11720681740442651 r_9 <= 0
 c452: - 0.11720681740442651 r_1 + 8.8827931825955737 r_10 - 0.11720681740442651 r_2 - 0.11720681740442651 r_3 - 0.11720681740442651 r_4 - 0.11720681740442651 r_5 - 0.11720681740442651 r_6 - 0.11720681740442651 r_7 - 9.1172068174044263 r_8 - 0.11720681740442651 r_9 <= 0
 c453: - 0.11720681740442651 r_1 - 9.1172068174044263 r_10 - 0.11720681740442651 r_2 - 0.11720681740442651 r_3 - 0.11720681740442651 r_4 - 0.11720681740442651 r_5 - 0.11720681740442651 r_6 - 0.11720681740442651 r_7 - 0.11720681740442651 r_8 + 8.8827931825955737 r_9 <= 0
 c454: - 0.11720681740442651 r_1 + 8.8827931825955737 r_10 - 0.11720681740442651 r_2 - 0.11720681740442651 r_3 - 0.11720681740442651 r_4 - 0.11720681740442651 r_5 - 0.11720681740442651 r_6 - 0.11720681740442651 r_7 - 0.11720681740442651 r_8 - 9.1172068174044263 r_9 <= 0
 c455: G + 0.034642799999999994 e_1 + 0.10249994999999999 e_10 + 0.075357149999999998 e_2 + 0.077166600000000002 e_3 + 0.023333400000000001 e_4 + 0.036287849999999996 e_5 + 0.055000050000000002 e_6 + 0.14999999999999999 e_7 + 0.14999999999999999 e_8 + 0.07281254999999999 e_9 <= 0.023441363480885304
 c456: 4.2013955512987016 e_1 + 12.430947669886363 e_10 + 9.1391340991071424 e_2 + 9.3585798477272739 e_3 + 2.8298186912337662 e_4 + 4.4009032629058442 e_5 + 6.6702739210227282 e_6 + 18.191639610389611 e_7 + 18.191639610389611 e_8 + 8.8305311247564937 e_9 + h_1_10 + h_1_2 + h_1_3 + h_1_4 + h_1_5 + h_1_6 + h_1_7 + h_1_8 + h_1_9 + h_2_10 + h_2_3 + h_2_4 + h_2_5 + h_2_6 + h_2_7 + h_2_8 + h_2_9 + h_3_10 + h_3_4 + h_3_5 + h_3_6 + h_3_7 + h_3_8 + h_3_9 + h_4_10 + h_4_5 + h_4_6 + h_4_7 + h_4_8 + h_4_9 + h_5_10 + h_5_6 + h_5_7 + h_5_8 + h_5_9 + h_6_10 + h_6_7 + h_6_8 + h_6_9 + h_7_10 + h_7_8 + h_7_9 + h_8_10 + h_8_9 + h_9_10 <= 2.8429122428027571
 c457: 0.23095199999999999 e_1 + 0.68333299999999997 e_10 + 0.50238099999999997 e_2 + 0.51444400000000001 e_3 + 0.155556 e_4 + 0.241919 e_5 + 0.36666700000000002 e_6 + e_7 + e_8 + 0.48541699999999999 e_9 >= 0
 c458: e_1 <= 0.50749427328807084
 c459: e_2 <= 0.23330264760097724
 c460: e_3 <= 0.22783202331920779
 c461: e_4 <= 0.75347024482775682
 c462: e_5 <= 0.48448785504415337
 c463: e_6 <= 0.31965466596237602
 c464: e_7 <= 0.11720681740442654
 c465: e_8 <= 0.11720681740442654
 c466: e_9 <= 0.24145593871748733
 c467: e_10 <= 0.17152225548074884
 c468: W_SP - 1.7851164896103895 e_1 - 5.2817425534090905 e_10 - 3.8830952196428568 e_2 - 3.9763347681818182 e_3 - 1.20235192012987 e_4 - 1.8698846342532467 e_5 - 2.8341097193181821 e_6 - 7.7293831168831169 e_7 - 7.7293831168831169 e_8 - 3.7519739644480516 e_9 >= -0
 c469: W_SP - 2.8009303675324677 e_1 - 8.2872984465909099 e_10 - 6.0927560660714288 e_2 - 6.2390532318181826 e_3 - 1.8865457941558443 e_4 - 2.9339355086038963 e_5 - 4.4468492806818185 e_6 - 12.127759740259741 e_7 - 12.127759740259741 e_8 - 5.8870207498376628 e_9 - 0.70687246693722949 r_1 - 0.70687246693722949 r_10 - 0.70687246693722949 r_2 - 0.70687246693722949 r_3 - 0.70687246693722949 r_4 - 0.70687246693722949 r_5 - 0.70687246693722949 r_6 - 0.70687246693722949 r_7 - 0.70687246693722949 r_8 - 0.70687246693722949 r_9 >= -8.5727794460194158
 c470: W_SP - 2.8009303675324677 e_1 - 8.2872984465909099 e_10 - 6.0927560660714288 e_2 - 6.2390532318181826 e_3 - 1.8865457941558443 e_4 - 2.9339355086038963 e_5 - 4.4468492806818185 e_6 - 12.127759740259741 e_7 - 12.127759740259741 e_8 - 5.8870207498376628 e_9 <= -0
 c471: W_SP - 1.7851164896103895 e_1 - 5.2817425534090905 e_10 - 3.8830952196428568 e_2 - 3.9763347681818182 e_3 - 1.20235192012987 e_4 - 1.8698846342532467 e_5 - 2.8341097193181821 e_6 - 7.7293831168831169 e_7 - 7.7293831168831169 e_8 - 3.7519739644480516 e_9 - 0.70687246693722949 r_1 - 0.70687246693722949 r_10 - 0.70687246693722949 r_2 - 0.70687246693722949 r_3 - 0.70687246693722949 r_4 - 0.70687246693722949 r_5 - 0.70687246693722949 r_6 - 0.70687246693722949 r_7 - 0.70687246693722949 r_8 - 0.70687246693722949 r_9 <= -5.4636881117341405
 c472: 1.5 W_SP + h_1_10 + h_1_2 + h_1_3 + h_1_4 + h_1_5 + h_1_6 + h_1_7 + h_1_8 + h_1_9 + h_2_10 + h_2_3 + h_2_4 + h_2_5 + h_2_6 + h_2_7 + h_2_8 + h_2_9 + h_3_10 + h_3_4 + h_3_5 + h_3_6 + h_3_7 + h_3_8 + h_3_9 + h_4_10 + h_4_5 + h_4_6 + h_4_7 + h_4_8 + h_4_9 + h_5_10 + h_5_6 + h_5_7 + h_5_8 + h_5_9 + h_6_10 + h_6_7 + h_6_8 + h_6_9 + h_7_10 + h_7_8 + h_7_9 + h_8_10 + h_8_9 + h_9_10 - 0.23441363480885302 r_1 - 0.23441363480885302 r_10 - 0.23441363480885302 r_2 - 0.23441363480885302 r_3 - 0.23441363480885302 r_4 - 0.23441363480885302 r_5 - 0.23441363480885302 r_6 - 0.23441363480885302 r_7 - 0.23441363480885302 r_8 - 0.23441363480885302 r_9 <= 0
 c473: x_0_0_1 + x_0_0_10 + x_0_0_2 + x_0_0_3 + x_0_0_4 + x_0_0_5 + x_0_0_6 + x_0_0_7 + x_0_0_8 + x_0_0_9 - x_0_10_0 - x_0_1_0 - x_0_2_0 - x_0_3_0 - x_0_4_0 - x_0_5_0 - x_0_6_0 - x_0_7_0 - x_0_8_0 - x_0_9_0 = 0
 c474: x_0_0_1 + x_0_0_10 + x_0_0_2 + x_0_0_3 + x_0_0_4 + x_0_0_5 + x_0_0_6 + x_0_0_7 + x_0_0_8 + x_0_0_9 <= 1
 c475: x_0_0_1 + x_0_10_1 + x_0_2_1 + x_0_3_1 + x_0_4_1 + x_0_5_1 + x_0_6_1 + x_0_7_1 + x_0_8_1 + x_0_9_1 - z_0_1 = 0
 c476: x_0_1_0 + x_0_1_10 + x_0_1_2 + x_0_1_3 + x_0_1_4 + x_0_1_5 + x_0_1_6 + x_0_1_7 + x_0_1_8 + x_0_1_9 - z_0_1 = 0
 c477: x_0_0_2 + x_0_10_2 + x_0_1_2 + x_0_3_2 + x_0_4_2 + x_0_5_2 + x_0_6_2 + x_0_7_2 + x_0_8_2 + x_0_9_2 - z_0_2 = 0
 c478: x_0_2_0 + x_0_2_1 + x_0_2_10 + x_0_2_3 + x_0_2_4 + x_0_2_5 + x_0_2_6 + x_0_2_7 + x_0_2_8 + x_0_2_9 - z_0_2 = 0
 c479: x_0_0_3 + x_0_10_3 + x_0_1_3 + x_0_2_3 + x_0_4_3 + x_0_5_3 + x_0_6_3 + x_0_7_3 + x_0_8_3 + x_0_9_3 - z_0_3 = 0
 c480: x_0_3_0 + x_0_3_1 + x_0_3_10 + x_0_3_2 + x_0_3_4 + x_0_3_5 + x_0_3_6 + x_0_3_7 + x_0_3_8 + x_0_3_9 - z_0_3 = 0
 c481: x_0_0_4 + x_0_10_4 + x_0_1_4 + x_0_2_4 + x_0_3_4 + x_0_5_4 + x_0_6_4 + x_0_7_4 + x_0_8_4 + x_0_9_4 - z_0_4 = 0
 c482: x_0_4_0 + x_0_4_1 + x_0_4_10 + x_0_4_2 + x_0_4_3 + x_0_4_5 + x_0_4_6 + x_0_4_7 + x_0_4_8 + x_0_4_9 - z_0_4 = 0
 c483: x_0_0_5 + x_0_10_5 + x_0_1_5 + x_0_2_5 + x_0_3_5 + x_0_4_5 + x_0_6_5 + x_0_7_5 + x_0_8_5 + x_0_9_5 - z_0_5 = 0
 c484: x_0_5_0 + x_0_5_1 + x_0_5_10 + x_0_5_2 + x_0_5_3 + x_0_5_4 + x_0_5_6 + x_0_5_7 + x_0_5_8 + x_0_5_9 - z_0_5 = 0
 c485: x_0_0_6 + x_0_10_6 + x_0_1_6 + x_0_2_6 + x_0_3_6 + x_0_4_6 + x_0_5_6 + x_0_7_6 + x_0_8_6 + x_0_9_6 - z_0_6 = 0
 c486: x_0_6_0 + x_0_6_1 + x_0_6_10 + x_0_6_2 + x_0_6_3 + x_0_6_4 + x_0_6_5 + x_0_6_7 + x_0_6_8 + x_0_6_9 - z_0_6 = 0
 c487: x_0_0_7 + x_0_10_7 + x_0_1_7 + x_0_2_7 + x_0_3_7 + x_0_4_7 + x_0_5_7 + x_0_6_7 + x_0_8_7 + x_0_9_7 - z_0_7 = 0
 c488: x_0_7_0 + x_0_7_1 + x_0_7_10 + x_0_7_2 + x_0_7_3 + x_0_7_4 + x_0_7_5 + x_0_7_6 + x_0_7_8 + x_0_7_9 - z_0_7 = 0
 c489: x_0_0_8 + x_0_10_8 + x_0_1_8 + x_0_2_8 + x_0_3_8 + x_0_4_8 + x_0_5_8 + x_0_6_8 + x_0_7_8 + x_0_9_8 - z_0_8 = 0
 c490: x_0_8_0 + x_0_8_1 + x_0_8_10 + x_0_8_2 + x_0_8_3 + x_0_8_4 + x_0_8_5 + x_0_8_6 + x_0_8_7 + x_0_8_9 - z_0_8 = 0
 c491: x_0_0_9 + x_0_10_9 + x_0_1_9 + x_0_2_9 + x_0_3_9 + x_0_4_9 + x_0_5_9 + x_0_6_9 + x_0_7_9 + x_0_8_9 - z_0_9 = 0
 c492: x_0_9_0 + x_0_9_1 + x_0_9_10 + x_0_9_2 + x_0_9_3 + x_0_9_4 + x_0_9_5 + x_0_9_6 + x_0_9_7 + x_0_9_8 - z_0_9 = 0
 c493: x_0_0_10 + x_0_1_10 + x_0_2_10 + x_0_3_10 + x_0_4_10 + x_0_5_10 + x_0_6_10 + x_0_7_10 + x_0_8_10 + x_0_9_10 - z_0_10 = 0
 c494: x_0_10_0 + x_0_10_1 + x_0_10_2 + x_0_10_3 + x_0_10_4 + x_0_10_5 + x_0_10_6 + x_0_10_7 + x_0_10_8 + x_0_10_9 - z_0_10 = 0
 c495: x_1_0_1 + x_1_0_10 + x_1_0_2 + x_1_0_3 + x_1_0_4 + x_1_0_5 + x_1_0_6 + x_1_0_7 + x_1_0_8 + x_1_0_9 - x_1_10_0 - x_1_1_0 - x_1_2_0 - x_1_3_0 - x_1_4_0 - x_1_5_0 - x_1_6_0 - x_1_7_0 - x_1_8_0 - x_1_9_0 = 0
 c496: x_1_0_1 + x_1_0_10 + x_1_0_2 + x_1_0_3 + x_1_0_4 + x_1_0_5 + x_1_0_6 + x_1_0_7 + x_1_0_8 + x_1_0_9 <= 1
 c497: x_1_0_1 + x_1_10_1 + x_1_2_1 + x_1_3_1 + x_1_4_1 + x_1_5_1 + x_1_6_1 + x_1_7_1 + x_1_8_1 + x_1_9_1 - z_1_1 = 0
 c498: x_1_1_0 + x_1_1_10 + x_1_1_2 + x_1_1_3 + x_1_1_4 + x_1_1_5 + x_1_1_6 + x_1_1_7 + x_1_1_8 + x_1_1_9 - z_1_1 = 0
 c499: x_1_0_2 + x_1_10_2 + x_1_1_2 + x_1_3_2 + x_1_4_2 + x_1_5_2 + x_1_6_2 + x_1_7_2 + x_1_8_2 + x_1_9_2 - z_1_2 = 0
 c500: x_1_2_0 + x_1_2_1 + x_1_2_10 + x_1_2_3 + x_1_2_4 + x_1_2_5 + x_1_2_6 + x_1_2_7 + x_1_2_8 + x_1_2_9 - z_1_2 = 0
 c501: x_1_0_3 + x_1_10_3 + x_1_1_3 + x_1_2_3 + x_1_4_3 + x_1_5_3 + x_1_6_3 + x_1_7_3 + x_1_8_3 + x_1_9_3 - z_1_3 = 0
 c502: x_1_3_0 + x_1_3_1 + x_1_3_10 + x_1_3_2 + x_1_3_4 + x_1_3_5 + x_1_3_6 + x_1_3_7 + x_1_3_8 + x_1_3_9 - z_1_3 = 0
 c503: x_1_0_4 + x_1_10_4 + x_1_1_4 + x_1_2_4 + x_1_3_4 + x_1_5_4 + x_1_6_4 + x_1_7_4 + x_1_8_4 + x_1_9_4 - z_1_4 = 0
 c504: x_1_4_0 + x_1_4_1 + x_1_4_10 + x_1_4_2 + x_1_4_3 + x_1_4_5 + x_1_4_6 + x_1_4_7 + x_1_4_8 + x_1_4_9 - z_1_4 = 0
 c505: x_1_0_5 + x_1_10_5 + x_1_1_5 + x_1_2_5 + x_1_3_5 + x_1_4_5 + x_1_6_5 + x_1_7_5 + x_1_8_5 + x_1_9_5 - z_1_5 = 0
 c506: x_1_5_0 + x_1_5_1 + x_1_5_10 + x_1_5_2 + x_1_5_3 + x_1_5_4 + x_1_5_6 + x_1_5_7 + x_1_5_8 + x_1_5_9 - z_1_5 = 0
 c507: x_1_0_6 + x_1_10_6 + x_1_1_6 + x_1_2_6 + x_1_3_6 + x_1_4_6 + x_1_5_6 + x_1_7_6 + x_1_8_6 + x_1_9_6 - z_1_6 = 0
 c508: x_1_6_0 + x_1_6_1 + x_1_6_10 + x_1_6_2 + x_1_6_3 + x_1_6_4 + x_1_6_5 + x_1_6_7 + x_1_6_8 + x_1_6_9 - z_1_6 = 0
 c509: x_1_0_7 + x_1_10_7 + x_1_1_7 + x_1_2_7 + x_1_3_7 + x_1_4_7 + x_1_5_7 + x_1_6_7 + x_1_8_7 + x_1_9_7 - z_1_7 = 0
 c510: x_1_7_0 + x_1_7_1 + x_1_7_10 + x_1_7_2 + x_1_7_3 + x_1_7_4 + x_1_7_5 + x_1_7_6 + x_1_7_8 + x_1_7_9 - z_1_7 = 0
 c511: x_1_0_8 + x_1_10_8 + x_1_1_8 + x_1_2_8 + x_1_3_8 + x_1_4_8 + x_1_5_8 + x_1_6_8 + x_1_7_8 + x_1_9_8 - z_1_8 = 0
 c512: x_1_8_0 + x_1_8_1 + x_1_8_10 + x_1_8_2 + x_1_8_3 + x_1_8_4 + x_1_8_5 + x_1_8_6 + x_1_8_7 + x_1_8_9 - z_1_8 = 0
 c513: x_1_0_9 + x_1_10_9 + x_1_1_9 + x_1_2_9 + x_1_3_9 + x_1_4_9 + x_1_5_9 + x_1_6_9 + x_1_7_9 + x_1_8_9 - z_1_9 = 0
 c514: x_1_9_0 + x_1_9_1 + x_1_9_10 + x_1_9_2 + x_1_9_3 + x_1_9_4 + x_1_9_5 + x_1_9_6 + x_1_9_7 + x_1_9_8 - z_1_9 = 0
 c515: x_1_0_10 + x_1_1_10 + x_1_2_10 + x_1_3_10 + x_1_4_10 + x_1_5_10 + x_1_6_10 + x_1_7_10 + x_1_8_10 + x_1_9_10 - z_1_10 = 0
 c516: x_1_10_0 + x_1_10_1 + x_1_10_2 + x_1_10_3 + x_1_10_4 + x_1_10_5 + x_1_10_6 + x_1_10_7 + x_1_10_8 + x_1_10_9 - z_1_10 = 0
 c517: x_2_0_1 + x_2_0_10 + x_2_0_2 + x_2_0_3 + x_2_0_4 + x_2_0_5 + x_2_0_6 + x_2_0_7 + x_2_0_8 + x_2_0_9 - x_2_10_0 - x_2_1_0 - x_2_2_0 - x_2_3_0 - x_2_4_0 - x_2_5_0 - x_2_6_0 - x_2_7_0 - x_2_8_0 - x_2_9_0 = 0
 c518: x_2_0_1 + x_2_0_10 + x_2_0_2 + x_2_0_3 + x_2_0_4 + x_2_0_5 + x_2_0_6 + x_2_0_7 + x_2_0_8 + x_2_0_9 <= 1
 c519: x_2_0_1 + x_2_10_1 + x_2_2_1 + x_2_3_1 + x_2_4_1 + x_2_5_1 + x_2_6_1 + x_2_7_1 + x_2_8_1 + x_2_9_1 - z_2_1 = 0
 c520: x_2_1_0 + x_2_1_10 + x_2_1_2 + x_2_1_3 + x_2_1_4 + x_2_1_5 + x_2_1_6 + x_2_1_7 + x_2_1_8 + x_2_1_9 - z_2_1 = 0
 c521: x_2_0_2 + x_2_10_2 + x_2_1_2 + x_2_3_2 + x_2_4_2 + x_2_5_2 + x_2_6_2 + x_2_7_2 + x_2_8_2 + x_2_9_2 - z_2_2 = 0
 c522: x_2_2_0 + x_2_2_1 + x_2_2_10 + x_2_2_3 + x_2_2_4 + x_2_2_5 + x_2_2_6 + x_2_2_7 + x_2_2_8 + x_2_2_9 - z_2_2 = 0
 c523: x_2_0_3 + x_2_10_3 + x_2_1_3 + x_2_2_3 + x_2_4_3 + x_2_5_3 + x_2_6_3 + x_2_7_3 + x_2_8_3 + x_2_9_3 - z_2_3 = 0
 c524: x_2_3_0 + x_2_3_1 + x_2_3_10 + x_2_3_2 + x_2_3_4 + x_2_3_5 + x_2_3_6 + x_2_3_7 + x_2_3_8 + x_2_3_9 - z_2_3 = 0
 c525: x_2_0_4 + x_2_10_4 + x_2_1_4 + x_2_2_4 + x_2_3_4 + x_2_5_4 + x_2_6_4 + x_2_7_4 + x_2_8_4 + x_2_9_4 - z_2_4 = 0
 c526: x_2_4_0 + x_2_4_1 + x_2_4_10 + x_2_4_2 + x_2_4_3 + x_2_4_5 + x_2_4_6 + x_2_4_7 + x_2_4_8 + x_2_4_9 - z_2_4 = 0
 c527: x_2_0_5 + x_2_10_5 + x_2_1_5 + x_2_2_5 + x_2_3_5 + x_2_4_5 + x_2_6_5 + x_2_7_5 + x_2_8_5 + x_2_9_5 - z_2_5 = 0
 c528: x_2_5_0 + x_2_5_1 + x_2_5_10 + x_2_5_2 + x_2_5_3 + x_2_5_4 + x_2_5_6 + x_2_5_7 + x_2_5_8 + x_2_5_9 - z_2_5 = 0
 c529: x_2_0_6 + x_2_10_6 + x_2_1_6 + x_2_2_6 + x_2_3_6 + x_2_4_6 + x_2_5_6 + x_2_7_6 + x_2_8_6 + x_2_9_6 - z_2_6 = 0
 c530: x_2_6_0 + x_2_6_1 + x_2_6_10 + x_2_6_2 + x_2_6_3 + x_2_6_4 + x_2_6_5 + x_2_6_7 + x_2_6_8 + x_2_6_9 - z_2_6 = 0
 c531: x_2_0_7 + x_2_10_7 + x_2_1_7 + x_2_2_7 + x_2_3_7 + x_2_4_7 + x_2_5_7 + x_2_6_7 + x_2_8_7 + x_2_9_7 - z_2_7 = 0
 c532: x_2_7_0 + x_2_7_1 + x_2_7_10 + x_2_7_2 + x_2_7_3 + x_2_7_4 + x_2_7_5 + x_2_7_6 + x_2_7_8 + x_2_7_9 - z_2_7 = 0
 c533: x_2_0_8 + x_2_10_8 + x_2_1_8 + x_2_2_8 + x_2_3_8 + x_2_4_8 + x_2_5_8 + x_2_6_8 + x_2_7_8 + x_2_9_8 - z_2_8 = 0
 c534: x_2_8_0 + x_2_8_1 + x_2_8_10 + x_2_8_2 + x_2_8_3 + x_2_8_4 + x_2_8_5 + x_2_8_6 + x_2_8_7 + x_2_8_9 - z_2_8 = 0
 c535: x_2_0_9 + x_2_10_9 + x_2_1_9 + x_2_2_9 + x_2_3_9 + x_2_4_9 + x_2_5_9 + x_2_6_9 + x_2_7_9 + x_2_8_9 - z_2_9 = 0
 c536: x_2_9_0 + x_2_9_1 + x_2_9_10 + x_2_9_2 + x_2_9_3 + x_2_9_4 + x_2_9_5 + x_2_9_6 + x_2_9_7 + x_2_9_8 - z_2_9 = 0
 c537: x_2_0_10 + x_2_1_10 + x_2_2_10 + x_2_3_10 + x_2_4_10 + x_2_5_10 + x_2_6_10 + x_2_7_10 + x_2_8_10 + x_2_9_10 - z_2_10 = 0
 c538: x_2_10_0 + x_2_10_1 + x_2_10_2 + x_2_10_3 + x_2_10_4 + x_2_10_5 + x_2_10_6 + x_2_10_7 + x_2_10_8 + x_2_10_9 - z_2_10 = 0
 c539: conn_0_0_1 - 10 x_0_0_1 <= 0
 c540: conn_0_0_2 - 10 x_0_0_2 <= 0
 c541: conn_0_0_3 - 10 x_0_0_3 <= 0
 c542: conn_0_0_4 - 10 x_0_0_4 <= 0
 c543: conn_0_0_5 - 10 x_0_0_5 <= 0
 c544: conn_0_0_6 - 10 x_0_0_6 <= 0
 c545: conn_0_0_7 - 10 x_0_0_7 <= 0
 c546: conn_0_0_8 - 10 x_0_0_8 <= 0
 c547: conn_0_0_9 - 10 x_0_0_9 <= 0
 c548: conn_0_0_10 - 10 x_0_0_10 <= 0
 c549: conn_0_1_0 - 10 x_0_1_0 <= 0
 c550: conn_0_1_2 - 10 x_0_1_2 <= 0
 c551: conn_0_1_3 - 10 x_0_1_3 <= 0
 c552: conn_0_1_4 - 10 x_0_1_4 <= 0
 c553: conn_0_1_5 - 10 x_0_1_5 <= 0
 c554: conn_0_1_6 - 10 x_0_1_6 <= 0
 c555: conn_0_1_7 - 10 x_0_1_7 <= 0
 c556: conn_0_1_8 - 10 x_0_1_8 <= 0
 c557: conn_0_1_9 - 10 x_0_1_9 <= 0
 c558: conn_0_1_10 - 10 x_0_1_10 <= 0
 c559: conn_0_2_0 - 10 x_0_2_0 <= 0
 c560: conn_0_2_1 - 10 x_0_2_1 <= 0
 c561: conn_0_2_3 - 10 x_0_2_3 <= 0
 c562: conn_0_2_4 - 10 x_0_2_4 <= 0
 c563: conn_0_2_5 - 10 x_0_2_5 <= 0
 c564: conn_0_2_6 - 10 x_0_2_6 <= 0
 c565: conn_0_2_7 - 10 x_0_2_7 <= 0
 c566: conn_0_2_8 - 10 x_0_2_8 <= 0
 c567: conn_0_2_9 - 10 x_0_2_9 <= 0
 c568: conn_0_2_10 - 10 x_0_2_10 <= 0
 c569: conn_0_3_0 - 10 x_0_3_0 <= 0
 c570: conn_0_3_1 - 10 x_0_3_1 <= 0
 c571: conn_0_3_2 - 10 x_0_3_2 <= 0
 c572: conn_0_3_4 - 10 x_0_3_4 <= 0
 c573: conn_0_3_5 - 10 x_0_3_5 <= 0
 c574: conn_0_3_6 - 10 x_0_3_6 <= 0
 c575: conn_0_3_7 - 10 x_0_3_7 <= 0
 c576: conn_0_3_8 - 10 x_0_3_8 <= 0
 c577: conn_0_3_9 - 10 x_0_3_9 <= 0
 c578: conn_0_3_10 - 10 x_0_3_10 <= 0
 c579: conn_0_4_0 - 10 x_0_4_0 <= 0
 c580: conn_0_4_1 - 10 x_0_4_1 <= 0
 c581: conn_0_4_2 - 10 x_0_4_2 <= 0
 c582: conn_0_4_3 - 10 x_0_4_3 <= 0
 c583: conn_0_4_5 - 10 x_0_4_5 <= 0
 c584: conn_0_4_6 - 10 x_0_4_6 <= 0
 c585: conn_0_4_7 - 10 x_0_4_7 <= 0
 c586: conn_0_4_8 - 10 x_0_4_8 <= 0
 c587: conn_0_4_9 - 10 x_0_4_9 <= 0
 c588: conn_0_4_10 - 10 x_0_4_10 <= 0
 c589: conn_0_5_0 - 10 x_0_5_0 <= 0
 c590: conn_0_5_1 - 10 x_0_5_1 <= 0
 c591: conn_0_5_2 - 10 x_0_5_2 <= 0
 c592: conn_0_5_3 - 10 x_0_5_3 <= 0
 c593: conn_0_5_4 - 10 x_0_5_4 <= 0
 c594: conn_0_5_6 - 10 x_0_5_6 <= 0
 c595: conn_0_5_7 - 10 x_0_5_7 <= 0
 c596: conn_0_5_8 - 10 x_0_5_8 <= 0
 c597: conn_0_5_9 - 10 x_0_5_9 <= 0
 c598: conn_0_5_10 - 10 x_0_5_10 <= 0
 c599: conn_0_6_0 - 10 x_0_6_0 <= 0
 c600: conn_0_6_1 - 10 x_0_6_1 <= 0
 c601: conn_0_6_2 - 10 x_0_6_2 <= 0
 c602: conn_0_6_3 - 10 x_0_6_3 <= 0
 c603: conn_0_6_4 - 10 x_0_6_4 <= 0
 c604: conn_0_6_5 - 10 x_0_6_5 <= 0
 c605: conn_0_6_7 - 10 x_0_6_7 <= 0
 c606: conn_0_6_8 - 10 x_0_6_8 <= 0
 c607: conn_0_6_9 - 10 x_0_6_9 <= 0
 c608: conn_0_6_10 - 10 x_0_6_10 <= 0
 c609: conn_0_7_0 - 10 x_0_7_0 <= 0
 c610: conn_0_7_1 - 10 x_0_7_1 <= 0
 c611: conn_0_7_2 - 10 x_0_7_2 <= 0
 c612: conn_0_7_3 - 10 x_0_7_3 <= 0
 c613: conn_0_7_4 - 10 x_0_7_4 <= 0
 c614: conn_0_7_5 - 10 x_0_7_5 <= 0
 c615: conn_0_7_6 - 10 x_0_7_6 <= 0
 c616: conn_0_7_8 - 10 x_0_7_8 <= 0
 c617: conn_0_7_9 - 10 x_0_7_9 <= 0
 c618: conn_0_7_10 - 10 x_0_7_10 <= 0
 c619: conn_0_8_0 - 10 x_0_8_0 <= 0
 c620: conn_0_8_1 - 10 x_0_8_1 <= 0
 c621: conn_0_8_2 - 10 x_0_8_2 <= 0
 c622: conn_0_8_3 - 10 x_0_8_3 <= 0
 c623: conn_0_8_4 - 10 x_0_8_4 <= 0
 c624: conn_0_8_5 - 10 x_0_8_5 <= 0
 c625: conn_0_8_6 - 10 x_0_8_6 <= 0
 c626: conn_0_8_7 - 10 x_0_8_7 <= 0
 c627: conn_0_8_9 - 10 x_0_8_9 <= 0
 c628: conn_0_8_10 - 10 x_0_8_10 <= 0
 c629: conn_0_9_0 - 10 x_0_9_0 <= 0
 c630: conn_0_9_1 - 10 x_0_9_1 <= 0
 c631: conn_0_9_2 - 10 x_0_9_2 <= 0
 c632: conn_0_9_3 - 10 x_0_9_3 <= 0
 c633: conn_0_9_4 - 10 x_0_9_4 <= 0
 c634: conn_0_9_5 - 10 x_0_9_5 <= 0
 c635: conn_0_9_6 - 10 x_0_9_6 <= 0
 c636: conn_0_9_7 - 10 x_0_9_7 <= 0
 c637: conn_0_9_8 - 10 x_0_9_8 <= 0
 c638: conn_0_9_10 - 10 x_0_9_10 <= 0
 c639: conn_0_10_0 - 10 x_0_10_0 <= 0
 c640: conn_0_10_1 - 10 x_0_10_1 <= 0
 c641: conn_0_10_2 - 10 x_0_10_2 <= 0
 c642: conn_0_10_3 - 10 x_0_10_3 <= 0
 c643: conn_0_10_4 - 10 x_0_10_4 <= 0
 c644: conn_0_10_5 - 10 x_0_10_5 <= 0
 c645: conn_0_10_6 - 10 x_0_10_6 <= 0
 c646: conn_0_10_7 - 10 x_0_10_7 <= 0
 c647: conn_0_10_8 - 10 x_0_10_8 <= 0
 c648: conn_0_10_9 - 10 x_0_10_9 <= 0
 c649: conn_0_0_1 + conn_0_10_1 - conn_0_1_0 - conn_0_1_10 - conn_0_1_2 - conn_0_1_3 - conn_0_1_4 - conn_0_1_5 - conn_0_1_6 - conn_0_1_7 - conn_0_1_8 - conn_0_1_9 + conn_0_2_1 + conn_0_3_1 + conn_0_4_1 + conn_0_5_1 + conn_0_6_1 + conn_0_7_1 + conn_0_8_1 + conn_0_9_1 - z_0_1 = 0
 c650: conn_0_0_2 + conn_0_10_2 + conn_0_1_2 - conn_0_2_0 - conn_0_2_1 - conn_0_2_10 - conn_0_2_3 - conn_0_2_4 - conn_0_2_5 - conn_0_2_6 - conn_0_2_7 - conn_0_2_8 - conn_0_2_9 + conn_0_3_2 + conn_0_4_2 + conn_0_5_2 + conn_0_6_2 + conn_0_7_2 + conn_0_8_2 + conn_0_9_2 - z_0_2 = 0
 c651: conn_0_0_3 + conn_0_10_3 + conn_0_1_3 + conn_0_2_3 - conn_0_3_0 - conn_0_3_1 - conn_0_3_10 - conn_0_3_2 - conn_0_3_4 - conn_0_3_5 - conn_0_3_6 - conn_0_3_7 - conn_0_3_8 - conn_0_3_9 + conn_0_4_3 + conn_0_5_3 + conn_0_6_3 + conn_0_7_3 + conn_0_8_3 + conn_0_9_3 - z_0_3 = 0
 c652: conn_0_0_4 + conn_0_10_4 + conn_0_1_4 + conn_0_2_4 + conn_0_3_4 - conn_0_4_0 - conn_0_4_1 - conn_0_4_10 - conn_0_4_2 - conn_0_4_3 - conn_0_4_5 - conn_0_4_6 - conn_0_4_7 - conn_0_4_8 - conn_0_4_9 + conn_0_5_4 + conn_0_6_4 + conn_0_7_4 + conn_0_8_4 + conn_0_9_4 - z_0_4 = 0
 c653: conn_0_0_5 + conn_0_10_5 + conn_0_1_5 + conn_0_2_5 + conn_0_3_5 + conn_0_4_5 - conn_0_5_0 - conn_0_5_1 - conn_0_5_10 - conn_0_5_2 - conn_0_5_3 - conn_0_5_4 - conn_0_5_6 - conn_0_5_7 - conn_0_5_8 - conn_0_5_9 + conn_0_6_5 + conn_0_7_5 + conn_0_8_5 + conn_0_9_5 - z_0_5 = 0
 c654: conn_0_0_6 + conn_0_10_6 + conn_0_1_6 + conn_0_2_6 + conn_0_3_6 + conn_0_4_6 + conn_0_5_6 - conn_0_6_0 - conn_0_6_1 - conn_0_6_10 - conn_0_6_2 - conn_0_6_3 - conn_0_6_4 - conn_0_6_5 - conn_0_6_7 - conn_0_6_8 - conn_0_6_9 + conn_0_7_6 + conn_0_8_6 + conn_0_9_6 - z_0_6 = 0
 c655: conn_0_0_7 + conn_0_10_7 + conn_0_1_7 + conn_0_2_7 + conn_0_3_7 + conn_0_4_7 + conn_0_5_7 + conn_0_6_7 - conn_0_7_0 - conn_0_7_1 - conn_0_7_10 - conn_0_7_2 - conn_0_7_3 - conn_0_7_4 - conn_0_7_5 - conn_0_7_6 - conn_0_7_8 - conn_0_7_9 + conn_0_8_7 + conn_0_9_7 - z_0_7 = 0
 c656: conn_0_0_8 + conn_0_10_8 + conn_0_1_8 + conn_0_2_8 + conn_0_3_8 + conn_0_4_8 + conn_0_5_8 + conn_0_6_8 + conn_0_7_8 - conn_0_8_0 - conn_0_8_1 - conn_0_8_10 - conn_0_8_2 - conn_0_8_3 - conn_0_8_4 - conn_0_8_5 - conn_0_8_6 - conn_0_8_7 - conn_0_8_9 + conn_0_9_8 - z_0_8 = 0
 c657: conn_0_0_9 + conn_0_10_9 + conn_0_1_9 + conn_0_2_9 + conn_0_3_9 + conn_0_4_9 + conn_0_5_9 + conn_0_6_9 + conn_0_7_9 + conn_0_8_9 - conn_0_9_0 - conn_0_9_1 - conn_0_9_10 - conn_0_9_2 - conn_0_9_3 - conn_0_9_4 - conn_0_9_5 - conn_0_9_6 - conn_0_9_7 - conn_0_9_8 - z_0_9 = 0
 c658: conn_0_0_10 - conn_0_10_0 - conn_0_10_1 - conn_0_10_2 - conn_0_10_3 - conn_0_10_4 - conn_0_10_5 - conn_0_10_6 - conn_0_10_7 - conn_0_10_8 - conn_0_10_9 + conn_0_1_10 + conn_0_2_10 + conn_0_3_10 + conn_0_4_10 + conn_0_5_10 + conn_0_6_10 + conn_0_7_10 + conn_0_8_10 + conn_0_9_10 - z_0_10 = 0
 c659: conn_0_0_1 + conn_0_0_10 + conn_0_0_2 + conn_0_0_3 + conn_0_0_4 + conn_0_0_5 + conn_0_0_6 + conn_0_0_7 + conn_0_0_8 + conn_0_0_9 - conn_0_10_0 - conn_0_1_0 - conn_0_2_0 - conn_0_3_0 - conn_0_4_0 - conn_0_5_0 - conn_0_6_0 - conn_0_7_0 - conn_0_8_0 - conn_0_9_0 - z_0_1 - z_0_10 - z_0_2 - z_0_3 - z_0_4 - z_0_5 - z_0_6 - z_0_7 - z_0_8 - z_0_9 = 0
 c660: conn_1_0_1 - 10 x_1_0_1 <= 0
 c661: conn_1_0_2 - 10 x_1_0_2 <= 0
 c662: conn_1_0_3 - 10 x_1_0_3 <= 0
 c663: conn_1_0_4 - 10 x_1_0_4 <= 0
 c664: conn_1_0_5 - 10 x_1_0_5 <= 0
 c665: conn_1_0_6 - 10 x_1_0_6 <= 0
 c666: conn_1_0_7 - 10 x_1_0_7 <= 0
 c667: conn_1_0_8 - 10 x_1_0_8 <= 0
 c668: conn_1_0_9 - 10 x_1_0_9 <= 0
 c669: conn_1_0_10 - 10 x_1_0_10 <= 0
 c670: conn_1_1_0 - 10 x_1_1_0 <= 0
 c671: conn_1_1_2 - 10 x_1_1_2 <= 0
 c672: conn_1_1_3 - 10 x_1_1_3 <= 0
 c673: conn_1_1_4 - 10 x_1_1_4 <= 0
 c674: conn_1_1_5 - 10 x_1_1_5 <= 0
 c675: conn_1_1_6 - 10 x_1_1_6 <= 0
 c676: conn_1_1_7 - 10 x_1_1_7 <= 0
 c677: conn_1_1_8 - 10 x_1_1_8 <= 0
 c678: conn_1_1_9 - 10 x_1_1_9 <= 0
 c679: conn_1_1_10 - 10 x_1_1_10 <= 0
 c680: conn_1_2_0 - 10 x_1_2_0 <= 0
 c681: conn_1_2_1 - 10 x_1_2_1 <= 0
 c682: conn_1_2_3 - 10 x_1_2_3 <= 0
 c683: conn_1_2_4 - 10 x_1_2_4 <= 0
 c684: conn_1_2_5 - 10 x_1_2_5 <= 0
 c685: conn_1_2_6 - 10 x_1_2_6 <= 0
 c686: conn_1_2_7 - 10 x_1_2_7 <= 0
 c687: conn_1_2_8 - 10 x_1_2_8 <= 0
 c688: conn_1_2_9 - 10 x_1_2_9 <= 0
 c689: conn_1_2_10 - 10 x_1_2_10 <= 0
 c690: conn_1_3_0 - 10 x_1_3_0 <= 0
 c691: conn_1_3_1 - 10 x_1_3_1 <= 0
 c692: conn_1_3_2 - 10 x_1_3_2 <= 0
 c693: conn_1_3_4 - 10 x_1_3_4 <= 0
 c694: conn_1_3_5 - 10 x_1_3_5 <= 0
 c695: conn_1_3_6 - 10 x_1_3_6 <= 0
 c696: conn_1_3_7 - 10 x_1_3_7 <= 0
 c697: conn_1_3_8 - 10 x_1_3_8 <= 0
 c698: conn_1_3_9 - 10 x_1_3_9 <= 0
 c699: conn_1_3_10 - 10 x_1_3_10 <= 0
 c700: conn_1_4_0 - 10 x_1_4_0 <= 0
 c701: conn_1_4_1 - 10 x_1_4_1 <= 0
 c702: conn_1_4_2 - 10 x_1_4_2 <= 0
 c703: conn_1_4_3 - 10 x_1_4_3 <= 0
 c704: conn_1_4_5 - 10 x_1_4_5 <= 0
 c705: conn_1_4_6 - 10 x_1_4_6 <= 0
 c706: conn_1_4_7 - 10 x_1_4_7 <= 0
 c707: conn_1_4_8 - 10 x_1_4_8 <= 0
 c708: conn_1_4_9 - 10 x_1_4_9 <= 0
 c709: conn_1_4_10 - 10 x_1_4_10 <= 0
 c710: conn_1_5_0 - 10 x_1_5_0 <= 0
 c711: conn_1_5_1 - 10 x_1_5_1 <= 0
 c712: conn_1_5_2 - 10 x_1_5_2 <= 0
 c713: conn_1_5_3 - 10 x_1_5_3 <= 0
 c714: conn_1_5_4 - 10 x_1_5_4 <= 0
 c715: conn_1_5_6 - 10 x_1_5_6 <= 0
 c716: conn_1_5_7 - 10 x_1_5_7 <= 0
 c717: conn_1_5_8 - 10 x_1_5_8 <= 0
 c718: conn_1_5_9 - 10 x_1_5_9 <= 0
 c719: conn_1_5_10 - 10 x_1_5_10 <= 0
 c720: conn_1_6_0 - 10 x_1_6_0 <= 0
 c721: conn_1_6_1 - 10 x_1_6_1 <= 0
 c722: conn_1_6_2 - 10 x_1_6_2 <= 0
 c723: conn_1_6_3 - 10 x_1_6_3 <= 0
 c724: conn_1_6_4 - 10 x_1_6_4 <= 0
 c725: conn_1_6_5 - 10 x_1_6_5 <= 0
 c726: conn_1_6_7 - 10 x_1_6_7 <= 0
 c727: conn_1_6_8 - 10 x_1_6_8 <= 0
 c728: conn_1_6_9 - 10 x_1_6_9 <= 0
 c729: conn_1_6_10 - 10 x_1_6_10 <= 0
 c730: conn_1_7_0 - 10 x_1_7_0 <= 0
 c731: conn_1_7_1 - 10 x_1_7_1 <= 0
 c732: conn_1_7_2 - 10 x_1_7_2 <= 0
 c733: conn_1_7_3 - 10 x_1_7_3 <= 0
 c734: conn_1_7_4 - 10 x_1_7_4 <= 0
 c735: conn_1_7_5 - 10 x_1_7_5 <= 0
 c736: conn_1_7_6 - 10 x_1_7_6 <= 0
 c737: conn_1_7_8 - 10 x_1_7_8 <= 0
 c738: conn_1_7_9 - 10 x_1_7_9 <= 0
 c739: conn_1_7_10 - 10 x_1_7_10 <= 0
 c740: conn_1_8_0 - 10 x_1_8_0 <= 0
 c741: conn_1_8_1 - 10 x_1_8_1 <= 0
 c742: conn_1_8_2 - 10 x_1_8_2 <= 0
 c743: conn_1_8_3 - 10 x_1_8_3 <= 0
 c744: conn_1_8_4 - 10 x_1_8_4 <= 0
 c745: conn_1_8_5 - 10 x_1_8_5 <= 0
 c746: conn_1_8_6 - 10 x_1_8_6 <= 0
 c747: conn_1_8_7 - 10 x_1_8_7 <= 0
 c748: conn_1_8_9 - 10 x_1_8_9 <= 0
 c749: conn_1_8_10 - 10 x_1_8_10 <= 0
 c750: conn_1_9_0 - 10 x_1_9_0 <= 0
 c751: conn_1_9_1 - 10 x_1_9_1 <= 0
 c752: conn_1_9_2 - 10 x_1_9_2 <= 0
 c753: conn_1_9_3 - 10 x_1_9_3 <= 0
 c754: conn_1_9_4 - 10 x_1_9_4 <= 0
 c755: conn_1_9_5 - 10 x_1_9_5 <= 0
 c756: conn_1_9_6 - 10 x_1_9_6 <= 0
 c757: conn_1_9_7 - 10 x_1_9_7 <= 0
 c758: conn_1_9_8 - 10 x_1_9_8 <= 0
 c759: conn_1_9_10 - 10 x_1_9_10 <= 0
 c760: conn_1_10_0 - 10 x_1_10_0 <= 0
 c761: conn_1_10_1 - 10 x_1_10_1 <= 0
 c762: conn_1_10_2 - 10 x_1_10_2 <= 0
 c763: conn_1_10_3 - 10 x_1_10_3 <= 0
 c764: conn_1_10_4 - 10 x_1_10_4 <= 0
 c765: conn_1_10_5 - 10 x_1_10_5 <= 0
 c766: conn_1_10_6 - 10 x_1_10_6 <= 0
 c767: conn_1_10_7 - 10 x_1_10_7 <= 0
 c768: conn_1_10_8 - 10 x_1_10_8 <= 0
 c769: conn_1_10_9 - 10 x_1_10_9 <= 0
 c770: conn_1_0_1 + conn_1_10_1 - conn_1_1_0 - conn_1_1_10 - conn_1_1_2 - conn_1_1_3 - conn_1_1_4 - conn_1_1_5 - conn_1_1_6 - conn_1_1_7 - conn_1_1_8 - conn_1_1_9 + conn_1_2_1 + conn_1_3_1 + conn_1_4_1 + conn_1_5_1 + conn_1_6_1 + conn_1_7_1 + conn_1_8_1 + conn_1_9_1 - z_1_1 = 0
 c771: conn_1_0_2 + conn_1_10_2 + conn_1_1_2 - conn_1_2_0 - conn_1_2_1 - conn_1_2_10 - conn_1_2_3 - conn_1_2_4 - conn_1_2_5 - conn_1_2_6 - conn_1_2_7 - conn_1_2_8 - conn_1_2_9 + conn_1_3_2 + conn_1_4_2 + conn_1_5_2 + conn_1_6_2 + conn_1_7_2 + conn_1_8_2 + conn_1_9_2 - z_1_2 = 0
 c772: conn_1_0_3 + conn_1_10_3 + conn_1_1_3 + conn_1_2_3 - conn_1_3_0 - conn_1_3_1 - conn_1_3_10 - conn_1_3_2 - conn_1_3_4 - conn_1_3_5 - conn_1_3_6 - conn_1_3_7 - conn_1_3_8 - conn_1_3_9 + conn_1_4_3 + conn_1_5_3 + conn_1_6_3 + conn_1_7_3 + conn_1_8_3 + conn_1_9_3 - z_1_3 = 0
 c773: conn_1_0_4 + conn_1_10_4 + conn_1_1_4 + conn_1_2_4 + conn_1_3_4 - conn_1_4_0 - conn_1_4_1 - conn_1_4_10 - conn_1_4_2 - conn_1_4_3 - conn_1_4_5 - conn_1_4_6 - conn_1_4_7 - conn_1_4_8 - conn_1_4_9 + conn_1_5_4 + conn_1_6_4 + conn_1_7_4 + conn_1_8_4 + conn_1_9_4 - z_1_4 = 0
 c774: conn_1_0_5 + conn_1_10_5 + conn_1_1_5 + conn_1_2_5 + conn_1_3_5 + conn_1_4_5 - conn_1_5_0 - conn_1_5_1 - conn_1_5_10 - conn_1_5_2 - conn_1_5_3 - conn_1_5_4 - conn_1_5_6 - conn_1_5_7 - conn_1_5_8 - conn_1_5_9 + conn_1_6_5 + conn_1_7_5 + conn_1_8_5 + conn_1_9_5 - z_1_5 = 0
 c775: conn_1_0_6 + conn_1_10_6 + conn_1_1_6 + conn_1_2_6 + conn_1_3_6 + conn_1_4_6 + conn_1_5_6 - conn_1_6_0 - conn_1_6_1 - conn_1_6_10 - conn_1_6_2 - conn_1_6_3 - conn_1_6_4 - conn_1_6_5 - conn_1_6_7 - conn_1_6_8 - conn_1_6_9 + conn_1_7_6 + conn_1_8_6 + conn_1_9_6 - z_1_6 = 0
 c776: conn_1_0_7 + conn_1_10_7 + conn_1_1_7 + conn_1_2_7 + conn_1_3_7 + conn_1_4_7 + conn_1_5_7 + conn_1_6_7 - conn_1_7_0 - conn_1_7_1 - conn_1_7_10 - conn_1_7_2 - conn_1_7_3 - conn_1_7_4 - conn_1_7_5 - conn_1_7_6 - conn_1_7_8 - conn_1_7_9 + conn_1_8_7 + conn_1_9_7 - z_1_7 = 0
 c777: conn_1_0_8 + conn_1_10_8 + conn_1_1_8 + conn_1_2_8 + conn_1_3_8 + conn_1_4_8 + conn_1_5_8 + conn_1_6_8 + conn_1_7_8 - conn_1_8_0 - conn_1_8_1 - conn_1_8_10 - conn_1_8_2 - conn_1_8_3 - conn_1_8_4 - conn_1_8_5 - conn_1_8_6 - conn_1_8_7 - conn_1_8_9 + conn_1_9_8 - z_1_8 = 0
 c778: conn_1_0_9 + conn_1_10_9 + conn_1_1_9 + conn_1_2_9 + conn_1_3_9 + conn_1_4_9 + conn_1_5_9 + conn_1_6_9 + conn_1_7_9 + conn_1_8_9 - conn_1_9_0 - conn_1_9_1 - conn_1_9_10 - conn_1_9_2 - conn_1_9_3 - conn_1_9_4 - conn_1_9_5 - conn_1_9_6 - conn_1_9_7 - conn_1_9_8 - z_1_9 = 0
 c779: conn_1_0_10 - conn_1_10_0 - conn_1_10_1 - conn_1_10_2 - conn_1_10_3 - conn_1_10_4 - conn_1_10_5 - conn_1_10_6 - conn_1_10_7 - conn_1_10_8 - conn_1_10_9 + conn_1_1_10 + conn_1_2_10 + conn_1_3_10 + conn_1_4_10 + conn_1_5_10 + conn_1_6_10 + conn_1_7_10 + conn_1_8_10 + conn_1_9_10 - z_1_10 = 0
 c780: conn_1_0_1 + conn_1_0_10 + conn_1_0_2 + conn_1_0_3 + conn_1_0_4 + conn_1_0_5 + conn_1_0_6 + conn_1_0_7 + conn_1_0_8 + conn_1_0_9 - conn_1_10_0 - conn_1_1_0 - conn_1_2_0 - conn_1_3_0 - conn_1_4_0 - conn_1_5_0 - conn_1_6_0 - conn_1_7_0 - conn_1_8_0 - conn_1_9_0 - z_1_1 - z_1_10 - z_1_2 - z_1_3 - z_1_4 - z_1_5 - z_1_6 - z_1_7 - z_1_8 - z_1_9 = 0
 c781: conn_2_0_1 - 10 x_2_0_1 <= 0
 c782: conn_2_0_2 - 10 x_2_0_2 <= 0
 c783: conn_2_0_3 - 10 x_2_0_3 <= 0
 c784: conn_2_0_4 - 10 x_2_0_4 <= 0
 c785: conn_2_0_5 - 10 x_2_0_5 <= 0
 c786: conn_2_0_6 - 10 x_2_0_6 <= 0
 c787: conn_2_0_7 - 10 x_2_0_7 <= 0
 c788: conn_2_0_8 - 10 x_2_0_8 <= 0
 c789: conn_2_0_9 - 10 x_2_0_9 <= 0
 c790: conn_2_0_10 - 10 x_2_0_10 <= 0
 c791: conn_2_1_0 - 10 x_2_1_0 <= 0
 c792: conn_2_1_2 - 10 x_2_1_2 <= 0
 c793: conn_2_1_3 - 10 x_2_1_3 <= 0
 c794: conn_2_1_4 - 10 x_2_1_4 <= 0
 c795: conn_2_1_5 - 10 x_2_1_5 <= 0
 c796: conn_2_1_6 - 10 x_2_1_6 <= 0
 c797: conn_2_1_7 - 10 x_2_1_7 <= 0
 c798: conn_2_1_8 - 10 x_2_1_8 <= 0
 c799: conn_2_1_9 - 10 x_2_1_9 <= 0
 c800: conn_2_1_10 - 10 x_2_1_10 <= 0
 c801: conn_2_2_0 - 10 x_2_2_0 <= 0
 c802: conn_2_2_1 - 10 x_2_2_1 <= 0
 c803: conn_2_2_3 - 10 x_2_2_3 <= 0
 c804: conn_2_2_4 - 10 x_2_2_4 <= 0
 c805: conn_2_2_5 - 10 x_2_2_5 <= 0
 c806: conn_2_2_6 - 10 x_2_2_6 <= 0
 c807: conn_2_2_7 - 10 x_2_2_7 <= 0
 c808: conn_2_2_8 - 10 x_2_2_8 <= 0
 c809: conn_2_2_9 - 10 x_2_2_9 <= 0
 c810: conn_2_2_10 - 10 x_2_2_10 <= 0
 c811: conn_2_3_0 - 10 x_2_3_0 <= 0
 c812: conn_2_3_1 - 10 x_2_3_1 <= 0
 c813: conn_2_3_2 - 10 x_2_3_2 <= 0
 c814: conn_2_3_4 - 10 x_2_3_4 <= 0
 c815: conn_2_3_5 - 10 x_2_3_5 <= 0
 c816: conn_2_3_6 - 10 x_2_3_6 <= 0
 c817: conn_2_3_7 - 10 x_2_3_7 <= 0
 c818: conn_2_3_8 - 10 x_2_3_8 <= 0
 c819: conn_2_3_9 - 10 x_2_3_9 <= 0
 c820: conn_2_3_10 - 10 x_2_3_10 <= 0
 c821: conn_2_4_0 - 10 x_2_4_0 <= 0
 c822: conn_2_4_1 - 10 x_2_4_1 <= 0
 c823: conn_2_4_2 - 10 x_2_4_2 <= 0
 c824: conn_2_4_3 - 10 x_2_4_3 <= 0
 c825: conn_2_4_5 - 10 x_2_4_5 <= 0
 c826: conn_2_4_6 - 10 x_2_4_6 <= 0
 c827: conn_2_4_7 - 10 x_2_4_7 <= 0
 c828: conn_2_4_8 - 10 x_2_4_8 <= 0
 c829: conn_2_4_9 - 10 x_2_4_9 <= 0
 c830: conn_2_4_10 - 10 x_2_4_10 <= 0
 c831: conn_2_5_0 - 10 x_2_5_0 <= 0
 c832: conn_2_5_1 - 10 x_2_5_1 <= 0
 c833: conn_2_5_2 - 10 x_2_5_2 <= 0
 c834: conn_2_5_3 - 10 x_2_5_3 <= 0
 c835: conn_2_5_4 - 10 x_2_5_4 <= 0
 c836: conn_2_5_6 - 10 x_2_5_6 <= 0
 c837: conn_2_5_7 - 10 x_2_5_7 <= 0
 c838: conn_2_5_8 - 10 x_2_5_8 <= 0
 c839: conn_2_5_9 - 10 x_2_5_9 <= 0
 c840: conn_2_5_10 - 10 x_2_5_10 <= 0
 c841: conn_2_6_0 - 10 x_2_6_0 <= 0
 c842: conn_2_6_1 - 10 x_2_6_1 <= 0
 c843: conn_2_6_2 - 10 x_2_6_2 <= 0
 c844: conn_2_6_3 - 10 x_2_6_3 <= 0
 c845: conn_2_6_4 - 10 x_2_6_4 <= 0
 c846: conn_2_6_5 - 10 x_2_6_5 <= 0
 c847: conn_2_6_7 - 10 x_2_6_7 <= 0
 c848: conn_2_6_8 - 10 x_2_6_8 <= 0
 c849: conn_2_6_9 - 10 x_2_6_9 <= 0
 c850: conn_2_6_10 - 10 x_2_6_10 <= 0
 c851: conn_2_7_0 - 10 x_2_7_0 <= 0
 c852: conn_2_7_1 - 10 x_2_7_1 <= 0
 c853: conn_2_7_2 - 10 x_2_7_2 <= 0
 c854: conn_2_7_3 - 10 x_2_7_3 <= 0
 c855: conn_2_7_4 - 10 x_2_7_4 <= 0
 c856: conn_2_7_5 - 10 x_2_7_5 <= 0
 c857: conn_2_7_6 - 10 x_2_7_6 <= 0
 c858: conn_2_7_8 - 10 x_2_7_8 <= 0
 c859: conn_2_7_9 - 10 x_2_7_9 <= 0
 c860: conn_2_7_10 - 10 x_2_7_10 <= 0
 c861: conn_2_8_0 - 10 x_2_8_0 <= 0
 c862: conn_2_8_1 - 10 x_2_8_1 <= 0
 c863: conn_2_8_2 - 10 x_2_8_2 <= 0
 c864: conn_2_8_3 - 10 x_2_8_3 <= 0
 c865: conn_2_8_4 - 10 x_2_8_4 <= 0
 c866: conn_2_8_5 - 10 x_2_8_5 <= 0
 c867: conn_2_8_6 - 10 x_2_8_6 <= 0
 c868: conn_2_8_7 - 10 x_2_8_7 <= 0
 c869: conn_2_8_9 - 10 x_2_8_9 <= 0
 c870: conn_2_8_10 - 10 x_2_8_10 <= 0
 c871: conn_2_9_0 - 10 x_2_9_0 <= 0
 c872: conn_2_9_1 - 10 x_2_9_1 <= 0
 c873: conn_2_9_2 - 10 x_2_9_2 <= 0
 c874: conn_2_9_3 - 10 x_2_9_3 <= 0
 c875: conn_2_9_4 - 10 x_2_9_4 <= 0
 c876: conn_2_9_5 - 10 x_2_9_5 <= 0
 c877: conn_2_9_6 - 10 x_2_9_6 <= 0
 c878: conn_2_9_7 - 10 x_2_9_7 <= 0
 c879: conn_2_9_8 - 10 x_2_9_8 <= 0
 c880: conn_2_9_10 - 10 x_2_9_10 <= 0
 c881: conn_2_10_0 - 10 x_2_10_0 <= 0
 c882: conn_2_10_1 - 10 x_2_10_1 <= 0
 c883: conn_2_10_2 - 10 x_2_10_2 <= 0
 c884: conn_2_10_3 - 10 x_2_10_3 <= 0
 c885: conn_2_10_4 - 10 x_2_10_4 <= 0
 c886: conn_2_10_5 - 10 x_2_10_5 <= 0
 c887: conn_2_10_6 - 10 x_2_10_6 <= 0
 c888: conn_2_10_7 - 10 x_2_10_7 <= 0
 c889: conn_2_10_8 - 10 x_2_10_8 <= 0
 c890: conn_2_10_9 - 10 x_2_10_9 <= 0
 c891: conn_2_0_1 + conn_2_10_1 - conn_2_1_0 - conn_2_1_10 - conn_2_1_2 - conn_2_1_3 - conn_2_1_4 - conn_2_1_5 - conn_2_1_6 - conn_2_1_7 - conn_2_1_8 - conn_2_1_9 + conn_2_2_1 + conn_2_3_1 + conn_2_4_1 + conn_2_5_1 + conn_2_6_1 + conn_2_7_1 + conn_2_8_1 + conn_2_9_1 - z_2_1 = 0
 c892: conn_2_0_2 + conn_2_10_2 + conn_2_1_2 - conn_2_2_0 - conn_2_2_1 - conn_2_2_10 - conn_2_2_3 - conn_2_2_4 - conn_2_2_5 - conn_2_2_6 - conn_2_2_7 - conn_2_2_8 - conn_2_2_9 + conn_2_3_2 + conn_2_4_2 + conn_2_5_2 + conn_2_6_2 + conn_2_7_2 + conn_2_8_2 + conn_2_9_2 - z_2_2 = 0
 c893: conn_2_0_3 + conn_2_10_3 + conn_2_1_3 + conn_2_2_3 - conn_2_3_0 - conn_2_3_1 - conn_2_3_10 - conn_2_3_2 - conn_2_3_4 - conn_2_3_5 - conn_2_3_6 - conn_2_3_7 - conn_2_3_8 - conn_2_3_9 + conn_2_4_3 + conn_2_5_3 + conn_2_6_3 + conn_2_7_3 + conn_2_8_3 + conn_2_9_3 - z_2_3 = 0
 c894: conn_2_0_4 + conn_2_10_4 + conn_2_1_4 + conn_2_2_4 + conn_2_3_4 - conn_2_4_0 - conn_2_4_1 - conn_2_4_10 - conn_2_4_2 - conn_2_4_3 - conn_2_4_5 - conn_2_4_6 - conn_2_4_7 - conn_2_4_8 - conn_2_4_9 + conn_2_5_4 + conn_2_6_4 + conn_2_7_4 + conn_2_8_4 + conn_2_9_4 - z_2_4 = 0
 c895: conn_2_0_5 + conn_2_10_5 + conn_2_1_5 + conn_2_2_5 + conn_2_3_5 + conn_2_4_5 - conn_2_5_0 - conn_2_5_1 - conn_2_5_10 - conn_2_5_2 - conn_2_5_3 - conn_2_5_4 - conn_2_5_6 - conn_2_5_7 - conn_2_5_8 - conn_2_5_9 + conn_2_6_5 + conn_2_7_5 + conn_2_8_5 + conn_2_9_5 - z_2_5 = 0
 c896: conn_2_0_6 + conn_2_10_6 + conn_2_1_6 + conn_2_2_6 + conn_2_3_6 + conn_2_4_6 + conn_2_5_6 - conn_2_6_0 - conn_2_6_1 - conn_2_6_10 - conn_2_6_2 - conn_2_6_3 - conn_2_6_4 - conn_2_6_5 - conn_2_6_7 - conn_2_6_8 - conn_2_6_9 + conn_2_7_6 + conn_2_8_6 + conn_2_9_6 - z_2_6 = 0
 c897: conn_2_0_7 + conn_2_10_7 + conn_2_1_7 + conn_2_2_7 + conn_2_3_7 + conn_2_4_7 + conn_2_5_7 + conn_2_6_7 - conn_2_7_0 - conn_2_7_1 - conn_2_7_10 - conn_2_7_2 - conn_2_7_3 - conn_2_7_4 - conn_2_7_5 - conn_2_7_6 - conn_2_7_8 - conn_2_7_9 + conn_2_8_7 + conn_2_9_7 - z_2_7 = 0
 c898: conn_2_0_8 + conn_2_10_8 + conn_2_1_8 + conn_2_2_8 + conn_2_3_8 + conn_2_4_8 + conn_2_5_8 + conn_2_6_8 + conn_2_7_8 - conn_2_8_0 - conn_2_8_1 - conn_2_8_10 - conn_2_8_2 - conn_2_8_3 - conn_2_8_4 - conn_2_8_5 - conn_2_8_6 - conn_2_8_7 - conn_2_8_9 + conn_2_9_8 - z_2_8 = 0
 c899: conn_2_0_9 + conn_2_10_9 + conn_2_1_9 + conn_2_2_9 + conn_2_3_9 + conn_2_4_9 + conn_2_5_9 + conn_2_6_9 + conn_2_7_9 + conn_2_8_9 - conn_2_9_0 - conn_2_9_1 - conn_2_9_10 - conn_2_9_2 - conn_2_9_3 - conn_2_9_4 - conn_2_9_5 - conn_2_9_6 - conn_2_9_7 - conn_2_9_8 - z_2_9 = 0
 c900: conn_2_0_10 - conn_2_10_0 - conn_2_10_1 - conn_2_10_2 - conn_2_10_3 - conn_2_10_4 - conn_2_10_5 - conn_2_10_6 - conn_2_10_7 - conn_2_10_8 - conn_2_10_9 + conn_2_1_10 + conn_2_2_10 + conn_2_3_10 + conn_2_4_10 + conn_2_5_10 + conn_2_6_10 + conn_2_7_10 + conn_2_8_10 + conn_2_9_10 - z_2_10 = 0
 c901: conn_2_0_1 + conn_2_0_10 + conn_2_0_2 + conn_2_0_3 + conn_2_0_4 + conn_2_0_5 + conn_2_0_6 + conn_2_0_7 + conn_2_0_8 + conn_2_0_9 - conn_2_10_0 - conn_2_1_0 - conn_2_2_0 - conn_2_3_0 - conn_2_4_0 - conn_2_5_0 - conn_2_6_0 - conn_2_7_0 - conn_2_8_0 - conn_2_9_0 - z_2_1 - z_2_10 - z_2_2 - z_2_3 - z_2_4 - z_2_5 - z_2_6 - z_2_7 - z_2_8 - z_2_9 = 0
 c902: z_0_1 + z_1_1 + z_2_1 <= 1
 c903: z_0_2 + z_1_2 + z_2_2 <= 1
 c904: z_0_3 + z_1_3 + z_2_3 <= 1
 c905: z_0_4 + z_1_4 + z_2_4 <= 1
 c906: z_0_5 + z_1_5 + z_2_5 <= 1
 c907: z_0_6 + z_1_6 + z_2_6 <= 1
 c908: z_0_7 + z_1_7 + z_2_7 <= 1
 c909: z_0_8 + z_1_8 + z_2_8 <= 1
 c910: z_0_9 + z_1_9 + z_2_9 <= 1
 c911: z_0_10 + z_1_10 + z_2_10 <= 1
 c912: Y_1 + Y_10 + Y_2 + Y_3 + Y_4 + Y_5 + Y_6 + Y_7 + Y_8 + Y_9 <= 128
 c913: Y_1 + Y_10 + Y_2 + Y_3 + Y_4 + Y_5 + Y_6 + Y_7 + Y_8 + Y_9 >= 38
 c914: d_0_1 - p_0_10 - p_0_2 - p_0_3 - p_0_4 - p_0_5 - p_0_6 - p_0_7 - p_0_8 - p_0_9 <= 0
 c915: d_0_2 - p_0_1 - p_0_10 - p_0_3 - p_0_4 - p_0_5 - p_0_6 - p_0_7 - p_0_8 - p_0_9 <= 0
 c916: d_0_3 - p_0_1 - p_0_10 - p_0_2 - p_0_4 - p_0_5 - p_0_6 - p_0_7 - p_0_8 - p_0_9 <= 0
 c917: d_0_4 - p_0_1 - p_0_10 - p_0_2 - p_0_3 - p_0_5 - p_0_6 - p_0_7 - p_0_8 - p_0_9 <= 0
 c918: d_0_5 - p_0_1 - p_0_10 - p_0_2 - p_0_3 - p_0_4 - p_0_6 - p_0_7 - p_0_8 - p_0_9 <= 0
 c919: d_0_6 - p_0_1 - p_0_10 - p_0_2 - p_0_3 - p_0_4 - p_0_5 - p_0_7 - p_0_8 - p_0_9 <= 0
 c920: d_0_7 - p_0_1 - p_0_10 - p_0_2 - p_0_3 - p_0_4 - p_0_5 - p_0_6 - p_0_8 - p_0_9 <= 0
 c921: d_0_8 - p_0_1 - p_0_10 - p_0_2 - p_0_3 - p_0_4 - p_0_5 - p_0_6 - p_0_7 - p_0_9 <= 0
 c922: d_0_9 - p_0_1 - p_0_10 - p_0_2 - p_0_3 - p_0_4 - p_0_5 - p_0_6 - p_0_7 - p_0_8 <= 0
 c923: d_0_10 - p_0_1 - p_0_2 - p_0_3 - p_0_4 - p_0_5 - p_0_6 - p_0_7 - p_0_8 - p_0_9 <= 0
 c924: d_1_1 - p_1_10 - p_1_2 - p_1_3 - p_1_4 - p_1_5 - p_1_6 - p_1_7 - p_1_8 - p_1_9 <= 0
 c925: d_1_2 - p_1_1 - p_1_10 - p_1_3 - p_1_4 - p_1_5 - p_1_6 - p_1_7 - p_1_8 - p_1_9 <= 0
 c926: d_1_3 - p_1_1 - p_1_10 - p_1_2 - p_1_4 - p_1_5 - p_1_6 - p_1_7 - p_1_8 - p_1_9 <= 0
 c927: d_1_4 - p_1_1 - p_1_10 - p_1_2 - p_1_3 - p_1_5 - p_1_6 - p_1_7 - p_1_8 - p_1_9 <= 0
 c928: d_1_5 - p_1_1 - p_1_10 - p_1_2 - p_1_3 - p_1_4 - p_1_6 - p_1_7 - p_1_8 - p_1_9 <= 0
 c929: d_1_6 - p_1_1 - p_1_10 - p_1_2 - p_1_3 - p_1_4 - p_1_5 - p_1_7 - p_1_8 - p_1_9 <= 0
 c930: d_1_7 - p_1_1 - p_1_10 - p_1_2 - p_1_3 - p_1_4 - p_1_5 - p_1_6 - p_1_8 - p_1_9 <= 0
 c931: d_1_8 - p_1_1 - p_1_10 - p_1_2 - p_1_3 - p_1_4 - p_1_5 - p_1_6 - p_1_7 - p_1_9 <= 0
 c932: d_1_9 - p_1_1 - p_1_10 - p_1_2 - p_1_3 - p_1_4 - p_1_5 - p_1_6 - p_1_7 - p_1_8 <= 0
 c933: d_1_10 - p_1_1 - p_1_2 - p_1_3 - p_1_4 - p_1_5 - p_1_6 - p_1_7 - p_1_8 - p_1_9 <= 0
 c934: d_2_1 - p_2_10 - p_2_2 - p_2_3 - p_2_4 - p_2_5 - p_2_6 - p_2_7 - p_2_8 - p_2_9 <= 0
 c935: d_2_2 - p_2_1 - p_2_10 - p_2_3 - p_2_4 - p_2_5 - p_2_6 - p_2_7 - p_2_8 - p_2_9 <= 0
 c936: d_2_3 - p_2_1 - p_2_10 - p_2_2 - p_2_4 - p_2_5 - p_2_6 - p_2_7 - p_2_8 - p_2_9 <= 0
 c937: d_2_4 - p_2_1 - p_2_10 - p_2_2 - p_2_3 - p_2_5 - p_2_6 - p_2_7 - p_2_8 - p_2_9 <= 0
 c938: d_2_5 - p_2_1 - p_2_10 - p_2_2 - p_2_3 - p_2_4 - p_2_6 - p_2_7 - p_2_8 - p_2_9 <= 0
 c939: d_2_6 - p_2_1 - p_2_10 - p_2_2 - p_2_3 - p_2_4 - p_2_5 - p_2_7 - p_2_8 - p_2_9 <= 0
 c940: d_2_7 - p_2_1 - p_2_10 - p_2_2 - p_2_3 - p_2_4 - p_2_5 - p_2_6 - p_2_8 - p_2_9 <= 0
 c941: d_2_8 - p_2_1 - p_2_10 - p_2_2 - p_2_3 - p_2_4 - p_2_5 - p_2_6 - p_2_7 - p_2_9 <= 0
 c942: d_2_9 - p_2_1 - p_2_10 - p_2_2 - p_2_3 - p_2_4 - p_2_5 - p_2_6 - p_2_7 - p_2_8 <= 0
 c943: d_2_10 - p_2_1 - p_2_2 - p_2_3 - p_2_4 - p_2_5 - p_2_6 - p_2_7 - p_2_8 - p_2_9 <= 0
 c944: ord_0_1 - z_0_1 >= 0
 c945: ord_0_1 - 10 z_0_1 <= 0
 c946: ord_0_2 - z_0_2 >= 0
 c947: ord_0_2 - 10 z_0_2 <= 0
 c948: ord_0_3 - z_0_3 >= 0
 c949: ord_0_3 - 10 z_0_3 <= 0
 c950: ord_0_4 - z_0_4 >= 0
 c951: ord_0_4 - 10 z_0_4 <= 0
 c952: ord_0_5 - z_0_5 >= 0
 c953: ord_0_5 - 10 z_0_5 <= 0
 c954: ord_0_6 - z_0_6 >= 0
 c955: ord_0_6 - 10 z_0_6 <= 0
 c956: ord_0_7 - z_0_7 >= 0
 c957: ord_0_7 - 10 z_0_7 <= 0
 c958: ord_0_8 - z_0_8 >= 0
 c959: ord_0_8 - 10 z_0_8 <= 0
 c960: ord_0_9 - z_0_9 >= 0
 c961: ord_0_9 - 10 z_0_9 <= 0
 c962: ord_0_10 - z_0_10 >= 0
 c963: ord_0_10 - 10 z_0_10 <= 0
 c964: ord_0_1 - ord_0_2 + 10 x_0_1_2 <= 9
 c965: ord_0_1 - ord_0_3 + 10 x_0_1_3 <= 9
 c966: ord_0_1 - ord_0_4 + 10 x_0_1_4 <= 9
 c967: ord_0_1 - ord_0_5 + 10 x_0_1_5 <= 9
 c968: ord_0_1 - ord_0_6 + 10 x_0_1_6 <= 9
 c969: ord_0_1 - ord_0_7 + 10 x_0_1_7 <= 9
 c970: ord_0_1 - ord_0_8 + 10 x_0_1_8 <= 9
 c971: ord_0_1 - ord_0_9 + 10 x_0_1_9 <= 9
 c972: ord_0_1 - ord_0_10 + 10 x_0_1_10 <= 9
 c973: - ord_0_1 + ord_0_2 + 10 x_0_2_1 <= 9
 c974: ord_0_2 - ord_0_3 + 10 x_0_2_3 <= 9
 c975: ord_0_2 - ord_0_4 + 10 x_0_2_4 <= 9
 c976: ord_0_2 - ord_0_5 + 10 x_0_2_5 <= 9
 c977: ord_0_2 - ord_0_6 + 10 x_0_2_6 <= 9
 c978: ord_0_2 - ord_0_7 + 10 x_0_2_7 <= 9
 c979: ord_0_2 - ord_0_8 + 10 x_0_2_8 <= 9
 c980: ord_0_2 - ord_0_9 + 10 x_0_2_9 <= 9
 c981: - ord_0_10 + ord_0_2 + 10 x_0_2_10 <= 9
 c982: - ord_0_1 + ord_0_3 + 10 x_0_3_1 <= 9
 c983: - ord_0_2 + ord_0_3 + 10 x_0_3_2 <= 9
 c984: ord_0_3 - ord_0_4 + 10 x_0_3_4 <= 9
 c985: ord_0_3 - ord_0_5 + 10 x_0_3_5 <= 9
 c986: ord_0_3 - ord_0_6 + 10 x_0_3_6 <= 9
 c987: ord_0_3 - ord_0_7 + 10 x_0_3_7 <= 9
 c988: ord_0_3 - ord_0_8 + 10 x_0_3_8 <= 9
 c989: ord_0_3 - ord_0_9 + 10 x_0_3_9 <= 9
 c990: - ord_0_10 + ord_0_3 + 10 x_0_3_10 <= 9
 c991: - ord_0_1 + ord_0_4 + 10 x_0_4_1 <= 9
 c992: - ord_0_2 + ord_0_4 + 10 x_0_4_2 <= 9
 c993: - ord_0_3 + ord_0_4 + 10 x_0_4_3 <= 9
 c994: ord_0_4 - ord_0_5 + 10 x_0_4_5 <= 9
 c995: ord_0_4 - ord_0_6 + 10 x_0_4_6 <= 9
 c996: ord_0_4 - ord_0_7 + 10 x_0_4_7 <= 9
 c997: ord_0_4 - ord_0_8 + 10 x_0_4_8 <= 9
 c998: ord_0_4 - ord_0_9 + 10 x_0_4_9 <= 9
 c999: - ord_0_10 + ord_0_4 + 10 x_0_4_10 <= 9
 c1000: - ord_0_1 + ord_0_5 + 10 x_0_5_1 <= 9
 c1001: - ord_0_2 + ord_0_5 + 10 x_0_5_2 <= 9
 c1002: - ord_0_3 + ord_0_5 + 10 x_0_5_3 <= 9
 c1003: - ord_0_4 + ord_0_5 + 10 x_0_5_4 <= 9
 c1004: ord_0_5 - ord_0_6 + 10 x_0_5_6 <= 9
 c1005: ord_0_5 - ord_0_7 + 10 x_0_5_7 <= 9
 c1006: ord_0_5 - ord_0_8 + 10 x_0_5_8 <= 9
 c1007: ord_0_5 - ord_0_9 + 10 x_0_5_9 <= 9
 c1008: - ord_0_10 + ord_0_5 + 10 x_0_5_10 <= 9
 c1009: - ord_0_1 + ord_0_6 + 10 x_0_6_1 <= 9
 c1010: - ord_0_2 + ord_0_6 + 10 x_0_6_2 <= 9
 c1011: - ord_0_3 + ord_0_6 + 10 x_0_6_3 <= 9
 c1012: - ord_0_4 + ord_0_6 + 10 x_0_6_4 <= 9
 c1013: - ord_0_5 + ord_0_6 + 10 x_0_6_5 <= 9
 c1014: ord_0_6 - ord_0_7 + 10 x_0_6_7 <= 9
 c1015: ord_0_6 - ord_0_8 + 10 x_0_6_8 <= 9
 c1016: ord_0_6 - ord_0_9 + 10 x_0_6_9 <= 9
 c1017: - ord_0_10 + ord_0_6 + 10 x_0_6_10 <= 9
 c1018: - ord_0_1 + ord_0_7 + 10 x_0_7_1 <= 9
 c1019: - ord_0_2 + ord_0_7 + 10 x_0_7_2 <= 9
 c1020: - ord_0_3 + ord_0_7 + 10 x_0_7_3 <= 9
 c1021: - ord_0_4 + ord_0_7 + 10 x_0_7_4 <= 9
 c1022: - ord_0_5 + ord_0_7 + 10 x_0_7_5 <= 9
 c1023: - ord_0_6 + ord_0_7 + 10 x_0_7_6 <= 9
 c1024: ord_0_7 - ord_0_8 + 10 x_0_7_8 <= 9
 c1025: ord_0_7 - ord_0_9 + 10 x_0_7_9 <= 9
 c1026: - ord_0_10 + ord_0_7 + 10 x_0_7_10 <= 9
 c1027: - ord_0_1 + ord_0_8 + 10 x_0_8_1 <= 9
 c1028: - ord_0_2 + ord_0_8 + 10 x_0_8_2 <= 9
 c1029: - ord_0_3 + ord_0_8 + 10 x_0_8_3 <= 9
 c1030: - ord_0_4 + ord_0_8 + 10 x_0_8_4 <= 9
 c1031: - ord_0_5 + ord_0_8 + 10 x_0_8_5 <= 9
 c1032: - ord_0_6 + ord_0_8 + 10 x_0_8_6 <= 9
 c1033: - ord_0_7 + ord_0_8 + 10 x_0_8_7 <= 9
 c1034: ord_0_8 - ord_0_9 + 10 x_0_8_9 <= 9
 c1035: - ord_0_10 + ord_0_8 + 10 x_0_8_10 <= 9
 c1036: - ord_0_1 + ord_0_9 + 10 x_0_9_1 <= 9
 c1037: - ord_0_2 + ord_0_9 + 10 x_0_9_2 <= 9
 c1038: - ord_0_3 + ord_0_9 + 10 x_0_9_3 <= 9
 c1039: - ord_0_4 + ord_0_9 + 10 x_0_9_4 <= 9
 c1040: - ord_0_5 + ord_0_9 + 10 x_0_9_5 <= 9
 c1041: - ord_0_6 + ord_0_9 + 10 x_0_9_6 <= 9
 c1042: - ord_0_7 + ord_0_9 + 10 x_0_9_7 <= 9
 c1043: - ord_0_8 + ord_0_9 + 10 x_0_9_8 <= 9
 c1044: - ord_0_10 + ord_0_9 + 10 x_0_9_10 <= 9
 c1045: - ord_0_1 + ord_0_10 + 10 x_0_10_1 <= 9
 c1046: ord_0_10 - ord_0_2 + 10 x_0_10_2 <= 9
 c1047: ord_0_10 - ord_0_3 + 10 x_0_10_3 <= 9
 c1048: ord_0_10 - ord_0_4 + 10 x_0_10_4 <= 9
 c1049: ord_0_10 - ord_0_5 + 10 x_0_10_5 <= 9
 c1050: ord_0_10 - ord_0_6 + 10 x_0_10_6 <= 9
 c1051: ord_0_10 - ord_0_7 + 10 x_0_10_7 <= 9
 c1052: ord_0_10 - ord_0_8 + 10 x_0_10_8 <= 9
 c1053: ord_0_10 - ord_0_9 + 10 x_0_10_9 <= 9
 c1054: ord_1_1 - z_1_1 >= 0
 c1055: ord_1_1 - 10 z_1_1 <= 0
 c1056: ord_1_2 - z_1_2 >= 0
 c1057: ord_1_2 - 10 z_1_2 <= 0
 c1058: ord_1_3 - z_1_3 >= 0
 c1059: ord_1_3 - 10 z_1_3 <= 0
 c1060: ord_1_4 - z_1_4 >= 0
 c1061: ord_1_4 - 10 z_1_4 <= 0
 c1062: ord_1_5 - z_1_5 >= 0
 c1063: ord_1_5 - 10 z_1_5 <= 0
 c1064: ord_1_6 - z_1_6 >= 0
 c1065: ord_1_6 - 10 z_1_6 <= 0
 c1066: ord_1_7 - z_1_7 >= 0
 c1067: ord_1_7 - 10 z_1_7 <= 0
 c1068: ord_1_8 - z_1_8 >= 0
 c1069: ord_1_8 - 10 z_1_8 <= 0
 c1070: ord_1_9 - z_1_9 >= 0
 c1071: ord_1_9 - 10 z_1_9 <= 0
 c1072: ord_1_10 - z_1_10 >= 0
 c1073: ord_1_10 - 10 z_1_10 <= 0
 c1074: ord_1_1 - ord_1_2 + 10 x_1_1_2 <= 9
 c1075: ord_1_1 - ord_1_3 + 10 x_1_1_3 <= 9
 c1076: ord_1_1 - ord_1_4 + 10 x_1_1_4 <= 9
 c1077: ord_1_1 - ord_1_5 + 10 x_1_1_5 <= 9
 c1078: ord_1_1 - ord_1_6 + 10 x_1_1_6 <= 9
 c1079: ord_1_1 - ord_1_7 + 10 x_1_1_7 <= 9
 c1080: ord_1_1 - ord_1_8 + 10 x_1_1_8 <= 9
 c1081: ord_1_1 - ord_1_9 + 10 x_1_1_9 <= 9
 c1082: ord_1_1 - ord_1_10 + 10 x_1_1_10 <= 9
 c1083: - ord_1_1 + ord_1_2 + 10 x_1_2_1 <= 9
 c1084: ord_1_2 - ord_1_3 + 10 x_1_2_3 <= 9
 c1085: ord_1_2 - ord_1_4 + 10 x_1_2_4 <= 9
 c1086: ord_1_2 - ord_1_5 + 10 x_1_2_5 <= 9
 c1087: ord_1_2 - ord_1_6 + 10 x_1_2_6 <= 9
 c1088: ord_1_2 - ord_1_7 + 10 x_1_2_7 <= 9
 c1089: ord_1_2 - ord_1_8 + 10 x_1_2_8 <= 9
 c1090: ord_1_2 - ord_1_9 + 10 x_1_2_9 <= 9
 c1091: - ord_1_10 + ord_1_2 + 10 x_1_2_10 <= 9
 c1092: - ord_1_1 + ord_1_3 + 10 x_1_3_1 <= 9
 c1093: - ord_1_2 + ord_1_3 + 10 x_1_3_2 <= 9
 c1094: ord_1_3 - ord_1_4 + 10 x_1_3_4 <= 9
 c1095: ord_1_3 - ord_1_5 + 10 x_1_3_5 <= 9
 c1096: ord_1_3 - ord_1_6 + 10 x_1_3_6 <= 9
 c1097: ord_1_3 - ord_1_7 + 10 x_1_3_7 <= 9
 c1098: ord_1_3 - ord_1_8 + 10 x_1_3_8 <= 9
 c1099: ord_1_3 - ord_1_9 + 10 x_1_3_9 <= 9
 c1100: - ord_1_10 + ord_1_3 + 10 x_1_3_10 <= 9
 c1101: - ord_1_1 + ord_1_4 + 10 x_1_4_1 <= 9
 c1102: - ord_1_2 + ord_1_4 + 10 x_1_4_2 <= 9
 c1103: - ord_1_3 + ord_1_4 + 10 x_1_4_3 <= 9
 c1104: ord_1_4 - ord_1_5 + 10 x_1_4_5 <= 9
 c1105: ord_1_4 - ord_1_6 + 10 x_1_4_6 <= 9
 c1106: ord_1_4 - ord_1_7 + 10 x_1_4_7 <= 9
 c1107: ord_1_4 - ord_1_8 + 10 x_1_4_8 <= 9
 c1108: ord_1_4 - ord_1_9 + 10 x_1_4_9 <= 9
 c1109: - ord_1_10 + ord_1_4 + 10 x_1_4_10 <= 9
 c1110: - ord_1_1 + ord_1_5 + 10 x_1_5_1 <= 9
 c1111: - ord_1_2 + ord_1_5 + 10 x_1_5_2 <= 9
 c1112: - ord_1_3 + ord_1_5 + 10 x_1_5_3 <= 9
 c1113: - ord_1_4 + ord_1_5 + 10 x_1_5_4 <= 9
 c1114: ord_1_5 - ord_1_6 + 10 x_1_5_6 <= 9
 c1115: ord_1_5 - ord_1_7 + 10 x_1_5_7 <= 9
 c1116: ord_1_5 - ord_1_8 + 10 x_1_5_8 <= 9
 c1117: ord_1_5 - ord_1_9 + 10 x_1_5_9 <= 9
 c1118: - ord_1_10 + ord_1_5 + 10 x_1_5_10 <= 9
 c1119: - ord_1_1 + ord_1_6 + 10 x_1_6_1 <= 9
 c1120: - ord_1_2 + ord_1_6 + 10 x_1_6_2 <= 9
 c1121: - ord_1_3 + ord_1_6 + 10 x_1_6_3 <= 9
 c1122: - ord_1_4 + ord_1_6 + 10 x_1_6_4 <= 9
 c1123: - ord_1_5 + ord_1_6 + 10 x_1_6_5 <= 9
 c1124: ord_1_6 - ord_1_7 + 10 x_1_6_7 <= 9
 c1125: ord_1_6 - ord_1_8 + 10 x_1_6_8 <= 9
 c1126: ord_1_6 - ord_1_9 + 10 x_1_6_9 <= 9
 c1127: - ord_1_10 + ord_1_6 + 10 x_1_6_10 <= 9
 c1128: - ord_1_1 + ord_1_7 + 10 x_1_7_1 <= 9
 c1129: - ord_1_2 + ord_1_7 + 10 x_1_7_2 <= 9
 c1130: - ord_1_3 + ord_1_7 + 10 x_1_7_3 <= 9
 c1131: - ord_1_4 + ord_1_7 + 10 x_1_7_4 <= 9
 c1132: - ord_1_5 + ord_1_7 + 10 x_1_7_5 <= 9
 c1133: - ord_1_6 + ord_1_7 + 10 x_1_7_6 <= 9
 c1134: ord_1_7 - ord_1_8 + 10 x_1_7_8 <= 9
 c1135: ord_1_7 - ord_1_9 + 10 x_1_7_9 <= 9
 c1136: - ord_1_10 + ord_1_7 + 10 x_1_7_10 <= 9
 c1137: - ord_1_1 + ord_1_8 + 10 x_1_8_1 <= 9
 c1138: - ord_1_2 + ord_1_8 + 10 x_1_8_2 <= 9
 c1139: - ord_1_3 + ord_1_8 + 10 x_1_8_3 <= 9
 c1140: - ord_1_4 + ord_1_8 + 10 x_1_8_4 <= 9
 c1141: - ord_1_5 + ord_1_8 + 10 x_1_8_5 <= 9
 c1142: - ord_1_6 + ord_1_8 + 10 x_1_8_6 <= 9
 c1143: - ord_1_7 + ord_1_8 + 10 x_1_8_7 <= 9
 c1144: ord_1_8 - ord_1_9 + 10 x_1_8_9 <= 9
 c1145: - ord_1_10 + ord_1_8 + 10 x_1_8_10 <= 9
 c1146: - ord_1_1 + ord_1_9 + 10 x_1_9_1 <= 9
 c1147: - ord_1_2 + ord_1_9 + 10 x_1_9_2 <= 9
 c1148: - ord_1_3 + ord_1_9 + 10 x_1_9_3 <= 9
 c1149: - ord_1_4 + ord_1_9 + 10 x_1_9_4 <= 9
 c1150: - ord_1_5 + ord_1_9 + 10 x_1_9_5 <= 9
 c1151: - ord_1_6 + ord_1_9 + 10 x_1_9_6 <= 9
 c1152: - ord_1_7 + ord_1_9 + 10 x_1_9_7 <= 9
 c1153: - ord_1_8 + ord_1_9 + 10 x_1_9_8 <= 9
 c1154: - ord_1_10 + ord_1_9 + 10 x_1_9_10 <= 9
 c1155: - ord_1_1 + ord_1_10 + 10 x_1_10_1 <= 9
 c1156: ord_1_10 - ord_1_2 + 10 x_1_10_2 <= 9
 c1157: ord_1_10 - ord_1_3 + 10 x_1_10_3 <= 9
 c1158: ord_1_10 - ord_1_4 + 10 x_1_10_4 <= 9
 c1159: ord_1_10 - ord_1_5 + 10 x_1_10_5 <= 9
 c1160: ord_1_10 - ord_1_6 + 10 x_1_10_6 <= 9
 c1161: ord_1_10 - ord_1_7 + 10 x_1_10_7 <= 9
 c1162: ord_1_10 - ord_1_8 + 10 x_1_10_8 <= 9
 c1163: ord_1_10 - ord_1_9 + 10 x_1_10_9 <= 9
 c1164: ord_2_1 - z_2_1 >= 0
 c1165: ord_2_1 - 10 z_2_1 <= 0
 c1166: ord_2_2 - z_2_2 >= 0
 c1167: ord_2_2 - 10 z_2_2 <= 0
 c1168: ord_2_3 - z_2_3 >= 0
 c1169: ord_2_3 - 10 z_2_3 <= 0
 c1170: ord_2_4 - z_2_4 >= 0
 c1171: ord_2_4 - 10 z_2_4 <= 0
 c1172: ord_2_5 - z_2_5 >= 0
 c1173: ord_2_5 - 10 z_2_5 <= 0
 c1174: ord_2_6 - z_2_6 >= 0
 c1175: ord_2_6 - 10 z_2_6 <= 0
 c1176: ord_2_7 - z_2_7 >= 0
 c1177: ord_2_7 - 10 z_2_7 <= 0
 c1178: ord_2_8 - z_2_8 >= 0
 c1179: ord_2_8 - 10 z_2_8 <= 0
 c1180: ord_2_9 - z_2_9 >= 0
 c1181: ord_2_9 - 10 z_2_9 <= 0
 c1182: ord_2_10 - z_2_10 >= 0
 c1183: ord_2_10 - 10 z_2_10 <= 0
 c1184: ord_2_1 - ord_2_2 + 10 x_2_1_2 <= 9
 c1185: ord_2_1 - ord_2_3 + 10 x_2_1_3 <= 9
 c1186: ord_2_1 - ord_2_4 + 10 x_2_1_4 <= 9
 c1187: ord_2_1 - ord_2_5 + 10 x_2_1_5 <= 9
 c1188: ord_2_1 - ord_2_6 + 10 x_2_1_6 <= 9
 c1189: ord_2_1 - ord_2_7 + 10 x_2_1_7 <= 9
 c1190: ord_2_1 - ord_2_8 + 10 x_2_1_8 <= 9
 c1191: ord_2_1 - ord_2_9 + 10 x_2_1_9 <= 9
 c1192: ord_2_1 - ord_2_10 + 10 x_2_1_10 <= 9
 c1193: - ord_2_1 + ord_2_2 + 10 x_2_2_1 <= 9
 c1194: ord_2_2 - ord_2_3 + 10 x_2_2_3 <= 9
 c1195: ord_2_2 - ord_2_4 + 10 x_2_2_4 <= 9
 c1196: ord_2_2 - ord_2_5 + 10 x_2_2_5 <= 9
 c1197: ord_2_2 - ord_2_6 + 10 x_2_2_6 <= 9
 c1198: ord_2_2 - ord_2_7 + 10 x_2_2_7 <= 9
 c1199: ord_2_2 - ord_2_8 + 10 x_2_2_8 <= 9
 c1200: ord_2_2 - ord_2_9 + 10 x_2_2_9 <= 9
 c1201: - ord_2_10 + ord_2_2 + 10 x_2_2_10 <= 9
 c1202: - ord_2_1 + ord_2_3 + 10 x_2_3_1 <= 9
 c1203: - ord_2_2 + ord_2_3 + 10 x_2_3_2 <= 9
 c1204: ord_2_3 - ord_2_4 + 10 x_2_3_4 <= 9
 c1205: ord_2_3 - ord_2_5 + 10 x_2_3_5 <= 9
 c1206: ord_2_3 - ord_2_6 + 10 x_2_3_6 <= 9
 c1207: ord_2_3 - ord_2_7 + 10 x_2_3_7 <= 9
 c1208: ord_2_3 - ord_2_8 + 10 x_2_3_8 <= 9
 c1209: ord_2_3 - ord_2_9 + 10 x_2_3_9 <= 9
 c1210: - ord_2_10 + ord_2_3 + 10 x_2_3_10 <= 9
 c1211: - ord_2_1 + ord_2_4 + 10 x_2_4_1 <= 9
 c1212: - ord_2_2 + ord_2_4 + 10 x_2_4_2 <= 9
 c1213: - ord_2_3 + ord_2_4 + 10 x_2_4_3 <= 9
 c1214: ord_2_4 - ord_2_5 + 10 x_2_4_5 <= 9
 c1215: ord_2_4 - ord_2_6 + 10 x_2_4_6 <= 9
 c1216: ord_2_4 - ord_2_7 + 10 x_2_4_7 <= 9
 c1217: ord_2_4 - ord_2_8 + 10 x_2_4_8 <= 9
 c1218: ord_2_4 - ord_2_9 + 10 x_2_4_9 <= 9
 c1219: - ord_2_10 + ord_2_4 + 10 x_2_4_10 <= 9
 c1220: - ord_2_1 + ord_2_5 + 10 x_2_5_1 <= 9
 c1221: - ord_2_2 + ord_2_5 + 10 x_2_5_2 <= 9
 c1222: - ord_2_3 + ord_2_5 + 10 x_2_5_3 <= 9
 c1223: - ord_2_4 + ord_2_5 + 10 x_2_5_4 <= 9
 c1224: ord_2_5 - ord_2_6 + 10 x_2_5_6 <= 9
 c1225: ord_2_5 - ord_2_7 + 10 x_2_5_7 <= 9
 c1226: ord_2_5 - ord_2_8 + 10 x_2_5_8 <= 9
 c1227: ord_2_5 - ord_2_9 + 10 x_2_5_9 <= 9
 c1228: - ord_2_10 + ord_2_5 + 10 x_2_5_10 <= 9
 c1229: - ord_2_1 + ord_2_6 + 10 x_2_6_1 <= 9
 c1230: - ord_2_2 + ord_2_6 + 10 x_2_6_2 <= 9
 c1231: - ord_2_3 + ord_2_6 + 10 x_2_6_3 <= 9
 c1232: - ord_2_4 + ord_2_6 + 10 x_2_6_4 <= 9
 c1233: - ord_2_5 + ord_2_6 + 10 x_2_6_5 <= 9
 c1234: ord_2_6 - ord_2_7 + 10 x_2_6_7 <= 9
 c1235: ord_2_6 - ord_2_8 + 10 x_2_6_8 <= 9
 c1236: ord_2_6 - ord_2_9 + 10 x_2_6_9 <= 9
 c1237: - ord_2_10 + ord_2_6 + 10 x_2_6_10 <= 9
 c1238: - ord_2_1 + ord_2_7 + 10 x_2_7_1 <= 9
 c1239: - ord_2_2 + ord_2_7 + 10 x_2_7_2 <= 9
 c1240: - ord_2_3 + ord_2_7 + 10 x_2_7_3 <= 9
 c1241: - ord_2_4 + ord_2_7 + 10 x_2_7_4 <= 9
 c1242: - ord_2_5 + ord_2_7 + 10 x_2_7_5 <= 9
 c1243: - ord_2_6 + ord_2_7 + 10 x_2_7_6 <= 9
 c1244: ord_2_7 - ord_2_8 + 10 x_2_7_8 <= 9
 c1245: ord_2_7 - ord_2_9 + 10 x_2_7_9 <= 9
 c1246: - ord_2_10 + ord_2_7 + 10 x_2_7_10 <= 9
 c1247: - ord_2_1 + ord_2_8 + 10 x_2_8_1 <= 9
 c1248: - ord_2_2 + ord_2_8 + 10 x_2_8_2 <= 9
 c1249: - ord_2_3 + ord_2_8 + 10 x_2_8_3 <= 9
 c1250: - ord_2_4 + ord_2_8 + 10 x_2_8_4 <= 9
 c1251: - ord_2_5 + ord_2_8 + 10 x_2_8_5 <= 9
 c1252: - ord_2_6 + ord_2_8 + 10 x_2_8_6 <= 9
 c1253: - ord_2_7 + ord_2_8 + 10 x_2_8_7 <= 9
 c1254: ord_2_8 - ord_2_9 + 10 x_2_8_9 <= 9
 c1255: - ord_2_10 + ord_2_8 + 10 x_2_8_10 <= 9
 c1256: - ord_2_1 + ord_2_9 + 10 x_2_9_1 <= 9
 c1257: - ord_2_2 + ord_2_9 + 10 x_2_9_2 <= 9
 c1258: - ord_2_3 + ord_2_9 + 10 x_2_9_3 <= 9
 c1259: - ord_2_4 + ord_2_9 + 10 x_2_9_4 <= 9
 c1260: - ord_2_5 + ord_2_9 + 10 x_2_9_5 <= 9
 c1261: - ord_2_6 + ord_2_9 + 10 x_2_9_6 <= 9
 c1262: - ord_2_7 + ord_2_9 + 10 x_2_9_7 <= 9
 c1263: - ord_2_8 + ord_2_9 + 10 x_2_9_8 <= 9
 c1264: - ord_2_10 + ord_2_9 + 10 x_2_9_10 <= 9
 c1265: - ord_2_1 + ord_2_10 + 10 x_2_10_1 <= 9
 c1266: ord_2_10 - ord_2_2 + 10 x_2_10_2 <= 9
 c1267: ord_2_10 - ord_2_3 + 10 x_2_10_3 <= 9
 c1268: ord_2_10 - ord_2_4 + 10 x_2_10_4 <= 9
 c1269: ord_2_10 - ord_2_5 + 10 x_2_10_5 <= 9
 c1270: ord_2_10 - ord_2_6 + 10 x_2_10_6 <= 9
 c1271: ord_2_10 - ord_2_7 + 10 x_2_10_7 <= 9
 c1272: ord_2_10 - ord_2_8 + 10 x_2_10_8 <= 9
 c1273: ord_2_10 - ord_2_9 + 10 x_2_10_9 <= 9
 c1274: p_0_1 - 5 z_0_1 <= 0
 c1275: d_0_1 - 18 z_0_1 <= 0
 c1276: mode_0_1 - z_0_1 <= 0
 c1277: - 5 mode_0_1 + p_0_1 <= 0
 c1278: d_0_1 + 18 mode_0_1 - 18 z_0_1 <= 0
 c1279: d_0_1 + p_0_1 - z_0_1 >= 0
 c1280: load_0_1 - 30 z_0_1 <= 0
 c1281: p_0_2 - 30 z_0_2 <= 0
 c1282: d_0_2 - 5 z_0_2 <= 0
 c1283: mode_0_2 - z_0_2 <= 0
 c1284: - 30 mode_0_2 + p_0_2 <= 0
 c1285: d_0_2 + 5 mode_0_2 - 5 z_0_2 <= 0
 c1286: d_0_2 + p_0_2 - z_0_2 >= 0
 c1287: load_0_2 - 30 z_0_2 <= 0
 c1288: p_0_3 - 26 z_0_3 <= 0
 c1289: d_0_3 - 2 z_0_3 <= 0
 c1290: mode_0_3 - z_0_3 <= 0
 c1291: - 26 mode_0_3 + p_0_3 <= 0
 c1292: d_0_3 + 2 mode_0_3 - 2 z_0_3 <= 0
 c1293: d_0_3 + p_0_3 - z_0_3 >= 0
 c1294: load_0_3 - 30 z_0_3 <= 0
 c1295: p_0_4 - 10 z_0_4 <= 0
 c1296: d_0_4 - 16 z_0_4 <= 0
 c1297: mode_0_4 - z_0_4 <= 0
 c1298: - 10 mode_0_4 + p_0_4 <= 0
 c1299: d_0_4 + 16 mode_0_4 - 16 z_0_4 <= 0
 c1300: d_0_4 + p_0_4 - z_0_4 >= 0
 c1301: load_0_4 - 30 z_0_4 <= 0
 c1302: p_0_5 - 23 z_0_5 <= 0
 c1303: d_0_5 - 14 z_0_5 <= 0
 c1304: mode_0_5 - z_0_5 <= 0
 c1305: - 23 mode_0_5 + p_0_5 <= 0
 c1306: d_0_5 + 14 mode_0_5 - 14 z_0_5 <= 0
 c1307: d_0_5 + p_0_5 - z_0_5 >= 0
 c1308: load_0_5 - 30 z_0_5 <= 0
 c1309: p_0_6 - 4 z_0_6 <= 0
 c1310: d_0_6 - 18 z_0_6 <= 0
 c1311: mode_0_6 - z_0_6 <= 0
 c1312: - 4 mode_0_6 + p_0_6 <= 0
 c1313: d_0_6 + 18 mode_0_6 - 18 z_0_6 <= 0
 c1314: d_0_6 + p_0_6 - z_0_6 >= 0
 c1315: load_0_6 - 30 z_0_6 <= 0
 c1316: p_0_7 - 10 z_0_7 <= 0
 c1317: d_0_7 - 30 z_0_7 <= 0
 c1318: mode_0_7 - z_0_7 <= 0
 c1319: - 10 mode_0_7 + p_0_7 <= 0
 c1320: d_0_7 + 30 mode_0_7 - 30 z_0_7 <= 0
 c1321: d_0_7 + p_0_7 - z_0_7 >= 0
 c1322: load_0_7 - 30 z_0_7 <= 0
 c1323: p_0_8 - 5 z_0_8 <= 0
 c1324: d_0_8 - 15 z_0_8 <= 0
 c1325: mode_0_8 - z_0_8 <= 0
 c1326: - 5 mode_0_8 + p_0_8 <= 0
 c1327: d_0_8 + 15 mode_0_8 - 15 z_0_8 <= 0
 c1328: d_0_8 + p_0_8 - z_0_8 >= 0
 c1329: load_0_8 - 30 z_0_8 <= 0
 c1330: p_0_9 - 5 z_0_9 <= 0
 c1331: d_0_9 - 30 z_0_9 <= 0
 c1332: mode_0_9 - z_0_9 <= 0
 c1333: - 5 mode_0_9 + p_0_9 <= 0
 c1334: d_0_9 + 30 mode_0_9 - 30 z_0_9 <= 0
 c1335: d_0_9 + p_0_9 - z_0_9 >= 0
 c1336: load_0_9 - 30 z_0_9 <= 0
 c1337: p_0_10 - 4 z_0_10 <= 0
 c1338: d_0_10 - 30 z_0_10 <= 0
 c1339: mode_0_10 - z_0_10 <= 0
 c1340: - 4 mode_0_10 + p_0_10 <= 0
 c1341: d_0_10 + 30 mode_0_10 - 30 z_0_10 <= 0
 c1342: d_0_10 + p_0_10 - z_0_10 >= 0
 c1343: load_0_10 - 30 z_0_10 <= 0
 c1344: d_0_1 + load_0_1 - p_0_1 + 30 x_0_0_1 <= 30
 c1345: d_0_1 + load_0_1 - p_0_1 - 30 x_0_0_1 >= -30
 c1346: d_0_2 + load_0_2 - p_0_2 + 30 x_0_0_2 <= 30
 c1347: d_0_2 + load_0_2 - p_0_2 - 30 x_0_0_2 >= -30
 c1348: d_0_3 + load_0_3 - p_0_3 + 30 x_0_0_3 <= 30
 c1349: d_0_3 + load_0_3 - p_0_3 - 30 x_0_0_3 >= -30
 c1350: d_0_4 + load_0_4 - p_0_4 + 30 x_0_0_4 <= 30
 c1351: d_0_4 + load_0_4 - p_0_4 - 30 x_0_0_4 >= -30
 c1352: d_0_5 + load_0_5 - p_0_5 + 30 x_0_0_5 <= 30
 c1353: d_0_5 + load_0_5 - p_0_5 - 30 x_0_0_5 >= -30
 c1354: d_0_6 + load_0_6 - p_0_6 + 30 x_0_0_6 <= 30
 c1355: d_0_6 + load_0_6 - p_0_6 - 30 x_0_0_6 >= -30
 c1356: d_0_7 + load_0_7 - p_0_7 + 30 x_0_0_7 <= 30
 c1357: d_0_7 + load_0_7 - p_0_7 - 30 x_0_0_7 >= -30
 c1358: d_0_8 + load_0_8 - p_0_8 + 30 x_0_0_8 <= 30
 c1359: d_0_8 + load_0_8 - p_0_8 - 30 x_0_0_8 >= -30
 c1360: d_0_9 + load_0_9 - p_0_9 + 30 x_0_0_9 <= 30
 c1361: d_0_9 + load_0_9 - p_0_9 - 30 x_0_0_9 >= -30
 c1362: d_0_10 + load_0_10 - p_0_10 + 30 x_0_0_10 <= 30
 c1363: d_0_10 + load_0_10 - p_0_10 - 30 x_0_0_10 >= -30
 c1364: d_0_2 - load_0_1 + load_0_2 - p_0_2 + 30 x_0_1_2 <= 30
 c1365: d_0_2 - load_0_1 + load_0_2 - p_0_2 - 30 x_0_1_2 >= -30
 c1366: d_0_3 - load_0_1 + load_0_3 - p_0_3 + 30 x_0_1_3 <= 30
 c1367: d_0_3 - load_0_1 + load_0_3 - p_0_3 - 30 x_0_1_3 >= -30
 c1368: d_0_4 - load_0_1 + load_0_4 - p_0_4 + 30 x_0_1_4 <= 30
 c1369: d_0_4 - load_0_1 + load_0_4 - p_0_4 - 30 x_0_1_4 >= -30
 c1370: d_0_5 - load_0_1 + load_0_5 - p_0_5 + 30 x_0_1_5 <= 30
 c1371: d_0_5 - load_0_1 + load_0_5 - p_0_5 - 30 x_0_1_5 >= -30
 c1372: d_0_6 - load_0_1 + load_0_6 - p_0_6 + 30 x_0_1_6 <= 30
 c1373: d_0_6 - load_0_1 + load_0_6 - p_0_6 - 30 x_0_1_6 >= -30
 c1374: d_0_7 - load_0_1 + load_0_7 - p_0_7 + 30 x_0_1_7 <= 30
 c1375: d_0_7 - load_0_1 + load_0_7 - p_0_7 - 30 x_0_1_7 >= -30
 c1376: d_0_8 - load_0_1 + load_0_8 - p_0_8 + 30 x_0_1_8 <= 30
 c1377: d_0_8 - load_0_1 + load_0_8 - p_0_8 - 30 x_0_1_8 >= -30
 c1378: d_0_9 - load_0_1 + load_0_9 - p_0_9 + 30 x_0_1_9 <= 30
 c1379: d_0_9 - load_0_1 + load_0_9 - p_0_9 - 30 x_0_1_9 >= -30
 c1380: d_0_10 - load_0_1 + load_0_10 - p_0_10 + 30 x_0_1_10 <= 30
 c1381: d_0_10 - load_0_1 + load_0_10 - p_0_10 - 30 x_0_1_10 >= -30
 c1382: d_0_1 + load_0_1 - load_0_2 - p_0_1 + 30 x_0_2_1 <= 30
 c1383: d_0_1 + load_0_1 - load_0_2 - p_0_1 - 30 x_0_2_1 >= -30
 c1384: d_0_3 - load_0_2 + load_0_3 - p_0_3 + 30 x_0_2_3 <= 30
 c1385: d_0_3 - load_0_2 + load_0_3 - p_0_3 - 30 x_0_2_3 >= -30
 c1386: d_0_4 - load_0_2 + load_0_4 - p_0_4 + 30 x_0_2_4 <= 30
 c1387: d_0_4 - load_0_2 + load_0_4 - p_0_4 - 30 x_0_2_4 >= -30
 c1388: d_0_5 - load_0_2 + load_0_5 - p_0_5 + 30 x_0_2_5 <= 30
 c1389: d_0_5 - load_0_2 + load_0_5 - p_0_5 - 30 x_0_2_5 >= -30
 c1390: d_0_6 - load_0_2 + load_0_6 - p_0_6 + 30 x_0_2_6 <= 30
 c1391: d_0_6 - load_0_2 + load_0_6 - p_0_6 - 30 x_0_2_6 >= -30
 c1392: d_0_7 - load_0_2 + load_0_7 - p_0_7 + 30 x_0_2_7 <= 30
 c1393: d_0_7 - load_0_2 + load_0_7 - p_0_7 - 30 x_0_2_7 >= -30
 c1394: d_0_8 - load_0_2 + load_0_8 - p_0_8 + 30 x_0_2_8 <= 30
 c1395: d_0_8 - load_0_2 + load_0_8 - p_0_8 - 30 x_0_2_8 >= -30
 c1396: d_0_9 - load_0_2 + load_0_9 - p_0_9 + 30 x_0_2_9 <= 30
 c1397: d_0_9 - load_0_2 + load_0_9 - p_0_9 - 30 x_0_2_9 >= -30
 c1398: d_0_10 + load_0_10 - load_0_2 - p_0_10 + 30 x_0_2_10 <= 30
 c1399: d_0_10 + load_0_10 - load_0_2 - p_0_10 - 30 x_0_2_10 >= -30
 c1400: d_0_1 + load_0_1 - load_0_3 - p_0_1 + 30 x_0_3_1 <= 30
 c1401: d_0_1 + load_0_1 - load_0_3 - p_0_1 - 30 x_0_3_1 >= -30
 c1402: d_0_2 + load_0_2 - load_0_3 - p_0_2 + 30 x_0_3_2 <= 30
 c1403: d_0_2 + load_0_2 - load_0_3 - p_0_2 - 30 x_0_3_2 >= -30
 c1404: d_0_4 - load_0_3 + load_0_4 - p_0_4 + 30 x_0_3_4 <= 30
 c1405: d_0_4 - load_0_3 + load_0_4 - p_0_4 - 30 x_0_3_4 >= -30
 c1406: d_0_5 - load_0_3 + load_0_5 - p_0_5 + 30 x_0_3_5 <= 30
 c1407: d_0_5 - load_0_3 + load_0_5 - p_0_5 - 30 x_0_3_5 >= -30
 c1408: d_0_6 - load_0_3 + load_0_6 - p_0_6 + 30 x_0_3_6 <= 30
 c1409: d_0_6 - load_0_3 + load_0_6 - p_0_6 - 30 x_0_3_6 >= -30
 c1410: d_0_7 - load_0_3 + load_0_7 - p_0_7 + 30 x_0_3_7 <= 30
 c1411: d_0_7 - load_0_3 + load_0_7 - p_0_7 - 30 x_0_3_7 >= -30
 c1412: d_0_8 - load_0_3 + load_0_8 - p_0_8 + 30 x_0_3_8 <= 30
 c1413: d_0_8 - load_0_3 + load_0_8 - p_0_8 - 30 x_0_3_8 >= -30
 c1414: d_0_9 - load_0_3 + load_0_9 - p_0_9 + 30 x_0_3_9 <= 30
 c1415: d_0_9 - load_0_3 + load_0_9 - p_0_9 - 30 x_0_3_9 >= -30
 c1416: d_0_10 + load_0_10 - load_0_3 - p_0_10 + 30 x_0_3_10 <= 30
 c1417: d_0_10 + load_0_10 - load_0_3 - p_0_10 - 30 x_0_3_10 >= -30
 c1418: d_0_1 + load_0_1 - load_0_4 - p_0_1 + 30 x_0_4_1 <= 30
 c1419: d_0_1 + load_0_1 - load_0_4 - p_0_1 - 30 x_0_4_1 >= -30
 c1420: d_0_2 + load_0_2 - load_0_4 - p_0_2 + 30 x_0_4_2 <= 30
 c1421: d_0_2 + load_0_2 - load_0_4 - p_0_2 - 30 x_0_4_2 >= -30
 c1422: d_0_3 + load_0_3 - load_0_4 - p_0_3 + 30 x_0_4_3 <= 30
 c1423: d_0_3 + load_0_3 - load_0_4 - p_0_3 - 30 x_0_4_3 >= -30
 c1424: d_0_5 - load_0_4 + load_0_5 - p_0_5 + 30 x_0_4_5 <= 30
 c1425: d_0_5 - load_0_4 + load_0_5 - p_0_5 - 30 x_0_4_5 >= -30
 c1426: d_0_6 - load_0_4 + load_0_6 - p_0_6 + 30 x_0_4_6 <= 30
 c1427: d_0_6 - load_0_4 + load_0_6 - p_0_6 - 30 x_0_4_6 >= -30
 c1428: d_0_7 - load_0_4 + load_0_7 - p_0_7 + 30 x_0_4_7 <= 30
 c1429: d_0_7 - load_0_4 + load_0_7 - p_0_7 - 30 x_0_4_7 >= -30
 c1430: d_0_8 - load_0_4 + load_0_8 - p_0_8 + 30 x_0_4_8 <= 30
 c1431: d_0_8 - load_0_4 + load_0_8 - p_0_8 - 30 x_0_4_8 >= -30
 c1432: d_0_9 - load_0_4 + load_0_9 - p_0_9 + 30 x_0_4_9 <= 30
 c1433: d_0_9 - load_0_4 + load_0_9 - p_0_9 - 30 x_0_4_9 >= -30
 c1434: d_0_10 + load_0_10 - load_0_4 - p_0_10 + 30 x_0_4_10 <= 30
 c1435: d_0_10 + load_0_10 - load_0_4 - p_0_10 - 30 x_0_4_10 >= -30
 c1436: d_0_1 + load_0_1 - load_0_5 - p_0_1 + 30 x_0_5_1 <= 30
 c1437: d_0_1 + load_0_1 - load_0_5 - p_0_1 - 30 x_0_5_1 >= -30
 c1438: d_0_2 + load_0_2 - load_0_5 - p_0_2 + 30 x_0_5_2 <= 30
 c1439: d_0_2 + load_0_2 - load_0_5 - p_0_2 - 30 x_0_5_2 >= -30
 c1440: d_0_3 + load_0_3 - load_0_5 - p_0_3 + 30 x_0_5_3 <= 30
 c1441: d_0_3 + load_0_3 - load_0_5 - p_0_3 - 30 x_0_5_3 >= -30
 c1442: d_0_4 + load_0_4 - load_0_5 - p_0_4 + 30 x_0_5_4 <= 30
 c1443: d_0_4 + load_0_4 - load_0_5 - p_0_4 - 30 x_0_5_4 >= -30
 c1444: d_0_6 - load_0_5 + load_0_6 - p_0_6 + 30 x_0_5_6 <= 30
 c1445: d_0_6 - load_0_5 + load_0_6 - p_0_6 - 30 x_0_5_6 >= -30
 c1446: d_0_7 - load_0_5 + load_0_7 - p_0_7 + 30 x_0_5_7 <= 30
 c1447: d_0_7 - load_0_5 + load_0_7 - p_0_7 - 30 x_0_5_7 >= -30
 c1448: d_0_8 - load_0_5 + load_0_8 - p_0_8 + 30 x_0_5_8 <= 30
 c1449: d_0_8 - load_0_5 + load_0_8 - p_0_8 - 30 x_0_5_8 >= -30
 c1450: d_0_9 - load_0_5 + load_0_9 - p_0_9 + 30 x_0_5_9 <= 30
 c1451: d_0_9 - load_0_5 + load_0_9 - p_0_9 - 30 x_0_5_9 >= -30
 c1452: d_0_10 + load_0_10 - load_0_5 - p_0_10 + 30 x_0_5_10 <= 30
 c1453: d_0_10 + load_0_10 - load_0_5 - p_0_10 - 30 x_0_5_10 >= -30
 c1454: d_0_1 + load_0_1 - load_0_6 - p_0_1 + 30 x_0_6_1 <= 30
 c1455: d_0_1 + load_0_1 - load_0_6 - p_0_1 - 30 x_0_6_1 >= -30
 c1456: d_0_2 + load_0_2 - load_0_6 - p_0_2 + 30 x_0_6_2 <= 30
 c1457: d_0_2 + load_0_2 - load_0_6 - p_0_2 - 30 x_0_6_2 >= -30
 c1458: d_0_3 + load_0_3 - load_0_6 - p_0_3 + 30 x_0_6_3 <= 30
 c1459: d_0_3 + load_0_3 - load_0_6 - p_0_3 - 30 x_0_6_3 >= -30
 c1460: d_0_4 + load_0_4 - load_0_6 - p_0_4 + 30 x_0_6_4 <= 30
 c1461: d_0_4 + load_0_4 - load_0_6 - p_0_4 - 30 x_0_6_4 >= -30
 c1462: d_0_5 + load_0_5 - load_0_6 - p_0_5 + 30 x_0_6_5 <= 30
 c1463: d_0_5 + load_0_5 - load_0_6 - p_0_5 - 30 x_0_6_5 >= -30
 c1464: d_0_7 - load_0_6 + load_0_7 - p_0_7 + 30 x_0_6_7 <= 30
 c1465: d_0_7 - load_0_6 + load_0_7 - p_0_7 - 30 x_0_6_7 >= -30
 c1466: d_0_8 - load_0_6 + load_0_8 - p_0_8 + 30 x_0_6_8 <= 30
 c1467: d_0_8 - load_0_6 + load_0_8 - p_0_8 - 30 x_0_6_8 >= -30
 c1468: d_0_9 - load_0_6 + load_0_9 - p_0_9 + 30 x_0_6_9 <= 30
 c1469: d_0_9 - load_0_6 + load_0_9 - p_0_9 - 30 x_0_6_9 >= -30
 c1470: d_0_10 + load_0_10 - load_0_6 - p_0_10 + 30 x_0_6_10 <= 30
 c1471: d_0_10 + load_0_10 - load_0_6 - p_0_10 - 30 x_0_6_10 >= -30
 c1472: d_0_1 + load_0_1 - load_0_7 - p_0_1 + 30 x_0_7_1 <= 30
 c1473: d_0_1 + load_0_1 - load_0_7 - p_0_1 - 30 x_0_7_1 >= -30
 c1474: d_0_2 + load_0_2 - load_0_7 - p_0_2 + 30 x_0_7_2 <= 30
 c1475: d_0_2 + load_0_2 - load_0_7 - p_0_2 - 30 x_0_7_2 >= -30
 c1476: d_0_3 + load_0_3 - load_0_7 - p_0_3 + 30 x_0_7_3 <= 30
 c1477: d_0_3 + load_0_3 - load_0_7 - p_0_3 - 30 x_0_7_3 >= -30
 c1478: d_0_4 + load_0_4 - load_0_7 - p_0_4 + 30 x_0_7_4 <= 30
 c1479: d_0_4 + load_0_4 - load_0_7 - p_0_4 - 30 x_0_7_4 >= -30
 c1480: d_0_5 + load_0_5 - load_0_7 - p_0_5 + 30 x_0_7_5 <= 30
 c1481: d_0_5 + load_0_5 - load_0_7 - p_0_5 - 30 x_0_7_5 >= -30
 c1482: d_0_6 + load_0_6 - load_0_7 - p_0_6 + 30 x_0_7_6 <= 30
 c1483: d_0_6 + load_0_6 - load_0_7 - p_0_6 - 30 x_0_7_6 >= -30
 c1484: d_0_8 - load_0_7 + load_0_8 - p_0_8 + 30 x_0_7_8 <= 30
 c1485: d_0_8 - load_0_7 + load_0_8 - p_0_8 - 30 x_0_7_8 >= -30
 c1486: d_0_9 - load_0_7 + load_0_9 - p_0_9 + 30 x_0_7_9 <= 30
 c1487: d_0_9 - load_0_7 + load_0_9 - p_0_9 - 30 x_0_7_9 >= -30
 c1488: d_0_10 + load_0_10 - load_0_7 - p_0_10 + 30 x_0_7_10 <= 30
 c1489: d_0_10 + load_0_10 - load_0_7 - p_0_10 - 30 x_0_7_10 >= -30
 c1490: d_0_1 + load_0_1 - load_0_8 - p_0_1 + 30 x_0_8_1 <= 30
 c1491: d_0_1 + load_0_1 - load_0_8 - p_0_1 - 30 x_0_8_1 >= -30
 c1492: d_0_2 + load_0_2 - load_0_8 - p_0_2 + 30 x_0_8_2 <= 30
 c1493: d_0_2 + load_0_2 - load_0_8 - p_0_2 - 30 x_0_8_2 >= -30
 c1494: d_0_3 + load_0_3 - load_0_8 - p_0_3 + 30 x_0_8_3 <= 30
 c1495: d_0_3 + load_0_3 - load_0_8 - p_0_3 - 30 x_0_8_3 >= -30
 c1496: d_0_4 + load_0_4 - load_0_8 - p_0_4 + 30 x_0_8_4 <= 30
 c1497: d_0_4 + load_0_4 - load_0_8 - p_0_4 - 30 x_0_8_4 >= -30
 c1498: d_0_5 + load_0_5 - load_0_8 - p_0_5 + 30 x_0_8_5 <= 30
 c1499: d_0_5 + load_0_5 - load_0_8 - p_0_5 - 30 x_0_8_5 >= -30
 c1500: d_0_6 + load_0_6 - load_0_8 - p_0_6 + 30 x_0_8_6 <= 30
 c1501: d_0_6 + load_0_6 - load_0_8 - p_0_6 - 30 x_0_8_6 >= -30
 c1502: d_0_7 + load_0_7 - load_0_8 - p_0_7 + 30 x_0_8_7 <= 30
 c1503: d_0_7 + load_0_7 - load_0_8 - p_0_7 - 30 x_0_8_7 >= -30
 c1504: d_0_9 - load_0_8 + load_0_9 - p_0_9 + 30 x_0_8_9 <= 30
 c1505: d_0_9 - load_0_8 + load_0_9 - p_0_9 - 30 x_0_8_9 >= -30
 c1506: d_0_10 + load_0_10 - load_0_8 - p_0_10 + 30 x_0_8_10 <= 30
 c1507: d_0_10 + load_0_10 - load_0_8 - p_0_10 - 30 x_0_8_10 >= -30
 c1508: d_0_1 + load_0_1 - load_0_9 - p_0_1 + 30 x_0_9_1 <= 30
 c1509: d_0_1 + load_0_1 - load_0_9 - p_0_1 - 30 x_0_9_1 >= -30
 c1510: d_0_2 + load_0_2 - load_0_9 - p_0_2 + 30 x_0_9_2 <= 30
 c1511: d_0_2 + load_0_2 - load_0_9 - p_0_2 - 30 x_0_9_2 >= -30
 c1512: d_0_3 + load_0_3 - load_0_9 - p_0_3 + 30 x_0_9_3 <= 30
 c1513: d_0_3 + load_0_3 - load_0_9 - p_0_3 - 30 x_0_9_3 >= -30
 c1514: d_0_4 + load_0_4 - load_0_9 - p_0_4 + 30 x_0_9_4 <= 30
 c1515: d_0_4 + load_0_4 - load_0_9 - p_0_4 - 30 x_0_9_4 >= -30
 c1516: d_0_5 + load_0_5 - load_0_9 - p_0_5 + 30 x_0_9_5 <= 30
 c1517: d_0_5 + load_0_5 - load_0_9 - p_0_5 - 30 x_0_9_5 >= -30
 c1518: d_0_6 + load_0_6 - load_0_9 - p_0_6 + 30 x_0_9_6 <= 30
 c1519: d_0_6 + load_0_6 - load_0_9 - p_0_6 - 30 x_0_9_6 >= -30
 c1520: d_0_7 + load_0_7 - load_0_9 - p_0_7 + 30 x_0_9_7 <= 30
 c1521: d_0_7 + load_0_7 - load_0_9 - p_0_7 - 30 x_0_9_7 >= -30
 c1522: d_0_8 + load_0_8 - load_0_9 - p_0_8 + 30 x_0_9_8 <= 30
 c1523: d_0_8 + load_0_8 - load_0_9 - p_0_8 - 30 x_0_9_8 >= -30
 c1524: d_0_10 + load_0_10 - load_0_9 - p_0_10 + 30 x_0_9_10 <= 30
 c1525: d_0_10 + load_0_10 - load_0_9 - p_0_10 - 30 x_0_9_10 >= -30
 c1526: d_0_1 + load_0_1 - load_0_10 - p_0_1 + 30 x_0_10_1 <= 30
 c1527: d_0_1 + load_0_1 - load_0_10 - p_0_1 - 30 x_0_10_1 >= -30
 c1528: d_0_2 - load_0_10 + load_0_2 - p_0_2 + 30 x_0_10_2 <= 30
 c1529: d_0_2 - load_0_10 + load_0_2 - p_0_2 - 30 x_0_10_2 >= -30
 c1530: d_0_3 - load_0_10 + load_0_3 - p_0_3 + 30 x_0_10_3 <= 30
 c1531: d_0_3 - load_0_10 + load_0_3 - p_0_3 - 30 x_0_10_3 >= -30
 c1532: d_0_4 - load_0_10 + load_0_4 - p_0_4 + 30 x_0_10_4 <= 30
 c1533: d_0_4 - load_0_10 + load_0_4 - p_0_4 - 30 x_0_10_4 >= -30
 c1534: d_0_5 - load_0_10 + load_0_5 - p_0_5 + 30 x_0_10_5 <= 30
 c1535: d_0_5 - load_0_10 + load_0_5 - p_0_5 - 30 x_0_10_5 >= -30
 c1536: d_0_6 - load_0_10 + load_0_6 - p_0_6 + 30 x_0_10_6 <= 30
 c1537: d_0_6 - load_0_10 + load_0_6 - p_0_6 - 30 x_0_10_6 >= -30
 c1538: d_0_7 - load_0_10 + load_0_7 - p_0_7 + 30 x_0_10_7 <= 30
 c1539: d_0_7 - load_0_10 + load_0_7 - p_0_7 - 30 x_0_10_7 >= -30
 c1540: d_0_8 - load_0_10 + load_0_8 - p_0_8 + 30 x_0_10_8 <= 30
 c1541: d_0_8 - load_0_10 + load_0_8 - p_0_8 - 30 x_0_10_8 >= -30
 c1542: d_0_9 - load_0_10 + load_0_9 - p_0_9 + 30 x_0_10_9 <= 30
 c1543: d_0_9 - load_0_10 + load_0_9 - p_0_9 - 30 x_0_10_9 >= -30
 c1544: - d_0_1 - d_0_10 - d_0_2 - d_0_3 - d_0_4 - d_0_5 - d_0_6 - d_0_7 - d_0_8 - d_0_9 + p_0_1 + p_0_10 + p_0_2 + p_0_3 + p_0_4 + p_0_5 + p_0_6 + p_0_7 + p_0_8 + p_0_9 >= 0
 c1545: 120 p_0_1 + 120 p_0_10 + 120 p_0_2 + 120 p_0_3 + 120 p_0_4 + 120 p_0_5 + 120 p_0_6 + 120 p_0_7 + 120 p_0_8 + 120 p_0_9 + 362.46748293579304 x_0_0_1 + 278.51137366305568 x_0_0_10 + 249.85016445864008 x_0_0_2 + 342.00803235340214 x_0_0_3 + 237.4386051510381 x_0_0_4 + 199.47447782053851 x_0_0_5 + 248.79086800406526 x_0_0_6 + 365.89277107605858 x_0_0_7 + 224.0756711917451 x_0_0_8 + 241.05821692058836 x_0_0_9 + 278.51137366305568 x_0_10_0 + 101.28156011603591 x_0_10_1 + 468.87403571081205 x_0_10_2 + 579.49897726217489 x_0_10_3 + 92.124594882248175 x_0_10_4 + 433.76087684089811 x_0_10_5 + 497.71944973829949 x_0_10_6 + 98.186763454868085 x_0_10_7 + 464.45106604376537 x_0_10_8 + 460.77117901128639 x_0_10_9 + 362.46748293579304 x_0_1_0 + 101.28156011603591 x_0_1_10 + 567.82073322883059 x_0_1_2 + 632.26728551400777 x_0_1_3 + 131.91649724124909 x_0_1_4 + 530.68961420598828 x_0_1_5 + 558.51377392549227 x_0_1_6 + 14.308129794563508 x_0_1_7 + 560.97258021223433 x_0_1_8 + 512.01148617775618 x_0_1_9 + 249.85016445864008 x_0_2_0 + 567.82073322883059 x_0_2_1 + 468.87403571081205 x_0_2_10 + 447.85785763140626 x_0_2_3 + 462.74649461676216 x_0_2_4 + 53.421503090345617 x_0_2_5 + 363.54961536796441 x_0_2_6 + 566.67984684161297 x_0_2_7 + 47.870421807320383 x_0_2_8 + 402.62230915615663 x_0_2_9 + 342.00803235340214 x_0_3_0 + 632.26728551400777 x_0_3_1 + 579.49897726217489 x_0_3_10 + 447.85785763140626 x_0_3_2 + 503.10499474349757 x_0_3_4 + 403.53735934579981 x_0_3_5 + 94.905577834009534 x_0_3_6 + 641.1982208673752 x_0_3_7 + 400.08173048113366 x_0_3_8 + 120.25584548687442 x_0_3_9 + 237.4386051510381 x_0_4_0 + 131.91649724124909 x_0_4_1 + 92.124594882248175 x_0_4_10 + 462.74649461676216 x_0_4_2 + 503.10499474349757 x_0_4_3 + 420.14821862183675 x_0_4_5 + 427.17340659707094 x_0_4_6 + 139.13987556059672 x_0_4_7 + 449.00193543034032 x_0_4_8 + 383.0218516497012 x_0_4_9 + 199.47447782053851 x_0_5_0 + 530.68961420598828 x_0_5_1 + 433.76087684089811 x_0_5_10 + 53.421503090345617 x_0_5_2 + 403.53735934579981 x_0_5_3 + 420.14821862183675 x_0_5_4 + 316.30401546778245 x_0_5_6 + 530.56191318240235 x_0_5_7 + 31.230171167245967 x_0_5_8 + 351.85166438991814 x_0_5_9 + 248.79086800406526 x_0_6_0 + 558.51377392549227 x_0_6_1 + 497.71944973829949 x_0_6_10 + 363.54961536796441 x_0_6_2 + 94.905577834009534 x_0_6_3 + 427.17340659707094 x_0_6_4 + 316.30401546778245 x_0_6_5 + 566.3002663894498 x_0_6_7 + 316.4487455636517 x_0_6_8 + 70.998602693539269 x_0_6_9 + 365.89277107605858 x_0_7_0 + 14.308129794563508 x_0_7_1 + 98.186763454868085 x_0_7_10 + 566.67984684161297 x_0_7_2 + 641.1982208673752 x_0_7_3 + 139.13987556059672 x_0_7_4 + 530.56191318240235 x_0_7_5 + 566.3002663894498 x_0_7_6 + 561.03462434256471 x_0_7_8 + 520.96318411744483 x_0_7_9 + 224.0756711917451 x_0_8_0 + 560.97258021223433 x_0_8_1 + 464.45106604376537 x_0_8_10 + 47.870421807320383 x_0_8_2 + 400.08173048113366 x_0_8_3 + 449.00193543034032 x_0_8_4 + 31.230171167245967 x_0_8_5 + 316.4487455636517 x_0_8_6 + 561.03462434256471 x_0_8_7 + 357.54157809433036 x_0_8_9 + 241.05821692058836 x_0_9_0 + 512.01148617775618 x_0_9_1 + 460.77117901128639 x_0_9_10 + 402.62230915615663 x_0_9_2 + 120.25584548687442 x_0_9_3 + 383.0218516497012 x_0_9_4 + 351.85166438991814 x_0_9_5 + 70.998602693539269 x_0_9_6 + 520.96318411744483 x_0_9_7 + 357.54157809433036 x_0_9_8 <= 2400
 c1546: p_1_1 - 5 z_1_1 <= 0
 c1547: d_1_1 - 18 z_1_1 <= 0
 c1548: mode_1_1 - z_1_1 <= 0
 c1549: - 5 mode_1_1 + p_1_1 <= 0
 c1550: d_1_1 + 18 mode_1_1 - 18 z_1_1 <= 0
 c1551: d_1_1 + p_1_1 - z_1_1 >= 0
 c1552: load_1_1 - 30 z_1_1 <= 0
 c1553: p_1_2 - 30 z_1_2 <= 0
 c1554: d_1_2 - 5 z_1_2 <= 0
 c1555: mode_1_2 - z_1_2 <= 0
 c1556: - 30 mode_1_2 + p_1_2 <= 0
 c1557: d_1_2 + 5 mode_1_2 - 5 z_1_2 <= 0
 c1558: d_1_2 + p_1_2 - z_1_2 >= 0
 c1559: load_1_2 - 30 z_1_2 <= 0
 c1560: p_1_3 - 26 z_1_3 <= 0
 c1561: d_1_3 - 2 z_1_3 <= 0
 c1562: mode_1_3 - z_1_3 <= 0
 c1563: - 26 mode_1_3 + p_1_3 <= 0
 c1564: d_1_3 + 2 mode_1_3 - 2 z_1_3 <= 0
 c1565: d_1_3 + p_1_3 - z_1_3 >= 0
 c1566: load_1_3 - 30 z_1_3 <= 0
 c1567: p_1_4 - 10 z_1_4 <= 0
 c1568: d_1_4 - 16 z_1_4 <= 0
 c1569: mode_1_4 - z_1_4 <= 0
 c1570: - 10 mode_1_4 + p_1_4 <= 0
 c1571: d_1_4 + 16 mode_1_4 - 16 z_1_4 <= 0
 c1572: d_1_4 + p_1_4 - z_1_4 >= 0
 c1573: load_1_4 - 30 z_1_4 <= 0
 c1574: p_1_5 - 23 z_1_5 <= 0
 c1575: d_1_5 - 14 z_1_5 <= 0
 c1576: mode_1_5 - z_1_5 <= 0
 c1577: - 23 mode_1_5 + p_1_5 <= 0
 c1578: d_1_5 + 14 mode_1_5 - 14 z_1_5 <= 0
 c1579: d_1_5 + p_1_5 - z_1_5 >= 0
 c1580: load_1_5 - 30 z_1_5 <= 0
 c1581: p_1_6 - 4 z_1_6 <= 0
 c1582: d_1_6 - 18 z_1_6 <= 0
 c1583: mode_1_6 - z_1_6 <= 0
 c1584: - 4 mode_1_6 + p_1_6 <= 0
 c1585: d_1_6 + 18 mode_1_6 - 18 z_1_6 <= 0
 c1586: d_1_6 + p_1_6 - z_1_6 >= 0
 c1587: load_1_6 - 30 z_1_6 <= 0
 c1588: p_1_7 - 10 z_1_7 <= 0
 c1589: d_1_7 - 30 z_1_7 <= 0
 c1590: mode_1_7 - z_1_7 <= 0
 c1591: - 10 mode_1_7 + p_1_7 <= 0
 c1592: d_1_7 + 30 mode_1_7 - 30 z_1_7 <= 0
 c1593: d_1_7 + p_1_7 - z_1_7 >= 0
 c1594: load_1_7 - 30 z_1_7 <= 0
 c1595: p_1_8 - 5 z_1_8 <= 0
 c1596: d_1_8 - 15 z_1_8 <= 0
 c1597: mode_1_8 - z_1_8 <= 0
 c1598: - 5 mode_1_8 + p_1_8 <= 0
 c1599: d_1_8 + 15 mode_1_8 - 15 z_1_8 <= 0
 c1600: d_1_8 + p_1_8 - z_1_8 >= 0
 c1601: load_1_8 - 30 z_1_8 <= 0
 c1602: p_1_9 - 5 z_1_9 <= 0
 c1603: d_1_9 - 30 z_1_9 <= 0
 c1604: mode_1_9 - z_1_9 <= 0
 c1605: - 5 mode_1_9 + p_1_9 <= 0
 c1606: d_1_9 + 30 mode_1_9 - 30 z_1_9 <= 0
 c1607: d_1_9 + p_1_9 - z_1_9 >= 0
 c1608: load_1_9 - 30 z_1_9 <= 0
 c1609: p_1_10 - 4 z_1_10 <= 0
 c1610: d_1_10 - 30 z_1_10 <= 0
 c1611: mode_1_10 - z_1_10 <= 0
 c1612: - 4 mode_1_10 + p_1_10 <= 0
 c1613: d_1_10 + 30 mode_1_10 - 30 z_1_10 <= 0
 c1614: d_1_10 + p_1_10 - z_1_10 >= 0
 c1615: load_1_10 - 30 z_1_10 <= 0
 c1616: d_1_1 + load_1_1 - p_1_1 + 30 x_1_0_1 <= 30
 c1617: d_1_1 + load_1_1 - p_1_1 - 30 x_1_0_1 >= -30
 c1618: d_1_2 + load_1_2 - p_1_2 + 30 x_1_0_2 <= 30
 c1619: d_1_2 + load_1_2 - p_1_2 - 30 x_1_0_2 >= -30
 c1620: d_1_3 + load_1_3 - p_1_3 + 30 x_1_0_3 <= 30
 c1621: d_1_3 + load_1_3 - p_1_3 - 30 x_1_0_3 >= -30
 c1622: d_1_4 + load_1_4 - p_1_4 + 30 x_1_0_4 <= 30
 c1623: d_1_4 + load_1_4 - p_1_4 - 30 x_1_0_4 >= -30
 c1624: d_1_5 + load_1_5 - p_1_5 + 30 x_1_0_5 <= 30
 c1625: d_1_5 + load_1_5 - p_1_5 - 30 x_1_0_5 >= -30
 c1626: d_1_6 + load_1_6 - p_1_6 + 30 x_1_0_6 <= 30
 c1627: d_1_6 + load_1_6 - p_1_6 - 30 x_1_0_6 >= -30
 c1628: d_1_7 + load_1_7 - p_1_7 + 30 x_1_0_7 <= 30
 c1629: d_1_7 + load_1_7 - p_1_7 - 30 x_1_0_7 >= -30
 c1630: d_1_8 + load_1_8 - p_1_8 + 30 x_1_0_8 <= 30
 c1631: d_1_8 + load_1_8 - p_1_8 - 30 x_1_0_8 >= -30
 c1632: d_1_9 + load_1_9 - p_1_9 + 30 x_1_0_9 <= 30
 c1633: d_1_9 + load_1_9 - p_1_9 - 30 x_1_0_9 >= -30
 c1634: d_1_10 + load_1_10 - p_1_10 + 30 x_1_0_10 <= 30
 c1635: d_1_10 + load_1_10 - p_1_10 - 30 x_1_0_10 >= -30
 c1636: d_1_2 - load_1_1 + load_1_2 - p_1_2 + 30 x_1_1_2 <= 30
 c1637: d_1_2 - load_1_1 + load_1_2 - p_1_2 - 30 x_1_1_2 >= -30
 c1638: d_1_3 - load_1_1 + load_1_3 - p_1_3 + 30 x_1_1_3 <= 30
 c1639: d_1_3 - load_1_1 + load_1_3 - p_1_3 - 30 x_1_1_3 >= -30
 c1640: d_1_4 - load_1_1 + load_1_4 - p_1_4 + 30 x_1_1_4 <= 30
 c1641: d_1_4 - load_1_1 + load_1_4 - p_1_4 - 30 x_1_1_4 >= -30
 c1642: d_1_5 - load_1_1 + load_1_5 - p_1_5 + 30 x_1_1_5 <= 30
 c1643: d_1_5 - load_1_1 + load_1_5 - p_1_5 - 30 x_1_1_5 >= -30
 c1644: d_1_6 - load_1_1 + load_1_6 - p_1_6 + 30 x_1_1_6 <= 30
 c1645: d_1_6 - load_1_1 + load_1_6 - p_1_6 - 30 x_1_1_6 >= -30
 c1646: d_1_7 - load_1_1 + load_1_7 - p_1_7 + 30 x_1_1_7 <= 30
 c1647: d_1_7 - load_1_1 + load_1_7 - p_1_7 - 30 x_1_1_7 >= -30
 c1648: d_1_8 - load_1_1 + load_1_8 - p_1_8 + 30 x_1_1_8 <= 30
 c1649: d_1_8 - load_1_1 + load_1_8 - p_1_8 - 30 x_1_1_8 >= -30
 c1650: d_1_9 - load_1_1 + load_1_9 - p_1_9 + 30 x_1_1_9 <= 30
 c1651: d_1_9 - load_1_1 + load_1_9 - p_1_9 - 30 x_1_1_9 >= -30
 c1652: d_1_10 - load_1_1 + load_1_10 - p_1_10 + 30 x_1_1_10 <= 30
 c1653: d_1_10 - load_1_1 + load_1_10 - p_1_10 - 30 x_1_1_10 >= -30
 c1654: d_1_1 + load_1_1 - load_1_2 - p_1_1 + 30 x_1_2_1 <= 30
 c1655: d_1_1 + load_1_1 - load_1_2 - p_1_1 - 30 x_1_2_1 >= -30
 c1656: d_1_3 - load_1_2 + load_1_3 - p_1_3 + 30 x_1_2_3 <= 30
 c1657: d_1_3 - load_1_2 + load_1_3 - p_1_3 - 30 x_1_2_3 >= -30
 c1658: d_1_4 - load_1_2 + load_1_4 - p_1_4 + 30 x_1_2_4 <= 30
 c1659: d_1_4 - load_1_2 + load_1_4 - p_1_4 - 30 x_1_2_4 >= -30
 c1660: d_1_5 - load_1_2 + load_1_5 - p_1_5 + 30 x_1_2_5 <= 30
 c1661: d_1_5 - load_1_2 + load_1_5 - p_1_5 - 30 x_1_2_5 >= -30
 c1662: d_1_6 - load_1_2 + load_1_6 - p_1_6 + 30 x_1_2_6 <= 30
 c1663: d_1_6 - load_1_2 + load_1_6 - p_1_6 - 30 x_1_2_6 >= -30
 c1664: d_1_7 - load_1_2 + load_1_7 - p_1_7 + 30 x_1_2_7 <= 30
 c1665: d_1_7 - load_1_2 + load_1_7 - p_1_7 - 30 x_1_2_7 >= -30
 c1666: d_1_8 - load_1_2 + load_1_8 - p_1_8 + 30 x_1_2_8 <= 30
 c1667: d_1_8 - load_1_2 + load_1_8 - p_1_8 - 30 x_1_2_8 >= -30
 c1668: d_1_9 - load_1_2 + load_1_9 - p_1_9 + 30 x_1_2_9 <= 30
 c1669: d_1_9 - load_1_2 + load_1_9 - p_1_9 - 30 x_1_2_9 >= -30
 c1670: d_1_10 + load_1_10 - load_1_2 - p_1_10 + 30 x_1_2_10 <= 30
 c1671: d_1_10 + load_1_10 - load_1_2 - p_1_10 - 30 x_1_2_10 >= -30
 c1672: d_1_1 + load_1_1 - load_1_3 - p_1_1 + 30 x_1_3_1 <= 30
 c1673: d_1_1 + load_1_1 - load_1_3 - p_1_1 - 30 x_1_3_1 >= -30
 c1674: d_1_2 + load_1_2 - load_1_3 - p_1_2 + 30 x_1_3_2 <= 30
 c1675: d_1_2 + load_1_2 - load_1_3 - p_1_2 - 30 x_1_3_2 >= -30
 c1676: d_1_4 - load_1_3 + load_1_4 - p_1_4 + 30 x_1_3_4 <= 30
 c1677: d_1_4 - load_1_3 + load_1_4 - p_1_4 - 30 x_1_3_4 >= -30
 c1678: d_1_5 - load_1_3 + load_1_5 - p_1_5 + 30 x_1_3_5 <= 30
 c1679: d_1_5 - load_1_3 + load_1_5 - p_1_5 - 30 x_1_3_5 >= -30
 c1680: d_1_6 - load_1_3 + load_1_6 - p_1_6 + 30 x_1_3_6 <= 30
 c1681: d_1_6 - load_1_3 + load_1_6 - p_1_6 - 30 x_1_3_6 >= -30
 c1682: d_1_7 - load_1_3 + load_1_7 - p_1_7 + 30 x_1_3_7 <= 30
 c1683: d_1_7 - load_1_3 + load_1_7 - p_1_7 - 30 x_1_3_7 >= -30
 c1684: d_1_8 - load_1_3 + load_1_8 - p_1_8 + 30 x_1_3_8 <= 30
 c1685: d_1_8 - load_1_3 + load_1_8 - p_1_8 - 30 x_1_3_8 >= -30
 c1686: d_1_9 - load_1_3 + load_1_9 - p_1_9 + 30 x_1_3_9 <= 30
 c1687: d_1_9 - load_1_3 + load_1_9 - p_1_9 - 30 x_1_3_9 >= -30
 c1688: d_1_10 + load_1_10 - load_1_3 - p_1_10 + 30 x_1_3_10 <= 30
 c1689: d_1_10 + load_1_10 - load_1_3 - p_1_10 - 30 x_1_3_10 >= -30
 c1690: d_1_1 + load_1_1 - load_1_4 - p_1_1 + 30 x_1_4_1 <= 30
 c1691: d_1_1 + load_1_1 - load_1_4 - p_1_1 - 30 x_1_4_1 >= -30
 c1692: d_1_2 + load_1_2 - load_1_4 - p_1_2 + 30 x_1_4_2 <= 30
 c1693: d_1_2 + load_1_2 - load_1_4 - p_1_2 - 30 x_1_4_2 >= -30
 c1694: d_1_3 + load_1_3 - load_1_4 - p_1_3 + 30 x_1_4_3 <= 30
 c1695: d_1_3 + load_1_3 - load_1_4 - p_1_3 - 30 x_1_4_3 >= -30
 c1696: d_1_5 - load_1_4 + load_1_5 - p_1_5 + 30 x_1_4_5 <= 30
 c1697: d_1_5 - load_1_4 + load_1_5 - p_1_5 - 30 x_1_4_5 >= -30
 c1698: d_1_6 - load_1_4 + load_1_6 - p_1_6 + 30 x_1_4_6 <= 30
 c1699: d_1_6 - load_1_4 + load_1_6 - p_1_6 - 30 x_1_4_6 >= -30
 c1700: d_1_7 - load_1_4 + load_1_7 - p_1_7 + 30 x_1_4_7 <= 30
 c1701: d_1_7 - load_1_4 + load_1_7 - p_1_7 - 30 x_1_4_7 >= -30
 c1702: d_1_8 - load_1_4 + load_1_8 - p_1_8 + 30 x_1_4_8 <= 30
 c1703: d_1_8 - load_1_4 + load_1_8 - p_1_8 - 30 x_1_4_8 >= -30
 c1704: d_1_9 - load_1_4 + load_1_9 - p_1_9 + 30 x_1_4_9 <= 30
 c1705: d_1_9 - load_1_4 + load_1_9 - p_1_9 - 30 x_1_4_9 >= -30
 c1706: d_1_10 + load_1_10 - load_1_4 - p_1_10 + 30 x_1_4_10 <= 30
 c1707: d_1_10 + load_1_10 - load_1_4 - p_1_10 - 30 x_1_4_10 >= -30
 c1708: d_1_1 + load_1_1 - load_1_5 - p_1_1 + 30 x_1_5_1 <= 30
 c1709: d_1_1 + load_1_1 - load_1_5 - p_1_1 - 30 x_1_5_1 >= -30
 c1710: d_1_2 + load_1_2 - load_1_5 - p_1_2 + 30 x_1_5_2 <= 30
 c1711: d_1_2 + load_1_2 - load_1_5 - p_1_2 - 30 x_1_5_2 >= -30
 c1712: d_1_3 + load_1_3 - load_1_5 - p_1_3 + 30 x_1_5_3 <= 30
 c1713: d_1_3 + load_1_3 - load_1_5 - p_1_3 - 30 x_1_5_3 >= -30
 c1714: d_1_4 + load_1_4 - load_1_5 - p_1_4 + 30 x_1_5_4 <= 30
 c1715: d_1_4 + load_1_4 - load_1_5 - p_1_4 - 30 x_1_5_4 >= -30
 c1716: d_1_6 - load_1_5 + load_1_6 - p_1_6 + 30 x_1_5_6 <= 30
 c1717: d_1_6 - load_1_5 + load_1_6 - p_1_6 - 30 x_1_5_6 >= -30
 c1718: d_1_7 - load_1_5 + load_1_7 - p_1_7 + 30 x_1_5_7 <= 30
 c1719: d_1_7 - load_1_5 + load_1_7 - p_1_7 - 30 x_1_5_7 >= -30
 c1720: d_1_8 - load_1_5 + load_1_8 - p_1_8 + 30 x_1_5_8 <= 30
 c1721: d_1_8 - load_1_5 + load_1_8 - p_1_8 - 30 x_1_5_8 >= -30
 c1722: d_1_9 - load_1_5 + load_1_9 - p_1_9 + 30 x_1_5_9 <= 30
 c1723: d_1_9 - load_1_5 + load_1_9 - p_1_9 - 30 x_1_5_9 >= -30
 c1724: d_1_10 + load_1_10 - load_1_5 - p_1_10 + 30 x_1_5_10 <= 30
 c1725: d_1_10 + load_1_10 - load_1_5 - p_1_10 - 30 x_1_5_10 >= -30
 c1726: d_1_1 + load_1_1 - load_1_6 - p_1_1 + 30 x_1_6_1 <= 30
 c1727: d_1_1 + load_1_1 - load_1_6 - p_1_1 - 30 x_1_6_1 >= -30
 c1728: d_1_2 + load_1_2 - load_1_6 - p_1_2 + 30 x_1_6_2 <= 30
 c1729: d_1_2 + load_1_2 - load_1_6 - p_1_2 - 30 x_1_6_2 >= -30
 c1730: d_1_3 + load_1_3 - load_1_6 - p_1_3 + 30 x_1_6_3 <= 30
 c1731: d_1_3 + load_1_3 - load_1_6 - p_1_3 - 30 x_1_6_3 >= -30
 c1732: d_1_4 + load_1_4 - load_1_6 - p_1_4 + 30 x_1_6_4 <= 30
 c1733: d_1_4 + load_1_4 - load_1_6 - p_1_4 - 30 x_1_6_4 >= -30
 c1734: d_1_5 + load_1_5 - load_1_6 - p_1_5 + 30 x_1_6_5 <= 30
 c1735: d_1_5 + load_1_5 - load_1_6 - p_1_5 - 30 x_1_6_5 >= -30
 c1736: d_1_7 - load_1_6 + load_1_7 - p_1_7 + 30 x_1_6_7 <= 30
 c1737: d_1_7 - load_1_6 + load_1_7 - p_1_7 - 30 x_1_6_7 >= -30
 c1738: d_1_8 - load_1_6 + load_1_8 - p_1_8 + 30 x_1_6_8 <= 30
 c1739: d_1_8 - load_1_6 + load_1_8 - p_1_8 - 30 x_1_6_8 >= -30
 c1740: d_1_9 - load_1_6 + load_1_9 - p_1_9 + 30 x_1_6_9 <= 30
 c1741: d_1_9 - load_1_6 + load_1_9 - p_1_9 - 30 x_1_6_9 >= -30
 c1742: d_1_10 + load_1_10 - load_1_6 - p_1_10 + 30 x_1_6_10 <= 30
 c1743: d_1_10 + load_1_10 - load_1_6 - p_1_10 - 30 x_1_6_10 >= -30
 c1744: d_1_1 + load_1_1 - load_1_7 - p_1_1 + 30 x_1_7_1 <= 30
 c1745: d_1_1 + load_1_1 - load_1_7 - p_1_1 - 30 x_1_7_1 >= -30
 c1746: d_1_2 + load_1_2 - load_1_7 - p_1_2 + 30 x_1_7_2 <= 30
 c1747: d_1_2 + load_1_2 - load_1_7 - p_1_2 - 30 x_1_7_2 >= -30
 c1748: d_1_3 + load_1_3 - load_1_7 - p_1_3 + 30 x_1_7_3 <= 30
 c1749: d_1_3 + load_1_3 - load_1_7 - p_1_3 - 30 x_1_7_3 >= -30
 c1750: d_1_4 + load_1_4 - load_1_7 - p_1_4 + 30 x_1_7_4 <= 30
 c1751: d_1_4 + load_1_4 - load_1_7 - p_1_4 - 30 x_1_7_4 >= -30
 c1752: d_1_5 + load_1_5 - load_1_7 - p_1_5 + 30 x_1_7_5 <= 30
 c1753: d_1_5 + load_1_5 - load_1_7 - p_1_5 - 30 x_1_7_5 >= -30
 c1754: d_1_6 + load_1_6 - load_1_7 - p_1_6 + 30 x_1_7_6 <= 30
 c1755: d_1_6 + load_1_6 - load_1_7 - p_1_6 - 30 x_1_7_6 >= -30
 c1756: d_1_8 - load_1_7 + load_1_8 - p_1_8 + 30 x_1_7_8 <= 30
 c1757: d_1_8 - load_1_7 + load_1_8 - p_1_8 - 30 x_1_7_8 >= -30
 c1758: d_1_9 - load_1_7 + load_1_9 - p_1_9 + 30 x_1_7_9 <= 30
 c1759: d_1_9 - load_1_7 + load_1_9 - p_1_9 - 30 x_1_7_9 >= -30
 c1760: d_1_10 + load_1_10 - load_1_7 - p_1_10 + 30 x_1_7_10 <= 30
 c1761: d_1_10 + load_1_10 - load_1_7 - p_1_10 - 30 x_1_7_10 >= -30
 c1762: d_1_1 + load_1_1 - load_1_8 - p_1_1 + 30 x_1_8_1 <= 30
 c1763: d_1_1 + load_1_1 - load_1_8 - p_1_1 - 30 x_1_8_1 >= -30
 c1764: d_1_2 + load_1_2 - load_1_8 - p_1_2 + 30 x_1_8_2 <= 30
 c1765: d_1_2 + load_1_2 - load_1_8 - p_1_2 - 30 x_1_8_2 >= -30
 c1766: d_1_3 + load_1_3 - load_1_8 - p_1_3 + 30 x_1_8_3 <= 30
 c1767: d_1_3 + load_1_3 - load_1_8 - p_1_3 - 30 x_1_8_3 >= -30
 c1768: d_1_4 + load_1_4 - load_1_8 - p_1_4 + 30 x_1_8_4 <= 30
 c1769: d_1_4 + load_1_4 - load_1_8 - p_1_4 - 30 x_1_8_4 >= -30
 c1770: d_1_5 + load_1_5 - load_1_8 - p_1_5 + 30 x_1_8_5 <= 30
 c1771: d_1_5 + load_1_5 - load_1_8 - p_1_5 - 30 x_1_8_5 >= -30
 c1772: d_1_6 + load_1_6 - load_1_8 - p_1_6 + 30 x_1_8_6 <= 30
 c1773: d_1_6 + load_1_6 - load_1_8 - p_1_6 - 30 x_1_8_6 >= -30
 c1774: d_1_7 + load_1_7 - load_1_8 - p_1_7 + 30 x_1_8_7 <= 30
 c1775: d_1_7 + load_1_7 - load_1_8 - p_1_7 - 30 x_1_8_7 >= -30
 c1776: d_1_9 - load_1_8 + load_1_9 - p_1_9 + 30 x_1_8_9 <= 30
 c1777: d_1_9 - load_1_8 + load_1_9 - p_1_9 - 30 x_1_8_9 >= -30
 c1778: d_1_10 + load_1_10 - load_1_8 - p_1_10 + 30 x_1_8_10 <= 30
 c1779: d_1_10 + load_1_10 - load_1_8 - p_1_10 - 30 x_1_8_10 >= -30
 c1780: d_1_1 + load_1_1 - load_1_9 - p_1_1 + 30 x_1_9_1 <= 30
 c1781: d_1_1 + load_1_1 - load_1_9 - p_1_1 - 30 x_1_9_1 >= -30
 c1782: d_1_2 + load_1_2 - load_1_9 - p_1_2 + 30 x_1_9_2 <= 30
 c1783: d_1_2 + load_1_2 - load_1_9 - p_1_2 - 30 x_1_9_2 >= -30
 c1784: d_1_3 + load_1_3 - load_1_9 - p_1_3 + 30 x_1_9_3 <= 30
 c1785: d_1_3 + load_1_3 - load_1_9 - p_1_3 - 30 x_1_9_3 >= -30
 c1786: d_1_4 + load_1_4 - load_1_9 - p_1_4 + 30 x_1_9_4 <= 30
 c1787: d_1_4 + load_1_4 - load_1_9 - p_1_4 - 30 x_1_9_4 >= -30
 c1788: d_1_5 + load_1_5 - load_1_9 - p_1_5 + 30 x_1_9_5 <= 30
 c1789: d_1_5 + load_1_5 - load_1_9 - p_1_5 - 30 x_1_9_5 >= -30
 c1790: d_1_6 + load_1_6 - load_1_9 - p_1_6 + 30 x_1_9_6 <= 30
 c1791: d_1_6 + load_1_6 - load_1_9 - p_1_6 - 30 x_1_9_6 >= -30
 c1792: d_1_7 + load_1_7 - load_1_9 - p_1_7 + 30 x_1_9_7 <= 30
 c1793: d_1_7 + load_1_7 - load_1_9 - p_1_7 - 30 x_1_9_7 >= -30
 c1794: d_1_8 + load_1_8 - load_1_9 - p_1_8 + 30 x_1_9_8 <= 30
 c1795: d_1_8 + load_1_8 - load_1_9 - p_1_8 - 30 x_1_9_8 >= -30
 c1796: d_1_10 + load_1_10 - load_1_9 - p_1_10 + 30 x_1_9_10 <= 30
 c1797: d_1_10 + load_1_10 - load_1_9 - p_1_10 - 30 x_1_9_10 >= -30
 c1798: d_1_1 + load_1_1 - load_1_10 - p_1_1 + 30 x_1_10_1 <= 30
 c1799: d_1_1 + load_1_1 - load_1_10 - p_1_1 - 30 x_1_10_1 >= -30
 c1800: d_1_2 - load_1_10 + load_1_2 - p_1_2 + 30 x_1_10_2 <= 30
 c1801: d_1_2 - load_1_10 + load_1_2 - p_1_2 - 30 x_1_10_2 >= -30
 c1802: d_1_3 - load_1_10 + load_1_3 - p_1_3 + 30 x_1_10_3 <= 30
 c1803: d_1_3 - load_1_10 + load_1_3 - p_1_3 - 30 x_1_10_3 >= -30
 c1804: d_1_4 - load_1_10 + load_1_4 - p_1_4 + 30 x_1_10_4 <= 30
 c1805: d_1_4 - load_1_10 + load_1_4 - p_1_4 - 30 x_1_10_4 >= -30
 c1806: d_1_5 - load_1_10 + load_1_5 - p_1_5 + 30 x_1_10_5 <= 30
 c1807: d_1_5 - load_1_10 + load_1_5 - p_1_5 - 30 x_1_10_5 >= -30
 c1808: d_1_6 - load_1_10 + load_1_6 - p_1_6 + 30 x_1_10_6 <= 30
 c1809: d_1_6 - load_1_10 + load_1_6 - p_1_6 - 30 x_1_10_6 >= -30
 c1810: d_1_7 - load_1_10 + load_1_7 - p_1_7 + 30 x_1_10_7 <= 30
 c1811: d_1_7 - load_1_10 + load_1_7 - p_1_7 - 30 x_1_10_7 >= -30
 c1812: d_1_8 - load_1_10 + load_1_8 - p_1_8 + 30 x_1_10_8 <= 30
 c1813: d_1_8 - load_1_10 + load_1_8 - p_1_8 - 30 x_1_10_8 >= -30
 c1814: d_1_9 - load_1_10 + load_1_9 - p_1_9 + 30 x_1_10_9 <= 30
 c1815: d_1_9 - load_1_10 + load_1_9 - p_1_9 - 30 x_1_10_9 >= -30
 c1816: - d_1_1 - d_1_10 - d_1_2 - d_1_3 - d_1_4 - d_1_5 - d_1_6 - d_1_7 - d_1_8 - d_1_9 + p_1_1 + p_1_10 + p_1_2 + p_1_3 + p_1_4 + p_1_5 + p_1_6 + p_1_7 + p_1_8 + p_1_9 >= 0
 c1817: 120 p_1_1 + 120 p_1_10 + 120 p_1_2 + 120 p_1_3 + 120 p_1_4 + 120 p_1_5 + 120 p_1_6 + 120 p_1_7 + 120 p_1_8 + 120 p_1_9 + 362.46748293579304 x_1_0_1 + 278.51137366305568 x_1_0_10 + 249.85016445864008 x_1_0_2 + 342.00803235340214 x_1_0_3 + 237.4386051510381 x_1_0_4 + 199.47447782053851 x_1_0_5 + 248.79086800406526 x_1_0_6 + 365.89277107605858 x_1_0_7 + 224.0756711917451 x_1_0_8 + 241.05821692058836 x_1_0_9 + 278.51137366305568 x_1_10_0 + 101.28156011603591 x_1_10_1 + 468.87403571081205 x_1_10_2 + 579.49897726217489 x_1_10_3 + 92.124594882248175 x_1_10_4 + 433.76087684089811 x_1_10_5 + 497.71944973829949 x_1_10_6 + 98.186763454868085 x_1_10_7 + 464.45106604376537 x_1_10_8 + 460.77117901128639 x_1_10_9 + 362.46748293579304 x_1_1_0 + 101.28156011603591 x_1_1_10 + 567.82073322883059 x_1_1_2 + 632.26728551400777 x_1_1_3 + 131.91649724124909 x_1_1_4 + 530.68961420598828 x_1_1_5 + 558.51377392549227 x_1_1_6 + 14.308129794563508 x_1_1_7 + 560.97258021223433 x_1_1_8 + 512.01148617775618 x_1_1_9 + 249.85016445864008 x_1_2_0 + 567.82073322883059 x_1_2_1 + 468.87403571081205 x_1_2_10 + 447.85785763140626 x_1_2_3 + 462.74649461676216 x_1_2_4 + 53.421503090345617 x_1_2_5 + 363.54961536796441 x_1_2_6 + 566.67984684161297 x_1_2_7 + 47.870421807320383 x_1_2_8 + 402.62230915615663 x_1_2_9 + 342.00803235340214 x_1_3_0 + 632.26728551400777 x_1_3_1 + 579.49897726217489 x_1_3_10 + 447.85785763140626 x_1_3_2 + 503.10499474349757 x_1_3_4 + 403.53735934579981 x_1_3_5 + 94.905577834009534 x_1_3_6 + 641.1982208673752 x_1_3_7 + 400.08173048113366 x_1_3_8 + 120.25584548687442 x_1_3_9 + 237.4386051510381 x_1_4_0 + 131.91649724124909 x_1_4_1 + 92.124594882248175 x_1_4_10 + 462.74649461676216 x_1_4_2 + 503.10499474349757 x_1_4_3 + 420.14821862183675 x_1_4_5 + 427.17340659707094 x_1_4_6 + 139.13987556059672 x_1_4_7 + 449.00193543034032 x_1_4_8 + 383.0218516497012 x_1_4_9 + 199.47447782053851 x_1_5_0 + 530.68961420598828 x_1_5_1 + 433.76087684089811 x_1_5_10 + 53.421503090345617 x_1_5_2 + 403.53735934579981 x_1_5_3 + 420.14821862183675 x_1_5_4 + 316.30401546778245 x_1_5_6 + 530.56191318240235 x_1_5_7 + 31.230171167245967 x_1_5_8 + 351.85166438991814 x_1_5_9 + 248.79086800406526 x_1_6_0 + 558.51377392549227 x_1_6_1 + 497.71944973829949 x_1_6_10 + 363.54961536796441 x_1_6_2 + 94.905577834009534 x_1_6_3 + 427.17340659707094 x_1_6_4 + 316.30401546778245 x_1_6_5 + 566.3002663894498 x_1_6_7 + 316.4487455636517 x_1_6_8 + 70.998602693539269 x_1_6_9 + 365.89277107605858 x_1_7_0 + 14.308129794563508 x_1_7_1 + 98.186763454868085 x_1_7_10 + 566.67984684161297 x_1_7_2 + 641.1982208673752 x_1_7_3 + 139.13987556059672 x_1_7_4 + 530.56191318240235 x_1_7_5 + 566.3002663894498 x_1_7_6 + 561.03462434256471 x_1_7_8 + 520.96318411744483 x_1_7_9 + 224.0756711917451 x_1_8_0 + 560.97258021223433 x_1_8_1 + 464.45106604376537 x_1_8_10 + 47.870421807320383 x_1_8_2 + 400.08173048113366 x_1_8_3 + 449.00193543034032 x_1_8_4 + 31.230171167245967 x_1_8_5 + 316.4487455636517 x_1_8_6 + 561.03462434256471 x_1_8_7 + 357.54157809433036 x_1_8_9 + 241.05821692058836 x_1_9_0 + 512.01148617775618 x_1_9_1 + 460.77117901128639 x_1_9_10 + 402.62230915615663 x_1_9_2 + 120.25584548687442 x_1_9_3 + 383.0218516497012 x_1_9_4 + 351.85166438991814 x_1_9_5 + 70.998602693539269 x_1_9_6 + 520.96318411744483 x_1_9_7 + 357.54157809433036 x_1_9_8 <= 2400
 c1818: p_2_1 - 5 z_2_1 <= 0
 c1819: d_2_1 - 18 z_2_1 <= 0
 c1820: mode_2_1 - z_2_1 <= 0
 c1821: - 5 mode_2_1 + p_2_1 <= 0
 c1822: d_2_1 + 18 mode_2_1 - 18 z_2_1 <= 0
 c1823: d_2_1 + p_2_1 - z_2_1 >= 0
 c1824: load_2_1 - 30 z_2_1 <= 0
 c1825: p_2_2 - 30 z_2_2 <= 0
 c1826: d_2_2 - 5 z_2_2 <= 0
 c1827: mode_2_2 - z_2_2 <= 0
 c1828: - 30 mode_2_2 + p_2_2 <= 0
 c1829: d_2_2 + 5 mode_2_2 - 5 z_2_2 <= 0
 c1830: d_2_2 + p_2_2 - z_2_2 >= 0
 c1831: load_2_2 - 30 z_2_2 <= 0
 c1832: p_2_3 - 26 z_2_3 <= 0
 c1833: d_2_3 - 2 z_2_3 <= 0
 c1834: mode_2_3 - z_2_3 <= 0
 c1835: - 26 mode_2_3 + p_2_3 <= 0
 c1836: d_2_3 + 2 mode_2_3 - 2 z_2_3 <= 0
 c1837: d_2_3 + p_2_3 - z_2_3 >= 0
 c1838: load_2_3 - 30 z_2_3 <= 0
 c1839: p_2_4 - 10 z_2_4 <= 0
 c1840: d_2_4 - 16 z_2_4 <= 0
 c1841: mode_2_4 - z_2_4 <= 0
 c1842: - 10 mode_2_4 + p_2_4 <= 0
 c1843: d_2_4 + 16 mode_2_4 - 16 z_2_4 <= 0
 c1844: d_2_4 + p_2_4 - z_2_4 >= 0
 c1845: load_2_4 - 30 z_2_4 <= 0
 c1846: p_2_5 - 23 z_2_5 <= 0
 c1847: d_2_5 - 14 z_2_5 <= 0
 c1848: mode_2_5 - z_2_5 <= 0
 c1849: - 23 mode_2_5 + p_2_5 <= 0
 c1850: d_2_5 + 14 mode_2_5 - 14 z_2_5 <= 0
 c1851: d_2_5 + p_2_5 - z_2_5 >= 0
 c1852: load_2_5 - 30 z_2_5 <= 0
 c1853: p_2_6 - 4 z_2_6 <= 0
 c1854: d_2_6 - 18 z_2_6 <= 0
 c1855: mode_2_6 - z_2_6 <= 0
 c1856: - 4 mode_2_6 + p_2_6 <= 0
 c1857: d_2_6 + 18 mode_2_6 - 18 z_2_6 <= 0
 c1858: d_2_6 + p_2_6 - z_2_6 >= 0
 c1859: load_2_6 - 30 z_2_6 <= 0
 c1860: p_2_7 - 10 z_2_7 <= 0
 c1861: d_2_7 - 30 z_2_7 <= 0
 c1862: mode_2_7 - z_2_7 <= 0
 c1863: - 10 mode_2_7 + p_2_7 <= 0
 c1864: d_2_7 + 30 mode_2_7 - 30 z_2_7 <= 0
 c1865: d_2_7 + p_2_7 - z_2_7 >= 0
 c1866: load_2_7 - 30 z_2_7 <= 0
 c1867: p_2_8 - 5 z_2_8 <= 0
 c1868: d_2_8 - 15 z_2_8 <= 0
 c1869: mode_2_8 - z_2_8 <= 0
 c1870: - 5 mode_2_8 + p_2_8 <= 0
 c1871: d_2_8 + 15 mode_2_8 - 15 z_2_8 <= 0
 c1872: d_2_8 + p_2_8 - z_2_8 >= 0
 c1873: load_2_8 - 30 z_2_8 <= 0
 c1874: p_2_9 - 5 z_2_9 <= 0
 c1875: d_2_9 - 30 z_2_9 <= 0
 c1876: mode_2_9 - z_2_9 <= 0
 c1877: - 5 mode_2_9 + p_2_9 <= 0
 c1878: d_2_9 + 30 mode_2_9 - 30 z_2_9 <= 0
 c1879: d_2_9 + p_2_9 - z_2_9 >= 0
 c1880: load_2_9 - 30 z_2_9 <= 0
 c1881: p_2_10 - 4 z_2_10 <= 0
 c1882: d_2_10 - 30 z_2_10 <= 0
 c1883: mode_2_10 - z_2_10 <= 0
 c1884: - 4 mode_2_10 + p_2_10 <= 0
 c1885: d_2_10 + 30 mode_2_10 - 30 z_2_10 <= 0
 c1886: d_2_10 + p_2_10 - z_2_10 >= 0
 c1887: load_2_10 - 30 z_2_10 <= 0
 c1888: d_2_1 + load_2_1 - p_2_1 + 30 x_2_0_1 <= 30
 c1889: d_2_1 + load_2_1 - p_2_1 - 30 x_2_0_1 >= -30
 c1890: d_2_2 + load_2_2 - p_2_2 + 30 x_2_0_2 <= 30
 c1891: d_2_2 + load_2_2 - p_2_2 - 30 x_2_0_2 >= -30
 c1892: d_2_3 + load_2_3 - p_2_3 + 30 x_2_0_3 <= 30
 c1893: d_2_3 + load_2_3 - p_2_3 - 30 x_2_0_3 >= -30
 c1894: d_2_4 + load_2_4 - p_2_4 + 30 x_2_0_4 <= 30
 c1895: d_2_4 + load_2_4 - p_2_4 - 30 x_2_0_4 >= -30
 c1896: d_2_5 + load_2_5 - p_2_5 + 30 x_2_0_5 <= 30
 c1897: d_2_5 + load_2_5 - p_2_5 - 30 x_2_0_5 >= -30
 c1898: d_2_6 + load_2_6 - p_2_6 + 30 x_2_0_6 <= 30
 c1899: d_2_6 + load_2_6 - p_2_6 - 30 x_2_0_6 >= -30
 c1900: d_2_7 + load_2_7 - p_2_7 + 30 x_2_0_7 <= 30
 c1901: d_2_7 + load_2_7 - p_2_7 - 30 x_2_0_7 >= -30
 c1902: d_2_8 + load_2_8 - p_2_8 + 30 x_2_0_8 <= 30
 c1903: d_2_8 + load_2_8 - p_2_8 - 30 x_2_0_8 >= -30
 c1904: d_2_9 + load_2_9 - p_2_9 + 30 x_2_0_9 <= 30
 c1905: d_2_9 + load_2_9 - p_2_9 - 30 x_2_0_9 >= -30
 c1906: d_2_10 + load_2_10 - p_2_10 + 30 x_2_0_10 <= 30
 c1907: d_2_10 + load_2_10 - p_2_10 - 30 x_2_0_10 >= -30
 c1908: d_2_2 - load_2_1 + load_2_2 - p_2_2 + 30 x_2_1_2 <= 30
 c1909: d_2_2 - load_2_1 + load_2_2 - p_2_2 - 30 x_2_1_2 >= -30
 c1910: d_2_3 - load_2_1 + load_2_3 - p_2_3 + 30 x_2_1_3 <= 30
 c1911: d_2_3 - load_2_1 + load_2_3 - p_2_3 - 30 x_2_1_3 >= -30
 c1912: d_2_4 - load_2_1 + load_2_4 - p_2_4 + 30 x_2_1_4 <= 30
 c1913: d_2_4 - load_2_1 + load_2_4 - p_2_4 - 30 x_2_1_4 >= -30
 c1914: d_2_5 - load_2_1 + load_2_5 - p_2_5 + 30 x_2_1_5 <= 30
 c1915: d_2_5 - load_2_1 + load_2_5 - p_2_5 - 30 x_2_1_5 >= -30
 c1916: d_2_6 - load_2_1 + load_2_6 - p_2_6 + 30 x_2_1_6 <= 30
 c1917: d_2_6 - load_2_1 + load_2_6 - p_2_6 - 30 x_2_1_6 >= -30
 c1918: d_2_7 - load_2_1 + load_2_7 - p_2_7 + 30 x_2_1_7 <= 30
 c1919: d_2_7 - load_2_1 + load_2_7 - p_2_7 - 30 x_2_1_7 >= -30
 c1920: d_2_8 - load_2_1 + load_2_8 - p_2_8 + 30 x_2_1_8 <= 30
 c1921: d_2_8 - load_2_1 + load_2_8 - p_2_8 - 30 x_2_1_8 >= -30
 c1922: d_2_9 - load_2_1 + load_2_9 - p_2_9 + 30 x_2_1_9 <= 30
 c1923: d_2_9 - load_2_1 + load_2_9 - p_2_9 - 30 x_2_1_9 >= -30
 c1924: d_2_10 - load_2_1 + load_2_10 - p_2_10 + 30 x_2_1_10 <= 30
 c1925: d_2_10 - load_2_1 + load_2_10 - p_2_10 - 30 x_2_1_10 >= -30
 c1926: d_2_1 + load_2_1 - load_2_2 - p_2_1 + 30 x_2_2_1 <= 30
 c1927: d_2_1 + load_2_1 - load_2_2 - p_2_1 - 30 x_2_2_1 >= -30
 c1928: d_2_3 - load_2_2 + load_2_3 - p_2_3 + 30 x_2_2_3 <= 30
 c1929: d_2_3 - load_2_2 + load_2_3 - p_2_3 - 30 x_2_2_3 >= -30
 c1930: d_2_4 - load_2_2 + load_2_4 - p_2_4 + 30 x_2_2_4 <= 30
 c1931: d_2_4 - load_2_2 + load_2_4 - p_2_4 - 30 x_2_2_4 >= -30
 c1932: d_2_5 - load_2_2 + load_2_5 - p_2_5 + 30 x_2_2_5 <= 30
 c1933: d_2_5 - load_2_2 + load_2_5 - p_2_5 - 30 x_2_2_5 >= -30
 c1934: d_2_6 - load_2_2 + load_2_6 - p_2_6 + 30 x_2_2_6 <= 30
 c1935: d_2_6 - load_2_2 + load_2_6 - p_2_6 - 30 x_2_2_6 >= -30
 c1936: d_2_7 - load_2_2 + load_2_7 - p_2_7 + 30 x_2_2_7 <= 30
 c1937: d_2_7 - load_2_2 + load_2_7 - p_2_7 - 30 x_2_2_7 >= -30
 c1938: d_2_8 - load_2_2 + load_2_8 - p_2_8 + 30 x_2_2_8 <= 30
 c1939: d_2_8 - load_2_2 + load_2_8 - p_2_8 - 30 x_2_2_8 >= -30
 c1940: d_2_9 - load_2_2 + load_2_9 - p_2_9 + 30 x_2_2_9 <= 30
 c1941: d_2_9 - load_2_2 + load_2_9 - p_2_9 - 30 x_2_2_9 >= -30
 c1942: d_2_10 + load_2_10 - load_2_2 - p_2_10 + 30 x_2_2_10 <= 30
 c1943: d_2_10 + load_2_10 - load_2_2 - p_2_10 - 30 x_2_2_10 >= -30
 c1944: d_2_1 + load_2_1 - load_2_3 - p_2_1 + 30 x_2_3_1 <= 30
 c1945: d_2_1 + load_2_1 - load_2_3 - p_2_1 - 30 x_2_3_1 >= -30
 c1946: d_2_2 + load_2_2 - load_2_3 - p_2_2 + 30 x_2_3_2 <= 30
 c1947: d_2_2 + load_2_2 - load_2_3 - p_2_2 - 30 x_2_3_2 >= -30
 c1948: d_2_4 - load_2_3 + load_2_4 - p_2_4 + 30 x_2_3_4 <= 30
 c1949: d_2_4 - load_2_3 + load_2_4 - p_2_4 - 30 x_2_3_4 >= -30
 c1950: d_2_5 - load_2_3 + load_2_5 - p_2_5 + 30 x_2_3_5 <= 30
 c1951: d_2_5 - load_2_3 + load_2_5 - p_2_5 - 30 x_2_3_5 >= -30
 c1952: d_2_6 - load_2_3 + load_2_6 - p_2_6 + 30 x_2_3_6 <= 30
 c1953: d_2_6 - load_2_3 + load_2_6 - p_2_6 - 30 x_2_3_6 >= -30
 c1954: d_2_7 - load_2_3 + load_2_7 - p_2_7 + 30 x_2_3_7 <= 30
 c1955: d_2_7 - load_2_3 + load_2_7 - p_2_7 - 30 x_2_3_7 >= -30
 c1956: d_2_8 - load_2_3 + load_2_8 - p_2_8 + 30 x_2_3_8 <= 30
 c1957: d_2_8 - load_2_3 + load_2_8 - p_2_8 - 30 x_2_3_8 >= -30
 c1958: d_2_9 - load_2_3 + load_2_9 - p_2_9 + 30 x_2_3_9 <= 30
 c1959: d_2_9 - load_2_3 + load_2_9 - p_2_9 - 30 x_2_3_9 >= -30
 c1960: d_2_10 + load_2_10 - load_2_3 - p_2_10 + 30 x_2_3_10 <= 30
 c1961: d_2_10 + load_2_10 - load_2_3 - p_2_10 - 30 x_2_3_10 >= -30
 c1962: d_2_1 + load_2_1 - load_2_4 - p_2_1 + 30 x_2_4_1 <= 30
 c1963: d_2_1 + load_2_1 - load_2_4 - p_2_1 - 30 x_2_4_1 >= -30
 c1964: d_2_2 + load_2_2 - load_2_4 - p_2_2 + 30 x_2_4_2 <= 30
 c1965: d_2_2 + load_2_2 - load_2_4 - p_2_2 - 30 x_2_4_2 >= -30
 c1966: d_2_3 + load_2_3 - load_2_4 - p_2_3 + 30 x_2_4_3 <= 30
 c1967: d_2_3 + load_2_3 - load_2_4 - p_2_3 - 30 x_2_4_3 >= -30
 c1968: d_2_5 - load_2_4 + load_2_5 - p_2_5 + 30 x_2_4_5 <= 30
 c1969: d_2_5 - load_2_4 + load_2_5 - p_2_5 - 30 x_2_4_5 >= -30
 c1970: d_2_6 - load_2_4 + load_2_6 - p_2_6 + 30 x_2_4_6 <= 30
 c1971: d_2_6 - load_2_4 + load_2_6 - p_2_6 - 30 x_2_4_6 >= -30
 c1972: d_2_7 - load_2_4 + load_2_7 - p_2_7 + 30 x_2_4_7 <= 30
 c1973: d_2_7 - load_2_4 + load_2_7 - p_2_7 - 30 x_2_4_7 >= -30
 c1974: d_2_8 - load_2_4 + load_2_8 - p_2_8 + 30 x_2_4_8 <= 30
 c1975: d_2_8 - load_2_4 + load_2_8 - p_2_8 - 30 x_2_4_8 >= -30
 c1976: d_2_9 - load_2_4 + load_2_9 - p_2_9 + 30 x_2_4_9 <= 30
 c1977: d_2_9 - load_2_4 + load_2_9 - p_2_9 - 30 x_2_4_9 >= -30
 c1978: d_2_10 + load_2_10 - load_2_4 - p_2_10 + 30 x_2_4_10 <= 30
 c1979: d_2_10 + load_2_10 - load_2_4 - p_2_10 - 30 x_2_4_10 >= -30
 c1980: d_2_1 + load_2_1 - load_2_5 - p_2_1 + 30 x_2_5_1 <= 30
 c1981: d_2_1 + load_2_1 - load_2_5 - p_2_1 - 30 x_2_5_1 >= -30
 c1982: d_2_2 + load_2_2 - load_2_5 - p_2_2 + 30 x_2_5_2 <= 30
 c1983: d_2_2 + load_2_2 - load_2_5 - p_2_2 - 30 x_2_5_2 >= -30
 c1984: d_2_3 + load_2_3 - load_2_5 - p_2_3 + 30 x_2_5_3 <= 30
 c1985: d_2_3 + load_2_3 - load_2_5 - p_2_3 - 30 x_2_5_3 >= -30
 c1986: d_2_4 + load_2_4 - load_2_5 - p_2_4 + 30 x_2_5_4 <= 30
 c1987: d_2_4 + load_2_4 - load_2_5 - p_2_4 - 30 x_2_5_4 >= -30
 c1988: d_2_6 - load_2_5 + load_2_6 - p_2_6 + 30 x_2_5_6 <= 30
 c1989: d_2_6 - load_2_5 + load_2_6 - p_2_6 - 30 x_2_5_6 >= -30
 c1990: d_2_7 - load_2_5 + load_2_7 - p_2_7 + 30 x_2_5_7 <= 30
 c1991: d_2_7 - load_2_5 + load_2_7 - p_2_7 - 30 x_2_5_7 >= -30
 c1992: d_2_8 - load_2_5 + load_2_8 - p_2_8 + 30 x_2_5_8 <= 30
 c1993: d_2_8 - load_2_5 + load_2_8 - p_2_8 - 30 x_2_5_8 >= -30
 c1994: d_2_9 - load_2_5 + load_2_9 - p_2_9 + 30 x_2_5_9 <= 30
 c1995: d_2_9 - load_2_5 + load_2_9 - p_2_9 - 30 x_2_5_9 >= -30
 c1996: d_2_10 + load_2_10 - load_2_5 - p_2_10 + 30 x_2_5_10 <= 30
 c1997: d_2_10 + load_2_10 - load_2_5 - p_2_10 - 30 x_2_5_10 >= -30
 c1998: d_2_1 + load_2_1 - load_2_6 - p_2_1 + 30 x_2_6_1 <= 30
 c1999: d_2_1 + load_2_1 - load_2_6 - p_2_1 - 30 x_2_6_1 >= -30
 c2000: d_2_2 + load_2_2 - load_2_6 - p_2_2 + 30 x_2_6_2 <= 30
 c2001: d_2_2 + load_2_2 - load_2_6 - p_2_2 - 30 x_2_6_2 >= -30
 c2002: d_2_3 + load_2_3 - load_2_6 - p_2_3 + 30 x_2_6_3 <= 30
 c2003: d_2_3 + load_2_3 - load_2_6 - p_2_3 - 30 x_2_6_3 >= -30
 c2004: d_2_4 + load_2_4 - load_2_6 - p_2_4 + 30 x_2_6_4 <= 30
 c2005: d_2_4 + load_2_4 - load_2_6 - p_2_4 - 30 x_2_6_4 >= -30
 c2006: d_2_5 + load_2_5 - load_2_6 - p_2_5 + 30 x_2_6_5 <= 30
 c2007: d_2_5 + load_2_5 - load_2_6 - p_2_5 - 30 x_2_6_5 >= -30
 c2008: d_2_7 - load_2_6 + load_2_7 - p_2_7 + 30 x_2_6_7 <= 30
 c2009: d_2_7 - load_2_6 + load_2_7 - p_2_7 - 30 x_2_6_7 >= -30
 c2010: d_2_8 - load_2_6 + load_2_8 - p_2_8 + 30 x_2_6_8 <= 30
 c2011: d_2_8 - load_2_6 + load_2_8 - p_2_8 - 30 x_2_6_8 >= -30
 c2012: d_2_9 - load_2_6 + load_2_9 - p_2_9 + 30 x_2_6_9 <= 30
 c2013: d_2_9 - load_2_6 + load_2_9 - p_2_9 - 30 x_2_6_9 >= -30
 c2014: d_2_10 + load_2_10 - load_2_6 - p_2_10 + 30 x_2_6_10 <= 30
 c2015: d_2_10 + load_2_10 - load_2_6 - p_2_10 - 30 x_2_6_10 >= -30
 c2016: d_2_1 + load_2_1 - load_2_7 - p_2_1 + 30 x_2_7_1 <= 30
 c2017: d_2_1 + load_2_1 - load_2_7 - p_2_1 - 30 x_2_7_1 >= -30
 c2018: d_2_2 + load_2_2 - load_2_7 - p_2_2 + 30 x_2_7_2 <= 30
 c2019: d_2_2 + load_2_2 - load_2_7 - p_2_2 - 30 x_2_7_2 >= -30
 c2020: d_2_3 + load_2_3 - load_2_7 - p_2_3 + 30 x_2_7_3 <= 30
 c2021: d_2_3 + load_2_3 - load_2_7 - p_2_3 - 30 x_2_7_3 >= -30
 c2022: d_2_4 + load_2_4 - load_2_7 - p_2_4 + 30 x_2_7_4 <= 30
 c2023: d_2_4 + load_2_4 - load_2_7 - p_2_4 - 30 x_2_7_4 >= -30
 c2024: d_2_5 + load_2_5 - load_2_7 - p_2_5 + 30 x_2_7_5 <= 30
 c2025: d_2_5 + load_2_5 - load_2_7 - p_2_5 - 30 x_2_7_5 >= -30
 c2026: d_2_6 + load_2_6 - load_2_7 - p_2_6 + 30 x_2_7_6 <= 30
 c2027: d_2_6 + load_2_6 - load_2_7 - p_2_6 - 30 x_2_7_6 >= -30
 c2028: d_2_8 - load_2_7 + load_2_8 - p_2_8 + 30 x_2_7_8 <= 30
 c2029: d_2_8 - load_2_7 + load_2_8 - p_2_8 - 30 x_2_7_8 >= -30
 c2030: d_2_9 - load_2_7 + load_2_9 - p_2_9 + 30 x_2_7_9 <= 30
 c2031: d_2_9 - load_2_7 + load_2_9 - p_2_9 - 30 x_2_7_9 >= -30
 c2032: d_2_10 + load_2_10 - load_2_7 - p_2_10 + 30 x_2_7_10 <= 30
 c2033: d_2_10 + load_2_10 - load_2_7 - p_2_10 - 30 x_2_7_10 >= -30
 c2034: d_2_1 + load_2_1 - load_2_8 - p_2_1 + 30 x_2_8_1 <= 30
 c2035: d_2_1 + load_2_1 - load_2_8 - p_2_1 - 30 x_2_8_1 >= -30
 c2036: d_2_2 + load_2_2 - load_2_8 - p_2_2 + 30 x_2_8_2 <= 30
 c2037: d_2_2 + load_2_2 - load_2_8 - p_2_2 - 30 x_2_8_2 >= -30
 c2038: d_2_3 + load_2_3 - load_2_8 - p_2_3 + 30 x_2_8_3 <= 30
 c2039: d_2_3 + load_2_3 - load_2_8 - p_2_3 - 30 x_2_8_3 >= -30
 c2040: d_2_4 + load_2_4 - load_2_8 - p_2_4 + 30 x_2_8_4 <= 30
 c2041: d_2_4 + load_2_4 - load_2_8 - p_2_4 - 30 x_2_8_4 >= -30
 c2042: d_2_5 + load_2_5 - load_2_8 - p_2_5 + 30 x_2_8_5 <= 30
 c2043: d_2_5 + load_2_5 - load_2_8 - p_2_5 - 30 x_2_8_5 >= -30
 c2044: d_2_6 + load_2_6 - load_2_8 - p_2_6 + 30 x_2_8_6 <= 30
 c2045: d_2_6 + load_2_6 - load_2_8 - p_2_6 - 30 x_2_8_6 >= -30
 c2046: d_2_7 + load_2_7 - load_2_8 - p_2_7 + 30 x_2_8_7 <= 30
 c2047: d_2_7 + load_2_7 - load_2_8 - p_2_7 - 30 x_2_8_7 >= -30
 c2048: d_2_9 - load_2_8 + load_2_9 - p_2_9 + 30 x_2_8_9 <= 30
 c2049: d_2_9 - load_2_8 + load_2_9 - p_2_9 - 30 x_2_8_9 >= -30
 c2050: d_2_10 + load_2_10 - load_2_8 - p_2_10 + 30 x_2_8_10 <= 30
 c2051: d_2_10 + load_2_10 - load_2_8 - p_2_10 - 30 x_2_8_10 >= -30
 c2052: d_2_1 + load_2_1 - load_2_9 - p_2_1 + 30 x_2_9_1 <= 30
 c2053: d_2_1 + load_2_1 - load_2_9 - p_2_1 - 30 x_2_9_1 >= -30
 c2054: d_2_2 + load_2_2 - load_2_9 - p_2_2 + 30 x_2_9_2 <= 30
 c2055: d_2_2 + load_2_2 - load_2_9 - p_2_2 - 30 x_2_9_2 >= -30
 c2056: d_2_3 + load_2_3 - load_2_9 - p_2_3 + 30 x_2_9_3 <= 30
 c2057: d_2_3 + load_2_3 - load_2_9 - p_2_3 - 30 x_2_9_3 >= -30
 c2058: d_2_4 + load_2_4 - load_2_9 - p_2_4 + 30 x_2_9_4 <= 30
 c2059: d_2_4 + load_2_4 - load_2_9 - p_2_4 - 30 x_2_9_4 >= -30
 c2060: d_2_5 + load_2_5 - load_2_9 - p_2_5 + 30 x_2_9_5 <= 30
 c2061: d_2_5 + load_2_5 - load_2_9 - p_2_5 - 30 x_2_9_5 >= -30
 c2062: d_2_6 + load_2_6 - load_2_9 - p_2_6 + 30 x_2_9_6 <= 30
 c2063: d_2_6 + load_2_6 - load_2_9 - p_2_6 - 30 x_2_9_6 >= -30
 c2064: d_2_7 + load_2_7 - load_2_9 - p_2_7 + 30 x_2_9_7 <= 30
 c2065: d_2_7 + load_2_7 - load_2_9 - p_2_7 - 30 x_2_9_7 >= -30
 c2066: d_2_8 + load_2_8 - load_2_9 - p_2_8 + 30 x_2_9_8 <= 30
 c2067: d_2_8 + load_2_8 - load_2_9 - p_2_8 - 30 x_2_9_8 >= -30
 c2068: d_2_10 + load_2_10 - load_2_9 - p_2_10 + 30 x_2_9_10 <= 30
 c2069: d_2_10 + load_2_10 - load_2_9 - p_2_10 - 30 x_2_9_10 >= -30
 c2070: d_2_1 + load_2_1 - load_2_10 - p_2_1 + 30 x_2_10_1 <= 30
 c2071: d_2_1 + load_2_1 - load_2_10 - p_2_1 - 30 x_2_10_1 >= -30
 c2072: d_2_2 - load_2_10 + load_2_2 - p_2_2 + 30 x_2_10_2 <= 30
 c2073: d_2_2 - load_2_10 + load_2_2 - p_2_2 - 30 x_2_10_2 >= -30
 c2074: d_2_3 - load_2_10 + load_2_3 - p_2_3 + 30 x_2_10_3 <= 30
 c2075: d_2_3 - load_2_10 + load_2_3 - p_2_3 - 30 x_2_10_3 >= -30
 c2076: d_2_4 - load_2_10 + load_2_4 - p_2_4 + 30 x_2_10_4 <= 30
 c2077: d_2_4 - load_2_10 + load_2_4 - p_2_4 - 30 x_2_10_4 >= -30
 c2078: d_2_5 - load_2_10 + load_2_5 - p_2_5 + 30 x_2_10_5 <= 30
 c2079: d_2_5 - load_2_10 + load_2_5 - p_2_5 - 30 x_2_10_5 >= -30
 c2080: d_2_6 - load_2_10 + load_2_6 - p_2_6 + 30 x_2_10_6 <= 30
 c2081: d_2_6 - load_2_10 + load_2_6 - p_2_6 - 30 x_2_10_6 >= -30
 c2082: d_2_7 - load_2_10 + load_2_7 - p_2_7 + 30 x_2_10_7 <= 30
 c2083: d_2_7 - load_2_10 + load_2_7 - p_2_7 - 30 x_2_10_7 >= -30
 c2084: d_2_8 - load_2_10 + load_2_8 - p_2_8 + 30 x_2_10_8 <= 30
 c2085: d_2_8 - load_2_10 + load_2_8 - p_2_8 - 30 x_2_10_8 >= -30
 c2086: d_2_9 - load_2_10 + load_2_9 - p_2_9 + 30 x_2_10_9 <= 30
 c2087: d_2_9 - load_2_10 + load_2_9 - p_2_9 - 30 x_2_10_9 >= -30
 c2088: - d_2_1 - d_2_10 - d_2_2 - d_2_3 - d_2_4 - d_2_5 - d_2_6 - d_2_7 - d_2_8 - d_2_9 + p_2_1 + p_2_10 + p_2_2 + p_2_3 + p_2_4 + p_2_5 + p_2_6 + p_2_7 + p_2_8 + p_2_9 >= 0
 c2089: 120 p_2_1 + 120 p_2_10 + 120 p_2_2 + 120 p_2_3 + 120 p_2_4 + 120 p_2_5 + 120 p_2_6 + 120 p_2_7 + 120 p_2_8 + 120 p_2_9 + 362.46748293579304 x_2_0_1 + 278.51137366305568 x_2_0_10 + 249.85016445864008 x_2_0_2 + 342.00803235340214 x_2_0_3 + 237.4386051510381 x_2_0_4 + 199.47447782053851 x_2_0_5 + 248.79086800406526 x_2_0_6 + 365.89277107605858 x_2_0_7 + 224.0756711917451 x_2_0_8 + 241.05821692058836 x_2_0_9 + 278.51137366305568 x_2_10_0 + 101.28156011603591 x_2_10_1 + 468.87403571081205 x_2_10_2 + 579.49897726217489 x_2_10_3 + 92.124594882248175 x_2_10_4 + 433.76087684089811 x_2_10_5 + 497.71944973829949 x_2_10_6 + 98.186763454868085 x_2_10_7 + 464.45106604376537 x_2_10_8 + 460.77117901128639 x_2_10_9 + 362.46748293579304 x_2_1_0 + 101.28156011603591 x_2_1_10 + 567.82073322883059 x_2_1_2 + 632.26728551400777 x_2_1_3 + 131.91649724124909 x_2_1_4 + 530.68961420598828 x_2_1_5 + 558.51377392549227 x_2_1_6 + 14.308129794563508 x_2_1_7 + 560.97258021223433 x_2_1_8 + 512.01148617775618 x_2_1_9 + 249.85016445864008 x_2_2_0 + 567.82073322883059 x_2_2_1 + 468.87403571081205 x_2_2_10 + 447.85785763140626 x_2_2_3 + 462.74649461676216 x_2_2_4 + 53.421503090345617 x_2_2_5 + 363.54961536796441 x_2_2_6 + 566.67984684161297 x_2_2_7 + 47.870421807320383 x_2_2_8 + 402.62230915615663 x_2_2_9 + 342.00803235340214 x_2_3_0 + 632.26728551400777 x_2_3_1 + 579.49897726217489 x_2_3_10 + 447.85785763140626 x_2_3_2 + 503.10499474349757 x_2_3_4 + 403.53735934579981 x_2_3_5 + 94.905577834009534 x_2_3_6 + 641.1982208673752 x_2_3_7 + 400.08173048113366 x_2_3_8 + 120.25584548687442 x_2_3_9 + 237.4386051510381 x_2_4_0 + 131.91649724124909 x_2_4_1 + 92.124594882248175 x_2_4_10 + 462.74649461676216 x_2_4_2 + 503.10499474349757 x_2_4_3 + 420.14821862183675 x_2_4_5 + 427.17340659707094 x_2_4_6 + 139.13987556059672 x_2_4_7 + 449.00193543034032 x_2_4_8 + 383.0218516497012 x_2_4_9 + 199.47447782053851 x_2_5_0 + 530.68961420598828 x_2_5_1 + 433.76087684089811 x_2_5_10 + 53.421503090345617 x_2_5_2 + 403.53735934579981 x_2_5_3 + 420.14821862183675 x_2_5_4 + 316.30401546778245 x_2_5_6 + 530.56191318240235 x_2_5_7 + 31.230171167245967 x_2_5_8 + 351.85166438991814 x_2_5_9 + 248.79086800406526 x_2_6_0 + 558.51377392549227 x_2_6_1 + 497.71944973829949 x_2_6_10 + 363.54961536796441 x_2_6_2 + 94.905577834009534 x_2_6_3 + 427.17340659707094 x_2_6_4 + 316.30401546778245 x_2_6_5 + 566.3002663894498 x_2_6_7 + 316.4487455636517 x_2_6_8 + 70.998602693539269 x_2_6_9 + 365.89277107605858 x_2_7_0 + 14.308129794563508 x_2_7_1 + 98.186763454868085 x_2_7_10 + 566.67984684161297 x_2_7_2 + 641.1982208673752 x_2_7_3 + 139.13987556059672 x_2_7_4 + 530.56191318240235 x_2_7_5 + 566.3002663894498 x_2_7_6 + 561.03462434256471 x_2_7_8 + 520.96318411744483 x_2_7_9 + 224.0756711917451 x_2_8_0 + 560.97258021223433 x_2_8_1 + 464.45106604376537 x_2_8_10 + 47.870421807320383 x_2_8_2 + 400.08173048113366 x_2_8_3 + 449.00193543034032 x_2_8_4 + 31.230171167245967 x_2_8_5 + 316.4487455636517 x_2_8_6 + 561.03462434256471 x_2_8_7 + 357.54157809433036 x_2_8_9 + 241.05821692058836 x_2_9_0 + 512.01148617775618 x_2_9_1 + 460.77117901128639 x_2_9_10 + 402.62230915615663 x_2_9_2 + 120.25584548687442 x_2_9_3 + 383.0218516497012 x_2_9_4 + 351.85166438991814 x_2_9_5 + 70.998602693539269 x_2_9_6 + 520.96318411744483 x_2_9_7 + 357.54157809433036 x_2_9_8 <= 2400
 c2090: 120 p_0_1 + 100000 z_0_1 <= 101675.06503412842
 c2091: 120 p_0_2 + 100000 z_0_2 <= 101900.29967108271
 c2092: 120 p_0_1 + 120 p_0_2 + 100000 z_0_1 + 100000 z_0_2 <= 201219.86161937672
 c2093: 120 p_0_3 + 100000 z_0_3 <= 101715.98393529319
 c2094: 120 p_0_1 + 120 p_0_3 + 100000 z_0_1 + 100000 z_0_3 <= 201063.25719919679
 c2095: 120 p_0_2 + 120 p_0_3 + 100000 z_0_2 + 100000 z_0_3 <= 201360.28394555656
 c2096: 120 p_0_1 + 120 p_0_2 + 120 p_0_3 + 100000 z_0_1 + 100000 z_0_2 + 100000 z_0_3 <= 300707.55720946018
 c2097: 120 p_0_4 + 100000 z_0_4 <= 101925.12278969793
 c2098: 120 p_0_1 + 120 p_0_4 + 100000 z_0_1 + 100000 z_0_4 <= 201668.17741467193
 c2099: 120 p_0_2 + 120 p_0_4 + 100000 z_0_2 + 100000 z_0_4 <= 201449.96473577357
 c2100: 120 p_0_1 + 120 p_0_2 + 120 p_0_4 + 100000 z_0_1 + 100000 z_0_2 + 100000 z_0_4 <= 301212.97399992024
 c2101: 120 p_0_3 + 120 p_0_4 + 100000 z_0_3 + 100000 z_0_4 <= 201317.44836775208
 c2102: 120 p_0_1 + 120 p_0_3 + 120 p_0_4 + 100000 z_0_1 + 100000 z_0_3 + 100000 z_0_4 <= 301060.50299272605
 c2103: 120 p_0_2 + 120 p_0_3 + 120 p_0_4 + 100000 z_0_2 + 100000 z_0_3 + 100000 z_0_4 <= 300961.74837801541
 c2104: 120 p_0_1 + 120 p_0_2 + 120 p_0_3 + 120 p_0_4 + 100000 z_0_1 + 100000 z_0_2 + 100000 z_0_3 + 100000 z_0_4 <= 400704.80300298939
 c2105: 120 p_0_5 + 100000 z_0_5 <= 102001.05104435893
 c2106: 120 p_0_1 + 120 p_0_5 + 100000 z_0_1 + 100000 z_0_5 <= 201307.36842503768
 c2107: 120 p_0_2 + 120 p_0_5 + 100000 z_0_2 + 100000 z_0_5 <= 201897.25385463049
 c2108: 120 p_0_1 + 120 p_0_2 + 120 p_0_5 + 100000 z_0_1 + 100000 z_0_2 + 100000 z_0_5 <= 301216.81580292451
 c2109: 120 p_0_3 + 120 p_0_5 + 100000 z_0_3 + 100000 z_0_5 <= 201454.98013048025
 c2110: 120 p_0_1 + 120 p_0_3 + 120 p_0_5 + 100000 z_0_1 + 100000 z_0_3 + 100000 z_0_5 <= 300802.25339438388
 c2111: 120 p_0_2 + 120 p_0_3 + 120 p_0_5 + 100000 z_0_2 + 100000 z_0_3 + 100000 z_0_5 <= 301357.23812910431
 c2112: 120 p_0_1 + 120 p_0_2 + 120 p_0_3 + 120 p_0_5 + 100000 z_0_1 + 100000 z_0_2 + 100000 z_0_3 + 100000 z_0_5 <= 400704.51139300788
 c2113: 120 p_0_4 + 120 p_0_5 + 100000 z_0_4 + 100000 z_0_5 <= 201542.93869840659
 c2114: 120 p_0_1 + 120 p_0_4 + 120 p_0_5 + 100000 z_0_1 + 100000 z_0_4 + 100000 z_0_5 <= 301300.4808055812
 c2115: 120 p_0_2 + 120 p_0_4 + 120 p_0_5 + 100000 z_0_2 + 100000 z_0_4 + 100000 z_0_5 <= 301446.91891932132
 c2116: 120 p_0_1 + 120 p_0_2 + 120 p_0_4 + 120 p_0_5 + 100000 z_0_1 + 100000 z_0_2 + 100000 z_0_4 + 100000 z_0_5 <= 401209.928183468
 c2117: 120 p_0_3 + 120 p_0_4 + 120 p_0_5 + 100000 z_0_3 + 100000 z_0_4 + 100000 z_0_5 <= 301056.44456293911
 c2118: 120 p_0_1 + 120 p_0_3 + 120 p_0_4 + 120 p_0_5 + 100000 z_0_1 + 100000 z_0_3 + 100000 z_0_4 + 100000 z_0_5 <= 400799.49918791314
 c2119: 120 p_0_2 + 120 p_0_3 + 120 p_0_4 + 120 p_0_5 + 100000 z_0_2 + 100000 z_0_3 + 100000 z_0_4 + 100000 z_0_5 <= 400958.70256156317
 c2120: 120 p_0_1 + 120 p_0_2 + 120 p_0_3 + 120 p_0_4 + 120 p_0_5 + 100000 z_0_1 + 100000 z_0_2 + 100000 z_0_3 + 100000 z_0_4 + 100000 z_0_5 <= 500701.75718653714
 c2121: 120 p_0_6 + 100000 z_0_6 <= 101902.41826399187
 c2122: 120 p_0_1 + 120 p_0_6 + 100000 z_0_1 + 100000 z_0_6 <= 201230.22787513465
 c2123: 120 p_0_2 + 120 p_0_6 + 100000 z_0_2 + 100000 z_0_6 <= 201537.80935216934
 c2124: 120 p_0_1 + 120 p_0_2 + 120 p_0_6 + 100000 z_0_1 + 100000 z_0_2 + 100000 z_0_6 <= 300865.61896331212
 c2125: 120 p_0_3 + 120 p_0_6 + 100000 z_0_3 + 100000 z_0_6 <= 201714.29552180853
 c2126: 120 p_0_1 + 120 p_0_3 + 120 p_0_6 + 100000 z_0_1 + 100000 z_0_3 + 100000 z_0_6 <= 301061.56878571212
 c2127: 120 p_0_2 + 120 p_0_3 + 120 p_0_6 + 100000 z_0_2 + 100000 z_0_3 + 100000 z_0_6 <= 301358.59553207189
 c2128: 120 p_0_1 + 120 p_0_2 + 120 p_0_3 + 120 p_0_6 + 100000 z_0_1 + 100000 z_0_2 + 100000 z_0_3 + 100000 z_0_6 <= 400696.95987388957
 c2129: 120 p_0_4 + 120 p_0_6 + 100000 z_0_4 + 100000 z_0_6 <= 201486.59712024784
 c2130: 120 p_0_1 + 120 p_0_4 + 120 p_0_6 + 100000 z_0_1 + 100000 z_0_4 + 100000 z_0_6 <= 301229.65174522181
 c2131: 120 p_0_2 + 120 p_0_4 + 120 p_0_6 + 100000 z_0_2 + 100000 z_0_4 + 100000 z_0_6 <= 301121.98820842529
 c2132: 120 p_0_1 + 120 p_0_2 + 120 p_0_4 + 120 p_0_6 + 100000 z_0_1 + 100000 z_0_2 + 100000 z_0_4 + 100000 z_0_6 <= 400865.04283339926
 c2133: 120 p_0_3 + 120 p_0_4 + 120 p_0_6 + 100000 z_0_3 + 100000 z_0_4 + 100000 z_0_6 <= 301315.75995426741
 c2134: 120 p_0_1 + 120 p_0_3 + 120 p_0_4 + 120 p_0_6 + 100000 z_0_1 + 100000 z_0_3 + 100000 z_0_4 + 100000 z_0_6 <= 401058.81457924139
 c2135: 120 p_0_2 + 120 p_0_3 + 120 p_0_4 + 120 p_0_6 + 100000 z_0_2 + 100000 z_0_3 + 100000 z_0_4 + 100000 z_0_6 <= 400951.15104244486
 c2136: 120 p_0_1 + 120 p_0_2 + 120 p_0_3 + 120 p_0_4 + 120 p_0_6 + 100000 z_0_1 + 100000 z_0_2 + 100000 z_0_3 + 100000 z_0_4 + 100000 z_0_6 <= 500694.20566741884
 c2137: 120 p_0_5 + 120 p_0_6 + 100000 z_0_5 + 100000 z_0_6 <= 201635.43063870762
 c2138: 120 p_0_1 + 120 p_0_5 + 120 p_0_6 + 100000 z_0_1 + 100000 z_0_5 + 100000 z_0_6 <= 300963.24024985038
 c2139: 120 p_0_2 + 120 p_0_5 + 120 p_0_6 + 100000 z_0_2 + 100000 z_0_5 + 100000 z_0_6 <= 301534.76353571709
 c2140: 120 p_0_1 + 120 p_0_2 + 120 p_0_5 + 120 p_0_6 + 100000 z_0_1 + 100000 z_0_2 + 100000 z_0_5 + 100000 z_0_6 <= 400862.57314685988
 c2141: 120 p_0_3 + 120 p_0_5 + 120 p_0_6 + 100000 z_0_3 + 100000 z_0_5 + 100000 z_0_6 <= 301453.29171699559
 c2142: 120 p_0_1 + 120 p_0_3 + 120 p_0_5 + 120 p_0_6 + 100000 z_0_1 + 100000 z_0_3 + 100000 z_0_5 + 100000 z_0_6 <= 400794.58116042789
 c2143: 120 p_0_2 + 120 p_0_3 + 120 p_0_5 + 120 p_0_6 + 100000 z_0_2 + 100000 z_0_3 + 100000 z_0_5 + 100000 z_0_6 <= 401355.54971561965
 c2144: 120 p_0_1 + 120 p_0_2 + 120 p_0_3 + 120 p_0_5 + 120 p_0_6 + 100000 z_0_1 + 100000 z_0_2 + 100000 z_0_3 + 100000 z_0_5 + 100000 z_0_6 <= 500693.91405743733
 c2145: 120 p_0_4 + 120 p_0_5 + 120 p_0_6 + 100000 z_0_4 + 100000 z_0_5 + 100000 z_0_6 <= 301219.60949496354
 c2146: 120 p_0_1 + 120 p_0_4 + 120 p_0_5 + 120 p_0_6 + 100000 z_0_1 + 100000 z_0_4 + 100000 z_0_5 + 100000 z_0_6 <= 400962.66411993757
 c2147: 120 p_0_2 + 120 p_0_4 + 120 p_0_5 + 120 p_0_6 + 100000 z_0_2 + 100000 z_0_4 + 100000 z_0_5 + 100000 z_0_6 <= 401118.94239197305
 c2148: 120 p_0_1 + 120 p_0_2 + 120 p_0_4 + 120 p_0_5 + 120 p_0_6 + 100000 z_0_1 + 100000 z_0_2 + 100000 z_0_4 + 100000 z_0_5 + 100000 z_0_6 <= 500861.99701694702
 c2149: 120 p_0_3 + 120 p_0_4 + 120 p_0_5 + 120 p_0_6 + 100000 z_0_3 + 100000 z_0_4 + 100000 z_0_5 + 100000 z_0_6 <= 401048.77232898312
 c2150: 120 p_0_1 + 120 p_0_3 + 120 p_0_4 + 120 p_0_5 + 120 p_0_6 + 100000 z_0_1 + 100000 z_0_3 + 100000 z_0_4 + 100000 z_0_5 + 100000 z_0_6 <= 500791.82695395715
 c2151: 120 p_0_2 + 120 p_0_3 + 120 p_0_4 + 120 p_0_5 + 120 p_0_6 + 100000 z_0_2 + 100000 z_0_3 + 100000 z_0_4 + 100000 z_0_5 + 100000 z_0_6 <= 500948.10522599262
 c2152: 120 p_0_1 + 120 p_0_2 + 120 p_0_3 + 120 p_0_4 + 120 p_0_5 + 120 p_0_6 + 100000 z_0_1 + 100000 z_0_2 + 100000 z_0_3 + 100000 z_0_4 + 100000 z_0_5 + 100000 z_0_6 <= 600691.15985096665
 c2153: 120 p_0_7 + 100000 z_0_7 <= 101668.21445784788
 c2154: 120 p_0_1 + 120 p_0_7 + 100000 z_0_1 + 100000 z_0_7 <= 201657.33161619358
 c2155: 120 p_0_2 + 120 p_0_7 + 100000 z_0_2 + 100000 z_0_7 <= 201217.57721762368
 c2156: 120 p_0_1 + 120 p_0_2 + 120 p_0_7 + 100000 z_0_1 + 100000 z_0_2 + 100000 z_0_7 <= 301206.69437596941
 c2157: 120 p_0_3 + 120 p_0_7 + 100000 z_0_3 + 100000 z_0_7 <= 201050.90097570317
 c2158: 120 p_0_1 + 120 p_0_3 + 120 p_0_7 + 100000 z_0_1 + 100000 z_0_3 + 100000 z_0_7 <= 301045.52378126199
 c2159: 120 p_0_2 + 120 p_0_3 + 120 p_0_7 + 100000 z_0_2 + 100000 z_0_3 + 100000 z_0_7 <= 300695.20098596654
 c2160: 120 p_0_1 + 120 p_0_2 + 120 p_0_3 + 120 p_0_7 + 100000 z_0_1 + 100000 z_0_2 + 100000 z_0_3 + 100000 z_0_7 <= 400689.82379152533
 c2161: 120 p_0_4 + 120 p_0_7 + 100000 z_0_4 + 100000 z_0_7 <= 201657.52874821229
 c2162: 120 p_0_1 + 120 p_0_4 + 120 p_0_7 + 100000 z_0_1 + 100000 z_0_4 + 100000 z_0_7 <= 301650.44399673707
 c2163: 120 p_0_2 + 120 p_0_4 + 120 p_0_7 + 100000 z_0_2 + 100000 z_0_4 + 100000 z_0_7 <= 301206.8915079881
 c2164: 120 p_0_1 + 120 p_0_2 + 120 p_0_4 + 120 p_0_7 + 100000 z_0_1 + 100000 z_0_2 + 100000 z_0_4 + 100000 z_0_7 <= 401199.8067565129
 c2165: 120 p_0_3 + 120 p_0_4 + 120 p_0_7 + 100000 z_0_3 + 100000 z_0_4 + 100000 z_0_7 <= 301049.85432626645
 c2166: 120 p_0_1 + 120 p_0_3 + 120 p_0_4 + 120 p_0_7 + 100000 z_0_1 + 100000 z_0_3 + 100000 z_0_4 + 100000 z_0_7 <= 401042.76957479125
 c2167: 120 p_0_2 + 120 p_0_3 + 120 p_0_4 + 120 p_0_7 + 100000 z_0_2 + 100000 z_0_3 + 100000 z_0_4 + 100000 z_0_7 <= 400694.15433652978
 c2168: 120 p_0_1 + 120 p_0_2 + 120 p_0_3 + 120 p_0_4 + 120 p_0_7 + 100000 z_0_1 + 100000 z_0_2 + 100000 z_0_3 + 100000 z_0_4 + 100000 z_0_7 <= 500687.06958505459
 c2169: 120 p_0_5 + 120 p_0_7 + 100000 z_0_5 + 100000 z_0_7 <= 201304.070837921
 c2170: 120 p_0_1 + 120 p_0_5 + 120 p_0_7 + 100000 z_0_1 + 100000 z_0_5 + 100000 z_0_7 <= 301293.1879962667
 c2171: 120 p_0_2 + 120 p_0_5 + 120 p_0_7 + 100000 z_0_2 + 100000 z_0_5 + 100000 z_0_7 <= 301214.53140117147
 c2172: 120 p_0_1 + 120 p_0_2 + 120 p_0_5 + 120 p_0_7 + 100000 z_0_1 + 100000 z_0_2 + 100000 z_0_5 + 100000 z_0_7 <= 401203.64855951717
 c2173: 120 p_0_3 + 120 p_0_5 + 120 p_0_7 + 100000 z_0_3 + 100000 z_0_5 + 100000 z_0_7 <= 300789.89717089024
 c2174: 120 p_0_1 + 120 p_0_3 + 120 p_0_5 + 120 p_0_7 + 100000 z_0_1 + 100000 z_0_3 + 100000 z_0_5 + 100000 z_0_7 <= 400784.51997644902
 c2175: 120 p_0_2 + 120 p_0_3 + 120 p_0_5 + 120 p_0_7 + 100000 z_0_2 + 100000 z_0_3 + 100000 z_0_5 + 100000 z_0_7 <= 400692.1551695143
 c2176: 120 p_0_1 + 120 p_0_2 + 120 p_0_3 + 120 p_0_5 + 120 p_0_7 + 100000 z_0_1 + 100000 z_0_2 + 100000 z_0_3 + 100000 z_0_5 + 100000 z_0_7 <= 500686.77797507308
 c2177: 120 p_0_4 + 120 p_0_5 + 120 p_0_7 + 100000 z_0_4 + 100000 z_0_5 + 100000 z_0_7 <= 301293.38512828544
 c2178: 120 p_0_1 + 120 p_0_4 + 120 p_0_5 + 120 p_0_7 + 100000 z_0_1 + 100000 z_0_4 + 100000 z_0_5 + 100000 z_0_7 <= 401286.30037681019
 c2179: 120 p_0_2 + 120 p_0_4 + 120 p_0_5 + 120 p_0_7 + 100000 z_0_2 + 100000 z_0_4 + 100000 z_0_5 + 100000 z_0_7 <= 401203.84569153585
 c2180: 120 p_0_1 + 120 p_0_2 + 120 p_0_4 + 120 p_0_5 + 120 p_0_7 + 100000 z_0_1 + 100000 z_0_2 + 100000 z_0_4 + 100000 z_0_5 + 100000 z_0_7 <= 501196.76094006066
 c2181: 120 p_0_3 + 120 p_0_4 + 120 p_0_5 + 120 p_0_7 + 100000 z_0_3 + 100000 z_0_4 + 100000 z_0_5 + 100000 z_0_7 <= 400788.85052145348
 c2182: 120 p_0_1 + 120 p_0_3 + 120 p_0_4 + 120 p_0_5 + 120 p_0_7 + 100000 z_0_1 + 100000 z_0_3 + 100000 z_0_4 + 100000 z_0_5 + 100000 z_0_7 <= 500781.76576997829
 c2183: 120 p_0_2 + 120 p_0_3 + 120 p_0_4 + 120 p_0_5 + 120 p_0_7 + 100000 z_0_2 + 100000 z_0_3 + 100000 z_0_4 + 100000 z_0_5 + 100000 z_0_7 <= 500691.10852007754
 c2184: 120 p_0_1 + 120 p_0_2 + 120 p_0_3 + 120 p_0_4 + 120 p_0_5 + 120 p_0_7 + 100000 z_0_1 + 100000 z_0_2 + 100000 z_0_3 + 100000 z_0_4 + 100000 z_0_5 + 100000 z_0_7 <= 600684.02376860229
 c2185: 120 p_0_6 + 120 p_0_7 + 100000 z_0_6 + 100000 z_0_7 <= 201219.01609453044
 c2186: 120 p_0_1 + 120 p_0_6 + 120 p_0_7 + 100000 z_0_1 + 100000 z_0_6 + 100000 z_0_7 <= 301212.49445719982
 c2187: 120 p_0_2 + 120 p_0_6 + 120 p_0_7 + 100000 z_0_2 + 100000 z_0_6 + 100000 z_0_7 <= 300855.08689871029
 c2188: 120 p_0_1 + 120 p_0_2 + 120 p_0_6 + 120 p_0_7 + 100000 z_0_1 + 100000 z_0_2 + 100000 z_0_6 + 100000 z_0_7 <= 400847.88554537727
 c2189: 120 p_0_3 + 120 p_0_6 + 120 p_0_7 + 100000 z_0_3 + 100000 z_0_6 + 100000 z_0_7 <= 301049.21256221848
 c2190: 120 p_0_1 + 120 p_0_3 + 120 p_0_6 + 120 p_0_7 + 100000 z_0_1 + 100000 z_0_3 + 100000 z_0_6 + 100000 z_0_7 <= 401043.83536777727
 c2191: 120 p_0_2 + 120 p_0_3 + 120 p_0_6 + 120 p_0_7 + 100000 z_0_2 + 100000 z_0_3 + 100000 z_0_6 + 100000 z_0_7 <= 400684.60365039593
 c2192: 120 p_0_1 + 120 p_0_2 + 120 p_0_3 + 120 p_0_6 + 120 p_0_7 + 100000 z_0_1 + 100000 z_0_2 + 100000 z_0_3 + 100000 z_0_6 + 100000 z_0_7 <= 500679.22645595478
 c2193: 120 p_0_4 + 120 p_0_6 + 120 p_0_7 + 100000 z_0_4 + 100000 z_0_6 + 100000 z_0_7 <= 301219.00307876221
 c2194: 120 p_0_1 + 120 p_0_4 + 120 p_0_6 + 120 p_0_7 + 100000 z_0_1 + 100000 z_0_4 + 100000 z_0_6 + 100000 z_0_7 <= 401211.91832728701
 c2195: 120 p_0_2 + 120 p_0_4 + 120 p_0_6 + 120 p_0_7 + 100000 z_0_2 + 100000 z_0_4 + 100000 z_0_6 + 100000 z_0_7 <= 400854.39416693966
 c2196: 120 p_0_1 + 120 p_0_2 + 120 p_0_4 + 120 p_0_6 + 120 p_0_7 + 100000 z_0_1 + 100000 z_0_2 + 100000 z_0_4 + 100000 z_0_6 + 100000 z_0_7 <= 500847.30941546446
 c2197: 120 p_0_3 + 120 p_0_4 + 120 p_0_6 + 120 p_0_7 + 100000 z_0_3 + 100000 z_0_4 + 100000 z_0_6 + 100000 z_0_7 <= 401048.16591278178
 c2198: 120 p_0_1 + 120 p_0_3 + 120 p_0_4 + 120 p_0_6 + 120 p_0_7 + 100000 z_0_1 + 100000 z_0_3 + 100000 z_0_4 + 100000 z_0_6 + 100000 z_0_7 <= 501041.08116130653
 c2199: 120 p_0_2 + 120 p_0_3 + 120 p_0_4 + 120 p_0_6 + 120 p_0_7 + 100000 z_0_2 + 100000 z_0_3 + 100000 z_0_4 + 100000 z_0_6 + 100000 z_0_7 <= 500683.55700095923
 c2200: 120 p_0_1 + 120 p_0_2 + 120 p_0_3 + 120 p_0_4 + 120 p_0_6 + 120 p_0_7 + 100000 z_0_1 + 100000 z_0_2 + 100000 z_0_3 + 100000 z_0_4 + 100000 z_0_6 + 100000 z_0_7 <= 600676.47224948404
 c2201: 120 p_0_5 + 120 p_0_6 + 120 p_0_7 + 100000 z_0_5 + 100000 z_0_6 + 100000 z_0_7 <= 300952.02846924617
 c2202: 120 p_0_1 + 120 p_0_5 + 120 p_0_6 + 120 p_0_7 + 100000 z_0_1 + 100000 z_0_5 + 100000 z_0_6 + 100000 z_0_7 <= 400945.50683191558
 c2203: 120 p_0_2 + 120 p_0_5 + 120 p_0_6 + 120 p_0_7 + 100000 z_0_2 + 100000 z_0_5 + 100000 z_0_6 + 100000 z_0_7 <= 400851.36136625562
 c2204: 120 p_0_1 + 120 p_0_2 + 120 p_0_5 + 120 p_0_6 + 120 p_0_7 + 100000 z_0_1 + 100000 z_0_2 + 100000 z_0_5 + 100000 z_0_6 + 100000 z_0_7 <= 500844.83972892503
 c2205: 120 p_0_3 + 120 p_0_5 + 120 p_0_6 + 120 p_0_7 + 100000 z_0_3 + 100000 z_0_5 + 100000 z_0_6 + 100000 z_0_7 <= 400782.22493693425
 c2206: 120 p_0_1 + 120 p_0_3 + 120 p_0_5 + 120 p_0_6 + 120 p_0_7 + 100000 z_0_1 + 100000 z_0_3 + 100000 z_0_5 + 100000 z_0_6 + 100000 z_0_7 <= 500776.84774249303
 c2207: 120 p_0_2 + 120 p_0_3 + 120 p_0_5 + 120 p_0_6 + 120 p_0_7 + 100000 z_0_2 + 100000 z_0_3 + 100000 z_0_5 + 100000 z_0_6 + 100000 z_0_7 <= 500681.55783394369
 c2208: 120 p_0_1 + 120 p_0_2 + 120 p_0_3 + 120 p_0_5 + 120 p_0_6 + 120 p_0_7 + 100000 z_0_1 + 100000 z_0_2 + 100000 z_0_3 + 100000 z_0_5 + 100000 z_0_6 + 100000 z_0_7 <= 600676.18063950248
 c2209: 120 p_0_4 + 120 p_0_5 + 120 p_0_6 + 120 p_0_7 + 100000 z_0_4 + 100000 z_0_5 + 100000 z_0_6 + 100000 z_0_7 <= 400952.01545347797
 c2210: 120 p_0_1 + 120 p_0_4 + 120 p_0_5 + 120 p_0_6 + 120 p_0_7 + 100000 z_0_1 + 100000 z_0_4 + 100000 z_0_5 + 100000 z_0_6 + 100000 z_0_7 <= 500944.93070200272
 c2211: 120 p_0_2 + 120 p_0_4 + 120 p_0_5 + 120 p_0_6 + 120 p_0_7 + 100000 z_0_2 + 100000 z_0_4 + 100000 z_0_5 + 100000 z_0_6 + 100000 z_0_7 <= 500851.34835048742
 c2212: 120 p_0_1 + 120 p_0_2 + 120 p_0_4 + 120 p_0_5 + 120 p_0_6 + 120 p_0_7 + 100000 z_0_1 + 100000 z_0_2 + 100000 z_0_4 + 100000 z_0_5 + 100000 z_0_6 + 100000 z_0_7 <= 600844.26359901216
 c2213: 120 p_0_3 + 120 p_0_4 + 120 p_0_5 + 120 p_0_6 + 120 p_0_7 + 100000 z_0_3 + 100000 z_0_4 + 100000 z_0_5 + 100000 z_0_6 + 100000 z_0_7 <= 500781.17828749749
 c2214: 120 p_0_1 + 120 p_0_3 + 120 p_0_4 + 120 p_0_5 + 120 p_0_6 + 120 p_0_7 + 100000 z_0_1 + 100000 z_0_3 + 100000 z_0_4 + 100000 z_0_5 + 100000 z_0_6 + 100000 z_0_7 <= 600774.09353602235
 c2215: 120 p_0_2 + 120 p_0_3 + 120 p_0_4 + 120 p_0_5 + 120 p_0_6 + 120 p_0_7 + 100000 z_0_2 + 100000 z_0_3 + 100000 z_0_4 + 100000 z_0_5 + 100000 z_0_6 + 100000 z_0_7 <= 600680.51118450693
 c2216: 120 p_0_1 + 120 p_0_2 + 120 p_0_3 + 120 p_0_4 + 120 p_0_5 + 120 p_0_6 + 120 p_0_7 + 100000 z_0_1 + 100000 z_0_2 + 100000 z_0_3 + 100000 z_0_4 + 100000 z_0_5 + 100000 z_0_6 + 100000 z_0_7 <= 700673.4264330318
 c2217: 120 p_0_8 + 100000 z_0_8 <= 101951.84865761652
 c2218: 120 p_0_1 + 120 p_0_8 + 100000 z_0_1 + 100000 z_0_8 <= 201252.48426566023
 c2219: 120 p_0_2 + 120 p_0_8 + 100000 z_0_2 + 100000 z_0_8 <= 201878.2037425423
 c2220: 120 p_0_1 + 120 p_0_2 + 120 p_0_8 + 100000 z_0_1 + 100000 z_0_2 + 100000 z_0_8 <= 301197.7656908363
 c2221: 120 p_0_3 + 120 p_0_8 + 100000 z_0_3 + 100000 z_0_8 <= 201433.83456597372
 c2222: 120 p_0_1 + 120 p_0_3 + 120 p_0_8 + 100000 z_0_1 + 100000 z_0_3 + 100000 z_0_8 <= 300781.10782987729
 c2223: 120 p_0_2 + 120 p_0_3 + 120 p_0_8 + 100000 z_0_2 + 100000 z_0_3 + 100000 z_0_8 <= 301360.1896508995
 c2224: 120 p_0_1 + 120 p_0_2 + 120 p_0_3 + 120 p_0_8 + 100000 z_0_1 + 100000 z_0_2 + 100000 z_0_3 + 100000 z_0_8 <= 400707.46291480312
 c2225: 120 p_0_4 + 120 p_0_8 + 100000 z_0_4 + 100000 z_0_8 <= 201489.48378822688
 c2226: 120 p_0_1 + 120 p_0_4 + 120 p_0_8 + 100000 z_0_1 + 100000 z_0_4 + 100000 z_0_8 <= 301245.59664620372
 c2227: 120 p_0_2 + 120 p_0_4 + 120 p_0_8 + 100000 z_0_2 + 100000 z_0_4 + 100000 z_0_8 <= 301427.86880723311
 c2228: 120 p_0_1 + 120 p_0_2 + 120 p_0_4 + 120 p_0_8 + 100000 z_0_1 + 100000 z_0_2 + 100000 z_0_4 + 100000 z_0_8 <= 401190.87807137979
 c2229: 120 p_0_3 + 120 p_0_4 + 120 p_0_8 + 100000 z_0_3 + 100000 z_0_4 + 100000 z_0_8 <= 301035.29899843258
 c2230: 120 p_0_1 + 120 p_0_3 + 120 p_0_4 + 120 p_0_8 + 100000 z_0_1 + 100000 z_0_3 + 100000 z_0_4 + 100000 z_0_8 <= 400778.35362340655
 c2231: 120 p_0_2 + 120 p_0_3 + 120 p_0_4 + 120 p_0_8 + 100000 z_0_2 + 100000 z_0_3 + 100000 z_0_4 + 100000 z_0_8 <= 400961.65408335836
 c2232: 120 p_0_1 + 120 p_0_2 + 120 p_0_3 + 120 p_0_4 + 120 p_0_8 + 100000 z_0_1 + 100000 z_0_2 + 100000 z_0_3 + 100000 z_0_4 + 100000 z_0_8 <= 500704.70870833239
 c2233: 120 p_0_5 + 120 p_0_8 + 100000 z_0_5 + 100000 z_0_8 <= 201945.21967982047
 c2234: 120 p_0_1 + 120 p_0_5 + 120 p_0_8 + 100000 z_0_1 + 100000 z_0_5 + 100000 z_0_8 <= 301251.53706049925
 c2235: 120 p_0_2 + 120 p_0_5 + 120 p_0_8 + 100000 z_0_2 + 100000 z_0_5 + 100000 z_0_8 <= 301875.15792609006
 c2236: 120 p_0_1 + 120 p_0_2 + 120 p_0_5 + 120 p_0_8 + 100000 z_0_1 + 100000 z_0_2 + 100000 z_0_5 + 100000 z_0_8 <= 401191.13671304029
 c2237: 120 p_0_3 + 120 p_0_5 + 120 p_0_8 + 100000 z_0_3 + 100000 z_0_5 + 100000 z_0_8 <= 301427.20558817766
 c2238: 120 p_0_1 + 120 p_0_3 + 120 p_0_5 + 120 p_0_8 + 100000 z_0_1 + 100000 z_0_3 + 100000 z_0_5 + 100000 z_0_8 <= 400774.47885208129
 c2239: 120 p_0_2 + 120 p_0_3 + 120 p_0_5 + 120 p_0_8 + 100000 z_0_2 + 100000 z_0_3 + 100000 z_0_5 + 100000 z_0_8 <= 401357.14383444726
 c2240: 120 p_0_1 + 120 p_0_2 + 120 p_0_3 + 120 p_0_5 + 120 p_0_8 + 100000 z_0_1 + 100000 z_0_2 + 100000 z_0_3 + 100000 z_0_5 + 100000 z_0_8 <= 500704.41709835088
 c2241: 120 p_0_4 + 120 p_0_5 + 120 p_0_8 + 100000 z_0_4 + 100000 z_0_5 + 100000 z_0_8 <= 301487.10733386816
 c2242: 120 p_0_1 + 120 p_0_4 + 120 p_0_5 + 120 p_0_8 + 100000 z_0_1 + 100000 z_0_4 + 100000 z_0_5 + 100000 z_0_8 <= 401244.64944104274
 c2243: 120 p_0_2 + 120 p_0_4 + 120 p_0_5 + 120 p_0_8 + 100000 z_0_2 + 100000 z_0_4 + 100000 z_0_5 + 100000 z_0_8 <= 401421.23982943711
 c2244: 120 p_0_1 + 120 p_0_2 + 120 p_0_4 + 120 p_0_5 + 120 p_0_8 + 100000 z_0_1 + 100000 z_0_2 + 100000 z_0_4 + 100000 z_0_5 + 100000 z_0_8 <= 501184.24909358378
 c2245: 120 p_0_3 + 120 p_0_4 + 120 p_0_5 + 120 p_0_8 + 100000 z_0_3 + 100000 z_0_4 + 100000 z_0_5 + 100000 z_0_8 <= 401028.67002063652
 c2246: 120 p_0_1 + 120 p_0_3 + 120 p_0_4 + 120 p_0_5 + 120 p_0_8 + 100000 z_0_1 + 100000 z_0_3 + 100000 z_0_4 + 100000 z_0_5 + 100000 z_0_8 <= 500771.72464561055
 c2247: 120 p_0_2 + 120 p_0_3 + 120 p_0_4 + 120 p_0_5 + 120 p_0_8 + 100000 z_0_2 + 100000 z_0_3 + 100000 z_0_4 + 100000 z_0_5 + 100000 z_0_8 <= 500958.60826690611
 c2248: 120 p_0_1 + 120 p_0_2 + 120 p_0_3 + 120 p_0_4 + 120 p_0_5 + 120 p_0_8 + 100000 z_0_1 + 100000 z_0_2 + 100000 z_0_3 + 100000 z_0_4 + 100000 z_0_5 + 100000 z_0_8 <= 600701.66289188014
 c2249: 120 p_0_6 + 120 p_0_8 + 100000 z_0_6 + 100000 z_0_8 <= 201610.68471524052
 c2250: 120 p_0_1 + 120 p_0_6 + 120 p_0_8 + 100000 z_0_1 + 100000 z_0_6 + 100000 z_0_8 <= 300938.49432638334
 c2251: 120 p_0_2 + 120 p_0_6 + 120 p_0_8 + 100000 z_0_2 + 100000 z_0_6 + 100000 z_0_8 <= 301537.03980016633
 c2252: 120 p_0_1 + 120 p_0_2 + 120 p_0_6 + 120 p_0_8 + 100000 z_0_1 + 100000 z_0_2 + 100000 z_0_6 + 100000 z_0_8 <= 400864.84941130911
 c2253: 120 p_0_3 + 120 p_0_6 + 120 p_0_8 + 100000 z_0_3 + 100000 z_0_6 + 100000 z_0_8 <= 301432.14615248906
 c2254: 120 p_0_1 + 120 p_0_3 + 120 p_0_6 + 120 p_0_8 + 100000 z_0_1 + 100000 z_0_3 + 100000 z_0_6 + 100000 z_0_8 <= 400769.83523696079
 c2255: 120 p_0_2 + 120 p_0_3 + 120 p_0_6 + 120 p_0_8 + 100000 z_0_2 + 100000 z_0_3 + 100000 z_0_6 + 100000 z_0_8 <= 401358.50123741484
 c2256: 120 p_0_1 + 120 p_0_2 + 120 p_0_3 + 120 p_0_6 + 120 p_0_8 + 100000 z_0_1 + 100000 z_0_2 + 100000 z_0_3 + 100000 z_0_6 + 100000 z_0_8 <= 500696.19032188656
 c2257: 120 p_0_4 + 120 p_0_6 + 120 p_0_8 + 100000 z_0_4 + 100000 z_0_6 + 100000 z_0_8 <= 301194.86357149651
 c2258: 120 p_0_1 + 120 p_0_4 + 120 p_0_6 + 120 p_0_8 + 100000 z_0_1 + 100000 z_0_4 + 100000 z_0_6 + 100000 z_0_8 <= 400937.91819647048
 c2259: 120 p_0_2 + 120 p_0_4 + 120 p_0_6 + 120 p_0_8 + 100000 z_0_2 + 100000 z_0_4 + 100000 z_0_6 + 100000 z_0_8 <= 401121.21865642228
 c2260: 120 p_0_1 + 120 p_0_2 + 120 p_0_4 + 120 p_0_6 + 120 p_0_8 + 100000 z_0_1 + 100000 z_0_2 + 100000 z_0_4 + 100000 z_0_6 + 100000 z_0_8 <= 500864.27328139625
 c2261: 120 p_0_3 + 120 p_0_4 + 120 p_0_6 + 120 p_0_8 + 100000 z_0_3 + 100000 z_0_4 + 100000 z_0_6 + 100000 z_0_8 <= 401024.02640551608
 c2262: 120 p_0_1 + 120 p_0_3 + 120 p_0_4 + 120 p_0_6 + 120 p_0_8 + 100000 z_0_1 + 100000 z_0_3 + 100000 z_0_4 + 100000 z_0_6 + 100000 z_0_8 <= 500767.08103049005
 c2263: 120 p_0_2 + 120 p_0_3 + 120 p_0_4 + 120 p_0_6 + 120 p_0_8 + 100000 z_0_2 + 100000 z_0_3 + 100000 z_0_4 + 100000 z_0_6 + 100000 z_0_8 <= 500950.38149044185
 c2264: 120 p_0_1 + 120 p_0_2 + 120 p_0_3 + 120 p_0_4 + 120 p_0_6 + 120 p_0_8 + 100000 z_0_1 + 100000 z_0_2 + 100000 z_0_3 + 100000 z_0_4 + 100000 z_0_6 + 100000 z_0_8 <= 600693.43611541588
 c2265: 120 p_0_5 + 120 p_0_6 + 120 p_0_8 + 100000 z_0_5 + 100000 z_0_6 + 100000 z_0_8 <= 301604.05573744449
 c2266: 120 p_0_1 + 120 p_0_5 + 120 p_0_6 + 120 p_0_8 + 100000 z_0_1 + 100000 z_0_5 + 100000 z_0_6 + 100000 z_0_8 <= 400931.86534858728
 c2267: 120 p_0_2 + 120 p_0_5 + 120 p_0_6 + 120 p_0_8 + 100000 z_0_2 + 100000 z_0_5 + 100000 z_0_6 + 100000 z_0_8 <= 401533.99398371408
 c2268: 120 p_0_1 + 120 p_0_2 + 120 p_0_5 + 120 p_0_6 + 120 p_0_8 + 100000 z_0_1 + 100000 z_0_2 + 100000 z_0_5 + 100000 z_0_6 + 100000 z_0_8 <= 500861.80359485687
 c2269: 120 p_0_3 + 120 p_0_5 + 120 p_0_6 + 120 p_0_8 + 100000 z_0_3 + 100000 z_0_5 + 100000 z_0_6 + 100000 z_0_8 <= 401425.517174693
 c2270: 120 p_0_1 + 120 p_0_3 + 120 p_0_5 + 120 p_0_6 + 120 p_0_8 + 100000 z_0_1 + 100000 z_0_3 + 100000 z_0_5 + 100000 z_0_6 + 100000 z_0_8 <= 500763.20625916473
 c2271: 120 p_0_2 + 120 p_0_3 + 120 p_0_5 + 120 p_0_6 + 120 p_0_8 + 100000 z_0_2 + 100000 z_0_3 + 100000 z_0_5 + 100000 z_0_6 + 100000 z_0_8 <= 501355.45542096259
 c2272: 120 p_0_1 + 120 p_0_2 + 120 p_0_3 + 120 p_0_5 + 120 p_0_6 + 120 p_0_8 + 100000 z_0_1 + 100000 z_0_2 + 100000 z_0_3 + 100000 z_0_5 + 100000 z_0_6 + 100000 z_0_8 <= 600693.14450543432
 c2273: 120 p_0_4 + 120 p_0_5 + 120 p_0_6 + 120 p_0_8 + 100000 z_0_4 + 100000 z_0_5 + 100000 z_0_6 + 100000 z_0_8 <= 401188.23459370044
 c2274: 120 p_0_1 + 120 p_0_4 + 120 p_0_5 + 120 p_0_6 + 120 p_0_8 + 100000 z_0_1 + 100000 z_0_4 + 100000 z_0_5 + 100000 z_0_6 + 100000 z_0_8 <= 500931.28921867447
 c2275: 120 p_0_2 + 120 p_0_4 + 120 p_0_5 + 120 p_0_6 + 120 p_0_8 + 100000 z_0_2 + 100000 z_0_4 + 100000 z_0_5 + 100000 z_0_6 + 100000 z_0_8 <= 501118.17283997004
 c2276: 120 p_0_1 + 120 p_0_2 + 120 p_0_4 + 120 p_0_5 + 120 p_0_6 + 120 p_0_8 + 100000 z_0_1 + 100000 z_0_2 + 100000 z_0_4 + 100000 z_0_5 + 100000 z_0_6 + 100000 z_0_8 <= 600861.22746494401
 c2277: 120 p_0_3 + 120 p_0_4 + 120 p_0_5 + 120 p_0_6 + 120 p_0_8 + 100000 z_0_3 + 100000 z_0_4 + 100000 z_0_5 + 100000 z_0_6 + 100000 z_0_8 <= 501017.39742772002
 c2278: 120 p_0_1 + 120 p_0_3 + 120 p_0_4 + 120 p_0_5 + 120 p_0_6 + 120 p_0_8 + 100000 z_0_1 + 100000 z_0_3 + 100000 z_0_4 + 100000 z_0_5 + 100000 z_0_6 + 100000 z_0_8 <= 600760.45205269405
 c2279: 120 p_0_2 + 120 p_0_3 + 120 p_0_4 + 120 p_0_5 + 120 p_0_6 + 120 p_0_8 + 100000 z_0_2 + 100000 z_0_3 + 100000 z_0_4 + 100000 z_0_5 + 100000 z_0_6 + 100000 z_0_8 <= 600947.33567398961
 c2280: 120 p_0_1 + 120 p_0_2 + 120 p_0_3 + 120 p_0_4 + 120 p_0_5 + 120 p_0_6 + 120 p_0_8 + 100000 z_0_1 + 100000 z_0_2 + 100000 z_0_3 + 100000 z_0_4 + 100000 z_0_5 + 100000 z_0_6 + 100000 z_0_8 <= 700690.39029896364
 c2281: 120 p_0_7 + 120 p_0_8 + 100000 z_0_7 + 100000 z_0_8 <= 201248.99693338963
 c2282: 120 p_0_1 + 120 p_0_7 + 120 p_0_8 + 100000 z_0_1 + 100000 z_0_7 + 100000 z_0_8 <= 301238.11409173533
 c2283: 120 p_0_2 + 120 p_0_7 + 120 p_0_8 + 100000 z_0_2 + 100000 z_0_7 + 100000 z_0_8 <= 301195.48128908325
 c2284: 120 p_0_1 + 120 p_0_2 + 120 p_0_7 + 120 p_0_8 + 100000 z_0_1 + 100000 z_0_2 + 100000 z_0_7 + 100000 z_0_8 <= 401184.59844742896
 c2285: 120 p_0_3 + 120 p_0_7 + 120 p_0_8 + 100000 z_0_3 + 100000 z_0_7 + 100000 z_0_8 <= 300768.75160638371
 c2286: 120 p_0_1 + 120 p_0_3 + 120 p_0_7 + 120 p_0_8 + 100000 z_0_1 + 100000 z_0_3 + 100000 z_0_7 + 100000 z_0_8 <= 400763.3744119425
 c2287: 120 p_0_2 + 120 p_0_3 + 120 p_0_7 + 120 p_0_8 + 100000 z_0_2 + 100000 z_0_3 + 100000 z_0_7 + 100000 z_0_8 <= 400695.10669130948
 c2288: 120 p_0_1 + 120 p_0_2 + 120 p_0_3 + 120 p_0_7 + 120 p_0_8 + 100000 z_0_1 + 100000 z_0_2 + 100000 z_0_3 + 100000 z_0_7 + 100000 z_0_8 <= 500689.72949686827
 c2289: 120 p_0_4 + 120 p_0_7 + 120 p_0_8 + 100000 z_0_4 + 100000 z_0_7 + 100000 z_0_8 <= 301238.31122375408
 c2290: 120 p_0_1 + 120 p_0_4 + 120 p_0_7 + 120 p_0_8 + 100000 z_0_1 + 100000 z_0_4 + 100000 z_0_7 + 100000 z_0_8 <= 401231.22647227882
 c2291: 120 p_0_2 + 120 p_0_4 + 120 p_0_7 + 120 p_0_8 + 100000 z_0_2 + 100000 z_0_4 + 100000 z_0_7 + 100000 z_0_8 <= 401184.7955794477
 c2292: 120 p_0_1 + 120 p_0_2 + 120 p_0_4 + 120 p_0_7 + 120 p_0_8 + 100000 z_0_1 + 100000 z_0_2 + 100000 z_0_4 + 100000 z_0_7 + 100000 z_0_8 <= 501177.71082797245
 c2293: 120 p_0_3 + 120 p_0_4 + 120 p_0_7 + 120 p_0_8 + 100000 z_0_3 + 100000 z_0_4 + 100000 z_0_7 + 100000 z_0_8 <= 400767.70495694695
 c2294: 120 p_0_1 + 120 p_0_3 + 120 p_0_4 + 120 p_0_7 + 120 p_0_8 + 100000 z_0_1 + 100000 z_0_3 + 100000 z_0_4 + 100000 z_0_7 + 100000 z_0_8 <= 500760.62020547176
 c2295: 120 p_0_2 + 120 p_0_3 + 120 p_0_4 + 120 p_0_7 + 120 p_0_8 + 100000 z_0_2 + 100000 z_0_3 + 100000 z_0_4 + 100000 z_0_7 + 100000 z_0_8 <= 500694.06004187273
 c2296: 120 p_0_1 + 120 p_0_2 + 120 p_0_3 + 120 p_0_4 + 120 p_0_7 + 120 p_0_8 + 100000 z_0_1 + 100000 z_0_2 + 100000 z_0_3 + 100000 z_0_4 + 100000 z_0_7 + 100000 z_0_8 <= 600686.97529039753
 c2297: 120 p_0_5 + 120 p_0_7 + 120 p_0_8 + 100000 z_0_5 + 100000 z_0_7 + 100000 z_0_8 <= 301248.23947338253
 c2298: 120 p_0_1 + 120 p_0_5 + 120 p_0_7 + 120 p_0_8 + 100000 z_0_1 + 100000 z_0_5 + 100000 z_0_7 + 100000 z_0_8 <= 401237.35663172824
 c2299: 120 p_0_2 + 120 p_0_5 + 120 p_0_7 + 120 p_0_8 + 100000 z_0_2 + 100000 z_0_5 + 100000 z_0_7 + 100000 z_0_8 <= 401188.85231128725
 c2300: 120 p_0_1 + 120 p_0_2 + 120 p_0_5 + 120 p_0_7 + 120 p_0_8 + 100000 z_0_1 + 100000 z_0_2 + 100000 z_0_5 + 100000 z_0_7 + 100000 z_0_8 <= 501177.96946963295
 c2301: 120 p_0_3 + 120 p_0_5 + 120 p_0_7 + 120 p_0_8 + 100000 z_0_3 + 100000 z_0_5 + 100000 z_0_7 + 100000 z_0_8 <= 400762.12262858765
 c2302: 120 p_0_1 + 120 p_0_3 + 120 p_0_5 + 120 p_0_7 + 120 p_0_8 + 100000 z_0_1 + 100000 z_0_3 + 100000 z_0_5 + 100000 z_0_7 + 100000 z_0_8 <= 500756.74543414643
 c2303: 120 p_0_2 + 120 p_0_3 + 120 p_0_5 + 120 p_0_7 + 120 p_0_8 + 100000 z_0_2 + 100000 z_0_3 + 100000 z_0_5 + 100000 z_0_7 + 100000 z_0_8 <= 500692.06087485724
 c2304: 120 p_0_1 + 120 p_0_2 + 120 p_0_3 + 120 p_0_5 + 120 p_0_7 + 120 p_0_8 + 100000 z_0_1 + 100000 z_0_2 + 100000 z_0_3 + 100000 z_0_5 + 100000 z_0_7 + 100000 z_0_8 <= 600686.68368041608
 c2305: 120 p_0_4 + 120 p_0_5 + 120 p_0_7 + 120 p_0_8 + 100000 z_0_4 + 100000 z_0_5 + 100000 z_0_7 + 100000 z_0_8 <= 401237.55376374698
 c2306: 120 p_0_1 + 120 p_0_4 + 120 p_0_5 + 120 p_0_7 + 120 p_0_8 + 100000 z_0_1 + 100000 z_0_4 + 100000 z_0_5 + 100000 z_0_7 + 100000 z_0_8 <= 501230.46901227173
 c2307: 120 p_0_2 + 120 p_0_4 + 120 p_0_5 + 120 p_0_7 + 120 p_0_8 + 100000 z_0_2 + 100000 z_0_4 + 100000 z_0_5 + 100000 z_0_7 + 100000 z_0_8 <= 501178.16660165164
 c2308: 120 p_0_1 + 120 p_0_2 + 120 p_0_4 + 120 p_0_5 + 120 p_0_7 + 120 p_0_8 + 100000 z_0_1 + 100000 z_0_2 + 100000 z_0_4 + 100000 z_0_5 + 100000 z_0_7 + 100000 z_0_8 <= 601171.08185017644
 c2309: 120 p_0_3 + 120 p_0_4 + 120 p_0_5 + 120 p_0_7 + 120 p_0_8 + 100000 z_0_3 + 100000 z_0_4 + 100000 z_0_5 + 100000 z_0_7 + 100000 z_0_8 <= 500761.07597915095
 c2310: 120 p_0_1 + 120 p_0_3 + 120 p_0_4 + 120 p_0_5 + 120 p_0_7 + 120 p_0_8 + 100000 z_0_1 + 100000 z_0_3 + 100000 z_0_4 + 100000 z_0_5 + 100000 z_0_7 + 100000 z_0_8 <= 600753.99122767569
 c2311: 120 p_0_2 + 120 p_0_3 + 120 p_0_4 + 120 p_0_5 + 120 p_0_7 + 120 p_0_8 + 100000 z_0_2 + 100000 z_0_3 + 100000 z_0_4 + 100000 z_0_5 + 100000 z_0_7 + 100000 z_0_8 <= 600691.01422542054
 c2312: 120 p_0_1 + 120 p_0_2 + 120 p_0_3 + 120 p_0_4 + 120 p_0_5 + 120 p_0_7 + 120 p_0_8 + 100000 z_0_1 + 100000 z_0_2 + 100000 z_0_3 + 100000 z_0_4 + 100000 z_0_5 + 100000 z_0_7 + 100000 z_0_8 <= 700683.92947394529
 c2313: 120 p_0_6 + 120 p_0_7 + 120 p_0_8 + 100000 z_0_6 + 100000 z_0_7 + 100000 z_0_8 <= 300927.28254577908
 c2314: 120 p_0_1 + 120 p_0_6 + 120 p_0_7 + 120 p_0_8 + 100000 z_0_1 + 100000 z_0_6 + 100000 z_0_7 + 100000 z_0_8 <= 400920.76090844849
 c2315: 120 p_0_2 + 120 p_0_6 + 120 p_0_7 + 120 p_0_8 + 100000 z_0_2 + 100000 z_0_6 + 100000 z_0_7 + 100000 z_0_8 <= 400854.31734670728
 c2316: 120 p_0_1 + 120 p_0_2 + 120 p_0_6 + 120 p_0_7 + 120 p_0_8 + 100000 z_0_1 + 100000 z_0_2 + 100000 z_0_6 + 100000 z_0_7 + 100000 z_0_8 <= 500847.11599337426
 c2317: 120 p_0_3 + 120 p_0_6 + 120 p_0_7 + 120 p_0_8 + 100000 z_0_3 + 100000 z_0_6 + 100000 z_0_7 + 100000 z_0_8 <= 400757.47901346715
 c2318: 120 p_0_1 + 120 p_0_3 + 120 p_0_6 + 120 p_0_7 + 120 p_0_8 + 100000 z_0_1 + 100000 z_0_3 + 100000 z_0_6 + 100000 z_0_7 + 100000 z_0_8 <= 500752.10181902599
 c2319: 120 p_0_2 + 120 p_0_3 + 120 p_0_6 + 120 p_0_7 + 120 p_0_8 + 100000 z_0_2 + 100000 z_0_3 + 100000 z_0_6 + 100000 z_0_7 + 100000 z_0_8 <= 500683.83409839292
 c2320: 120 p_0_1 + 120 p_0_2 + 120 p_0_3 + 120 p_0_6 + 120 p_0_7 + 120 p_0_8 + 100000 z_0_1 + 100000 z_0_2 + 100000 z_0_3 + 100000 z_0_6 + 100000 z_0_7 + 100000 z_0_8 <= 600678.45690395171
 c2321: 120 p_0_4 + 120 p_0_6 + 120 p_0_7 + 120 p_0_8 + 100000 z_0_4 + 100000 z_0_6 + 100000 z_0_7 + 100000 z_0_8 <= 400927.26953001088
 c2322: 120 p_0_1 + 120 p_0_4 + 120 p_0_6 + 120 p_0_7 + 120 p_0_8 + 100000 z_0_1 + 100000 z_0_4 + 100000 z_0_6 + 100000 z_0_7 + 100000 z_0_8 <= 500920.18477853568
 c2323: 120 p_0_2 + 120 p_0_4 + 120 p_0_6 + 120 p_0_7 + 120 p_0_8 + 100000 z_0_2 + 100000 z_0_4 + 100000 z_0_6 + 100000 z_0_7 + 100000 z_0_8 <= 500853.62461493665
 c2324: 120 p_0_1 + 120 p_0_2 + 120 p_0_4 + 120 p_0_6 + 120 p_0_7 + 120 p_0_8 + 100000 z_0_1 + 100000 z_0_2 + 100000 z_0_4 + 100000 z_0_6 + 100000 z_0_7 + 100000 z_0_8 <= 600846.5398634614
 c2325: 120 p_0_3 + 120 p_0_4 + 120 p_0_6 + 120 p_0_7 + 120 p_0_8 + 100000 z_0_3 + 100000 z_0_4 + 100000 z_0_6 + 100000 z_0_7 + 100000 z_0_8 <= 500756.43236403045
 c2326: 120 p_0_1 + 120 p_0_3 + 120 p_0_4 + 120 p_0_6 + 120 p_0_7 + 120 p_0_8 + 100000 z_0_1 + 100000 z_0_3 + 100000 z_0_4 + 100000 z_0_6 + 100000 z_0_7 + 100000 z_0_8 <= 600749.34761255526
 c2327: 120 p_0_2 + 120 p_0_3 + 120 p_0_4 + 120 p_0_6 + 120 p_0_7 + 120 p_0_8 + 100000 z_0_2 + 100000 z_0_3 + 100000 z_0_4 + 100000 z_0_6 + 100000 z_0_7 + 100000 z_0_8 <= 600682.78744895628
 c2328: 120 p_0_1 + 120 p_0_2 + 120 p_0_3 + 120 p_0_4 + 120 p_0_6 + 120 p_0_7 + 120 p_0_8 + 100000 z_0_1 + 100000 z_0_2 + 100000 z_0_3 + 100000 z_0_4 + 100000 z_0_6 + 100000 z_0_7 + 100000 z_0_8 <= 700675.70269748103
 c2329: 120 p_0_5 + 120 p_0_6 + 120 p_0_7 + 120 p_0_8 + 100000 z_0_5 + 100000 z_0_6 + 100000 z_0_7 + 100000 z_0_8 <= 400920.65356798307
 c2330: 120 p_0_1 + 120 p_0_5 + 120 p_0_6 + 120 p_0_7 + 120 p_0_8 + 100000 z_0_1 + 100000 z_0_5 + 100000 z_0_6 + 100000 z_0_7 + 100000 z_0_8 <= 500914.13193065242
 c2331: 120 p_0_2 + 120 p_0_5 + 120 p_0_6 + 120 p_0_7 + 120 p_0_8 + 100000 z_0_2 + 100000 z_0_5 + 100000 z_0_6 + 100000 z_0_7 + 100000 z_0_8 <= 500850.59181425266
 c2332: 120 p_0_1 + 120 p_0_2 + 120 p_0_5 + 120 p_0_6 + 120 p_0_7 + 120 p_0_8 + 100000 z_0_1 + 100000 z_0_2 + 100000 z_0_5 + 100000 z_0_6 + 100000 z_0_7 + 100000 z_0_8 <= 600844.07017692202
 c2333: 120 p_0_3 + 120 p_0_5 + 120 p_0_6 + 120 p_0_7 + 120 p_0_8 + 100000 z_0_3 + 100000 z_0_5 + 100000 z_0_6 + 100000 z_0_7 + 100000 z_0_8 <= 500750.85003567114
 c2334: 120 p_0_1 + 120 p_0_3 + 120 p_0_5 + 120 p_0_6 + 120 p_0_7 + 120 p_0_8 + 100000 z_0_1 + 100000 z_0_3 + 100000 z_0_5 + 100000 z_0_6 + 100000 z_0_7 + 100000 z_0_8 <= 600745.47284122987
 c2335: 120 p_0_2 + 120 p_0_3 + 120 p_0_5 + 120 p_0_6 + 120 p_0_7 + 120 p_0_8 + 100000 z_0_2 + 100000 z_0_3 + 100000 z_0_5 + 100000 z_0_6 + 100000 z_0_7 + 100000 z_0_8 <= 600680.78828194074
 c2336: 120 p_0_1 + 120 p_0_2 + 120 p_0_3 + 120 p_0_5 + 120 p_0_6 + 120 p_0_7 + 120 p_0_8 + 100000 z_0_1 + 100000 z_0_2 + 100000 z_0_3 + 100000 z_0_5 + 100000 z_0_6 + 100000 z_0_7 + 100000 z_0_8 <= 700675.41108749947
 c2337: 120 p_0_4 + 120 p_0_5 + 120 p_0_6 + 120 p_0_7 + 120 p_0_8 + 100000 z_0_4 + 100000 z_0_5 + 100000 z_0_6 + 100000 z_0_7 + 100000 z_0_8 <= 500920.64055221481
 c2338: 120 p_0_1 + 120 p_0_4 + 120 p_0_5 + 120 p_0_6 + 120 p_0_7 + 120 p_0_8 + 100000 z_0_1 + 100000 z_0_4 + 100000 z_0_5 + 100000 z_0_6 + 100000 z_0_7 + 100000 z_0_8 <= 600913.55580073968
 c2339: 120 p_0_2 + 120 p_0_4 + 120 p_0_5 + 120 p_0_6 + 120 p_0_7 + 120 p_0_8 + 100000 z_0_2 + 100000 z_0_4 + 100000 z_0_5 + 100000 z_0_6 + 100000 z_0_7 + 100000 z_0_8 <= 600850.57879848441
 c2340: 120 p_0_1 + 120 p_0_2 + 120 p_0_4 + 120 p_0_5 + 120 p_0_6 + 120 p_0_7 + 120 p_0_8 + 100000 z_0_1 + 100000 z_0_2 + 100000 z_0_4 + 100000 z_0_5 + 100000 z_0_6 + 100000 z_0_7 + 100000 z_0_8 <= 700843.49404700915
 c2341: 120 p_0_3 + 120 p_0_4 + 120 p_0_5 + 120 p_0_6 + 120 p_0_7 + 120 p_0_8 + 100000 z_0_3 + 100000 z_0_4 + 100000 z_0_5 + 100000 z_0_6 + 100000 z_0_7 + 100000 z_0_8 <= 600749.80338623445
 c2342: 120 p_0_1 + 120 p_0_3 + 120 p_0_4 + 120 p_0_5 + 120 p_0_6 + 120 p_0_7 + 120 p_0_8 + 100000 z_0_1 + 100000 z_0_3 + 100000 z_0_4 + 100000 z_0_5 + 100000 z_0_6 + 100000 z_0_7 + 100000 z_0_8 <= 700742.71863475919
 c2343: 120 p_0_2 + 120 p_0_3 + 120 p_0_4 + 120 p_0_5 + 120 p_0_6 + 120 p_0_7 + 120 p_0_8 + 100000 z_0_2 + 100000 z_0_3 + 100000 z_0_4 + 100000 z_0_5 + 100000 z_0_6 + 100000 z_0_7 + 100000 z_0_8 <= 700679.74163250392
 c2344: 120 p_0_1 + 120 p_0_2 + 120 p_0_3 + 120 p_0_4 + 120 p_0_5 + 120 p_0_6 + 120 p_0_7 + 120 p_0_8 + 100000 z_0_1 + 100000 z_0_2 + 100000 z_0_3 + 100000 z_0_4 + 100000 z_0_5 + 100000 z_0_6 + 100000 z_0_7 + 100000 z_0_8 <= 800672.65688102879
 c2345: 120 p_0_9 + 100000 z_0_9 <= 101917.88356615882
 c2346: 120 p_0_1 + 120 p_0_9 + 100000 z_0_1 + 100000 z_0_9 <= 201284.46281396586
 c2347: 120 p_0_2 + 120 p_0_9 + 100000 z_0_2 + 100000 z_0_9 <= 201506.46930946462
 c2348: 120 p_0_1 + 120 p_0_2 + 120 p_0_9 + 100000 z_0_1 + 100000 z_0_2 + 100000 z_0_9 <= 300873.04855727166
 c2349: 120 p_0_3 + 120 p_0_9 + 100000 z_0_3 + 100000 z_0_9 <= 201696.67790523914
 c2350: 120 p_0_1 + 120 p_0_3 + 120 p_0_9 + 100000 z_0_1 + 100000 z_0_3 + 100000 z_0_9 <= 301063.2571530462
 c2351: 120 p_0_2 + 120 p_0_3 + 120 p_0_9 + 100000 z_0_2 + 100000 z_0_3 + 100000 z_0_9 <= 301340.9779155025
 c2352: 120 p_0_1 + 120 p_0_2 + 120 p_0_3 + 120 p_0_9 + 100000 z_0_1 + 100000 z_0_2 + 100000 z_0_3 + 100000 z_0_9 <= 400707.55716330954
 c2353: 120 p_0_4 + 120 p_0_9 + 100000 z_0_4 + 100000 z_0_9 <= 201538.48132627868
 c2354: 120 p_0_1 + 120 p_0_4 + 120 p_0_9 + 100000 z_0_1 + 100000 z_0_4 + 100000 z_0_9 <= 301281.53595125268
 c2355: 120 p_0_2 + 120 p_0_4 + 120 p_0_9 + 100000 z_0_2 + 100000 z_0_4 + 100000 z_0_9 <= 301127.06706958445
 c2356: 120 p_0_1 + 120 p_0_2 + 120 p_0_4 + 120 p_0_9 + 100000 z_0_1 + 100000 z_0_2 + 100000 z_0_4 + 100000 z_0_9 <= 400870.12169455847
 c2357: 120 p_0_3 + 120 p_0_4 + 120 p_0_9 + 100000 z_0_3 + 100000 z_0_4 + 100000 z_0_9 <= 301317.27566535899
 c2358: 120 p_0_1 + 120 p_0_3 + 120 p_0_4 + 120 p_0_9 + 100000 z_0_1 + 100000 z_0_3 + 100000 z_0_4 + 100000 z_0_9 <= 401060.33029033296
 c2359: 120 p_0_2 + 120 p_0_3 + 120 p_0_4 + 120 p_0_9 + 100000 z_0_2 + 100000 z_0_3 + 100000 z_0_4 + 100000 z_0_9 <= 400961.57567562233
 c2360: 120 p_0_1 + 120 p_0_2 + 120 p_0_3 + 120 p_0_4 + 120 p_0_9 + 100000 z_0_1 + 100000 z_0_2 + 100000 z_0_3 + 100000 z_0_4 + 100000 z_0_9 <= 500704.63030059636
 c2361: 120 p_0_5 + 120 p_0_9 + 100000 z_0_5 + 100000 z_0_9 <= 201607.61564086896
 c2362: 120 p_0_1 + 120 p_0_5 + 120 p_0_9 + 100000 z_0_1 + 100000 z_0_5 + 100000 z_0_9 <= 300974.19488867599
 c2363: 120 p_0_2 + 120 p_0_5 + 120 p_0_9 + 100000 z_0_2 + 100000 z_0_5 + 100000 z_0_9 <= 301503.81845114048
 c2364: 120 p_0_1 + 120 p_0_2 + 120 p_0_5 + 120 p_0_9 + 100000 z_0_1 + 100000 z_0_2 + 100000 z_0_5 + 100000 z_0_9 <= 400870.39769894752
 c2365: 120 p_0_3 + 120 p_0_5 + 120 p_0_9 + 100000 z_0_3 + 100000 z_0_5 + 100000 z_0_9 <= 301435.6741004262
 c2366: 120 p_0_1 + 120 p_0_3 + 120 p_0_5 + 120 p_0_9 + 100000 z_0_1 + 100000 z_0_3 + 100000 z_0_5 + 100000 z_0_9 <= 400802.25334823324
 c2367: 120 p_0_2 + 120 p_0_3 + 120 p_0_5 + 120 p_0_9 + 100000 z_0_2 + 100000 z_0_3 + 100000 z_0_5 + 100000 z_0_9 <= 401337.93209905026
 c2368: 120 p_0_1 + 120 p_0_2 + 120 p_0_3 + 120 p_0_5 + 120 p_0_9 + 100000 z_0_1 + 100000 z_0_2 + 100000 z_0_3 + 100000 z_0_5 + 100000 z_0_9 <= 500704.5113468573
 c2369: 120 p_0_4 + 120 p_0_5 + 120 p_0_9 + 100000 z_0_4 + 100000 z_0_5 + 100000 z_0_9 <= 301228.21340098878
 c2370: 120 p_0_1 + 120 p_0_4 + 120 p_0_5 + 120 p_0_9 + 100000 z_0_1 + 100000 z_0_4 + 100000 z_0_5 + 100000 z_0_9 <= 400971.26802596281
 c2371: 120 p_0_2 + 120 p_0_4 + 120 p_0_5 + 120 p_0_9 + 100000 z_0_2 + 100000 z_0_4 + 100000 z_0_5 + 100000 z_0_9 <= 401124.41621126037
 c2372: 120 p_0_1 + 120 p_0_2 + 120 p_0_4 + 120 p_0_5 + 120 p_0_9 + 100000 z_0_1 + 100000 z_0_2 + 100000 z_0_4 + 100000 z_0_5 + 100000 z_0_9 <= 500867.47083623434
 c2373: 120 p_0_3 + 120 p_0_4 + 120 p_0_5 + 120 p_0_9 + 100000 z_0_3 + 100000 z_0_4 + 100000 z_0_5 + 100000 z_0_9 <= 401056.27186054602
 c2374: 120 p_0_1 + 120 p_0_3 + 120 p_0_4 + 120 p_0_5 + 120 p_0_9 + 100000 z_0_1 + 100000 z_0_3 + 100000 z_0_4 + 100000 z_0_5 + 100000 z_0_9 <= 500799.32648552005
 c2375: 120 p_0_2 + 120 p_0_3 + 120 p_0_4 + 120 p_0_5 + 120 p_0_9 + 100000 z_0_2 + 100000 z_0_3 + 100000 z_0_4 + 100000 z_0_5 + 100000 z_0_9 <= 500958.52985917008
 c2376: 120 p_0_1 + 120 p_0_2 + 120 p_0_3 + 120 p_0_4 + 120 p_0_5 + 120 p_0_9 + 100000 z_0_1 + 100000 z_0_2 + 100000 z_0_3 + 100000 z_0_4 + 100000 z_0_5 + 100000 z_0_9 <= 600701.58448414411
 c2377: 120 p_0_6 + 120 p_0_9 + 100000 z_0_6 + 100000 z_0_9 <= 201839.1523123818
 c2378: 120 p_0_1 + 120 p_0_6 + 120 p_0_9 + 100000 z_0_1 + 100000 z_0_6 + 100000 z_0_9 <= 301205.73156018887
 c2379: 120 p_0_2 + 120 p_0_6 + 120 p_0_9 + 100000 z_0_2 + 100000 z_0_6 + 100000 z_0_9 <= 301474.54340055928
 c2380: 120 p_0_1 + 120 p_0_2 + 120 p_0_6 + 120 p_0_9 + 100000 z_0_1 + 100000 z_0_2 + 100000 z_0_6 + 100000 z_0_9 <= 400841.12264836632
 c2381: 120 p_0_3 + 120 p_0_6 + 120 p_0_9 + 100000 z_0_3 + 100000 z_0_6 + 100000 z_0_9 <= 301694.98949175444
 c2382: 120 p_0_1 + 120 p_0_3 + 120 p_0_6 + 120 p_0_9 + 100000 z_0_1 + 100000 z_0_3 + 100000 z_0_6 + 100000 z_0_9 <= 401061.56873956148
 c2383: 120 p_0_2 + 120 p_0_3 + 120 p_0_6 + 120 p_0_9 + 100000 z_0_2 + 100000 z_0_3 + 100000 z_0_6 + 100000 z_0_9 <= 401330.38057993189
 c2384: 120 p_0_1 + 120 p_0_2 + 120 p_0_3 + 120 p_0_6 + 120 p_0_9 + 100000 z_0_1 + 100000 z_0_2 + 100000 z_0_3 + 100000 z_0_6 + 100000 z_0_9 <= 500696.95982773899
 c2385: 120 p_0_4 + 120 p_0_6 + 120 p_0_9 + 100000 z_0_4 + 100000 z_0_6 + 100000 z_0_9 <= 301459.75007250166
 c2386: 120 p_0_1 + 120 p_0_4 + 120 p_0_6 + 120 p_0_9 + 100000 z_0_1 + 100000 z_0_4 + 100000 z_0_6 + 100000 z_0_9 <= 401202.80469747563
 c2387: 120 p_0_2 + 120 p_0_4 + 120 p_0_6 + 120 p_0_9 + 100000 z_0_2 + 100000 z_0_4 + 100000 z_0_6 + 100000 z_0_9 <= 401095.14116067911
 c2388: 120 p_0_1 + 120 p_0_2 + 120 p_0_4 + 120 p_0_6 + 120 p_0_9 + 100000 z_0_1 + 100000 z_0_2 + 100000 z_0_4 + 100000 z_0_6 + 100000 z_0_9 <= 500838.19578565314
 c2389: 120 p_0_3 + 120 p_0_4 + 120 p_0_6 + 120 p_0_9 + 100000 z_0_3 + 100000 z_0_4 + 100000 z_0_6 + 100000 z_0_9 <= 401315.58725187433
 c2390: 120 p_0_1 + 120 p_0_3 + 120 p_0_4 + 120 p_0_6 + 120 p_0_9 + 100000 z_0_1 + 100000 z_0_3 + 100000 z_0_4 + 100000 z_0_6 + 100000 z_0_9 <= 501058.6418768483
 c2391: 120 p_0_2 + 120 p_0_3 + 120 p_0_4 + 120 p_0_6 + 120 p_0_9 + 100000 z_0_2 + 100000 z_0_3 + 100000 z_0_4 + 100000 z_0_6 + 100000 z_0_9 <= 500950.97834005178
 c2392: 120 p_0_1 + 120 p_0_2 + 120 p_0_3 + 120 p_0_4 + 120 p_0_6 + 120 p_0_9 + 100000 z_0_1 + 100000 z_0_2 + 100000 z_0_3 + 100000 z_0_4 + 100000 z_0_6 + 100000 z_0_9 <= 600694.03296502575
 c2393: 120 p_0_5 + 120 p_0_6 + 120 p_0_9 + 100000 z_0_5 + 100000 z_0_6 + 100000 z_0_9 <= 301572.16468709754
 c2394: 120 p_0_1 + 120 p_0_5 + 120 p_0_6 + 120 p_0_9 + 100000 z_0_1 + 100000 z_0_5 + 100000 z_0_6 + 100000 z_0_9 <= 400938.74393490457
 c2395: 120 p_0_2 + 120 p_0_5 + 120 p_0_6 + 120 p_0_9 + 100000 z_0_2 + 100000 z_0_5 + 100000 z_0_6 + 100000 z_0_9 <= 401471.49758410704
 c2396: 120 p_0_1 + 120 p_0_2 + 120 p_0_5 + 120 p_0_6 + 120 p_0_9 + 100000 z_0_1 + 100000 z_0_2 + 100000 z_0_5 + 100000 z_0_6 + 100000 z_0_9 <= 500838.07683191408
 c2397: 120 p_0_3 + 120 p_0_5 + 120 p_0_6 + 120 p_0_9 + 100000 z_0_3 + 100000 z_0_5 + 100000 z_0_6 + 100000 z_0_9 <= 401428.00186647021
 c2398: 120 p_0_1 + 120 p_0_3 + 120 p_0_5 + 120 p_0_6 + 120 p_0_9 + 100000 z_0_1 + 100000 z_0_3 + 100000 z_0_5 + 100000 z_0_6 + 100000 z_0_9 <= 500794.58111427724
 c2399: 120 p_0_2 + 120 p_0_3 + 120 p_0_5 + 120 p_0_6 + 120 p_0_9 + 100000 z_0_2 + 100000 z_0_3 + 100000 z_0_5 + 100000 z_0_6 + 100000 z_0_9 <= 501327.33476347965
 c2400: 120 p_0_1 + 120 p_0_2 + 120 p_0_3 + 120 p_0_5 + 120 p_0_6 + 120 p_0_9 + 100000 z_0_1 + 100000 z_0_2 + 100000 z_0_3 + 100000 z_0_5 + 100000 z_0_6 + 100000 z_0_9 <= 600693.91401128669
 c2401: 120 p_0_4 + 120 p_0_5 + 120 p_0_6 + 120 p_0_9 + 100000 z_0_4 + 100000 z_0_5 + 100000 z_0_6 + 100000 z_0_9 <= 401192.76244721742
 c2402: 120 p_0_1 + 120 p_0_4 + 120 p_0_5 + 120 p_0_6 + 120 p_0_9 + 100000 z_0_1 + 100000 z_0_4 + 100000 z_0_5 + 100000 z_0_6 + 100000 z_0_9 <= 500935.81707219139
 c2403: 120 p_0_2 + 120 p_0_4 + 120 p_0_5 + 120 p_0_6 + 120 p_0_9 + 100000 z_0_2 + 100000 z_0_4 + 100000 z_0_5 + 100000 z_0_6 + 100000 z_0_9 <= 501092.09534422687
 c2404: 120 p_0_1 + 120 p_0_2 + 120 p_0_4 + 120 p_0_5 + 120 p_0_6 + 120 p_0_9 + 100000 z_0_1 + 100000 z_0_2 + 100000 z_0_4 + 100000 z_0_5 + 100000 z_0_6 + 100000 z_0_9 <= 600835.14996920084
 c2405: 120 p_0_3 + 120 p_0_4 + 120 p_0_5 + 120 p_0_6 + 120 p_0_9 + 100000 z_0_3 + 100000 z_0_4 + 100000 z_0_5 + 100000 z_0_6 + 100000 z_0_9 <= 501048.59962659003
 c2406: 120 p_0_1 + 120 p_0_3 + 120 p_0_4 + 120 p_0_5 + 120 p_0_6 + 120 p_0_9 + 100000 z_0_1 + 100000 z_0_3 + 100000 z_0_4 + 100000 z_0_5 + 100000 z_0_6 + 100000 z_0_9 <= 600791.65425156406
 c2407: 120 p_0_2 + 120 p_0_3 + 120 p_0_4 + 120 p_0_5 + 120 p_0_6 + 120 p_0_9 + 100000 z_0_2 + 100000 z_0_3 + 100000 z_0_4 + 100000 z_0_5 + 100000 z_0_6 + 100000 z_0_9 <= 600947.93252359948
 c2408: 120 p_0_1 + 120 p_0_2 + 120 p_0_3 + 120 p_0_4 + 120 p_0_5 + 120 p_0_6 + 120 p_0_9 + 100000 z_0_1 + 100000 z_0_2 + 100000 z_0_3 + 100000 z_0_4 + 100000 z_0_5 + 100000 z_0_6 + 100000 z_0_9 <= 700690.98714857351
 c2409: 120 p_0_7 + 120 p_0_9 + 100000 z_0_7 + 100000 z_0_9 <= 201272.08582788589
 c2410: 120 p_0_1 + 120 p_0_7 + 120 p_0_9 + 100000 z_0_1 + 100000 z_0_7 + 100000 z_0_9 <= 301266.72939603101
 c2411: 120 p_0_2 + 120 p_0_7 + 120 p_0_9 + 100000 z_0_2 + 100000 z_0_7 + 100000 z_0_9 <= 300860.67157119169
 c2412: 120 p_0_1 + 120 p_0_2 + 120 p_0_7 + 120 p_0_9 + 100000 z_0_1 + 100000 z_0_2 + 100000 z_0_7 + 100000 z_0_9 <= 400855.3151393368
 c2413: 120 p_0_3 + 120 p_0_7 + 120 p_0_9 + 100000 z_0_3 + 100000 z_0_7 + 100000 z_0_9 <= 301050.88016696624
 c2414: 120 p_0_1 + 120 p_0_3 + 120 p_0_7 + 120 p_0_9 + 100000 z_0_1 + 100000 z_0_3 + 100000 z_0_7 + 100000 z_0_9 <= 401045.52373511135
 c2415: 120 p_0_2 + 120 p_0_3 + 120 p_0_7 + 120 p_0_9 + 100000 z_0_2 + 100000 z_0_3 + 100000 z_0_7 + 100000 z_0_9 <= 400695.18017722957
 c2416: 120 p_0_1 + 120 p_0_2 + 120 p_0_3 + 120 p_0_7 + 120 p_0_9 + 100000 z_0_1 + 100000 z_0_2 + 100000 z_0_3 + 100000 z_0_7 + 100000 z_0_9 <= 500689.82374537468
 c2417: 120 p_0_4 + 120 p_0_7 + 120 p_0_9 + 100000 z_0_4 + 100000 z_0_7 + 100000 z_0_9 <= 301270.88728479308
 c2418: 120 p_0_1 + 120 p_0_4 + 120 p_0_7 + 120 p_0_9 + 100000 z_0_1 + 100000 z_0_4 + 100000 z_0_7 + 100000 z_0_9 <= 401263.80253331782
 c2419: 120 p_0_2 + 120 p_0_4 + 120 p_0_7 + 120 p_0_9 + 100000 z_0_2 + 100000 z_0_4 + 100000 z_0_7 + 100000 z_0_9 <= 400859.47302809887
 c2420: 120 p_0_1 + 120 p_0_2 + 120 p_0_4 + 120 p_0_7 + 120 p_0_9 + 100000 z_0_1 + 100000 z_0_2 + 100000 z_0_4 + 100000 z_0_7 + 100000 z_0_9 <= 500852.38827662362
 c2421: 120 p_0_3 + 120 p_0_4 + 120 p_0_7 + 120 p_0_9 + 100000 z_0_3 + 100000 z_0_4 + 100000 z_0_7 + 100000 z_0_9 <= 401049.68162387336
 c2422: 120 p_0_1 + 120 p_0_3 + 120 p_0_4 + 120 p_0_7 + 120 p_0_9 + 100000 z_0_1 + 100000 z_0_3 + 100000 z_0_4 + 100000 z_0_7 + 100000 z_0_9 <= 501042.59687239816
 c2423: 120 p_0_2 + 120 p_0_3 + 120 p_0_4 + 120 p_0_7 + 120 p_0_9 + 100000 z_0_2 + 100000 z_0_3 + 100000 z_0_4 + 100000 z_0_7 + 100000 z_0_9 <= 500693.9816341367
 c2424: 120 p_0_1 + 120 p_0_2 + 120 p_0_3 + 120 p_0_4 + 120 p_0_7 + 120 p_0_9 + 100000 z_0_1 + 100000 z_0_2 + 100000 z_0_3 + 100000 z_0_4 + 100000 z_0_7 + 100000 z_0_9 <= 600686.8968826615
 c2425: 120 p_0_5 + 120 p_0_7 + 120 p_0_9 + 100000 z_0_5 + 100000 z_0_7 + 100000 z_0_9 <= 300961.81790259603
 c2426: 120 p_0_1 + 120 p_0_5 + 120 p_0_7 + 120 p_0_9 + 100000 z_0_1 + 100000 z_0_5 + 100000 z_0_7 + 100000 z_0_9 <= 400956.46147074114
 c2427: 120 p_0_2 + 120 p_0_5 + 120 p_0_7 + 120 p_0_9 + 100000 z_0_2 + 100000 z_0_5 + 100000 z_0_7 + 100000 z_0_9 <= 400858.02071286761
 c2428: 120 p_0_1 + 120 p_0_2 + 120 p_0_5 + 120 p_0_7 + 120 p_0_9 + 100000 z_0_1 + 100000 z_0_2 + 100000 z_0_5 + 100000 z_0_7 + 100000 z_0_9 <= 500852.66428101272
 c2429: 120 p_0_3 + 120 p_0_5 + 120 p_0_7 + 120 p_0_9 + 100000 z_0_3 + 100000 z_0_5 + 100000 z_0_7 + 100000 z_0_9 <= 400789.87636215327
 c2430: 120 p_0_1 + 120 p_0_3 + 120 p_0_5 + 120 p_0_7 + 120 p_0_9 + 100000 z_0_1 + 100000 z_0_3 + 100000 z_0_5 + 100000 z_0_7 + 100000 z_0_9 <= 500784.51993029838
 c2431: 120 p_0_2 + 120 p_0_3 + 120 p_0_5 + 120 p_0_7 + 120 p_0_9 + 100000 z_0_2 + 100000 z_0_3 + 100000 z_0_5 + 100000 z_0_7 + 100000 z_0_9 <= 500692.13436077733
 c2432: 120 p_0_1 + 120 p_0_2 + 120 p_0_3 + 120 p_0_5 + 120 p_0_7 + 120 p_0_9 + 100000 z_0_1 + 100000 z_0_2 + 100000 z_0_3 + 100000 z_0_5 + 100000 z_0_7 + 100000 z_0_9 <= 600686.77792892244
 c2433: 120 p_0_4 + 120 p_0_5 + 120 p_0_7 + 120 p_0_9 + 100000 z_0_4 + 100000 z_0_5 + 100000 z_0_7 + 100000 z_0_9 <= 400960.61935950321
 c2434: 120 p_0_1 + 120 p_0_4 + 120 p_0_5 + 120 p_0_7 + 120 p_0_9 + 100000 z_0_1 + 100000 z_0_4 + 100000 z_0_5 + 100000 z_0_7 + 100000 z_0_9 <= 500953.53460802796
 c2435: 120 p_0_2 + 120 p_0_4 + 120 p_0_5 + 120 p_0_7 + 120 p_0_9 + 100000 z_0_2 + 100000 z_0_4 + 100000 z_0_5 + 100000 z_0_7 + 100000 z_0_9 <= 500856.82216977474
 c2436: 120 p_0_1 + 120 p_0_2 + 120 p_0_4 + 120 p_0_5 + 120 p_0_7 + 120 p_0_9 + 100000 z_0_1 + 100000 z_0_2 + 100000 z_0_4 + 100000 z_0_5 + 100000 z_0_7 + 100000 z_0_9 <= 600849.73741829954
 c2437: 120 p_0_3 + 120 p_0_4 + 120 p_0_5 + 120 p_0_7 + 120 p_0_9 + 100000 z_0_3 + 100000 z_0_4 + 100000 z_0_5 + 100000 z_0_7 + 100000 z_0_9 <= 500788.67781906045
 c2438: 120 p_0_1 + 120 p_0_3 + 120 p_0_4 + 120 p_0_5 + 120 p_0_7 + 120 p_0_9 + 100000 z_0_1 + 100000 z_0_3 + 100000 z_0_4 + 100000 z_0_5 + 100000 z_0_7 + 100000 z_0_9 <= 600781.59306758526
 c2439: 120 p_0_2 + 120 p_0_3 + 120 p_0_4 + 120 p_0_5 + 120 p_0_7 + 120 p_0_9 + 100000 z_0_2 + 100000 z_0_3 + 100000 z_0_4 + 100000 z_0_5 + 100000 z_0_7 + 100000 z_0_9 <= 600690.93581768451
 c2440: 120 p_0_1 + 120 p_0_2 + 120 p_0_3 + 120 p_0_4 + 120 p_0_5 + 120 p_0_7 + 120 p_0_9 + 100000 z_0_1 + 100000 z_0_2 + 100000 z_0_3 + 100000 z_0_4 + 100000 z_0_5 + 100000 z_0_7 + 100000 z_0_9 <= 700683.85106620926
 c2441: 120 p_0_6 + 120 p_0_7 + 120 p_0_9 + 100000 z_0_6 + 100000 z_0_7 + 100000 z_0_9 <= 301193.3545741089
 c2442: 120 p_0_1 + 120 p_0_6 + 120 p_0_7 + 120 p_0_9 + 100000 z_0_1 + 100000 z_0_6 + 100000 z_0_7 + 100000 z_0_9 <= 401187.99814225401
 c2443: 120 p_0_2 + 120 p_0_6 + 120 p_0_7 + 120 p_0_9 + 100000 z_0_2 + 100000 z_0_6 + 100000 z_0_7 + 100000 z_0_9 <= 400828.74566228635
 c2444: 120 p_0_1 + 120 p_0_2 + 120 p_0_6 + 120 p_0_7 + 120 p_0_9 + 100000 z_0_1 + 100000 z_0_2 + 100000 z_0_6 + 100000 z_0_7 + 100000 z_0_9 <= 500823.38923043146
 c2445: 120 p_0_3 + 120 p_0_6 + 120 p_0_7 + 120 p_0_9 + 100000 z_0_3 + 100000 z_0_6 + 100000 z_0_7 + 100000 z_0_9 <= 401049.19175348157
 c2446: 120 p_0_1 + 120 p_0_3 + 120 p_0_6 + 120 p_0_7 + 120 p_0_9 + 100000 z_0_1 + 100000 z_0_3 + 100000 z_0_6 + 100000 z_0_7 + 100000 z_0_9 <= 501043.83532162668
 c2447: 120 p_0_2 + 120 p_0_3 + 120 p_0_6 + 120 p_0_7 + 120 p_0_9 + 100000 z_0_2 + 100000 z_0_3 + 100000 z_0_6 + 100000 z_0_7 + 100000 z_0_9 <= 500684.58284165902
 c2448: 120 p_0_1 + 120 p_0_2 + 120 p_0_3 + 120 p_0_6 + 120 p_0_7 + 120 p_0_9 + 100000 z_0_1 + 100000 z_0_2 + 100000 z_0_3 + 100000 z_0_6 + 100000 z_0_7 + 100000 z_0_9 <= 600679.22640980408
 c2449: 120 p_0_4 + 120 p_0_6 + 120 p_0_7 + 120 p_0_9 + 100000 z_0_4 + 100000 z_0_6 + 100000 z_0_7 + 100000 z_0_9 <= 401192.15603101603
 c2450: 120 p_0_1 + 120 p_0_4 + 120 p_0_6 + 120 p_0_7 + 120 p_0_9 + 100000 z_0_1 + 100000 z_0_4 + 100000 z_0_6 + 100000 z_0_7 + 100000 z_0_9 <= 501185.07127954083
 c2451: 120 p_0_2 + 120 p_0_4 + 120 p_0_6 + 120 p_0_7 + 120 p_0_9 + 100000 z_0_2 + 100000 z_0_4 + 100000 z_0_6 + 100000 z_0_7 + 100000 z_0_9 <= 500827.54711919348
 c2452: 120 p_0_1 + 120 p_0_2 + 120 p_0_4 + 120 p_0_6 + 120 p_0_7 + 120 p_0_9 + 100000 z_0_1 + 100000 z_0_2 + 100000 z_0_4 + 100000 z_0_6 + 100000 z_0_7 + 100000 z_0_9 <= 600820.46236771834
 c2453: 120 p_0_3 + 120 p_0_4 + 120 p_0_6 + 120 p_0_7 + 120 p_0_9 + 100000 z_0_3 + 100000 z_0_4 + 100000 z_0_6 + 100000 z_0_7 + 100000 z_0_9 <= 501047.9932103887
 c2454: 120 p_0_1 + 120 p_0_3 + 120 p_0_4 + 120 p_0_6 + 120 p_0_7 + 120 p_0_9 + 100000 z_0_1 + 100000 z_0_3 + 100000 z_0_4 + 100000 z_0_6 + 100000 z_0_7 + 100000 z_0_9 <= 601040.90845891344
 c2455: 120 p_0_2 + 120 p_0_3 + 120 p_0_4 + 120 p_0_6 + 120 p_0_7 + 120 p_0_9 + 100000 z_0_2 + 100000 z_0_3 + 100000 z_0_4 + 100000 z_0_6 + 100000 z_0_7 + 100000 z_0_9 <= 600683.38429856615
 c2456: 120 p_0_1 + 120 p_0_2 + 120 p_0_3 + 120 p_0_4 + 120 p_0_6 + 120 p_0_7 + 120 p_0_9 + 100000 z_0_1 + 100000 z_0_2 + 100000 z_0_3 + 100000 z_0_4 + 100000 z_0_6 + 100000 z_0_7 + 100000 z_0_9 <= 700676.29954709089
 c2457: 120 p_0_5 + 120 p_0_6 + 120 p_0_7 + 120 p_0_9 + 100000 z_0_5 + 100000 z_0_6 + 100000 z_0_7 + 100000 z_0_9 <= 400926.36694882461
 c2458: 120 p_0_1 + 120 p_0_5 + 120 p_0_6 + 120 p_0_7 + 120 p_0_9 + 100000 z_0_1 + 100000 z_0_5 + 100000 z_0_6 + 100000 z_0_7 + 100000 z_0_9 <= 500921.01051696978
 c2459: 120 p_0_2 + 120 p_0_5 + 120 p_0_6 + 120 p_0_7 + 120 p_0_9 + 100000 z_0_2 + 100000 z_0_5 + 100000 z_0_6 + 100000 z_0_7 + 100000 z_0_9 <= 500825.69984583411
 c2460: 120 p_0_1 + 120 p_0_2 + 120 p_0_5 + 120 p_0_6 + 120 p_0_7 + 120 p_0_9 + 100000 z_0_1 + 100000 z_0_2 + 100000 z_0_5 + 100000 z_0_6 + 100000 z_0_7 + 100000 z_0_9 <= 600820.34341397928
 c2461: 120 p_0_3 + 120 p_0_5 + 120 p_0_6 + 120 p_0_7 + 120 p_0_9 + 100000 z_0_3 + 100000 z_0_5 + 100000 z_0_6 + 100000 z_0_7 + 100000 z_0_9 <= 500782.20412819728
 c2462: 120 p_0_1 + 120 p_0_3 + 120 p_0_5 + 120 p_0_6 + 120 p_0_7 + 120 p_0_9 + 100000 z_0_1 + 100000 z_0_3 + 100000 z_0_5 + 100000 z_0_6 + 100000 z_0_7 + 100000 z_0_9 <= 600776.84769634239
 c2463: 120 p_0_2 + 120 p_0_3 + 120 p_0_5 + 120 p_0_6 + 120 p_0_7 + 120 p_0_9 + 100000 z_0_2 + 100000 z_0_3 + 100000 z_0_5 + 100000 z_0_6 + 100000 z_0_7 + 100000 z_0_9 <= 600681.53702520672
 c2464: 120 p_0_1 + 120 p_0_2 + 120 p_0_3 + 120 p_0_5 + 120 p_0_6 + 120 p_0_7 + 120 p_0_9 + 100000 z_0_1 + 100000 z_0_2 + 100000 z_0_3 + 100000 z_0_5 + 100000 z_0_6 + 100000 z_0_7 + 100000 z_0_9 <= 700676.18059335183
 c2465: 120 p_0_4 + 120 p_0_5 + 120 p_0_6 + 120 p_0_7 + 120 p_0_9 + 100000 z_0_4 + 100000 z_0_5 + 100000 z_0_6 + 100000 z_0_7 + 100000 z_0_9 <= 500925.16840573179
 c2466: 120 p_0_1 + 120 p_0_4 + 120 p_0_5 + 120 p_0_6 + 120 p_0_7 + 120 p_0_9 + 100000 z_0_1 + 100000 z_0_4 + 100000 z_0_5 + 100000 z_0_6 + 100000 z_0_7 + 100000 z_0_9 <= 600918.08365425654
 c2467: 120 p_0_2 + 120 p_0_4 + 120 p_0_5 + 120 p_0_6 + 120 p_0_7 + 120 p_0_9 + 100000 z_0_2 + 100000 z_0_4 + 100000 z_0_5 + 100000 z_0_6 + 100000 z_0_7 + 100000 z_0_9 <= 600824.50130274124
 c2468: 120 p_0_1 + 120 p_0_2 + 120 p_0_4 + 120 p_0_5 + 120 p_0_6 + 120 p_0_7 + 120 p_0_9 + 100000 z_0_1 + 100000 z_0_2 + 100000 z_0_4 + 100000 z_0_5 + 100000 z_0_6 + 100000 z_0_7 + 100000 z_0_9 <= 700817.41655126598
 c2469: 120 p_0_3 + 120 p_0_4 + 120 p_0_5 + 120 p_0_6 + 120 p_0_7 + 120 p_0_9 + 100000 z_0_3 + 100000 z_0_4 + 100000 z_0_5 + 100000 z_0_6 + 100000 z_0_7 + 100000 z_0_9 <= 600781.00558510446
 c2470: 120 p_0_1 + 120 p_0_3 + 120 p_0_4 + 120 p_0_5 + 120 p_0_6 + 120 p_0_7 + 120 p_0_9 + 100000 z_0_1 + 100000 z_0_3 + 100000 z_0_4 + 100000 z_0_5 + 100000 z_0_6 + 100000 z_0_7 + 100000 z_0_9 <= 700773.92083362921
 c2471: 120 p_0_2 + 120 p_0_3 + 120 p_0_4 + 120 p_0_5 + 120 p_0_6 + 120 p_0_7 + 120 p_0_9 + 100000 z_0_2 + 100000 z_0_3 + 100000 z_0_4 + 100000 z_0_5 + 100000 z_0_6 + 100000 z_0_7 + 100000 z_0_9 <= 700680.3384821139
 c2472: 120 p_0_1 + 120 p_0_2 + 120 p_0_3 + 120 p_0_4 + 120 p_0_5 + 120 p_0_6 + 120 p_0_7 + 120 p_0_9 + 100000 z_0_1 + 100000 z_0_2 + 100000 z_0_3 + 100000 z_0_4 + 100000 z_0_5 + 100000 z_0_6 + 100000 z_0_7 + 100000 z_0_9 <= 800673.25373063865
 c2473: 120 p_0_8 + 120 p_0_9 + 100000 z_0_8 + 100000 z_0_9 <= 201577.32453379335
 c2474: 120 p_0_1 + 120 p_0_8 + 120 p_0_9 + 100000 z_0_1 + 100000 z_0_8 + 100000 z_0_9 <= 300943.90378160035
 c2475: 120 p_0_2 + 120 p_0_8 + 120 p_0_9 + 100000 z_0_2 + 100000 z_0_8 + 100000 z_0_9 <= 301503.67961871909
 c2476: 120 p_0_1 + 120 p_0_2 + 120 p_0_8 + 120 p_0_9 + 100000 z_0_1 + 100000 z_0_2 + 100000 z_0_8 + 100000 z_0_9 <= 400870.25886652619
 c2477: 120 p_0_3 + 120 p_0_8 + 120 p_0_9 + 100000 z_0_3 + 100000 z_0_8 + 100000 z_0_9 <= 301414.52853591967
 c2478: 120 p_0_1 + 120 p_0_3 + 120 p_0_8 + 120 p_0_9 + 100000 z_0_1 + 100000 z_0_3 + 100000 z_0_8 + 100000 z_0_9 <= 400781.10778372671
 c2479: 120 p_0_2 + 120 p_0_3 + 120 p_0_8 + 120 p_0_9 + 100000 z_0_2 + 100000 z_0_3 + 100000 z_0_8 + 100000 z_0_9 <= 401340.88362084544
 c2480: 120 p_0_1 + 120 p_0_2 + 120 p_0_3 + 120 p_0_8 + 120 p_0_9 + 100000 z_0_1 + 100000 z_0_2 + 100000 z_0_3 + 100000 z_0_8 + 100000 z_0_9 <= 500707.46286865248
 c2481: 120 p_0_4 + 120 p_0_8 + 120 p_0_9 + 100000 z_0_4 + 100000 z_0_8 + 100000 z_0_9 <= 301197.9222939132
 c2482: 120 p_0_1 + 120 p_0_4 + 120 p_0_8 + 120 p_0_9 + 100000 z_0_1 + 100000 z_0_4 + 100000 z_0_8 + 100000 z_0_9 <= 400940.97691888717
 c2483: 120 p_0_2 + 120 p_0_4 + 120 p_0_8 + 120 p_0_9 + 100000 z_0_2 + 100000 z_0_4 + 100000 z_0_8 + 100000 z_0_9 <= 401124.27737883897
 c2484: 120 p_0_1 + 120 p_0_2 + 120 p_0_4 + 120 p_0_8 + 120 p_0_9 + 100000 z_0_1 + 100000 z_0_2 + 100000 z_0_4 + 100000 z_0_8 + 100000 z_0_9 <= 500867.33200381295
 c2485: 120 p_0_3 + 120 p_0_4 + 120 p_0_8 + 120 p_0_9 + 100000 z_0_3 + 100000 z_0_4 + 100000 z_0_8 + 100000 z_0_9 <= 401035.1262960395
 c2486: 120 p_0_1 + 120 p_0_3 + 120 p_0_4 + 120 p_0_8 + 120 p_0_9 + 100000 z_0_1 + 100000 z_0_3 + 100000 z_0_4 + 100000 z_0_8 + 100000 z_0_9 <= 500778.18092101353
 c2487: 120 p_0_2 + 120 p_0_3 + 120 p_0_4 + 120 p_0_8 + 120 p_0_9 + 100000 z_0_2 + 100000 z_0_3 + 100000 z_0_4 + 100000 z_0_8 + 100000 z_0_9 <= 500961.48138096527
 c2488: 120 p_0_1 + 120 p_0_2 + 120 p_0_3 + 120 p_0_4 + 120 p_0_8 + 120 p_0_9 + 100000 z_0_1 + 100000 z_0_2 + 100000 z_0_3 + 100000 z_0_4 + 100000 z_0_8 + 100000 z_0_9 <= 600704.53600593924
 c2489: 120 p_0_5 + 120 p_0_8 + 120 p_0_9 + 100000 z_0_5 + 100000 z_0_8 + 100000 z_0_9 <= 301570.69555599731
 c2490: 120 p_0_1 + 120 p_0_5 + 120 p_0_8 + 120 p_0_9 + 100000 z_0_1 + 100000 z_0_5 + 100000 z_0_8 + 100000 z_0_9 <= 400937.27480380435
 c2491: 120 p_0_2 + 120 p_0_5 + 120 p_0_8 + 120 p_0_9 + 100000 z_0_2 + 100000 z_0_5 + 100000 z_0_8 + 100000 z_0_9 <= 401500.63380226685
 c2492: 120 p_0_1 + 120 p_0_2 + 120 p_0_5 + 120 p_0_8 + 120 p_0_9 + 100000 z_0_1 + 100000 z_0_2 + 100000 z_0_5 + 100000 z_0_8 + 100000 z_0_9 <= 500867.21305007394
 c2493: 120 p_0_3 + 120 p_0_5 + 120 p_0_8 + 120 p_0_9 + 100000 z_0_3 + 100000 z_0_5 + 100000 z_0_8 + 100000 z_0_9 <= 401407.89955812361
 c2494: 120 p_0_1 + 120 p_0_3 + 120 p_0_5 + 120 p_0_8 + 120 p_0_9 + 100000 z_0_1 + 100000 z_0_3 + 100000 z_0_5 + 100000 z_0_8 + 100000 z_0_9 <= 500774.47880593064
 c2495: 120 p_0_2 + 120 p_0_3 + 120 p_0_5 + 120 p_0_8 + 120 p_0_9 + 100000 z_0_2 + 100000 z_0_3 + 100000 z_0_5 + 100000 z_0_8 + 100000 z_0_9 <= 501337.8378043932
 c2496: 120 p_0_1 + 120 p_0_2 + 120 p_0_3 + 120 p_0_5 + 120 p_0_8 + 120 p_0_9 + 100000 z_0_1 + 100000 z_0_2 + 100000 z_0_3 + 100000 z_0_5 + 100000 z_0_8 + 100000 z_0_9 <= 600704.41705220018
 c2497: 120 p_0_4 + 120 p_0_5 + 120 p_0_8 + 120 p_0_9 + 100000 z_0_4 + 100000 z_0_5 + 100000 z_0_8 + 100000 z_0_9 <= 401191.29331611714
 c2498: 120 p_0_1 + 120 p_0_4 + 120 p_0_5 + 120 p_0_8 + 120 p_0_9 + 100000 z_0_1 + 100000 z_0_4 + 100000 z_0_5 + 100000 z_0_8 + 100000 z_0_9 <= 500934.34794109117
 c2499: 120 p_0_2 + 120 p_0_4 + 120 p_0_5 + 120 p_0_8 + 120 p_0_9 + 100000 z_0_2 + 100000 z_0_4 + 100000 z_0_5 + 100000 z_0_8 + 100000 z_0_9 <= 501121.23156238673
 c2500: 120 p_0_1 + 120 p_0_2 + 120 p_0_4 + 120 p_0_5 + 120 p_0_8 + 120 p_0_9 + 100000 z_0_1 + 100000 z_0_2 + 100000 z_0_4 + 100000 z_0_5 + 100000 z_0_8 + 100000 z_0_9 <= 600864.28618736076
 c2501: 120 p_0_3 + 120 p_0_4 + 120 p_0_5 + 120 p_0_8 + 120 p_0_9 + 100000 z_0_3 + 100000 z_0_4 + 100000 z_0_5 + 100000 z_0_8 + 100000 z_0_9 <= 501028.49731824349
 c2502: 120 p_0_1 + 120 p_0_3 + 120 p_0_4 + 120 p_0_5 + 120 p_0_8 + 120 p_0_9 + 100000 z_0_1 + 100000 z_0_3 + 100000 z_0_4 + 100000 z_0_5 + 100000 z_0_8 + 100000 z_0_9 <= 600771.55194321752
 c2503: 120 p_0_2 + 120 p_0_3 + 120 p_0_4 + 120 p_0_5 + 120 p_0_8 + 120 p_0_9 + 100000 z_0_2 + 100000 z_0_3 + 100000 z_0_4 + 100000 z_0_5 + 100000 z_0_8 + 100000 z_0_9 <= 600958.43556451309
 c2504: 120 p_0_1 + 120 p_0_2 + 120 p_0_3 + 120 p_0_4 + 120 p_0_5 + 120 p_0_8 + 120 p_0_9 + 100000 z_0_1 + 100000 z_0_2 + 100000 z_0_3 + 100000 z_0_4 + 100000 z_0_5 + 100000 z_0_8 + 100000 z_0_9 <= 700701.490189487
 c2505: 120 p_0_6 + 120 p_0_8 + 120 p_0_9 + 100000 z_0_6 + 100000 z_0_8 + 100000 z_0_9 <= 301547.4187636305
 c2506: 120 p_0_1 + 120 p_0_6 + 120 p_0_8 + 120 p_0_9 + 100000 z_0_1 + 100000 z_0_6 + 100000 z_0_8 + 100000 z_0_9 <= 400913.99801143754
 c2507: 120 p_0_2 + 120 p_0_6 + 120 p_0_8 + 120 p_0_9 + 100000 z_0_2 + 100000 z_0_6 + 100000 z_0_8 + 100000 z_0_9 <= 401473.77384855627
 c2508: 120 p_0_1 + 120 p_0_2 + 120 p_0_6 + 120 p_0_8 + 120 p_0_9 + 100000 z_0_1 + 100000 z_0_2 + 100000 z_0_6 + 100000 z_0_8 + 100000 z_0_9 <= 500840.35309636331
 c2509: 120 p_0_3 + 120 p_0_6 + 120 p_0_8 + 120 p_0_9 + 100000 z_0_3 + 100000 z_0_6 + 100000 z_0_8 + 100000 z_0_9 <= 401403.25594300311
 c2510: 120 p_0_1 + 120 p_0_3 + 120 p_0_6 + 120 p_0_8 + 120 p_0_9 + 100000 z_0_1 + 100000 z_0_3 + 100000 z_0_6 + 100000 z_0_8 + 100000 z_0_9 <= 500769.83519081015
 c2511: 120 p_0_2 + 120 p_0_3 + 120 p_0_6 + 120 p_0_8 + 120 p_0_9 + 100000 z_0_2 + 100000 z_0_3 + 100000 z_0_6 + 100000 z_0_8 + 100000 z_0_9 <= 501329.61102792894
 c2512: 120 p_0_1 + 120 p_0_2 + 120 p_0_3 + 120 p_0_6 + 120 p_0_8 + 120 p_0_9 + 100000 z_0_1 + 100000 z_0_2 + 100000 z_0_3 + 100000 z_0_6 + 100000 z_0_8 + 100000 z_0_9 <= 600696.19027573592
 c2513: 120 p_0_4 + 120 p_0_6 + 120 p_0_8 + 120 p_0_9 + 100000 z_0_4 + 100000 z_0_6 + 100000 z_0_8 + 100000 z_0_9 <= 401168.01652375032
 c2514: 120 p_0_1 + 120 p_0_4 + 120 p_0_6 + 120 p_0_8 + 120 p_0_9 + 100000 z_0_1 + 100000 z_0_4 + 100000 z_0_6 + 100000 z_0_8 + 100000 z_0_9 <= 500911.0711487243
 c2515: 120 p_0_2 + 120 p_0_4 + 120 p_0_6 + 120 p_0_8 + 120 p_0_9 + 100000 z_0_2 + 100000 z_0_4 + 100000 z_0_6 + 100000 z_0_8 + 100000 z_0_9 <= 501094.3716086761
 c2516: 120 p_0_1 + 120 p_0_2 + 120 p_0_4 + 120 p_0_6 + 120 p_0_8 + 120 p_0_9 + 100000 z_0_1 + 100000 z_0_2 + 100000 z_0_4 + 100000 z_0_6 + 100000 z_0_8 + 100000 z_0_9 <= 600837.42623365007
 c2517: 120 p_0_3 + 120 p_0_4 + 120 p_0_6 + 120 p_0_8 + 120 p_0_9 + 100000 z_0_3 + 100000 z_0_4 + 100000 z_0_6 + 100000 z_0_8 + 100000 z_0_9 <= 501023.85370312299
 c2518: 120 p_0_1 + 120 p_0_3 + 120 p_0_4 + 120 p_0_6 + 120 p_0_8 + 120 p_0_9 + 100000 z_0_1 + 100000 z_0_3 + 100000 z_0_4 + 100000 z_0_6 + 100000 z_0_8 + 100000 z_0_9 <= 600766.90832809696
 c2519: 120 p_0_2 + 120 p_0_3 + 120 p_0_4 + 120 p_0_6 + 120 p_0_8 + 120 p_0_9 + 100000 z_0_2 + 100000 z_0_3 + 100000 z_0_4 + 100000 z_0_6 + 100000 z_0_8 + 100000 z_0_9 <= 600950.20878804871
 c2520: 120 p_0_1 + 120 p_0_2 + 120 p_0_3 + 120 p_0_4 + 120 p_0_6 + 120 p_0_8 + 120 p_0_9 + 100000 z_0_1 + 100000 z_0_2 + 100000 z_0_3 + 100000 z_0_4 + 100000 z_0_6 + 100000 z_0_8 + 100000 z_0_9 <= 700693.26341302274
 c2521: 120 p_0_5 + 120 p_0_6 + 120 p_0_8 + 120 p_0_9 + 100000 z_0_5 + 100000 z_0_6 + 100000 z_0_8 + 100000 z_0_9 <= 401540.78978583444
 c2522: 120 p_0_1 + 120 p_0_5 + 120 p_0_6 + 120 p_0_8 + 120 p_0_9 + 100000 z_0_1 + 100000 z_0_5 + 100000 z_0_6 + 100000 z_0_8 + 100000 z_0_9 <= 500907.36903364147
 c2523: 120 p_0_2 + 120 p_0_5 + 120 p_0_6 + 120 p_0_8 + 120 p_0_9 + 100000 z_0_2 + 100000 z_0_5 + 100000 z_0_6 + 100000 z_0_8 + 100000 z_0_9 <= 501470.72803210403
 c2524: 120 p_0_1 + 120 p_0_2 + 120 p_0_5 + 120 p_0_6 + 120 p_0_8 + 120 p_0_9 + 100000 z_0_1 + 100000 z_0_2 + 100000 z_0_5 + 100000 z_0_6 + 100000 z_0_8 + 100000 z_0_9 <= 600837.30727991101
 c2525: 120 p_0_3 + 120 p_0_5 + 120 p_0_6 + 120 p_0_8 + 120 p_0_9 + 100000 z_0_3 + 100000 z_0_5 + 100000 z_0_6 + 100000 z_0_8 + 100000 z_0_9 <= 501396.62696520711
 c2526: 120 p_0_1 + 120 p_0_3 + 120 p_0_5 + 120 p_0_6 + 120 p_0_8 + 120 p_0_9 + 100000 z_0_1 + 100000 z_0_3 + 100000 z_0_5 + 100000 z_0_6 + 100000 z_0_8 + 100000 z_0_9 <= 600763.20621301408
 c2527: 120 p_0_2 + 120 p_0_3 + 120 p_0_5 + 120 p_0_6 + 120 p_0_8 + 120 p_0_9 + 100000 z_0_2 + 100000 z_0_3 + 100000 z_0_5 + 100000 z_0_6 + 100000 z_0_8 + 100000 z_0_9 <= 601326.56521147664
 c2528: 120 p_0_1 + 120 p_0_2 + 120 p_0_3 + 120 p_0_5 + 120 p_0_6 + 120 p_0_8 + 120 p_0_9 + 100000 z_0_1 + 100000 z_0_2 + 100000 z_0_3 + 100000 z_0_5 + 100000 z_0_6 + 100000 z_0_8 + 100000 z_0_9 <= 700693.14445928368
 c2529: 120 p_0_4 + 120 p_0_5 + 120 p_0_6 + 120 p_0_8 + 120 p_0_9 + 100000 z_0_4 + 100000 z_0_5 + 100000 z_0_6 + 100000 z_0_8 + 100000 z_0_9 <= 501161.38754595426
 c2530: 120 p_0_1 + 120 p_0_4 + 120 p_0_5 + 120 p_0_6 + 120 p_0_8 + 120 p_0_9 + 100000 z_0_1 + 100000 z_0_4 + 100000 z_0_5 + 100000 z_0_6 + 100000 z_0_8 + 100000 z_0_9 <= 600904.44217092823
 c2531: 120 p_0_2 + 120 p_0_4 + 120 p_0_5 + 120 p_0_6 + 120 p_0_8 + 120 p_0_9 + 100000 z_0_2 + 100000 z_0_4 + 100000 z_0_5 + 100000 z_0_6 + 100000 z_0_8 + 100000 z_0_9 <= 601091.32579222391
 c2532: 120 p_0_1 + 120 p_0_2 + 120 p_0_4 + 120 p_0_5 + 120 p_0_6 + 120 p_0_8 + 120 p_0_9 + 100000 z_0_1 + 100000 z_0_2 + 100000 z_0_4 + 100000 z_0_5 + 100000 z_0_6 + 100000 z_0_8 + 100000 z_0_9 <= 700834.38041719783
 c2533: 120 p_0_3 + 120 p_0_4 + 120 p_0_5 + 120 p_0_6 + 120 p_0_8 + 120 p_0_9 + 100000 z_0_3 + 100000 z_0_4 + 100000 z_0_5 + 100000 z_0_6 + 100000 z_0_8 + 100000 z_0_9 <= 601017.22472532699
 c2534: 120 p_0_1 + 120 p_0_3 + 120 p_0_4 + 120 p_0_5 + 120 p_0_6 + 120 p_0_8 + 120 p_0_9 + 100000 z_0_1 + 100000 z_0_3 + 100000 z_0_4 + 100000 z_0_5 + 100000 z_0_6 + 100000 z_0_8 + 100000 z_0_9 <= 700760.2793503009
 c2535: 120 p_0_2 + 120 p_0_3 + 120 p_0_4 + 120 p_0_5 + 120 p_0_6 + 120 p_0_8 + 120 p_0_9 + 100000 z_0_2 + 100000 z_0_3 + 100000 z_0_4 + 100000 z_0_5 + 100000 z_0_6 + 100000 z_0_8 + 100000 z_0_9 <= 700947.16297159647
 c2536: 120 p_0_1 + 120 p_0_2 + 120 p_0_3 + 120 p_0_4 + 120 p_0_5 + 120 p_0_6 + 120 p_0_8 + 120 p_0_9 + 100000 z_0_1 + 100000 z_0_2 + 100000 z_0_3 + 100000 z_0_4 + 100000 z_0_5 + 100000 z_0_6 + 100000 z_0_8 + 100000 z_0_9 <= 800690.2175965705
 c2537: 120 p_0_7 + 120 p_0_8 + 120 p_0_9 + 100000 z_0_7 + 100000 z_0_8 + 100000 z_0_9 <= 300931.52679552045
 c2538: 120 p_0_1 + 120 p_0_7 + 120 p_0_8 + 120 p_0_9 + 100000 z_0_1 + 100000 z_0_7 + 100000 z_0_8 + 100000 z_0_9 <= 400926.17036366556
 c2539: 120 p_0_2 + 120 p_0_7 + 120 p_0_8 + 120 p_0_9 + 100000 z_0_2 + 100000 z_0_7 + 100000 z_0_8 + 100000 z_0_9 <= 400857.88188044622
 c2540: 120 p_0_1 + 120 p_0_2 + 120 p_0_7 + 120 p_0_8 + 120 p_0_9 + 100000 z_0_1 + 100000 z_0_2 + 100000 z_0_7 + 100000 z_0_8 + 100000 z_0_9 <= 500852.52544859133
 c2541: 120 p_0_3 + 120 p_0_7 + 120 p_0_8 + 120 p_0_9 + 100000 z_0_3 + 100000 z_0_7 + 100000 z_0_8 + 100000 z_0_9 <= 400768.73079764674
 c2542: 120 p_0_1 + 120 p_0_3 + 120 p_0_7 + 120 p_0_8 + 120 p_0_9 + 100000 z_0_1 + 100000 z_0_3 + 100000 z_0_7 + 100000 z_0_8 + 100000 z_0_9 <= 500763.37436579185
 c2543: 120 p_0_2 + 120 p_0_3 + 120 p_0_7 + 120 p_0_8 + 120 p_0_9 + 100000 z_0_2 + 100000 z_0_3 + 100000 z_0_7 + 100000 z_0_8 + 100000 z_0_9 <= 500695.08588257252
 c2544: 120 p_0_1 + 120 p_0_2 + 120 p_0_3 + 120 p_0_7 + 120 p_0_8 + 120 p_0_9 + 100000 z_0_1 + 100000 z_0_2 + 100000 z_0_3 + 100000 z_0_7 + 100000 z_0_8 + 100000 z_0_9 <= 600689.72945071768
 c2545: 120 p_0_4 + 120 p_0_7 + 120 p_0_8 + 120 p_0_9 + 100000 z_0_4 + 100000 z_0_7 + 100000 z_0_8 + 100000 z_0_9 <= 400930.32825242757
 c2546: 120 p_0_1 + 120 p_0_4 + 120 p_0_7 + 120 p_0_8 + 120 p_0_9 + 100000 z_0_1 + 100000 z_0_4 + 100000 z_0_7 + 100000 z_0_8 + 100000 z_0_9 <= 500923.24350095238
 c2547: 120 p_0_2 + 120 p_0_4 + 120 p_0_7 + 120 p_0_8 + 120 p_0_9 + 100000 z_0_2 + 100000 z_0_4 + 100000 z_0_7 + 100000 z_0_8 + 100000 z_0_9 <= 500856.68333735334
 c2548: 120 p_0_1 + 120 p_0_2 + 120 p_0_4 + 120 p_0_7 + 120 p_0_8 + 120 p_0_9 + 100000 z_0_1 + 100000 z_0_2 + 100000 z_0_4 + 100000 z_0_7 + 100000 z_0_8 + 100000 z_0_9 <= 600849.59858587815
 c2549: 120 p_0_3 + 120 p_0_4 + 120 p_0_7 + 120 p_0_8 + 120 p_0_9 + 100000 z_0_3 + 100000 z_0_4 + 100000 z_0_7 + 100000 z_0_8 + 100000 z_0_9 <= 500767.53225455387
 c2550: 120 p_0_1 + 120 p_0_3 + 120 p_0_4 + 120 p_0_7 + 120 p_0_8 + 120 p_0_9 + 100000 z_0_1 + 100000 z_0_3 + 100000 z_0_4 + 100000 z_0_7 + 100000 z_0_8 + 100000 z_0_9 <= 600760.44750307873
 c2551: 120 p_0_2 + 120 p_0_3 + 120 p_0_4 + 120 p_0_7 + 120 p_0_8 + 120 p_0_9 + 100000 z_0_2 + 100000 z_0_3 + 100000 z_0_4 + 100000 z_0_7 + 100000 z_0_8 + 100000 z_0_9 <= 600693.88733947964
 c2552: 120 p_0_1 + 120 p_0_2 + 120 p_0_3 + 120 p_0_4 + 120 p_0_7 + 120 p_0_8 + 120 p_0_9 + 100000 z_0_1 + 100000 z_0_2 + 100000 z_0_3 + 100000 z_0_4 + 100000 z_0_7 + 100000 z_0_8 + 100000 z_0_9 <= 700686.8025880045
 c2553: 120 p_0_5 + 120 p_0_7 + 120 p_0_8 + 120 p_0_9 + 100000 z_0_5 + 100000 z_0_7 + 100000 z_0_8 + 100000 z_0_9 <= 400924.89781772438
 c2554: 120 p_0_1 + 120 p_0_5 + 120 p_0_7 + 120 p_0_8 + 120 p_0_9 + 100000 z_0_1 + 100000 z_0_5 + 100000 z_0_7 + 100000 z_0_8 + 100000 z_0_9 <= 500919.5413858695
 c2555: 120 p_0_2 + 120 p_0_5 + 120 p_0_7 + 120 p_0_8 + 120 p_0_9 + 100000 z_0_2 + 100000 z_0_5 + 100000 z_0_7 + 100000 z_0_8 + 100000 z_0_9 <= 500854.83606399398
 c2556: 120 p_0_1 + 120 p_0_2 + 120 p_0_5 + 120 p_0_7 + 120 p_0_8 + 120 p_0_9 + 100000 z_0_1 + 100000 z_0_2 + 100000 z_0_5 + 100000 z_0_7 + 100000 z_0_8 + 100000 z_0_9 <= 600849.47963213909
 c2557: 120 p_0_3 + 120 p_0_5 + 120 p_0_7 + 120 p_0_8 + 120 p_0_9 + 100000 z_0_3 + 100000 z_0_5 + 100000 z_0_7 + 100000 z_0_8 + 100000 z_0_9 <= 500762.10181985068
 c2558: 120 p_0_1 + 120 p_0_3 + 120 p_0_5 + 120 p_0_7 + 120 p_0_8 + 120 p_0_9 + 100000 z_0_1 + 100000 z_0_3 + 100000 z_0_5 + 100000 z_0_7 + 100000 z_0_8 + 100000 z_0_9 <= 600756.74538799585
 c2559: 120 p_0_2 + 120 p_0_3 + 120 p_0_5 + 120 p_0_7 + 120 p_0_8 + 120 p_0_9 + 100000 z_0_2 + 100000 z_0_3 + 100000 z_0_5 + 100000 z_0_7 + 100000 z_0_8 + 100000 z_0_9 <= 600692.04006612033
 c2560: 120 p_0_1 + 120 p_0_2 + 120 p_0_3 + 120 p_0_5 + 120 p_0_7 + 120 p_0_8 + 120 p_0_9 + 100000 z_0_1 + 100000 z_0_2 + 100000 z_0_3 + 100000 z_0_5 + 100000 z_0_7 + 100000 z_0_8 + 100000 z_0_9 <= 700686.68363426544
 c2561: 120 p_0_4 + 120 p_0_5 + 120 p_0_7 + 120 p_0_8 + 120 p_0_9 + 100000 z_0_4 + 100000 z_0_5 + 100000 z_0_7 + 100000 z_0_8 + 100000 z_0_9 <= 500923.69927463151
 c2562: 120 p_0_1 + 120 p_0_4 + 120 p_0_5 + 120 p_0_7 + 120 p_0_8 + 120 p_0_9 + 100000 z_0_1 + 100000 z_0_4 + 100000 z_0_5 + 100000 z_0_7 + 100000 z_0_8 + 100000 z_0_9 <= 600916.61452315631
 c2563: 120 p_0_2 + 120 p_0_4 + 120 p_0_5 + 120 p_0_7 + 120 p_0_8 + 120 p_0_9 + 100000 z_0_2 + 100000 z_0_4 + 100000 z_0_5 + 100000 z_0_7 + 100000 z_0_8 + 100000 z_0_9 <= 600853.63752090116
 c2564: 120 p_0_1 + 120 p_0_2 + 120 p_0_4 + 120 p_0_5 + 120 p_0_7 + 120 p_0_8 + 120 p_0_9 + 100000 z_0_1 + 100000 z_0_2 + 100000 z_0_4 + 100000 z_0_5 + 100000 z_0_7 + 100000 z_0_8 + 100000 z_0_9 <= 700846.55276942591
 c2565: 120 p_0_3 + 120 p_0_4 + 120 p_0_5 + 120 p_0_7 + 120 p_0_8 + 120 p_0_9 + 100000 z_0_3 + 100000 z_0_4 + 100000 z_0_5 + 100000 z_0_7 + 100000 z_0_8 + 100000 z_0_9 <= 600760.9032767578
 c2566: 120 p_0_1 + 120 p_0_3 + 120 p_0_4 + 120 p_0_5 + 120 p_0_7 + 120 p_0_8 + 120 p_0_9 + 100000 z_0_1 + 100000 z_0_3 + 100000 z_0_4 + 100000 z_0_5 + 100000 z_0_7 + 100000 z_0_8 + 100000 z_0_9 <= 700753.81852528267
 c2567: 120 p_0_2 + 120 p_0_3 + 120 p_0_4 + 120 p_0_5 + 120 p_0_7 + 120 p_0_8 + 120 p_0_9 + 100000 z_0_2 + 100000 z_0_3 + 100000 z_0_4 + 100000 z_0_5 + 100000 z_0_7 + 100000 z_0_8 + 100000 z_0_9 <= 700690.8415230274
 c2568: 120 p_0_1 + 120 p_0_2 + 120 p_0_3 + 120 p_0_4 + 120 p_0_5 + 120 p_0_7 + 120 p_0_8 + 120 p_0_9 + 100000 z_0_1 + 100000 z_0_2 + 100000 z_0_3 + 100000 z_0_4 + 100000 z_0_5 + 100000 z_0_7 + 100000 z_0_8 + 100000 z_0_9 <= 800683.75677155226
 c2569: 120 p_0_6 + 120 p_0_7 + 120 p_0_8 + 120 p_0_9 + 100000 z_0_6 + 100000 z_0_7 + 100000 z_0_8 + 100000 z_0_9 <= 400901.62102535757
 c2570: 120 p_0_1 + 120 p_0_6 + 120 p_0_7 + 120 p_0_8 + 120 p_0_9 + 100000 z_0_1 + 100000 z_0_6 + 100000 z_0_7 + 100000 z_0_8 + 100000 z_0_9 <= 500896.26459350268
 c2571: 120 p_0_2 + 120 p_0_6 + 120 p_0_7 + 120 p_0_8 + 120 p_0_9 + 100000 z_0_2 + 100000 z_0_6 + 100000 z_0_7 + 100000 z_0_8 + 100000 z_0_9 <= 500827.97611028334
 c2572: 120 p_0_1 + 120 p_0_2 + 120 p_0_6 + 120 p_0_7 + 120 p_0_8 + 120 p_0_9 + 100000 z_0_1 + 100000 z_0_2 + 100000 z_0_6 + 100000 z_0_7 + 100000 z_0_8 + 100000 z_0_9 <= 600822.61967842851
 c2573: 120 p_0_3 + 120 p_0_6 + 120 p_0_7 + 120 p_0_8 + 120 p_0_9 + 100000 z_0_3 + 100000 z_0_6 + 100000 z_0_7 + 100000 z_0_8 + 100000 z_0_9 <= 500757.45820473024
 c2574: 120 p_0_1 + 120 p_0_3 + 120 p_0_6 + 120 p_0_7 + 120 p_0_8 + 120 p_0_9 + 100000 z_0_1 + 100000 z_0_3 + 100000 z_0_6 + 100000 z_0_7 + 100000 z_0_8 + 100000 z_0_9 <= 600752.10177287529
 c2575: 120 p_0_2 + 120 p_0_3 + 120 p_0_6 + 120 p_0_7 + 120 p_0_8 + 120 p_0_9 + 100000 z_0_2 + 100000 z_0_3 + 100000 z_0_6 + 100000 z_0_7 + 100000 z_0_8 + 100000 z_0_9 <= 600683.81328965595
 c2576: 120 p_0_1 + 120 p_0_2 + 120 p_0_3 + 120 p_0_6 + 120 p_0_7 + 120 p_0_8 + 120 p_0_9 + 100000 z_0_1 + 100000 z_0_2 + 100000 z_0_3 + 100000 z_0_6 + 100000 z_0_7 + 100000 z_0_8 + 100000 z_0_9 <= 700678.45685780118
 c2577: 120 p_0_4 + 120 p_0_6 + 120 p_0_7 + 120 p_0_8 + 120 p_0_9 + 100000 z_0_4 + 100000 z_0_6 + 100000 z_0_7 + 100000 z_0_8 + 100000 z_0_9 <= 500900.42248226469
 c2578: 120 p_0_1 + 120 p_0_4 + 120 p_0_6 + 120 p_0_7 + 120 p_0_8 + 120 p_0_9 + 100000 z_0_1 + 100000 z_0_4 + 100000 z_0_6 + 100000 z_0_7 + 100000 z_0_8 + 100000 z_0_9 <= 600893.33773078944
 c2579: 120 p_0_2 + 120 p_0_4 + 120 p_0_6 + 120 p_0_7 + 120 p_0_8 + 120 p_0_9 + 100000 z_0_2 + 100000 z_0_4 + 100000 z_0_6 + 100000 z_0_7 + 100000 z_0_8 + 100000 z_0_9 <= 600826.77756719047
 c2580: 120 p_0_1 + 120 p_0_2 + 120 p_0_4 + 120 p_0_6 + 120 p_0_7 + 120 p_0_8 + 120 p_0_9 + 100000 z_0_1 + 100000 z_0_2 + 100000 z_0_4 + 100000 z_0_6 + 100000 z_0_7 + 100000 z_0_8 + 100000 z_0_9 <= 700819.69281571533
 c2581: 120 p_0_3 + 120 p_0_4 + 120 p_0_6 + 120 p_0_7 + 120 p_0_8 + 120 p_0_9 + 100000 z_0_3 + 100000 z_0_4 + 100000 z_0_6 + 100000 z_0_7 + 100000 z_0_8 + 100000 z_0_9 <= 600756.25966163736
 c2582: 120 p_0_1 + 120 p_0_3 + 120 p_0_4 + 120 p_0_6 + 120 p_0_7 + 120 p_0_8 + 120 p_0_9 + 100000 z_0_1 + 100000 z_0_3 + 100000 z_0_4 + 100000 z_0_6 + 100000 z_0_7 + 100000 z_0_8 + 100000 z_0_9 <= 700749.17491016211
 c2583: 120 p_0_2 + 120 p_0_3 + 120 p_0_4 + 120 p_0_6 + 120 p_0_7 + 120 p_0_8 + 120 p_0_9 + 100000 z_0_2 + 100000 z_0_3 + 100000 z_0_4 + 100000 z_0_6 + 100000 z_0_7 + 100000 z_0_8 + 100000 z_0_9 <= 700682.61474656314
 c2584: 120 p_0_1 + 120 p_0_2 + 120 p_0_3 + 120 p_0_4 + 120 p_0_6 + 120 p_0_7 + 120 p_0_8 + 120 p_0_9 + 100000 z_0_1 + 100000 z_0_2 + 100000 z_0_3 + 100000 z_0_4 + 100000 z_0_6 + 100000 z_0_7 + 100000 z_0_8 + 100000 z_0_9 <= 800675.52999508788
 c2585: 120 p_0_5 + 120 p_0_6 + 120 p_0_7 + 120 p_0_8 + 120 p_0_9 + 100000 z_0_5 + 100000 z_0_6 + 100000 z_0_7 + 100000 z_0_8 + 100000 z_0_9 <= 500894.99204756151
 c2586: 120 p_0_1 + 120 p_0_5 + 120 p_0_6 + 120 p_0_7 + 120 p_0_8 + 120 p_0_9 + 100000 z_0_1 + 100000 z_0_5 + 100000 z_0_6 + 100000 z_0_7 + 100000 z_0_8 + 100000 z_0_9 <= 600889.63561570668
 c2587: 120 p_0_2 + 120 p_0_5 + 120 p_0_6 + 120 p_0_7 + 120 p_0_8 + 120 p_0_9 + 100000 z_0_2 + 100000 z_0_5 + 100000 z_0_6 + 100000 z_0_7 + 100000 z_0_8 + 100000 z_0_9 <= 600824.93029383104
 c2588: 120 p_0_1 + 120 p_0_2 + 120 p_0_5 + 120 p_0_6 + 120 p_0_7 + 120 p_0_8 + 120 p_0_9 + 100000 z_0_1 + 100000 z_0_2 + 100000 z_0_5 + 100000 z_0_6 + 100000 z_0_7 + 100000 z_0_8 + 100000 z_0_9 <= 700819.57386197627
 c2589: 120 p_0_3 + 120 p_0_5 + 120 p_0_6 + 120 p_0_7 + 120 p_0_8 + 120 p_0_9 + 100000 z_0_3 + 100000 z_0_5 + 100000 z_0_6 + 100000 z_0_7 + 100000 z_0_8 + 100000 z_0_9 <= 600750.82922693412
 c2590: 120 p_0_1 + 120 p_0_3 + 120 p_0_5 + 120 p_0_6 + 120 p_0_7 + 120 p_0_8 + 120 p_0_9 + 100000 z_0_1 + 100000 z_0_3 + 100000 z_0_5 + 100000 z_0_6 + 100000 z_0_7 + 100000 z_0_8 + 100000 z_0_9 <= 700745.47279507935
 c2591: 120 p_0_2 + 120 p_0_3 + 120 p_0_5 + 120 p_0_6 + 120 p_0_7 + 120 p_0_8 + 120 p_0_9 + 100000 z_0_2 + 100000 z_0_3 + 100000 z_0_5 + 100000 z_0_6 + 100000 z_0_7 + 100000 z_0_8 + 100000 z_0_9 <= 700680.76747320371
 c2592: 120 p_0_1 + 120 p_0_2 + 120 p_0_3 + 120 p_0_5 + 120 p_0_6 + 120 p_0_7 + 120 p_0_8 + 120 p_0_9 + 100000 z_0_1 + 100000 z_0_2 + 100000 z_0_3 + 100000 z_0_5 + 100000 z_0_6 + 100000 z_0_7 + 100000 z_0_8 + 100000 z_0_9 <= 800675.41104134882
 c2593: 120 p_0_4 + 120 p_0_5 + 120 p_0_6 + 120 p_0_7 + 120 p_0_8 + 120 p_0_9 + 100000 z_0_4 + 100000 z_0_5 + 100000 z_0_6 + 100000 z_0_7 + 100000 z_0_8 + 100000 z_0_9 <= 600893.79350446863
 c2594: 120 p_0_1 + 120 p_0_4 + 120 p_0_5 + 120 p_0_6 + 120 p_0_7 + 120 p_0_8 + 120 p_0_9 + 100000 z_0_1 + 100000 z_0_4 + 100000 z_0_5 + 100000 z_0_6 + 100000 z_0_7 + 100000 z_0_8 + 100000 z_0_9 <= 700886.70875299349
 c2595: 120 p_0_2 + 120 p_0_4 + 120 p_0_5 + 120 p_0_6 + 120 p_0_7 + 120 p_0_8 + 120 p_0_9 + 100000 z_0_2 + 100000 z_0_4 + 100000 z_0_5 + 100000 z_0_6 + 100000 z_0_7 + 100000 z_0_8 + 100000 z_0_9 <= 700823.73175073822
 c2596: 120 p_0_1 + 120 p_0_2 + 120 p_0_4 + 120 p_0_5 + 120 p_0_6 + 120 p_0_7 + 120 p_0_8 + 120 p_0_9 + 100000 z_0_1 + 100000 z_0_2 + 100000 z_0_4 + 100000 z_0_5 + 100000 z_0_6 + 100000 z_0_7 + 100000 z_0_8 + 100000 z_0_9 <= 800816.64699926309
 c2597: 120 p_0_3 + 120 p_0_4 + 120 p_0_5 + 120 p_0_6 + 120 p_0_7 + 120 p_0_8 + 120 p_0_9 + 100000 z_0_3 + 100000 z_0_4 + 100000 z_0_5 + 100000 z_0_6 + 100000 z_0_7 + 100000 z_0_8 + 100000 z_0_9 <= 700749.6306838413
 c2598: 120 p_0_1 + 120 p_0_3 + 120 p_0_4 + 120 p_0_5 + 120 p_0_6 + 120 p_0_7 + 120 p_0_8 + 120 p_0_9 + 100000 z_0_1 + 100000 z_0_3 + 100000 z_0_4 + 100000 z_0_5 + 100000 z_0_6 + 100000 z_0_7 + 100000 z_0_8 + 100000 z_0_9 <= 800742.54593236616
 c2599: 120 p_0_2 + 120 p_0_3 + 120 p_0_4 + 120 p_0_5 + 120 p_0_6 + 120 p_0_7 + 120 p_0_8 + 120 p_0_9 + 100000 z_0_2 + 100000 z_0_3 + 100000 z_0_4 + 100000 z_0_5 + 100000 z_0_6 + 100000 z_0_7 + 100000 z_0_8 + 100000 z_0_9 <= 800679.56893011089
 c2600: 120 p_0_1 + 120 p_0_2 + 120 p_0_3 + 120 p_0_4 + 120 p_0_5 + 120 p_0_6 + 120 p_0_7 + 120 p_0_8 + 120 p_0_9 + 100000 z_0_1 + 100000 z_0_2 + 100000 z_0_3 + 100000 z_0_4 + 100000 z_0_5 + 100000 z_0_6 + 100000 z_0_7 + 100000 z_0_8 + 100000 z_0_9 <= 900672.48417863564
 c2601: 120 p_0_10 + 100000 z_0_10 <= 101842.97725267388
 c2602: 120 p_0_1 + 120 p_0_10 + 100000 z_0_1 + 100000 z_0_10 <= 201657.73958328512
 c2603: 120 p_0_10 + 120 p_0_2 + 100000 z_0_10 + 100000 z_0_2 <= 201402.7644261675
 c2604: 120 p_0_1 + 120 p_0_10 + 120 p_0_2 + 100000 z_0_1 + 100000 z_0_10 + 100000 z_0_2 <= 301217.52675677871
 c2605: 120 p_0_10 + 120 p_0_3 + 100000 z_0_10 + 100000 z_0_3 <= 201199.98161672137
 c2606: 120 p_0_1 + 120 p_0_10 + 120 p_0_3 + 100000 z_0_1 + 100000 z_0_10 + 100000 z_0_3 <= 301045.93174835353
 c2607: 120 p_0_10 + 120 p_0_2 + 120 p_0_3 + 100000 z_0_10 + 100000 z_0_2 + 100000 z_0_3 <= 300862.74870064133
 c2608: 120 p_0_1 + 120 p_0_10 + 120 p_0_2 + 120 p_0_3 + 100000 z_0_1 + 100000 z_0_10 + 100000 z_0_2 + 100000 z_0_3 <= 400690.23175861686
 c2609: 120 p_0_10 + 120 p_0_4 + 100000 z_0_10 + 100000 z_0_4 <= 201791.92542630367
 c2610: 120 p_0_1 + 120 p_0_10 + 120 p_0_4 + 100000 z_0_1 + 100000 z_0_10 + 100000 z_0_4 <= 301650.85196382861
 c2611: 120 p_0_10 + 120 p_0_2 + 120 p_0_4 + 100000 z_0_10 + 100000 z_0_2 + 100000 z_0_4 <= 301351.71259979729
 c2612: 120 p_0_1 + 120 p_0_10 + 120 p_0_2 + 120 p_0_4 + 100000 z_0_1 + 100000 z_0_10 + 100000 z_0_2 + 100000 z_0_4 <= 401210.6391373222
 c2613: 120 p_0_10 + 120 p_0_3 + 120 p_0_4 + 100000 z_0_10 + 100000 z_0_3 + 100000 z_0_4 <= 301184.25100435782
 c2614: 120 p_0_1 + 120 p_0_10 + 120 p_0_3 + 120 p_0_4 + 100000 z_0_1 + 100000 z_0_10 + 100000 z_0_3 + 100000 z_0_4 <= 401043.17754188273
 c2615: 120 p_0_10 + 120 p_0_2 + 120 p_0_3 + 120 p_0_4 + 100000 z_0_10 + 100000 z_0_2 + 100000 z_0_3 + 100000 z_0_4 <= 400828.55101462116
 c2616: 120 p_0_1 + 120 p_0_10 + 120 p_0_2 + 120 p_0_3 + 120 p_0_4 + 100000 z_0_1 + 100000 z_0_10 + 100000 z_0_2 + 100000 z_0_3 + 100000 z_0_4 <= 500687.47755214613
 c2617: 120 p_0_10 + 120 p_0_5 + 100000 z_0_10 + 100000 z_0_5 <= 201488.25327167549
 c2618: 120 p_0_1 + 120 p_0_10 + 120 p_0_5 + 100000 z_0_1 + 100000 z_0_10 + 100000 z_0_5 <= 301303.01560228673
 c2619: 120 p_0_10 + 120 p_0_2 + 120 p_0_5 + 100000 z_0_10 + 100000 z_0_2 + 100000 z_0_5 <= 301399.71860971523
 c2620: 120 p_0_1 + 120 p_0_10 + 120 p_0_2 + 120 p_0_5 + 100000 z_0_1 + 100000 z_0_10 + 100000 z_0_2 + 100000 z_0_5 <= 401214.48094032647
 c2621: 120 p_0_10 + 120 p_0_3 + 120 p_0_5 + 100000 z_0_10 + 100000 z_0_3 + 100000 z_0_5 <= 300942.18235779682
 c2622: 120 p_0_1 + 120 p_0_10 + 120 p_0_3 + 120 p_0_5 + 100000 z_0_1 + 100000 z_0_10 + 100000 z_0_3 + 100000 z_0_5 <= 400784.92794354056
 c2623: 120 p_0_10 + 120 p_0_2 + 120 p_0_3 + 120 p_0_5 + 100000 z_0_10 + 100000 z_0_2 + 100000 z_0_3 + 100000 z_0_5 <= 400853.64769583661
 c2624: 120 p_0_1 + 120 p_0_10 + 120 p_0_2 + 120 p_0_3 + 120 p_0_5 + 100000 z_0_1 + 100000 z_0_10 + 100000 z_0_2 + 100000 z_0_3 + 100000 z_0_5 <= 500687.18594216462
 c2625: 120 p_0_10 + 120 p_0_4 + 120 p_0_5 + 100000 z_0_10 + 100000 z_0_4 + 100000 z_0_5 <= 301437.20144530525
 c2626: 120 p_0_1 + 120 p_0_10 + 120 p_0_4 + 120 p_0_5 + 100000 z_0_1 + 100000 z_0_10 + 100000 z_0_4 + 100000 z_0_5 <= 401296.12798283022
 c2627: 120 p_0_10 + 120 p_0_2 + 120 p_0_4 + 120 p_0_5 + 100000 z_0_10 + 100000 z_0_2 + 100000 z_0_4 + 100000 z_0_5 <= 401348.66678334499
 c2628: 120 p_0_1 + 120 p_0_10 + 120 p_0_2 + 120 p_0_4 + 120 p_0_5 + 100000 z_0_1 + 100000 z_0_10 + 100000 z_0_2 + 100000 z_0_4 + 100000 z_0_5 <= 501207.59332086996
 c2629: 120 p_0_10 + 120 p_0_3 + 120 p_0_4 + 120 p_0_5 + 100000 z_0_10 + 100000 z_0_3 + 100000 z_0_4 + 100000 z_0_5 <= 400923.24719954486
 c2630: 120 p_0_1 + 120 p_0_10 + 120 p_0_3 + 120 p_0_4 + 120 p_0_5 + 100000 z_0_1 + 100000 z_0_10 + 100000 z_0_3 + 100000 z_0_4 + 100000 z_0_5 <= 500782.17373706982
 c2631: 120 p_0_10 + 120 p_0_2 + 120 p_0_3 + 120 p_0_4 + 120 p_0_5 + 100000 z_0_10 + 100000 z_0_2 + 100000 z_0_3 + 100000 z_0_4 + 100000 z_0_5 <= 500825.50519816892
 c2632: 120 p_0_1 + 120 p_0_10 + 120 p_0_2 + 120 p_0_3 + 120 p_0_4 + 120 p_0_5 + 100000 z_0_1 + 100000 z_0_10 + 100000 z_0_2 + 100000 z_0_3 + 100000 z_0_4 + 100000 z_0_5 <= 600684.43173569383
 c2633: 120 p_0_10 + 120 p_0_6 + 100000 z_0_10 + 100000 z_0_6 <= 201374.97830859458
 c2634: 120 p_0_1 + 120 p_0_10 + 120 p_0_6 + 100000 z_0_1 + 100000 z_0_10 + 100000 z_0_6 <= 301212.90242429136
 c2635: 120 p_0_10 + 120 p_0_2 + 120 p_0_6 + 100000 z_0_10 + 100000 z_0_2 + 100000 z_0_6 <= 301040.27410725411
 c2636: 120 p_0_1 + 120 p_0_10 + 120 p_0_2 + 120 p_0_6 + 100000 z_0_1 + 100000 z_0_10 + 100000 z_0_2 + 100000 z_0_6 <= 400855.03643786535
 c2637: 120 p_0_10 + 120 p_0_3 + 120 p_0_6 + 100000 z_0_10 + 100000 z_0_3 + 100000 z_0_6 <= 301198.29320323671
 c2638: 120 p_0_1 + 120 p_0_10 + 120 p_0_3 + 120 p_0_6 + 100000 z_0_1 + 100000 z_0_10 + 100000 z_0_3 + 100000 z_0_6 <= 401044.24333486881
 c2639: 120 p_0_10 + 120 p_0_2 + 120 p_0_3 + 120 p_0_6 + 100000 z_0_10 + 100000 z_0_2 + 100000 z_0_3 + 100000 z_0_6 <= 400861.06028715667
 c2640: 120 p_0_1 + 120 p_0_10 + 120 p_0_2 + 120 p_0_3 + 120 p_0_6 + 100000 z_0_1 + 100000 z_0_10 + 100000 z_0_2 + 100000 z_0_3 + 100000 z_0_6 <= 500679.63442304631
 c2641: 120 p_0_10 + 120 p_0_4 + 120 p_0_6 + 100000 z_0_10 + 100000 z_0_4 + 100000 z_0_6 <= 301353.39975685359
 c2642: 120 p_0_1 + 120 p_0_10 + 120 p_0_4 + 120 p_0_6 + 100000 z_0_1 + 100000 z_0_10 + 100000 z_0_4 + 100000 z_0_6 <= 401212.32629437849
 c2643: 120 p_0_10 + 120 p_0_2 + 120 p_0_4 + 120 p_0_6 + 100000 z_0_10 + 100000 z_0_2 + 100000 z_0_4 + 100000 z_0_6 <= 400989.22228088387
 c2644: 120 p_0_1 + 120 p_0_10 + 120 p_0_2 + 120 p_0_4 + 120 p_0_6 + 100000 z_0_1 + 100000 z_0_10 + 100000 z_0_2 + 100000 z_0_4 + 100000 z_0_6 <= 500848.14881840884
 c2645: 120 p_0_10 + 120 p_0_3 + 120 p_0_4 + 120 p_0_6 + 100000 z_0_10 + 100000 z_0_3 + 100000 z_0_4 + 100000 z_0_6 <= 401182.5625908731
 c2646: 120 p_0_1 + 120 p_0_10 + 120 p_0_3 + 120 p_0_4 + 120 p_0_6 + 100000 z_0_1 + 100000 z_0_10 + 100000 z_0_3 + 100000 z_0_4 + 100000 z_0_6 <= 501041.48912839807
 c2647: 120 p_0_10 + 120 p_0_2 + 120 p_0_3 + 120 p_0_4 + 120 p_0_6 + 100000 z_0_10 + 100000 z_0_2 + 100000 z_0_3 + 100000 z_0_4 + 100000 z_0_6 <= 500817.95367905061
 c2648: 120 p_0_1 + 120 p_0_10 + 120 p_0_2 + 120 p_0_3 + 120 p_0_4 + 120 p_0_6 + 100000 z_0_1 + 100000 z_0_10 + 100000 z_0_2 + 100000 z_0_3 + 100000 z_0_4 + 100000 z_0_6 <= 600676.88021657558
 c2649: 120 p_0_10 + 120 p_0_5 + 120 p_0_6 + 100000 z_0_10 + 100000 z_0_5 + 100000 z_0_6 <= 301122.63286602421
 c2650: 120 p_0_1 + 120 p_0_10 + 120 p_0_5 + 120 p_0_6 + 100000 z_0_1 + 100000 z_0_10 + 100000 z_0_5 + 100000 z_0_6 <= 400945.91479900712
 c2651: 120 p_0_10 + 120 p_0_2 + 120 p_0_5 + 120 p_0_6 + 100000 z_0_10 + 100000 z_0_2 + 100000 z_0_5 + 100000 z_0_6 <= 401034.09820406395
 c2652: 120 p_0_1 + 120 p_0_10 + 120 p_0_2 + 120 p_0_5 + 120 p_0_6 + 100000 z_0_1 + 100000 z_0_10 + 100000 z_0_2 + 100000 z_0_5 + 100000 z_0_6 <= 500848.86053467519
 c2653: 120 p_0_10 + 120 p_0_3 + 120 p_0_5 + 120 p_0_6 + 100000 z_0_10 + 100000 z_0_3 + 100000 z_0_5 + 100000 z_0_6 <= 400940.49394431215
 c2654: 120 p_0_1 + 120 p_0_10 + 120 p_0_3 + 120 p_0_5 + 120 p_0_6 + 100000 z_0_1 + 100000 z_0_10 + 100000 z_0_3 + 100000 z_0_5 + 100000 z_0_6 <= 500777.25570958457
 c2655: 120 p_0_10 + 120 p_0_2 + 120 p_0_3 + 120 p_0_5 + 120 p_0_6 + 100000 z_0_10 + 100000 z_0_2 + 100000 z_0_3 + 100000 z_0_5 + 100000 z_0_6 <= 500851.95928235189
 c2656: 120 p_0_1 + 120 p_0_10 + 120 p_0_2 + 120 p_0_3 + 120 p_0_5 + 120 p_0_6 + 100000 z_0_1 + 100000 z_0_10 + 100000 z_0_2 + 100000 z_0_3 + 100000 z_0_5 + 100000 z_0_6 <= 600676.58860659401
 c2657: 120 p_0_10 + 120 p_0_4 + 120 p_0_5 + 120 p_0_6 + 100000 z_0_10 + 100000 z_0_4 + 100000 z_0_5 + 100000 z_0_6 <= 401086.41213156929
 c2658: 120 p_0_1 + 120 p_0_10 + 120 p_0_4 + 120 p_0_5 + 120 p_0_6 + 100000 z_0_1 + 100000 z_0_10 + 100000 z_0_4 + 100000 z_0_5 + 100000 z_0_6 <= 500945.33866909426
 c2659: 120 p_0_10 + 120 p_0_2 + 120 p_0_4 + 120 p_0_5 + 120 p_0_6 + 100000 z_0_10 + 100000 z_0_2 + 100000 z_0_4 + 100000 z_0_5 + 100000 z_0_6 <= 500985.74502857879
 c2660: 120 p_0_1 + 120 p_0_10 + 120 p_0_2 + 120 p_0_4 + 120 p_0_5 + 120 p_0_6 + 100000 z_0_1 + 100000 z_0_10 + 100000 z_0_2 + 100000 z_0_4 + 100000 z_0_5 + 100000 z_0_6 <= 600844.6715661037
 c2661: 120 p_0_10 + 120 p_0_3 + 120 p_0_4 + 120 p_0_5 + 120 p_0_6 + 100000 z_0_10 + 100000 z_0_3 + 100000 z_0_4 + 100000 z_0_5 + 100000 z_0_6 <= 500915.57496558886
 c2662: 120 p_0_1 + 120 p_0_10 + 120 p_0_3 + 120 p_0_4 + 120 p_0_5 + 120 p_0_6 + 100000 z_0_1 + 100000 z_0_10 + 100000 z_0_3 + 100000 z_0_4 + 100000 z_0_5 + 100000 z_0_6 <= 600774.50150311377
 c2663: 120 p_0_10 + 120 p_0_2 + 120 p_0_3 + 120 p_0_4 + 120 p_0_5 + 120 p_0_6 + 100000 z_0_10 + 100000 z_0_2 + 100000 z_0_3 + 100000 z_0_4 + 100000 z_0_5 + 100000 z_0_6 <= 600814.90786259831
 c2664: 120 p_0_1 + 120 p_0_10 + 120 p_0_2 + 120 p_0_3 + 120 p_0_4 + 120 p_0_5 + 120 p_0_6 + 100000 z_0_1 + 100000 z_0_10 + 100000 z_0_2 + 100000 z_0_3 + 100000 z_0_4 + 100000 z_0_5 + 100000 z_0_6 <= 700673.83440012333
 c2665: 120 p_0_10 + 120 p_0_7 + 100000 z_0_10 + 100000 z_0_7 <= 201657.40909180601
 c2666: 120 p_0_1 + 120 p_0_10 + 120 p_0_7 + 100000 z_0_1 + 100000 z_0_10 + 100000 z_0_7 <= 301646.52625015174
 c2667: 120 p_0_10 + 120 p_0_2 + 120 p_0_7 + 100000 z_0_10 + 100000 z_0_2 + 100000 z_0_7 <= 301217.19626529963
 c2668: 120 p_0_1 + 120 p_0_10 + 120 p_0_2 + 120 p_0_7 + 100000 z_0_1 + 100000 z_0_10 + 100000 z_0_2 + 100000 z_0_7 <= 401206.31342364533
 c2669: 120 p_0_10 + 120 p_0_3 + 120 p_0_7 + 100000 z_0_10 + 100000 z_0_3 + 100000 z_0_7 <= 301040.09560966131
 c2670: 120 p_0_1 + 120 p_0_10 + 120 p_0_3 + 120 p_0_7 + 100000 z_0_1 + 100000 z_0_10 + 100000 z_0_3 + 100000 z_0_7 <= 401034.71841522009
 c2671: 120 p_0_10 + 120 p_0_2 + 120 p_0_3 + 120 p_0_7 + 100000 z_0_10 + 100000 z_0_2 + 100000 z_0_3 + 100000 z_0_7 <= 400684.39561992465
 c2672: 120 p_0_1 + 120 p_0_10 + 120 p_0_2 + 120 p_0_3 + 120 p_0_7 + 100000 z_0_1 + 100000 z_0_10 + 100000 z_0_2 + 100000 z_0_3 + 100000 z_0_7 <= 500679.01842548343
 c2673: 120 p_0_10 + 120 p_0_4 + 120 p_0_7 + 100000 z_0_10 + 100000 z_0_4 + 100000 z_0_7 <= 301646.72338217043
 c2674: 120 p_0_1 + 120 p_0_10 + 120 p_0_4 + 120 p_0_7 + 100000 z_0_1 + 100000 z_0_10 + 100000 z_0_4 + 100000 z_0_7 <= 401639.63863069523
 c2675: 120 p_0_10 + 120 p_0_2 + 120 p_0_4 + 120 p_0_7 + 100000 z_0_10 + 100000 z_0_2 + 100000 z_0_4 + 100000 z_0_7 <= 401206.51055566402
 c2676: 120 p_0_1 + 120 p_0_10 + 120 p_0_2 + 120 p_0_4 + 120 p_0_7 + 100000 z_0_1 + 100000 z_0_10 + 100000 z_0_2 + 100000 z_0_4 + 100000 z_0_7 <= 501199.42580418882
 c2677: 120 p_0_10 + 120 p_0_3 + 120 p_0_4 + 120 p_0_7 + 100000 z_0_10 + 100000 z_0_3 + 100000 z_0_4 + 100000 z_0_7 <= 401039.04896022461
 c2678: 120 p_0_1 + 120 p_0_10 + 120 p_0_3 + 120 p_0_4 + 120 p_0_7 + 100000 z_0_1 + 100000 z_0_10 + 100000 z_0_3 + 100000 z_0_4 + 100000 z_0_7 <= 501031.96420874936
 c2679: 120 p_0_10 + 120 p_0_2 + 120 p_0_3 + 120 p_0_4 + 120 p_0_7 + 100000 z_0_10 + 100000 z_0_2 + 100000 z_0_3 + 100000 z_0_4 + 100000 z_0_7 <= 500683.34897048795
 c2680: 120 p_0_1 + 120 p_0_10 + 120 p_0_2 + 120 p_0_3 + 120 p_0_4 + 120 p_0_7 + 100000 z_0_1 + 100000 z_0_10 + 100000 z_0_2 + 100000 z_0_3 + 100000 z_0_4 + 100000 z_0_7 <= 600676.26421901269
 c2681: 120 p_0_10 + 120 p_0_5 + 120 p_0_7 + 100000 z_0_10 + 100000 z_0_5 + 100000 z_0_7 <= 301302.68511080765
 c2682: 120 p_0_1 + 120 p_0_10 + 120 p_0_5 + 120 p_0_7 + 100000 z_0_1 + 100000 z_0_10 + 100000 z_0_5 + 100000 z_0_7 <= 401291.80226915336
 c2683: 120 p_0_10 + 120 p_0_2 + 120 p_0_5 + 120 p_0_7 + 100000 z_0_10 + 100000 z_0_2 + 100000 z_0_5 + 100000 z_0_7 <= 401214.15044884739
 c2684: 120 p_0_1 + 120 p_0_10 + 120 p_0_2 + 120 p_0_5 + 120 p_0_7 + 100000 z_0_1 + 100000 z_0_10 + 100000 z_0_2 + 100000 z_0_5 + 100000 z_0_7 <= 501203.26760719309
 c2685: 120 p_0_10 + 120 p_0_3 + 120 p_0_5 + 120 p_0_7 + 100000 z_0_10 + 100000 z_0_3 + 100000 z_0_5 + 100000 z_0_7 <= 400779.09180484834
 c2686: 120 p_0_1 + 120 p_0_10 + 120 p_0_3 + 120 p_0_5 + 120 p_0_7 + 100000 z_0_1 + 100000 z_0_10 + 100000 z_0_3 + 100000 z_0_5 + 100000 z_0_7 <= 500773.71461040719
 c2687: 120 p_0_10 + 120 p_0_2 + 120 p_0_3 + 120 p_0_5 + 120 p_0_7 + 100000 z_0_10 + 100000 z_0_2 + 100000 z_0_3 + 100000 z_0_5 + 100000 z_0_7 <= 500681.3498034724
 c2688: 120 p_0_1 + 120 p_0_10 + 120 p_0_2 + 120 p_0_3 + 120 p_0_5 + 120 p_0_7 + 100000 z_0_1 + 100000 z_0_10 + 100000 z_0_2 + 100000 z_0_3 + 100000 z_0_5 + 100000 z_0_7 <= 600675.97260903125
 c2689: 120 p_0_10 + 120 p_0_4 + 120 p_0_5 + 120 p_0_7 + 100000 z_0_10 + 100000 z_0_4 + 100000 z_0_5 + 100000 z_0_7 <= 401291.99940117204
 c2690: 120 p_0_1 + 120 p_0_10 + 120 p_0_4 + 120 p_0_5 + 120 p_0_7 + 100000 z_0_1 + 100000 z_0_10 + 100000 z_0_4 + 100000 z_0_5 + 100000 z_0_7 <= 501284.91464969685
 c2691: 120 p_0_10 + 120 p_0_2 + 120 p_0_4 + 120 p_0_5 + 120 p_0_7 + 100000 z_0_10 + 100000 z_0_2 + 100000 z_0_4 + 100000 z_0_5 + 100000 z_0_7 <= 501203.46473921178
 c2692: 120 p_0_1 + 120 p_0_10 + 120 p_0_2 + 120 p_0_4 + 120 p_0_5 + 120 p_0_7 + 100000 z_0_1 + 100000 z_0_10 + 100000 z_0_2 + 100000 z_0_4 + 100000 z_0_5 + 100000 z_0_7 <= 601196.37998773658
 c2693: 120 p_0_10 + 120 p_0_3 + 120 p_0_4 + 120 p_0_5 + 120 p_0_7 + 100000 z_0_10 + 100000 z_0_3 + 100000 z_0_4 + 100000 z_0_5 + 100000 z_0_7 <= 500778.04515541164
 c2694: 120 p_0_1 + 120 p_0_10 + 120 p_0_3 + 120 p_0_4 + 120 p_0_5 + 120 p_0_7 + 100000 z_0_1 + 100000 z_0_10 + 100000 z_0_3 + 100000 z_0_4 + 100000 z_0_5 + 100000 z_0_7 <= 600770.96040393645
 c2695: 120 p_0_10 + 120 p_0_2 + 120 p_0_3 + 120 p_0_4 + 120 p_0_5 + 120 p_0_7 + 100000 z_0_10 + 100000 z_0_2 + 100000 z_0_3 + 100000 z_0_4 + 100000 z_0_5 + 100000 z_0_7 <= 600680.3031540357
 c2696: 120 p_0_1 + 120 p_0_10 + 120 p_0_2 + 120 p_0_3 + 120 p_0_4 + 120 p_0_5 + 120 p_0_7 + 100000 z_0_1 + 100000 z_0_10 + 100000 z_0_2 + 100000 z_0_3 + 100000 z_0_4 + 100000 z_0_5 + 100000 z_0_7 <= 700673.21840256045
 c2697: 120 p_0_10 + 120 p_0_6 + 120 p_0_7 + 100000 z_0_10 + 100000 z_0_6 + 100000 z_0_7 <= 301208.21072848857
 c2698: 120 p_0_1 + 120 p_0_10 + 120 p_0_6 + 120 p_0_7 + 100000 z_0_1 + 100000 z_0_10 + 100000 z_0_6 + 100000 z_0_7 <= 401201.68909115798
 c2699: 120 p_0_10 + 120 p_0_2 + 120 p_0_6 + 120 p_0_7 + 100000 z_0_10 + 100000 z_0_2 + 100000 z_0_6 + 100000 z_0_7 <= 400854.70594638621
 c2700: 120 p_0_1 + 120 p_0_10 + 120 p_0_2 + 120 p_0_6 + 120 p_0_7 + 100000 z_0_1 + 100000 z_0_10 + 100000 z_0_2 + 100000 z_0_6 + 100000 z_0_7 <= 500843.82310473191
 c2701: 120 p_0_10 + 120 p_0_3 + 120 p_0_6 + 120 p_0_7 + 100000 z_0_10 + 100000 z_0_3 + 100000 z_0_6 + 100000 z_0_7 <= 401038.40719617665
 c2702: 120 p_0_1 + 120 p_0_10 + 120 p_0_3 + 120 p_0_6 + 120 p_0_7 + 100000 z_0_1 + 100000 z_0_10 + 100000 z_0_3 + 100000 z_0_6 + 100000 z_0_7 <= 501033.03000173543
 c2703: 120 p_0_10 + 120 p_0_2 + 120 p_0_3 + 120 p_0_6 + 120 p_0_7 + 100000 z_0_10 + 100000 z_0_2 + 100000 z_0_3 + 100000 z_0_6 + 100000 z_0_7 <= 500675.49212628877
 c2704: 120 p_0_1 + 120 p_0_10 + 120 p_0_2 + 120 p_0_3 + 120 p_0_6 + 120 p_0_7 + 100000 z_0_1 + 100000 z_0_10 + 100000 z_0_2 + 100000 z_0_3 + 100000 z_0_6 + 100000 z_0_7 <= 600668.42108991288
 c2705: 120 p_0_10 + 120 p_0_4 + 120 p_0_6 + 120 p_0_7 + 100000 z_0_10 + 100000 z_0_4 + 100000 z_0_6 + 100000 z_0_7 <= 401208.19771272037
 c2706: 120 p_0_1 + 120 p_0_10 + 120 p_0_4 + 120 p_0_6 + 120 p_0_7 + 100000 z_0_1 + 100000 z_0_10 + 100000 z_0_4 + 100000 z_0_6 + 100000 z_0_7 <= 501201.11296124512
 c2707: 120 p_0_10 + 120 p_0_2 + 120 p_0_4 + 120 p_0_6 + 120 p_0_7 + 100000 z_0_10 + 100000 z_0_2 + 100000 z_0_4 + 100000 z_0_6 + 100000 z_0_7 <= 500844.02023675066
 c2708: 120 p_0_1 + 120 p_0_10 + 120 p_0_2 + 120 p_0_4 + 120 p_0_6 + 120 p_0_7 + 100000 z_0_1 + 100000 z_0_10 + 100000 z_0_2 + 100000 z_0_4 + 100000 z_0_6 + 100000 z_0_7 <= 600836.93548527546
 c2709: 120 p_0_10 + 120 p_0_3 + 120 p_0_4 + 120 p_0_6 + 120 p_0_7 + 100000 z_0_10 + 100000 z_0_3 + 100000 z_0_4 + 100000 z_0_6 + 100000 z_0_7 <= 501037.36054673989
 c2710: 120 p_0_1 + 120 p_0_10 + 120 p_0_3 + 120 p_0_4 + 120 p_0_6 + 120 p_0_7 + 100000 z_0_1 + 100000 z_0_10 + 100000 z_0_3 + 100000 z_0_4 + 100000 z_0_6 + 100000 z_0_7 <= 601030.27579526464
 c2711: 120 p_0_10 + 120 p_0_2 + 120 p_0_3 + 120 p_0_4 + 120 p_0_6 + 120 p_0_7 + 100000 z_0_10 + 100000 z_0_2 + 100000 z_0_3 + 100000 z_0_4 + 100000 z_0_6 + 100000 z_0_7 <= 600672.75163491734
 c2712: 120 p_0_1 + 120 p_0_10 + 120 p_0_2 + 120 p_0_3 + 120 p_0_4 + 120 p_0_6 + 120 p_0_7 + 100000 z_0_1 + 100000 z_0_10 + 100000 z_0_2 + 100000 z_0_3 + 100000 z_0_4 + 100000 z_0_6 + 100000 z_0_7 <= 700665.6668834422
 c2713: 120 p_0_10 + 120 p_0_5 + 120 p_0_6 + 120 p_0_7 + 100000 z_0_10 + 100000 z_0_5 + 100000 z_0_6 + 100000 z_0_7 <= 400941.22310320428
 c2714: 120 p_0_1 + 120 p_0_10 + 120 p_0_5 + 120 p_0_6 + 120 p_0_7 + 100000 z_0_1 + 100000 z_0_10 + 100000 z_0_5 + 100000 z_0_6 + 100000 z_0_7 <= 500934.70146587369
 c2715: 120 p_0_10 + 120 p_0_2 + 120 p_0_5 + 120 p_0_6 + 120 p_0_7 + 100000 z_0_10 + 100000 z_0_2 + 100000 z_0_5 + 100000 z_0_6 + 100000 z_0_7 <= 500848.53004319605
 c2716: 120 p_0_1 + 120 p_0_10 + 120 p_0_2 + 120 p_0_5 + 120 p_0_6 + 120 p_0_7 + 100000 z_0_1 + 100000 z_0_10 + 100000 z_0_2 + 100000 z_0_5 + 100000 z_0_6 + 100000 z_0_7 <= 600837.64720154181
 c2717: 120 p_0_10 + 120 p_0_3 + 120 p_0_5 + 120 p_0_6 + 120 p_0_7 + 100000 z_0_10 + 100000 z_0_3 + 100000 z_0_5 + 100000 z_0_6 + 100000 z_0_7 <= 500771.41957089235
 c2718: 120 p_0_1 + 120 p_0_10 + 120 p_0_3 + 120 p_0_5 + 120 p_0_6 + 120 p_0_7 + 100000 z_0_1 + 100000 z_0_10 + 100000 z_0_3 + 100000 z_0_5 + 100000 z_0_6 + 100000 z_0_7 <= 600766.04237645119
 c2719: 120 p_0_10 + 120 p_0_2 + 120 p_0_3 + 120 p_0_5 + 120 p_0_6 + 120 p_0_7 + 100000 z_0_10 + 100000 z_0_2 + 100000 z_0_3 + 100000 z_0_5 + 100000 z_0_6 + 100000 z_0_7 <= 600670.7524679018
 c2720: 120 p_0_1 + 120 p_0_10 + 120 p_0_2 + 120 p_0_3 + 120 p_0_5 + 120 p_0_6 + 120 p_0_7 + 100000 z_0_1 + 100000 z_0_10 + 100000 z_0_2 + 100000 z_0_3 + 100000 z_0_5 + 100000 z_0_6 + 100000 z_0_7 <= 700665.37527346064
 c2721: 120 p_0_10 + 120 p_0_4 + 120 p_0_5 + 120 p_0_6 + 120 p_0_7 + 100000 z_0_10 + 100000 z_0_4 + 100000 z_0_5 + 100000 z_0_6 + 100000 z_0_7 <= 500941.21008743608
 c2722: 120 p_0_1 + 120 p_0_10 + 120 p_0_4 + 120 p_0_5 + 120 p_0_6 + 120 p_0_7 + 100000 z_0_1 + 100000 z_0_10 + 100000 z_0_4 + 100000 z_0_5 + 100000 z_0_6 + 100000 z_0_7 <= 600934.12533596088
 c2723: 120 p_0_10 + 120 p_0_2 + 120 p_0_4 + 120 p_0_5 + 120 p_0_6 + 120 p_0_7 + 100000 z_0_10 + 100000 z_0_2 + 100000 z_0_4 + 100000 z_0_5 + 100000 z_0_6 + 100000 z_0_7 <= 600840.54298444558
 c2724: 120 p_0_1 + 120 p_0_10 + 120 p_0_2 + 120 p_0_4 + 120 p_0_5 + 120 p_0_6 + 120 p_0_7 + 100000 z_0_1 + 100000 z_0_10 + 100000 z_0_2 + 100000 z_0_4 + 100000 z_0_5 + 100000 z_0_6 + 100000 z_0_7 <= 700833.45823297033
 c2725: 120 p_0_10 + 120 p_0_3 + 120 p_0_4 + 120 p_0_5 + 120 p_0_6 + 120 p_0_7 + 100000 z_0_10 + 100000 z_0_3 + 100000 z_0_4 + 100000 z_0_5 + 100000 z_0_6 + 100000 z_0_7 <= 600770.37292145565
 c2726: 120 p_0_1 + 120 p_0_10 + 120 p_0_3 + 120 p_0_4 + 120 p_0_5 + 120 p_0_6 + 120 p_0_7 + 100000 z_0_1 + 100000 z_0_10 + 100000 z_0_3 + 100000 z_0_4 + 100000 z_0_5 + 100000 z_0_6 + 100000 z_0_7 <= 700763.2881699804
 c2727: 120 p_0_10 + 120 p_0_2 + 120 p_0_3 + 120 p_0_4 + 120 p_0_5 + 120 p_0_6 + 120 p_0_7 + 100000 z_0_10 + 100000 z_0_2 + 100000 z_0_3 + 100000 z_0_4 + 100000 z_0_5 + 100000 z_0_6 + 100000 z_0_7 <= 700669.7058184651
 c2728: 120 p_0_1 + 120 p_0_10 + 120 p_0_2 + 120 p_0_3 + 120 p_0_4 + 120 p_0_5 + 120 p_0_6 + 120 p_0_7 + 100000 z_0_1 + 100000 z_0_10 + 100000 z_0_2 + 100000 z_0_3 + 100000 z_0_4 + 100000 z_0_5 + 100000 z_0_6 + 100000 z_0_7 <= 800662.62106698996
 c2729: 120 p_0_10 + 120 p_0_8 + 100000 z_0_10 + 100000 z_0_8 <= 201432.96188910143
 c2730: 120 p_0_1 + 120 p_0_10 + 120 p_0_8 + 100000 z_0_1 + 100000 z_0_10 + 100000 z_0_8 <= 301247.72421971266
 c2731: 120 p_0_10 + 120 p_0_2 + 120 p_0_8 + 100000 z_0_10 + 100000 z_0_2 + 100000 z_0_8 <= 301380.66849762708
 c2732: 120 p_0_1 + 120 p_0_10 + 120 p_0_2 + 120 p_0_8 + 100000 z_0_1 + 100000 z_0_10 + 100000 z_0_2 + 100000 z_0_8 <= 401195.43082823831
 c2733: 120 p_0_10 + 120 p_0_3 + 120 p_0_8 + 100000 z_0_10 + 100000 z_0_3 + 100000 z_0_8 <= 300917.83224740188
 c2734: 120 p_0_1 + 120 p_0_10 + 120 p_0_3 + 120 p_0_8 + 100000 z_0_1 + 100000 z_0_10 + 100000 z_0_3 + 100000 z_0_8 <= 400763.78237903403
 c2735: 120 p_0_10 + 120 p_0_2 + 120 p_0_3 + 120 p_0_8 + 100000 z_0_10 + 100000 z_0_2 + 100000 z_0_3 + 100000 z_0_8 <= 400862.65440598427
 c2736: 120 p_0_1 + 120 p_0_10 + 120 p_0_2 + 120 p_0_3 + 120 p_0_8 + 100000 z_0_1 + 100000 z_0_10 + 100000 z_0_2 + 100000 z_0_3 + 100000 z_0_8 <= 500690.13746395981
 c2737: 120 p_0_10 + 120 p_0_4 + 120 p_0_8 + 100000 z_0_10 + 100000 z_0_4 + 100000 z_0_8 <= 301381.91006273119
 c2738: 120 p_0_1 + 120 p_0_10 + 120 p_0_4 + 120 p_0_8 + 100000 z_0_1 + 100000 z_0_10 + 100000 z_0_4 + 100000 z_0_8 <= 401240.83660025615
 c2739: 120 p_0_10 + 120 p_0_2 + 120 p_0_4 + 120 p_0_8 + 100000 z_0_10 + 100000 z_0_2 + 100000 z_0_4 + 100000 z_0_8 <= 401329.61667125684
 c2740: 120 p_0_1 + 120 p_0_10 + 120 p_0_2 + 120 p_0_4 + 120 p_0_8 + 100000 z_0_1 + 100000 z_0_10 + 100000 z_0_2 + 100000 z_0_4 + 100000 z_0_8 <= 501188.5432087818
 c2741: 120 p_0_10 + 120 p_0_3 + 120 p_0_4 + 120 p_0_8 + 100000 z_0_10 + 100000 z_0_3 + 100000 z_0_4 + 100000 z_0_8 <= 400902.10163503833
 c2742: 120 p_0_1 + 120 p_0_10 + 120 p_0_3 + 120 p_0_4 + 120 p_0_8 + 100000 z_0_1 + 100000 z_0_10 + 100000 z_0_3 + 100000 z_0_4 + 100000 z_0_8 <= 500761.0281725633
 c2743: 120 p_0_10 + 120 p_0_2 + 120 p_0_3 + 120 p_0_4 + 120 p_0_8 + 100000 z_0_10 + 100000 z_0_2 + 100000 z_0_3 + 100000 z_0_4 + 100000 z_0_8 <= 500828.4567199641
 c2744: 120 p_0_1 + 120 p_0_10 + 120 p_0_2 + 120 p_0_3 + 120 p_0_4 + 120 p_0_8 + 100000 z_0_1 + 100000 z_0_10 + 100000 z_0_2 + 100000 z_0_3 + 100000 z_0_4 + 100000 z_0_8 <= 600687.38325748907
 c2745: 120 p_0_10 + 120 p_0_5 + 120 p_0_8 + 100000 z_0_10 + 100000 z_0_5 + 100000 z_0_8 <= 301432.42190713703
 c2746: 120 p_0_1 + 120 p_0_10 + 120 p_0_5 + 120 p_0_8 + 100000 z_0_1 + 100000 z_0_10 + 100000 z_0_5 + 100000 z_0_8 <= 401247.18423774827
 c2747: 120 p_0_10 + 120 p_0_2 + 120 p_0_5 + 120 p_0_8 + 100000 z_0_10 + 100000 z_0_2 + 100000 z_0_5 + 100000 z_0_8 <= 401374.03951983101
 c2748: 120 p_0_1 + 120 p_0_10 + 120 p_0_2 + 120 p_0_5 + 120 p_0_8 + 100000 z_0_1 + 100000 z_0_10 + 100000 z_0_2 + 100000 z_0_5 + 100000 z_0_8 <= 501188.80185044225
 c2749: 120 p_0_10 + 120 p_0_3 + 120 p_0_5 + 120 p_0_8 + 100000 z_0_10 + 100000 z_0_3 + 100000 z_0_5 + 100000 z_0_8 <= 400914.40781549428
 c2750: 120 p_0_1 + 120 p_0_10 + 120 p_0_3 + 120 p_0_5 + 120 p_0_8 + 100000 z_0_1 + 100000 z_0_10 + 100000 z_0_3 + 100000 z_0_5 + 100000 z_0_8 <= 500757.15340123797
 c2751: 120 p_0_10 + 120 p_0_2 + 120 p_0_3 + 120 p_0_5 + 120 p_0_8 + 100000 z_0_10 + 100000 z_0_2 + 100000 z_0_3 + 100000 z_0_5 + 100000 z_0_8 <= 500844.34606176382
 c2752: 120 p_0_1 + 120 p_0_10 + 120 p_0_2 + 120 p_0_3 + 120 p_0_5 + 120 p_0_8 + 100000 z_0_1 + 100000 z_0_10 + 100000 z_0_2 + 100000 z_0_3 + 100000 z_0_5 + 100000 z_0_8 <= 600687.09164750751
 c2753: 120 p_0_10 + 120 p_0_4 + 120 p_0_5 + 120 p_0_8 + 100000 z_0_10 + 100000 z_0_4 + 100000 z_0_5 + 100000 z_0_8 <= 401381.37008076685
 c2754: 120 p_0_1 + 120 p_0_10 + 120 p_0_4 + 120 p_0_5 + 120 p_0_8 + 100000 z_0_1 + 100000 z_0_10 + 100000 z_0_4 + 100000 z_0_5 + 100000 z_0_8 <= 501240.29661829176
 c2755: 120 p_0_10 + 120 p_0_2 + 120 p_0_4 + 120 p_0_5 + 120 p_0_8 + 100000 z_0_10 + 100000 z_0_2 + 100000 z_0_4 + 100000 z_0_5 + 100000 z_0_8 <= 501322.98769346077
 c2756: 120 p_0_1 + 120 p_0_10 + 120 p_0_2 + 120 p_0_4 + 120 p_0_5 + 120 p_0_8 + 100000 z_0_1 + 100000 z_0_10 + 100000 z_0_2 + 100000 z_0_4 + 100000 z_0_5 + 100000 z_0_8 <= 601181.9142309858
 c2757: 120 p_0_10 + 120 p_0_3 + 120 p_0_4 + 120 p_0_5 + 120 p_0_8 + 100000 z_0_10 + 100000 z_0_3 + 100000 z_0_4 + 100000 z_0_5 + 100000 z_0_8 <= 500895.47265724227
 c2758: 120 p_0_1 + 120 p_0_10 + 120 p_0_3 + 120 p_0_4 + 120 p_0_5 + 120 p_0_8 + 100000 z_0_1 + 100000 z_0_10 + 100000 z_0_3 + 100000 z_0_4 + 100000 z_0_5 + 100000 z_0_8 <= 600754.39919476723
 c2759: 120 p_0_10 + 120 p_0_2 + 120 p_0_3 + 120 p_0_4 + 120 p_0_5 + 120 p_0_8 + 100000 z_0_10 + 100000 z_0_2 + 100000 z_0_3 + 100000 z_0_4 + 100000 z_0_5 + 100000 z_0_8 <= 600825.41090351192
 c2760: 120 p_0_1 + 120 p_0_10 + 120 p_0_2 + 120 p_0_3 + 120 p_0_4 + 120 p_0_5 + 120 p_0_8 + 100000 z_0_1 + 100000 z_0_10 + 100000 z_0_2 + 100000 z_0_3 + 100000 z_0_4 + 100000 z_0_5 + 100000 z_0_8 <= 700684.33744103683
 c2761: 120 p_0_10 + 120 p_0_6 + 120 p_0_8 + 100000 z_0_10 + 100000 z_0_6 + 100000 z_0_8 <= 301091.79794672545
 c2762: 120 p_0_1 + 120 p_0_10 + 120 p_0_6 + 120 p_0_8 + 100000 z_0_1 + 100000 z_0_10 + 100000 z_0_6 + 100000 z_0_8 <= 400921.16887554002
 c2763: 120 p_0_10 + 120 p_0_2 + 120 p_0_6 + 120 p_0_8 + 100000 z_0_10 + 100000 z_0_2 + 100000 z_0_6 + 100000 z_0_8 <= 401039.5045552511
 c2764: 120 p_0_1 + 120 p_0_10 + 120 p_0_2 + 120 p_0_6 + 120 p_0_8 + 100000 z_0_1 + 100000 z_0_10 + 100000 z_0_2 + 100000 z_0_6 + 100000 z_0_8 <= 500854.26688586234
 c2765: 120 p_0_10 + 120 p_0_3 + 120 p_0_6 + 120 p_0_8 + 100000 z_0_10 + 100000 z_0_3 + 100000 z_0_6 + 100000 z_0_8 <= 400913.25938397396
 c2766: 120 p_0_1 + 120 p_0_10 + 120 p_0_3 + 120 p_0_6 + 120 p_0_8 + 100000 z_0_1 + 100000 z_0_10 + 100000 z_0_3 + 100000 z_0_6 + 100000 z_0_8 <= 500752.50978611747
 c2767: 120 p_0_10 + 120 p_0_2 + 120 p_0_3 + 120 p_0_6 + 120 p_0_8 + 100000 z_0_10 + 100000 z_0_2 + 100000 z_0_3 + 100000 z_0_6 + 100000 z_0_8 <= 500860.96599249961
 c2768: 120 p_0_1 + 120 p_0_10 + 120 p_0_2 + 120 p_0_3 + 120 p_0_6 + 120 p_0_8 + 100000 z_0_1 + 100000 z_0_10 + 100000 z_0_2 + 100000 z_0_3 + 100000 z_0_6 + 100000 z_0_8 <= 600678.86487104325
 c2769: 120 p_0_10 + 120 p_0_4 + 120 p_0_6 + 120 p_0_8 + 100000 z_0_10 + 100000 z_0_4 + 100000 z_0_6 + 100000 z_0_8 <= 401061.66620810225
 c2770: 120 p_0_1 + 120 p_0_10 + 120 p_0_4 + 120 p_0_6 + 120 p_0_8 + 100000 z_0_1 + 100000 z_0_10 + 100000 z_0_4 + 100000 z_0_6 + 100000 z_0_8 <= 500920.59274562722
 c2771: 120 p_0_10 + 120 p_0_2 + 120 p_0_4 + 120 p_0_6 + 120 p_0_8 + 100000 z_0_10 + 100000 z_0_2 + 100000 z_0_4 + 100000 z_0_6 + 100000 z_0_8 <= 500988.45272888086
 c2772: 120 p_0_1 + 120 p_0_10 + 120 p_0_2 + 120 p_0_4 + 120 p_0_6 + 120 p_0_8 + 100000 z_0_1 + 100000 z_0_10 + 100000 z_0_2 + 100000 z_0_4 + 100000 z_0_6 + 100000 z_0_8 <= 600847.37926640583
 c2773: 120 p_0_10 + 120 p_0_3 + 120 p_0_4 + 120 p_0_6 + 120 p_0_8 + 100000 z_0_10 + 100000 z_0_3 + 100000 z_0_4 + 100000 z_0_6 + 100000 z_0_8 <= 500890.82904212177
 c2774: 120 p_0_1 + 120 p_0_10 + 120 p_0_3 + 120 p_0_4 + 120 p_0_6 + 120 p_0_8 + 100000 z_0_1 + 100000 z_0_10 + 100000 z_0_3 + 100000 z_0_4 + 100000 z_0_6 + 100000 z_0_8 <= 600749.75557964679
 c2775: 120 p_0_10 + 120 p_0_2 + 120 p_0_3 + 120 p_0_4 + 120 p_0_6 + 120 p_0_8 + 100000 z_0_10 + 100000 z_0_2 + 100000 z_0_3 + 100000 z_0_4 + 100000 z_0_6 + 100000 z_0_8 <= 600817.18412704754
 c2776: 120 p_0_1 + 120 p_0_10 + 120 p_0_2 + 120 p_0_3 + 120 p_0_4 + 120 p_0_6 + 120 p_0_8 + 100000 z_0_1 + 100000 z_0_10 + 100000 z_0_2 + 100000 z_0_3 + 100000 z_0_4 + 100000 z_0_6 + 100000 z_0_8 <= 700676.11066457257
 c2777: 120 p_0_10 + 120 p_0_5 + 120 p_0_6 + 120 p_0_8 + 100000 z_0_10 + 100000 z_0_5 + 100000 z_0_6 + 100000 z_0_8 <= 401091.25796476105
 c2778: 120 p_0_1 + 120 p_0_10 + 120 p_0_5 + 120 p_0_6 + 120 p_0_8 + 100000 z_0_1 + 100000 z_0_10 + 100000 z_0_5 + 100000 z_0_6 + 100000 z_0_8 <= 500914.53989774396
 c2779: 120 p_0_10 + 120 p_0_2 + 120 p_0_5 + 120 p_0_6 + 120 p_0_8 + 100000 z_0_10 + 100000 z_0_2 + 100000 z_0_5 + 100000 z_0_6 + 100000 z_0_8 <= 501021.19621103065
 c2780: 120 p_0_1 + 120 p_0_10 + 120 p_0_2 + 120 p_0_5 + 120 p_0_6 + 120 p_0_8 + 100000 z_0_1 + 100000 z_0_10 + 100000 z_0_2 + 100000 z_0_5 + 100000 z_0_6 + 100000 z_0_8 <= 600844.47814401356
 c2781: 120 p_0_10 + 120 p_0_3 + 120 p_0_5 + 120 p_0_6 + 120 p_0_8 + 100000 z_0_10 + 100000 z_0_3 + 100000 z_0_5 + 100000 z_0_6 + 100000 z_0_8 <= 500912.71940200956
 c2782: 120 p_0_1 + 120 p_0_10 + 120 p_0_3 + 120 p_0_5 + 120 p_0_6 + 120 p_0_8 + 100000 z_0_1 + 100000 z_0_10 + 100000 z_0_3 + 100000 z_0_5 + 100000 z_0_6 + 100000 z_0_8 <= 600745.88080832141
 c2783: 120 p_0_10 + 120 p_0_2 + 120 p_0_3 + 120 p_0_5 + 120 p_0_6 + 120 p_0_8 + 100000 z_0_10 + 100000 z_0_2 + 100000 z_0_3 + 100000 z_0_5 + 100000 z_0_6 + 100000 z_0_8 <= 600842.65764827922
 c2784: 120 p_0_1 + 120 p_0_10 + 120 p_0_2 + 120 p_0_3 + 120 p_0_5 + 120 p_0_6 + 120 p_0_8 + 100000 z_0_1 + 100000 z_0_10 + 100000 z_0_2 + 100000 z_0_3 + 100000 z_0_5 + 100000 z_0_6 + 100000 z_0_8 <= 700675.819054591
 c2785: 120 p_0_10 + 120 p_0_4 + 120 p_0_5 + 120 p_0_6 + 120 p_0_8 + 100000 z_0_10 + 100000 z_0_4 + 100000 z_0_5 + 100000 z_0_6 + 100000 z_0_8 <= 501055.03723030619
 c2786: 120 p_0_1 + 120 p_0_10 + 120 p_0_4 + 120 p_0_5 + 120 p_0_6 + 120 p_0_8 + 100000 z_0_1 + 100000 z_0_10 + 100000 z_0_4 + 100000 z_0_5 + 100000 z_0_6 + 100000 z_0_8 <= 600913.9637678311
 c2787: 120 p_0_10 + 120 p_0_2 + 120 p_0_4 + 120 p_0_5 + 120 p_0_6 + 120 p_0_8 + 100000 z_0_10 + 100000 z_0_2 + 100000 z_0_4 + 100000 z_0_5 + 100000 z_0_6 + 100000 z_0_8 <= 600984.97547657578
 c2788: 120 p_0_1 + 120 p_0_10 + 120 p_0_2 + 120 p_0_4 + 120 p_0_5 + 120 p_0_6 + 120 p_0_8 + 100000 z_0_1 + 100000 z_0_10 + 100000 z_0_2 + 100000 z_0_4 + 100000 z_0_5 + 100000 z_0_6 + 100000 z_0_8 <= 700843.90201410069
 c2789: 120 p_0_10 + 120 p_0_3 + 120 p_0_4 + 120 p_0_5 + 120 p_0_6 + 120 p_0_8 + 100000 z_0_10 + 100000 z_0_3 + 100000 z_0_4 + 100000 z_0_5 + 100000 z_0_6 + 100000 z_0_8 <= 600884.20006432571
 c2790: 120 p_0_1 + 120 p_0_10 + 120 p_0_3 + 120 p_0_4 + 120 p_0_5 + 120 p_0_6 + 120 p_0_8 + 100000 z_0_1 + 100000 z_0_10 + 100000 z_0_3 + 100000 z_0_4 + 100000 z_0_5 + 100000 z_0_6 + 100000 z_0_8 <= 700743.12660185073
 c2791: 120 p_0_10 + 120 p_0_2 + 120 p_0_3 + 120 p_0_4 + 120 p_0_5 + 120 p_0_6 + 120 p_0_8 + 100000 z_0_10 + 100000 z_0_2 + 100000 z_0_3 + 100000 z_0_4 + 100000 z_0_5 + 100000 z_0_6 + 100000 z_0_8 <= 700814.1383105953
 c2792: 120 p_0_1 + 120 p_0_10 + 120 p_0_2 + 120 p_0_3 + 120 p_0_4 + 120 p_0_5 + 120 p_0_6 + 120 p_0_8 + 100000 z_0_1 + 100000 z_0_10 + 100000 z_0_2 + 100000 z_0_3 + 100000 z_0_4 + 100000 z_0_5 + 100000 z_0_6 + 100000 z_0_8 <= 800673.06484812032
 c2793: 120 p_0_10 + 120 p_0_7 + 120 p_0_8 + 100000 z_0_10 + 100000 z_0_7 + 100000 z_0_8 <= 301247.39372823358
 c2794: 120 p_0_1 + 120 p_0_10 + 120 p_0_7 + 120 p_0_8 + 100000 z_0_1 + 100000 z_0_10 + 100000 z_0_7 + 100000 z_0_8 <= 401236.51088657929
 c2795: 120 p_0_10 + 120 p_0_2 + 120 p_0_7 + 120 p_0_8 + 100000 z_0_10 + 100000 z_0_2 + 100000 z_0_7 + 100000 z_0_8 <= 401195.10033675918
 c2796: 120 p_0_1 + 120 p_0_10 + 120 p_0_2 + 120 p_0_7 + 120 p_0_8 + 100000 z_0_1 + 100000 z_0_10 + 100000 z_0_2 + 100000 z_0_7 + 100000 z_0_8 <= 501184.21749510488
 c2797: 120 p_0_10 + 120 p_0_3 + 120 p_0_7 + 120 p_0_8 + 100000 z_0_10 + 100000 z_0_3 + 100000 z_0_7 + 100000 z_0_8 <= 400757.94624034181
 c2798: 120 p_0_1 + 120 p_0_10 + 120 p_0_3 + 120 p_0_7 + 120 p_0_8 + 100000 z_0_1 + 100000 z_0_10 + 100000 z_0_3 + 100000 z_0_7 + 100000 z_0_8 <= 500752.5690459006
 c2799: 120 p_0_10 + 120 p_0_2 + 120 p_0_3 + 120 p_0_7 + 120 p_0_8 + 100000 z_0_10 + 100000 z_0_2 + 100000 z_0_3 + 100000 z_0_7 + 100000 z_0_8 <= 500684.30132526759
 c2800: 120 p_0_1 + 120 p_0_10 + 120 p_0_2 + 120 p_0_3 + 120 p_0_7 + 120 p_0_8 + 100000 z_0_1 + 100000 z_0_10 + 100000 z_0_2 + 100000 z_0_3 + 100000 z_0_7 + 100000 z_0_8 <= 600678.92413082637
 c2801: 120 p_0_10 + 120 p_0_4 + 120 p_0_7 + 120 p_0_8 + 100000 z_0_10 + 100000 z_0_4 + 100000 z_0_7 + 100000 z_0_8 <= 401236.70801859797
 c2802: 120 p_0_1 + 120 p_0_10 + 120 p_0_4 + 120 p_0_7 + 120 p_0_8 + 100000 z_0_1 + 100000 z_0_10 + 100000 z_0_4 + 100000 z_0_7 + 100000 z_0_8 <= 501229.62326712278
 c2803: 120 p_0_10 + 120 p_0_2 + 120 p_0_4 + 120 p_0_7 + 120 p_0_8 + 100000 z_0_10 + 100000 z_0_2 + 100000 z_0_4 + 100000 z_0_7 + 100000 z_0_8 <= 501184.41462712362
 c2804: 120 p_0_1 + 120 p_0_10 + 120 p_0_2 + 120 p_0_4 + 120 p_0_7 + 120 p_0_8 + 100000 z_0_1 + 100000 z_0_10 + 100000 z_0_2 + 100000 z_0_4 + 100000 z_0_7 + 100000 z_0_8 <= 601177.32987564837
 c2805: 120 p_0_10 + 120 p_0_3 + 120 p_0_4 + 120 p_0_7 + 120 p_0_8 + 100000 z_0_10 + 100000 z_0_3 + 100000 z_0_4 + 100000 z_0_7 + 100000 z_0_8 <= 500756.89959090512
 c2806: 120 p_0_1 + 120 p_0_10 + 120 p_0_3 + 120 p_0_4 + 120 p_0_7 + 120 p_0_8 + 100000 z_0_1 + 100000 z_0_10 + 100000 z_0_3 + 100000 z_0_4 + 100000 z_0_7 + 100000 z_0_8 <= 600749.81483942992
 c2807: 120 p_0_10 + 120 p_0_2 + 120 p_0_3 + 120 p_0_4 + 120 p_0_7 + 120 p_0_8 + 100000 z_0_10 + 100000 z_0_2 + 100000 z_0_3 + 100000 z_0_4 + 100000 z_0_7 + 100000 z_0_8 <= 600683.25467583083
 c2808: 120 p_0_1 + 120 p_0_10 + 120 p_0_2 + 120 p_0_3 + 120 p_0_4 + 120 p_0_7 + 120 p_0_8 + 100000 z_0_1 + 100000 z_0_10 + 100000 z_0_2 + 100000 z_0_3 + 100000 z_0_4 + 100000 z_0_7 + 100000 z_0_8 <= 700676.16992435569
 c2809: 120 p_0_10 + 120 p_0_5 + 120 p_0_7 + 120 p_0_8 + 100000 z_0_10 + 100000 z_0_5 + 100000 z_0_7 + 100000 z_0_8 <= 401246.85374626919
 c2810: 120 p_0_1 + 120 p_0_10 + 120 p_0_5 + 120 p_0_7 + 120 p_0_8 + 100000 z_0_1 + 100000 z_0_10 + 100000 z_0_5 + 100000 z_0_7 + 100000 z_0_8 <= 501235.97090461489
 c2811: 120 p_0_10 + 120 p_0_2 + 120 p_0_5 + 120 p_0_7 + 120 p_0_8 + 100000 z_0_10 + 100000 z_0_2 + 100000 z_0_5 + 100000 z_0_7 + 100000 z_0_8 <= 501188.47135896317
 c2812: 120 p_0_1 + 120 p_0_10 + 120 p_0_2 + 120 p_0_5 + 120 p_0_7 + 120 p_0_8 + 100000 z_0_1 + 100000 z_0_10 + 100000 z_0_2 + 100000 z_0_5 + 100000 z_0_7 + 100000 z_0_8 <= 601177.58851730882
 c2813: 120 p_0_10 + 120 p_0_3 + 120 p_0_5 + 120 p_0_7 + 120 p_0_8 + 100000 z_0_10 + 100000 z_0_3 + 100000 z_0_5 + 100000 z_0_7 + 100000 z_0_8 <= 500751.31726254581
 c2814: 120 p_0_1 + 120 p_0_10 + 120 p_0_3 + 120 p_0_5 + 120 p_0_7 + 120 p_0_8 + 100000 z_0_1 + 100000 z_0_10 + 100000 z_0_3 + 100000 z_0_5 + 100000 z_0_7 + 100000 z_0_8 <= 600745.94006810454
 c2815: 120 p_0_10 + 120 p_0_2 + 120 p_0_3 + 120 p_0_5 + 120 p_0_7 + 120 p_0_8 + 100000 z_0_10 + 100000 z_0_2 + 100000 z_0_3 + 100000 z_0_5 + 100000 z_0_7 + 100000 z_0_8 <= 600681.2555088154
 c2816: 120 p_0_1 + 120 p_0_10 + 120 p_0_2 + 120 p_0_3 + 120 p_0_5 + 120 p_0_7 + 120 p_0_8 + 100000 z_0_1 + 100000 z_0_10 + 100000 z_0_2 + 100000 z_0_3 + 100000 z_0_5 + 100000 z_0_7 + 100000 z_0_8 <= 700675.87831437413
 c2817: 120 p_0_10 + 120 p_0_4 + 120 p_0_5 + 120 p_0_7 + 120 p_0_8 + 100000 z_0_10 + 100000 z_0_4 + 100000 z_0_5 + 100000 z_0_7 + 100000 z_0_8 <= 501236.16803663364
 c2818: 120 p_0_1 + 120 p_0_10 + 120 p_0_4 + 120 p_0_5 + 120 p_0_7 + 120 p_0_8 + 100000 z_0_1 + 100000 z_0_10 + 100000 z_0_4 + 100000 z_0_5 + 100000 z_0_7 + 100000 z_0_8 <= 601229.08328515838
 c2819: 120 p_0_10 + 120 p_0_2 + 120 p_0_4 + 120 p_0_5 + 120 p_0_7 + 120 p_0_8 + 100000 z_0_10 + 100000 z_0_2 + 100000 z_0_4 + 100000 z_0_5 + 100000 z_0_7 + 100000 z_0_8 <= 601177.78564932756
 c2820: 120 p_0_1 + 120 p_0_10 + 120 p_0_2 + 120 p_0_4 + 120 p_0_5 + 120 p_0_7 + 120 p_0_8 + 100000 z_0_1 + 100000 z_0_10 + 100000 z_0_2 + 100000 z_0_4 + 100000 z_0_5 + 100000 z_0_7 + 100000 z_0_8 <= 701170.70089785231
 c2821: 120 p_0_10 + 120 p_0_3 + 120 p_0_4 + 120 p_0_5 + 120 p_0_7 + 120 p_0_8 + 100000 z_0_10 + 100000 z_0_3 + 100000 z_0_4 + 100000 z_0_5 + 100000 z_0_7 + 100000 z_0_8 <= 600750.27061310911
 c2822: 120 p_0_1 + 120 p_0_10 + 120 p_0_3 + 120 p_0_4 + 120 p_0_5 + 120 p_0_7 + 120 p_0_8 + 100000 z_0_1 + 100000 z_0_10 + 100000 z_0_3 + 100000 z_0_4 + 100000 z_0_5 + 100000 z_0_7 + 100000 z_0_8 <= 700743.18586163386
 c2823: 120 p_0_10 + 120 p_0_2 + 120 p_0_3 + 120 p_0_4 + 120 p_0_5 + 120 p_0_7 + 120 p_0_8 + 100000 z_0_10 + 100000 z_0_2 + 100000 z_0_3 + 100000 z_0_4 + 100000 z_0_5 + 100000 z_0_7 + 100000 z_0_8 <= 700680.20885937859
 c2824: 120 p_0_1 + 120 p_0_10 + 120 p_0_2 + 120 p_0_3 + 120 p_0_4 + 120 p_0_5 + 120 p_0_7 + 120 p_0_8 + 100000 z_0_1 + 100000 z_0_10 + 100000 z_0_2 + 100000 z_0_3 + 100000 z_0_4 + 100000 z_0_5 + 100000 z_0_7 + 100000 z_0_8 <= 800673.12410790345
 c2825: 120 p_0_10 + 120 p_0_6 + 120 p_0_7 + 120 p_0_8 + 100000 z_0_10 + 100000 z_0_6 + 100000 z_0_7 + 100000 z_0_8 <= 400916.47717973724
 c2826: 120 p_0_1 + 120 p_0_10 + 120 p_0_6 + 120 p_0_7 + 120 p_0_8 + 100000 z_0_1 + 100000 z_0_10 + 100000 z_0_6 + 100000 z_0_7 + 100000 z_0_8 <= 500909.95554240665
 c2827: 120 p_0_10 + 120 p_0_2 + 120 p_0_6 + 120 p_0_7 + 120 p_0_8 + 100000 z_0_10 + 100000 z_0_2 + 100000 z_0_6 + 100000 z_0_7 + 100000 z_0_8 <= 500853.9363943832
 c2828: 120 p_0_1 + 120 p_0_10 + 120 p_0_2 + 120 p_0_6 + 120 p_0_7 + 120 p_0_8 + 100000 z_0_1 + 100000 z_0_10 + 100000 z_0_2 + 100000 z_0_6 + 100000 z_0_7 + 100000 z_0_8 <= 600843.05355272896
 c2829: 120 p_0_10 + 120 p_0_3 + 120 p_0_6 + 120 p_0_7 + 120 p_0_8 + 100000 z_0_10 + 100000 z_0_3 + 100000 z_0_6 + 100000 z_0_7 + 100000 z_0_8 <= 500746.67364742531
 c2830: 120 p_0_1 + 120 p_0_10 + 120 p_0_3 + 120 p_0_6 + 120 p_0_7 + 120 p_0_8 + 100000 z_0_1 + 100000 z_0_10 + 100000 z_0_3 + 100000 z_0_6 + 100000 z_0_7 + 100000 z_0_8 <= 600741.2964529841
 c2831: 120 p_0_10 + 120 p_0_2 + 120 p_0_3 + 120 p_0_6 + 120 p_0_7 + 120 p_0_8 + 100000 z_0_10 + 100000 z_0_2 + 100000 z_0_3 + 100000 z_0_6 + 100000 z_0_7 + 100000 z_0_8 <= 600675.39783163171
 c2832: 120 p_0_1 + 120 p_0_10 + 120 p_0_2 + 120 p_0_3 + 120 p_0_6 + 120 p_0_7 + 120 p_0_8 + 100000 z_0_1 + 100000 z_0_10 + 100000 z_0_2 + 100000 z_0_3 + 100000 z_0_6 + 100000 z_0_7 + 100000 z_0_8 <= 700667.65153790987
 c2833: 120 p_0_10 + 120 p_0_4 + 120 p_0_6 + 120 p_0_7 + 120 p_0_8 + 100000 z_0_10 + 100000 z_0_4 + 100000 z_0_6 + 100000 z_0_7 + 100000 z_0_8 <= 500916.46416396904
 c2834: 120 p_0_1 + 120 p_0_10 + 120 p_0_4 + 120 p_0_6 + 120 p_0_7 + 120 p_0_8 + 100000 z_0_1 + 100000 z_0_10 + 100000 z_0_4 + 100000 z_0_6 + 100000 z_0_7 + 100000 z_0_8 <= 600909.37941249378
 c2835: 120 p_0_10 + 120 p_0_2 + 120 p_0_4 + 120 p_0_6 + 120 p_0_7 + 120 p_0_8 + 100000 z_0_10 + 100000 z_0_2 + 100000 z_0_4 + 100000 z_0_6 + 100000 z_0_7 + 100000 z_0_8 <= 600843.25068474771
 c2836: 120 p_0_1 + 120 p_0_10 + 120 p_0_2 + 120 p_0_4 + 120 p_0_6 + 120 p_0_7 + 120 p_0_8 + 100000 z_0_1 + 100000 z_0_10 + 100000 z_0_2 + 100000 z_0_4 + 100000 z_0_6 + 100000 z_0_7 + 100000 z_0_8 <= 700836.16593327245
 c2837: 120 p_0_10 + 120 p_0_3 + 120 p_0_4 + 120 p_0_6 + 120 p_0_7 + 120 p_0_8 + 100000 z_0_10 + 100000 z_0_3 + 100000 z_0_4 + 100000 z_0_6 + 100000 z_0_7 + 100000 z_0_8 <= 600745.62699798855
 c2838: 120 p_0_1 + 120 p_0_10 + 120 p_0_3 + 120 p_0_4 + 120 p_0_6 + 120 p_0_7 + 120 p_0_8 + 100000 z_0_1 + 100000 z_0_10 + 100000 z_0_3 + 100000 z_0_4 + 100000 z_0_6 + 100000 z_0_7 + 100000 z_0_8 <= 700738.5422465133
 c2839: 120 p_0_10 + 120 p_0_2 + 120 p_0_3 + 120 p_0_4 + 120 p_0_6 + 120 p_0_7 + 120 p_0_8 + 100000 z_0_10 + 100000 z_0_2 + 100000 z_0_3 + 100000 z_0_4 + 100000 z_0_6 + 100000 z_0_7 + 100000 z_0_8 <= 700671.98208291433
 c2840: 120 p_0_1 + 120 p_0_10 + 120 p_0_2 + 120 p_0_3 + 120 p_0_4 + 120 p_0_6 + 120 p_0_7 + 120 p_0_8 + 100000 z_0_1 + 100000 z_0_10 + 100000 z_0_2 + 100000 z_0_3 + 100000 z_0_4 + 100000 z_0_6 + 100000 z_0_7 + 100000 z_0_8 <= 800664.89733143919
 c2841: 120 p_0_10 + 120 p_0_5 + 120 p_0_6 + 120 p_0_7 + 120 p_0_8 + 100000 z_0_10 + 100000 z_0_5 + 100000 z_0_6 + 100000 z_0_7 + 100000 z_0_8 <= 500909.84820194117
 c2842: 120 p_0_1 + 120 p_0_10 + 120 p_0_5 + 120 p_0_6 + 120 p_0_7 + 120 p_0_8 + 100000 z_0_1 + 100000 z_0_10 + 100000 z_0_5 + 100000 z_0_6 + 100000 z_0_7 + 100000 z_0_8 <= 600903.32656461059
 c2843: 120 p_0_10 + 120 p_0_2 + 120 p_0_5 + 120 p_0_6 + 120 p_0_7 + 120 p_0_8 + 100000 z_0_10 + 100000 z_0_2 + 100000 z_0_5 + 100000 z_0_6 + 100000 z_0_7 + 100000 z_0_8 <= 600839.78644821083
 c2844: 120 p_0_1 + 120 p_0_10 + 120 p_0_2 + 120 p_0_5 + 120 p_0_6 + 120 p_0_7 + 120 p_0_8 + 100000 z_0_1 + 100000 z_0_10 + 100000 z_0_2 + 100000 z_0_5 + 100000 z_0_6 + 100000 z_0_7 + 100000 z_0_8 <= 700833.26481088018
 c2845: 120 p_0_10 + 120 p_0_3 + 120 p_0_5 + 120 p_0_6 + 120 p_0_7 + 120 p_0_8 + 100000 z_0_10 + 100000 z_0_3 + 100000 z_0_5 + 100000 z_0_6 + 100000 z_0_7 + 100000 z_0_8 <= 600740.04466962931
 c2846: 120 p_0_1 + 120 p_0_10 + 120 p_0_3 + 120 p_0_5 + 120 p_0_6 + 120 p_0_7 + 120 p_0_8 + 100000 z_0_1 + 100000 z_0_10 + 100000 z_0_3 + 100000 z_0_5 + 100000 z_0_6 + 100000 z_0_7 + 100000 z_0_8 <= 700734.66747518803
 c2847: 120 p_0_10 + 120 p_0_2 + 120 p_0_3 + 120 p_0_5 + 120 p_0_6 + 120 p_0_7 + 120 p_0_8 + 100000 z_0_10 + 100000 z_0_2 + 100000 z_0_3 + 100000 z_0_5 + 100000 z_0_6 + 100000 z_0_7 + 100000 z_0_8 <= 700669.98291589878
 c2848: 120 p_0_1 + 120 p_0_10 + 120 p_0_2 + 120 p_0_3 + 120 p_0_5 + 120 p_0_6 + 120 p_0_7 + 120 p_0_8 + 100000 z_0_1 + 100000 z_0_10 + 100000 z_0_2 + 100000 z_0_3 + 100000 z_0_5 + 100000 z_0_6 + 100000 z_0_7 + 100000 z_0_8 <= 800664.60572145763
 c2849: 120 p_0_10 + 120 p_0_4 + 120 p_0_5 + 120 p_0_6 + 120 p_0_7 + 120 p_0_8 + 100000 z_0_10 + 100000 z_0_4 + 100000 z_0_5 + 100000 z_0_6 + 100000 z_0_7 + 100000 z_0_8 <= 600909.83518617298
 c2850: 120 p_0_1 + 120 p_0_10 + 120 p_0_4 + 120 p_0_5 + 120 p_0_6 + 120 p_0_7 + 120 p_0_8 + 100000 z_0_1 + 100000 z_0_10 + 100000 z_0_4 + 100000 z_0_5 + 100000 z_0_6 + 100000 z_0_7 + 100000 z_0_8 <= 700902.75043469772
 c2851: 120 p_0_10 + 120 p_0_2 + 120 p_0_4 + 120 p_0_5 + 120 p_0_6 + 120 p_0_7 + 120 p_0_8 + 100000 z_0_10 + 100000 z_0_2 + 100000 z_0_4 + 100000 z_0_5 + 100000 z_0_6 + 100000 z_0_7 + 100000 z_0_8 <= 700839.77343244257
 c2852: 120 p_0_1 + 120 p_0_10 + 120 p_0_2 + 120 p_0_4 + 120 p_0_5 + 120 p_0_6 + 120 p_0_7 + 120 p_0_8 + 100000 z_0_1 + 100000 z_0_10 + 100000 z_0_2 + 100000 z_0_4 + 100000 z_0_5 + 100000 z_0_6 + 100000 z_0_7 + 100000 z_0_8 <= 800832.68868096732
 c2853: 120 p_0_10 + 120 p_0_3 + 120 p_0_4 + 120 p_0_5 + 120 p_0_6 + 120 p_0_7 + 120 p_0_8 + 100000 z_0_10 + 100000 z_0_3 + 100000 z_0_4 + 100000 z_0_5 + 100000 z_0_6 + 100000 z_0_7 + 100000 z_0_8 <= 700738.99802019249
 c2854: 120 p_0_1 + 120 p_0_10 + 120 p_0_3 + 120 p_0_4 + 120 p_0_5 + 120 p_0_6 + 120 p_0_7 + 120 p_0_8 + 100000 z_0_1 + 100000 z_0_10 + 100000 z_0_3 + 100000 z_0_4 + 100000 z_0_5 + 100000 z_0_6 + 100000 z_0_7 + 100000 z_0_8 <= 800731.91326871736
 c2855: 120 p_0_10 + 120 p_0_2 + 120 p_0_3 + 120 p_0_4 + 120 p_0_5 + 120 p_0_6 + 120 p_0_7 + 120 p_0_8 + 100000 z_0_10 + 100000 z_0_2 + 100000 z_0_3 + 100000 z_0_4 + 100000 z_0_5 + 100000 z_0_6 + 100000 z_0_7 + 100000 z_0_8 <= 800668.93626646209
 c2856: 120 p_0_1 + 120 p_0_10 + 120 p_0_2 + 120 p_0_3 + 120 p_0_4 + 120 p_0_5 + 120 p_0_6 + 120 p_0_7 + 120 p_0_8 + 100000 z_0_1 + 100000 z_0_10 + 100000 z_0_2 + 100000 z_0_3 + 100000 z_0_4 + 100000 z_0_5 + 100000 z_0_6 + 100000 z_0_7 + 100000 z_0_8 <= 900661.85151498695
 c2857: 120 p_0_10 + 120 p_0_9 + 100000 z_0_10 + 100000 z_0_9 <= 201419.65923040506
 c2858: 120 p_0_1 + 120 p_0_10 + 120 p_0_9 + 100000 z_0_1 + 100000 z_0_10 + 100000 z_0_9 <= 301267.13736312254
 c2859: 120 p_0_10 + 120 p_0_2 + 120 p_0_9 + 100000 z_0_10 + 100000 z_0_2 + 100000 z_0_9 <= 301008.93406454939
 c2860: 120 p_0_1 + 120 p_0_10 + 120 p_0_2 + 120 p_0_9 + 100000 z_0_1 + 100000 z_0_10 + 100000 z_0_2 + 100000 z_0_9 <= 400855.72310642834
 c2861: 120 p_0_10 + 120 p_0_3 + 120 p_0_9 + 100000 z_0_10 + 100000 z_0_3 + 100000 z_0_9 <= 301198.4535694854
 c2862: 120 p_0_1 + 120 p_0_10 + 120 p_0_3 + 120 p_0_9 + 100000 z_0_1 + 100000 z_0_10 + 100000 z_0_3 + 100000 z_0_9 <= 401045.93170220288
 c2863: 120 p_0_10 + 120 p_0_2 + 120 p_0_3 + 120 p_0_9 + 100000 z_0_10 + 100000 z_0_2 + 100000 z_0_3 + 100000 z_0_9 <= 400843.44267058728
 c2864: 120 p_0_1 + 120 p_0_10 + 120 p_0_2 + 120 p_0_3 + 120 p_0_9 + 100000 z_0_1 + 100000 z_0_10 + 100000 z_0_2 + 100000 z_0_3 + 100000 z_0_9 <= 500690.23171246622
 c2865: 120 p_0_10 + 120 p_0_4 + 120 p_0_9 + 100000 z_0_10 + 100000 z_0_4 + 100000 z_0_9 <= 301405.28396288439
 c2866: 120 p_0_1 + 120 p_0_10 + 120 p_0_4 + 120 p_0_9 + 100000 z_0_1 + 100000 z_0_10 + 100000 z_0_4 + 100000 z_0_9 <= 401264.21050040936
 c2867: 120 p_0_10 + 120 p_0_2 + 120 p_0_4 + 120 p_0_9 + 100000 z_0_10 + 100000 z_0_2 + 100000 z_0_4 + 100000 z_0_9 <= 400993.86970619019
 c2868: 120 p_0_1 + 120 p_0_10 + 120 p_0_2 + 120 p_0_4 + 120 p_0_9 + 100000 z_0_1 + 100000 z_0_10 + 100000 z_0_2 + 100000 z_0_4 + 100000 z_0_9 <= 500852.79624371516
 c2869: 120 p_0_10 + 120 p_0_3 + 120 p_0_4 + 120 p_0_9 + 100000 z_0_10 + 100000 z_0_3 + 100000 z_0_4 + 100000 z_0_9 <= 401184.07830196474
 c2870: 120 p_0_1 + 120 p_0_10 + 120 p_0_3 + 120 p_0_4 + 120 p_0_9 + 100000 z_0_1 + 100000 z_0_10 + 100000 z_0_3 + 100000 z_0_4 + 100000 z_0_9 <= 501043.0048394897
 c2871: 120 p_0_10 + 120 p_0_2 + 120 p_0_3 + 120 p_0_4 + 120 p_0_9 + 100000 z_0_10 + 100000 z_0_2 + 100000 z_0_3 + 100000 z_0_4 + 100000 z_0_9 <= 500828.37831222807
 c2872: 120 p_0_1 + 120 p_0_10 + 120 p_0_2 + 120 p_0_3 + 120 p_0_4 + 120 p_0_9 + 100000 z_0_1 + 100000 z_0_10 + 100000 z_0_2 + 100000 z_0_3 + 100000 z_0_4 + 100000 z_0_9 <= 600687.30484975304
 c2873: 120 p_0_10 + 120 p_0_5 + 120 p_0_9 + 100000 z_0_10 + 100000 z_0_5 + 100000 z_0_9 <= 301109.39130511519
 c2874: 120 p_0_1 + 120 p_0_10 + 120 p_0_5 + 120 p_0_9 + 100000 z_0_1 + 100000 z_0_10 + 100000 z_0_5 + 100000 z_0_9 <= 400956.86943783268
 c2875: 120 p_0_10 + 120 p_0_2 + 120 p_0_5 + 120 p_0_9 + 100000 z_0_10 + 100000 z_0_2 + 100000 z_0_5 + 100000 z_0_9 <= 401006.28320622526
 c2876: 120 p_0_1 + 120 p_0_10 + 120 p_0_2 + 120 p_0_5 + 120 p_0_9 + 100000 z_0_1 + 100000 z_0_10 + 100000 z_0_2 + 100000 z_0_5 + 100000 z_0_9 <= 500853.07224810426
 c2877: 120 p_0_10 + 120 p_0_3 + 120 p_0_5 + 120 p_0_9 + 100000 z_0_10 + 100000 z_0_3 + 100000 z_0_5 + 100000 z_0_9 <= 400937.44976467243
 c2878: 120 p_0_1 + 120 p_0_10 + 120 p_0_3 + 120 p_0_5 + 120 p_0_9 + 100000 z_0_1 + 100000 z_0_10 + 100000 z_0_3 + 100000 z_0_5 + 100000 z_0_9 <= 500784.92789738992
 c2879: 120 p_0_10 + 120 p_0_2 + 120 p_0_3 + 120 p_0_5 + 120 p_0_9 + 100000 z_0_10 + 100000 z_0_2 + 100000 z_0_3 + 100000 z_0_5 + 100000 z_0_9 <= 500839.70776329649
 c2880: 120 p_0_1 + 120 p_0_10 + 120 p_0_2 + 120 p_0_3 + 120 p_0_5 + 120 p_0_9 + 100000 z_0_1 + 100000 z_0_10 + 100000 z_0_2 + 100000 z_0_3 + 100000 z_0_5 + 100000 z_0_9 <= 600687.18589601398
 c2881: 120 p_0_10 + 120 p_0_4 + 120 p_0_5 + 120 p_0_9 + 100000 z_0_10 + 100000 z_0_4 + 100000 z_0_5 + 100000 z_0_9 <= 401095.01603759453
 c2882: 120 p_0_1 + 120 p_0_10 + 120 p_0_4 + 120 p_0_5 + 120 p_0_9 + 100000 z_0_1 + 100000 z_0_10 + 100000 z_0_4 + 100000 z_0_5 + 100000 z_0_9 <= 500953.94257511949
 c2883: 120 p_0_10 + 120 p_0_2 + 120 p_0_4 + 120 p_0_5 + 120 p_0_9 + 100000 z_0_10 + 100000 z_0_2 + 100000 z_0_4 + 100000 z_0_5 + 100000 z_0_9 <= 500991.21884786611
 c2884: 120 p_0_1 + 120 p_0_10 + 120 p_0_2 + 120 p_0_4 + 120 p_0_5 + 120 p_0_9 + 100000 z_0_1 + 100000 z_0_10 + 100000 z_0_2 + 100000 z_0_4 + 100000 z_0_5 + 100000 z_0_9 <= 600850.14538539108
 c2885: 120 p_0_10 + 120 p_0_3 + 120 p_0_4 + 120 p_0_5 + 120 p_0_9 + 100000 z_0_10 + 100000 z_0_3 + 100000 z_0_4 + 100000 z_0_5 + 100000 z_0_9 <= 500923.07449715177
 c2886: 120 p_0_1 + 120 p_0_10 + 120 p_0_3 + 120 p_0_4 + 120 p_0_5 + 120 p_0_9 + 100000 z_0_1 + 100000 z_0_10 + 100000 z_0_3 + 100000 z_0_4 + 100000 z_0_5 + 100000 z_0_9 <= 600782.0010346768
 c2887: 120 p_0_10 + 120 p_0_2 + 120 p_0_3 + 120 p_0_4 + 120 p_0_5 + 120 p_0_9 + 100000 z_0_10 + 100000 z_0_2 + 100000 z_0_3 + 100000 z_0_4 + 100000 z_0_5 + 100000 z_0_9 <= 600825.33249577577
 c2888: 120 p_0_1 + 120 p_0_10 + 120 p_0_2 + 120 p_0_3 + 120 p_0_4 + 120 p_0_5 + 120 p_0_9 + 100000 z_0_1 + 100000 z_0_10 + 100000 z_0_2 + 100000 z_0_3 + 100000 z_0_4 + 100000 z_0_5 + 100000 z_0_9 <= 700684.2590333008
 c2889: 120 p_0_10 + 120 p_0_6 + 120 p_0_9 + 100000 z_0_10 + 100000 z_0_6 + 100000 z_0_9 <= 301340.92797662807
 c2890: 120 p_0_1 + 120 p_0_10 + 120 p_0_6 + 120 p_0_9 + 100000 z_0_1 + 100000 z_0_10 + 100000 z_0_6 + 100000 z_0_9 <= 401188.40610934555
 c2891: 120 p_0_10 + 120 p_0_2 + 120 p_0_6 + 120 p_0_9 + 100000 z_0_10 + 100000 z_0_2 + 100000 z_0_6 + 100000 z_0_9 <= 400977.00815564406
 c2892: 120 p_0_1 + 120 p_0_10 + 120 p_0_2 + 120 p_0_6 + 120 p_0_9 + 100000 z_0_1 + 100000 z_0_10 + 100000 z_0_2 + 100000 z_0_6 + 100000 z_0_9 <= 500823.797197523
 c2893: 120 p_0_10 + 120 p_0_3 + 120 p_0_6 + 120 p_0_9 + 100000 z_0_10 + 100000 z_0_3 + 100000 z_0_6 + 100000 z_0_9 <= 401196.76515600074
 c2894: 120 p_0_1 + 120 p_0_10 + 120 p_0_3 + 120 p_0_6 + 120 p_0_9 + 100000 z_0_1 + 100000 z_0_10 + 100000 z_0_3 + 100000 z_0_6 + 100000 z_0_9 <= 501044.24328871822
 c2895: 120 p_0_10 + 120 p_0_2 + 120 p_0_3 + 120 p_0_6 + 120 p_0_9 + 100000 z_0_10 + 100000 z_0_2 + 100000 z_0_3 + 100000 z_0_6 + 100000 z_0_9 <= 500832.84533501667
 c2896: 120 p_0_1 + 120 p_0_10 + 120 p_0_2 + 120 p_0_3 + 120 p_0_6 + 120 p_0_9 + 100000 z_0_1 + 100000 z_0_10 + 100000 z_0_2 + 100000 z_0_3 + 100000 z_0_6 + 100000 z_0_9 <= 600679.63437689561
 c2897: 120 p_0_10 + 120 p_0_4 + 120 p_0_6 + 120 p_0_9 + 100000 z_0_10 + 100000 z_0_4 + 100000 z_0_6 + 100000 z_0_9 <= 401326.5527091074
 c2898: 120 p_0_1 + 120 p_0_10 + 120 p_0_4 + 120 p_0_6 + 120 p_0_9 + 100000 z_0_1 + 100000 z_0_10 + 100000 z_0_4 + 100000 z_0_6 + 100000 z_0_9 <= 501185.47924663237
 c2899: 120 p_0_10 + 120 p_0_2 + 120 p_0_4 + 120 p_0_6 + 120 p_0_9 + 100000 z_0_10 + 100000 z_0_2 + 100000 z_0_4 + 100000 z_0_6 + 100000 z_0_9 <= 500961.94379728485
 c2900: 120 p_0_1 + 120 p_0_10 + 120 p_0_2 + 120 p_0_4 + 120 p_0_6 + 120 p_0_9 + 100000 z_0_1 + 100000 z_0_10 + 100000 z_0_2 + 100000 z_0_4 + 100000 z_0_6 + 100000 z_0_9 <= 600820.87033480976
 c2901: 120 p_0_10 + 120 p_0_3 + 120 p_0_4 + 120 p_0_6 + 120 p_0_9 + 100000 z_0_10 + 100000 z_0_3 + 100000 z_0_4 + 100000 z_0_6 + 100000 z_0_9 <= 501182.38988848007
 c2902: 120 p_0_1 + 120 p_0_10 + 120 p_0_3 + 120 p_0_4 + 120 p_0_6 + 120 p_0_9 + 100000 z_0_1 + 100000 z_0_10 + 100000 z_0_3 + 100000 z_0_4 + 100000 z_0_6 + 100000 z_0_9 <= 601041.31642600498
 c2903: 120 p_0_10 + 120 p_0_2 + 120 p_0_3 + 120 p_0_4 + 120 p_0_6 + 120 p_0_9 + 100000 z_0_10 + 100000 z_0_2 + 100000 z_0_3 + 100000 z_0_4 + 100000 z_0_6 + 100000 z_0_9 <= 600817.78097665752
 c2904: 120 p_0_1 + 120 p_0_10 + 120 p_0_2 + 120 p_0_3 + 120 p_0_4 + 120 p_0_6 + 120 p_0_9 + 100000 z_0_1 + 100000 z_0_10 + 100000 z_0_2 + 100000 z_0_3 + 100000 z_0_4 + 100000 z_0_6 + 100000 z_0_9 <= 700676.70751418243
 c2905: 120 p_0_10 + 120 p_0_5 + 120 p_0_6 + 120 p_0_9 + 100000 z_0_10 + 100000 z_0_5 + 100000 z_0_6 + 100000 z_0_9 <= 401073.94035134377
 c2906: 120 p_0_1 + 120 p_0_10 + 120 p_0_5 + 120 p_0_6 + 120 p_0_9 + 100000 z_0_1 + 100000 z_0_10 + 100000 z_0_5 + 100000 z_0_6 + 100000 z_0_9 <= 500921.41848406132
 c2907: 120 p_0_10 + 120 p_0_2 + 120 p_0_5 + 120 p_0_6 + 120 p_0_9 + 100000 z_0_10 + 100000 z_0_2 + 100000 z_0_5 + 100000 z_0_6 + 100000 z_0_9 <= 500973.27324835327
 c2908: 120 p_0_1 + 120 p_0_10 + 120 p_0_2 + 120 p_0_5 + 120 p_0_6 + 120 p_0_9 + 100000 z_0_1 + 100000 z_0_10 + 100000 z_0_2 + 100000 z_0_5 + 100000 z_0_6 + 100000 z_0_9 <= 600820.75138107082
 c2909: 120 p_0_10 + 120 p_0_3 + 120 p_0_5 + 120 p_0_6 + 120 p_0_9 + 100000 z_0_10 + 100000 z_0_3 + 100000 z_0_5 + 100000 z_0_6 + 100000 z_0_9 <= 500929.77753071644
 c2910: 120 p_0_1 + 120 p_0_10 + 120 p_0_3 + 120 p_0_5 + 120 p_0_6 + 120 p_0_9 + 100000 z_0_1 + 100000 z_0_10 + 100000 z_0_3 + 100000 z_0_5 + 100000 z_0_6 + 100000 z_0_9 <= 600777.25566343393
 c2911: 120 p_0_10 + 120 p_0_2 + 120 p_0_3 + 120 p_0_5 + 120 p_0_6 + 120 p_0_9 + 100000 z_0_10 + 100000 z_0_2 + 100000 z_0_3 + 100000 z_0_5 + 100000 z_0_6 + 100000 z_0_9 <= 600829.11042772594
 c2912: 120 p_0_1 + 120 p_0_10 + 120 p_0_2 + 120 p_0_3 + 120 p_0_5 + 120 p_0_6 + 120 p_0_9 + 100000 z_0_1 + 100000 z_0_10 + 100000 z_0_2 + 100000 z_0_3 + 100000 z_0_5 + 100000 z_0_6 + 100000 z_0_9 <= 700676.58856044337
 c2913: 120 p_0_10 + 120 p_0_4 + 120 p_0_5 + 120 p_0_6 + 120 p_0_9 + 100000 z_0_10 + 100000 z_0_4 + 100000 z_0_5 + 100000 z_0_6 + 100000 z_0_9 <= 501059.56508382311
 c2914: 120 p_0_1 + 120 p_0_10 + 120 p_0_4 + 120 p_0_5 + 120 p_0_6 + 120 p_0_9 + 100000 z_0_1 + 100000 z_0_10 + 100000 z_0_4 + 100000 z_0_5 + 100000 z_0_6 + 100000 z_0_9 <= 600918.49162134808
 c2915: 120 p_0_10 + 120 p_0_2 + 120 p_0_4 + 120 p_0_5 + 120 p_0_6 + 120 p_0_9 + 100000 z_0_10 + 100000 z_0_2 + 100000 z_0_4 + 100000 z_0_5 + 100000 z_0_6 + 100000 z_0_9 <= 600958.89798083261
 c2916: 120 p_0_1 + 120 p_0_10 + 120 p_0_2 + 120 p_0_4 + 120 p_0_5 + 120 p_0_6 + 120 p_0_9 + 100000 z_0_1 + 100000 z_0_10 + 100000 z_0_2 + 100000 z_0_4 + 100000 z_0_5 + 100000 z_0_6 + 100000 z_0_9 <= 700817.82451835752
 c2917: 120 p_0_10 + 120 p_0_3 + 120 p_0_4 + 120 p_0_5 + 120 p_0_6 + 120 p_0_9 + 100000 z_0_10 + 100000 z_0_3 + 100000 z_0_4 + 100000 z_0_5 + 100000 z_0_6 + 100000 z_0_9 <= 600915.40226319584
 c2918: 120 p_0_1 + 120 p_0_10 + 120 p_0_3 + 120 p_0_4 + 120 p_0_5 + 120 p_0_6 + 120 p_0_9 + 100000 z_0_1 + 100000 z_0_10 + 100000 z_0_3 + 100000 z_0_4 + 100000 z_0_5 + 100000 z_0_6 + 100000 z_0_9 <= 700774.32880072074
 c2919: 120 p_0_10 + 120 p_0_2 + 120 p_0_3 + 120 p_0_4 + 120 p_0_5 + 120 p_0_6 + 120 p_0_9 + 100000 z_0_10 + 100000 z_0_2 + 100000 z_0_3 + 100000 z_0_4 + 100000 z_0_5 + 100000 z_0_6 + 100000 z_0_9 <= 700814.73516020528
 c2920: 120 p_0_1 + 120 p_0_10 + 120 p_0_2 + 120 p_0_3 + 120 p_0_4 + 120 p_0_5 + 120 p_0_6 + 120 p_0_9 + 100000 z_0_1 + 100000 z_0_10 + 100000 z_0_2 + 100000 z_0_3 + 100000 z_0_4 + 100000 z_0_5 + 100000 z_0_6 + 100000 z_0_9 <= 800673.66169773019
 c2921: 120 p_0_10 + 120 p_0_7 + 120 p_0_9 + 100000 z_0_10 + 100000 z_0_7 + 100000 z_0_9 <= 301261.28046184406
 c2922: 120 p_0_1 + 120 p_0_10 + 120 p_0_7 + 120 p_0_9 + 100000 z_0_1 + 100000 z_0_10 + 100000 z_0_7 + 100000 z_0_9 <= 401255.92402998917
 c2923: 120 p_0_10 + 120 p_0_2 + 120 p_0_7 + 120 p_0_9 + 100000 z_0_10 + 100000 z_0_2 + 100000 z_0_7 + 100000 z_0_9 <= 400849.86620514985
 c2924: 120 p_0_1 + 120 p_0_10 + 120 p_0_2 + 120 p_0_7 + 120 p_0_9 + 100000 z_0_1 + 100000 z_0_10 + 100000 z_0_2 + 100000 z_0_7 + 100000 z_0_9 <= 500844.50977329497
 c2925: 120 p_0_10 + 120 p_0_3 + 120 p_0_7 + 120 p_0_9 + 100000 z_0_10 + 100000 z_0_3 + 100000 z_0_7 + 100000 z_0_9 <= 401040.07480092434
 c2926: 120 p_0_1 + 120 p_0_10 + 120 p_0_3 + 120 p_0_7 + 120 p_0_9 + 100000 z_0_1 + 100000 z_0_10 + 100000 z_0_3 + 100000 z_0_7 + 100000 z_0_9 <= 501034.71836906951
 c2927: 120 p_0_10 + 120 p_0_2 + 120 p_0_3 + 120 p_0_7 + 120 p_0_9 + 100000 z_0_10 + 100000 z_0_2 + 100000 z_0_3 + 100000 z_0_7 + 100000 z_0_9 <= 500684.37481118774
 c2928: 120 p_0_1 + 120 p_0_10 + 120 p_0_2 + 120 p_0_3 + 120 p_0_7 + 120 p_0_9 + 100000 z_0_1 + 100000 z_0_10 + 100000 z_0_2 + 100000 z_0_3 + 100000 z_0_7 + 100000 z_0_9 <= 600679.01837933285
 c2929: 120 p_0_10 + 120 p_0_4 + 120 p_0_7 + 120 p_0_9 + 100000 z_0_10 + 100000 z_0_4 + 100000 z_0_7 + 100000 z_0_9 <= 401260.08191875118
 c2930: 120 p_0_1 + 120 p_0_10 + 120 p_0_4 + 120 p_0_7 + 120 p_0_9 + 100000 z_0_1 + 100000 z_0_10 + 100000 z_0_4 + 100000 z_0_7 + 100000 z_0_9 <= 501252.99716727599
 c2931: 120 p_0_10 + 120 p_0_2 + 120 p_0_4 + 120 p_0_7 + 120 p_0_9 + 100000 z_0_10 + 100000 z_0_2 + 100000 z_0_4 + 100000 z_0_7 + 100000 z_0_9 <= 500848.66766205698
 c2932: 120 p_0_1 + 120 p_0_10 + 120 p_0_2 + 120 p_0_4 + 120 p_0_7 + 120 p_0_9 + 100000 z_0_1 + 100000 z_0_10 + 100000 z_0_2 + 100000 z_0_4 + 100000 z_0_7 + 100000 z_0_9 <= 600841.58291058172
 c2933: 120 p_0_10 + 120 p_0_3 + 120 p_0_4 + 120 p_0_7 + 120 p_0_9 + 100000 z_0_10 + 100000 z_0_3 + 100000 z_0_4 + 100000 z_0_7 + 100000 z_0_9 <= 501038.87625783152
 c2934: 120 p_0_1 + 120 p_0_10 + 120 p_0_3 + 120 p_0_4 + 120 p_0_7 + 120 p_0_9 + 100000 z_0_1 + 100000 z_0_10 + 100000 z_0_3 + 100000 z_0_4 + 100000 z_0_7 + 100000 z_0_9 <= 601031.79150635633
 c2935: 120 p_0_10 + 120 p_0_2 + 120 p_0_3 + 120 p_0_4 + 120 p_0_7 + 120 p_0_9 + 100000 z_0_10 + 100000 z_0_2 + 100000 z_0_3 + 100000 z_0_4 + 100000 z_0_7 + 100000 z_0_9 <= 600683.1762680948
 c2936: 120 p_0_1 + 120 p_0_10 + 120 p_0_2 + 120 p_0_3 + 120 p_0_4 + 120 p_0_7 + 120 p_0_9 + 100000 z_0_1 + 100000 z_0_10 + 100000 z_0_2 + 100000 z_0_3 + 100000 z_0_4 + 100000 z_0_7 + 100000 z_0_9 <= 700676.09151661966
 c2937: 120 p_0_10 + 120 p_0_5 + 120 p_0_7 + 120 p_0_9 + 100000 z_0_10 + 100000 z_0_5 + 100000 z_0_7 + 100000 z_0_9 <= 400951.01253655419
 c2938: 120 p_0_1 + 120 p_0_10 + 120 p_0_5 + 120 p_0_7 + 120 p_0_9 + 100000 z_0_1 + 100000 z_0_10 + 100000 z_0_5 + 100000 z_0_7 + 100000 z_0_9 <= 500945.6561046993
 c2939: 120 p_0_10 + 120 p_0_2 + 120 p_0_5 + 120 p_0_7 + 120 p_0_9 + 100000 z_0_10 + 100000 z_0_2 + 100000 z_0_5 + 100000 z_0_7 + 100000 z_0_9 <= 500847.21534682572
 c2940: 120 p_0_1 + 120 p_0_10 + 120 p_0_2 + 120 p_0_5 + 120 p_0_7 + 120 p_0_9 + 100000 z_0_1 + 100000 z_0_10 + 100000 z_0_2 + 100000 z_0_5 + 100000 z_0_7 + 100000 z_0_9 <= 600841.85891497089
 c2941: 120 p_0_10 + 120 p_0_3 + 120 p_0_5 + 120 p_0_7 + 120 p_0_9 + 100000 z_0_10 + 100000 z_0_3 + 100000 z_0_5 + 100000 z_0_7 + 100000 z_0_9 <= 500779.07099611143
 c2942: 120 p_0_1 + 120 p_0_10 + 120 p_0_3 + 120 p_0_5 + 120 p_0_7 + 120 p_0_9 + 100000 z_0_1 + 100000 z_0_10 + 100000 z_0_3 + 100000 z_0_5 + 100000 z_0_7 + 100000 z_0_9 <= 600773.71456425649
 c2943: 120 p_0_10 + 120 p_0_2 + 120 p_0_3 + 120 p_0_5 + 120 p_0_7 + 120 p_0_9 + 100000 z_0_10 + 100000 z_0_2 + 100000 z_0_3 + 100000 z_0_5 + 100000 z_0_7 + 100000 z_0_9 <= 600681.32899473549
 c2944: 120 p_0_1 + 120 p_0_10 + 120 p_0_2 + 120 p_0_3 + 120 p_0_5 + 120 p_0_7 + 120 p_0_9 + 100000 z_0_1 + 100000 z_0_10 + 100000 z_0_2 + 100000 z_0_3 + 100000 z_0_5 + 100000 z_0_7 + 100000 z_0_9 <= 700675.9725628806
 c2945: 120 p_0_10 + 120 p_0_4 + 120 p_0_5 + 120 p_0_7 + 120 p_0_9 + 100000 z_0_10 + 100000 z_0_4 + 100000 z_0_5 + 100000 z_0_7 + 100000 z_0_9 <= 500949.81399346131
 c2946: 120 p_0_1 + 120 p_0_10 + 120 p_0_4 + 120 p_0_5 + 120 p_0_7 + 120 p_0_9 + 100000 z_0_1 + 100000 z_0_10 + 100000 z_0_4 + 100000 z_0_5 + 100000 z_0_7 + 100000 z_0_9 <= 600942.72924198606
 c2947: 120 p_0_10 + 120 p_0_2 + 120 p_0_4 + 120 p_0_5 + 120 p_0_7 + 120 p_0_9 + 100000 z_0_10 + 100000 z_0_2 + 100000 z_0_4 + 100000 z_0_5 + 100000 z_0_7 + 100000 z_0_9 <= 600846.01680373284
 c2948: 120 p_0_1 + 120 p_0_10 + 120 p_0_2 + 120 p_0_4 + 120 p_0_5 + 120 p_0_7 + 120 p_0_9 + 100000 z_0_1 + 100000 z_0_10 + 100000 z_0_2 + 100000 z_0_4 + 100000 z_0_5 + 100000 z_0_7 + 100000 z_0_9 <= 700838.9320522577
 c2949: 120 p_0_10 + 120 p_0_3 + 120 p_0_4 + 120 p_0_5 + 120 p_0_7 + 120 p_0_9 + 100000 z_0_10 + 100000 z_0_3 + 100000 z_0_4 + 100000 z_0_5 + 100000 z_0_7 + 100000 z_0_9 <= 600777.87245301856
 c2950: 120 p_0_1 + 120 p_0_10 + 120 p_0_3 + 120 p_0_4 + 120 p_0_5 + 120 p_0_7 + 120 p_0_9 + 100000 z_0_1 + 100000 z_0_10 + 100000 z_0_3 + 100000 z_0_4 + 100000 z_0_5 + 100000 z_0_7 + 100000 z_0_9 <= 700770.7877015433
 c2951: 120 p_0_10 + 120 p_0_2 + 120 p_0_3 + 120 p_0_4 + 120 p_0_5 + 120 p_0_7 + 120 p_0_9 + 100000 z_0_10 + 100000 z_0_2 + 100000 z_0_3 + 100000 z_0_4 + 100000 z_0_5 + 100000 z_0_7 + 100000 z_0_9 <= 700680.13045164256
 c2952: 120 p_0_1 + 120 p_0_10 + 120 p_0_2 + 120 p_0_3 + 120 p_0_4 + 120 p_0_5 + 120 p_0_7 + 120 p_0_9 + 100000 z_0_1 + 100000 z_0_10 + 100000 z_0_2 + 100000 z_0_3 + 100000 z_0_4 + 100000 z_0_5 + 100000 z_0_7 + 100000 z_0_9 <= 800673.04570016742
 c2953: 120 p_0_10 + 120 p_0_6 + 120 p_0_7 + 120 p_0_9 + 100000 z_0_10 + 100000 z_0_6 + 100000 z_0_7 + 100000 z_0_9 <= 401182.54920806701
 c2954: 120 p_0_1 + 120 p_0_10 + 120 p_0_6 + 120 p_0_7 + 120 p_0_9 + 100000 z_0_1 + 100000 z_0_10 + 100000 z_0_6 + 100000 z_0_7 + 100000 z_0_9 <= 501177.19277621218
 c2955: 120 p_0_10 + 120 p_0_2 + 120 p_0_6 + 120 p_0_7 + 120 p_0_9 + 100000 z_0_10 + 100000 z_0_2 + 100000 z_0_6 + 100000 z_0_7 + 100000 z_0_9 <= 500817.94029624452
 c2956: 120 p_0_1 + 120 p_0_10 + 120 p_0_2 + 120 p_0_6 + 120 p_0_7 + 120 p_0_9 + 100000 z_0_1 + 100000 z_0_10 + 100000 z_0_2 + 100000 z_0_6 + 100000 z_0_7 + 100000 z_0_9 <= 600812.58386438957
 c2957: 120 p_0_10 + 120 p_0_3 + 120 p_0_6 + 120 p_0_7 + 120 p_0_9 + 100000 z_0_10 + 100000 z_0_3 + 100000 z_0_6 + 100000 z_0_7 + 100000 z_0_9 <= 501038.38638743968
 c2958: 120 p_0_1 + 120 p_0_10 + 120 p_0_3 + 120 p_0_6 + 120 p_0_7 + 120 p_0_9 + 100000 z_0_1 + 100000 z_0_10 + 100000 z_0_3 + 100000 z_0_6 + 100000 z_0_7 + 100000 z_0_9 <= 601033.02995558479
 c2959: 120 p_0_10 + 120 p_0_2 + 120 p_0_3 + 120 p_0_6 + 120 p_0_7 + 120 p_0_9 + 100000 z_0_10 + 100000 z_0_2 + 100000 z_0_3 + 100000 z_0_6 + 100000 z_0_7 + 100000 z_0_9 <= 600673.77747561713
 c2960: 120 p_0_1 + 120 p_0_10 + 120 p_0_2 + 120 p_0_3 + 120 p_0_6 + 120 p_0_7 + 120 p_0_9 + 100000 z_0_1 + 100000 z_0_10 + 100000 z_0_2 + 100000 z_0_3 + 100000 z_0_6 + 100000 z_0_7 + 100000 z_0_9 <= 700668.42104376224
 c2961: 120 p_0_10 + 120 p_0_4 + 120 p_0_6 + 120 p_0_7 + 120 p_0_9 + 100000 z_0_10 + 100000 z_0_4 + 100000 z_0_6 + 100000 z_0_7 + 100000 z_0_9 <= 501181.35066497419
 c2962: 120 p_0_1 + 120 p_0_10 + 120 p_0_4 + 120 p_0_6 + 120 p_0_7 + 120 p_0_9 + 100000 z_0_1 + 100000 z_0_10 + 100000 z_0_4 + 100000 z_0_6 + 100000 z_0_7 + 100000 z_0_9 <= 601174.26591349894
 c2963: 120 p_0_10 + 120 p_0_2 + 120 p_0_4 + 120 p_0_6 + 120 p_0_7 + 120 p_0_9 + 100000 z_0_10 + 100000 z_0_2 + 100000 z_0_4 + 100000 z_0_6 + 100000 z_0_7 + 100000 z_0_9 <= 600816.74175315164
 c2964: 120 p_0_1 + 120 p_0_10 + 120 p_0_2 + 120 p_0_4 + 120 p_0_6 + 120 p_0_7 + 120 p_0_9 + 100000 z_0_1 + 100000 z_0_10 + 100000 z_0_2 + 100000 z_0_4 + 100000 z_0_6 + 100000 z_0_7 + 100000 z_0_9 <= 700809.65700167639
 c2965: 120 p_0_10 + 120 p_0_3 + 120 p_0_4 + 120 p_0_6 + 120 p_0_7 + 120 p_0_9 + 100000 z_0_10 + 100000 z_0_3 + 100000 z_0_4 + 100000 z_0_6 + 100000 z_0_7 + 100000 z_0_9 <= 601037.18784434686
 c2966: 120 p_0_1 + 120 p_0_10 + 120 p_0_3 + 120 p_0_4 + 120 p_0_6 + 120 p_0_7 + 120 p_0_9 + 100000 z_0_1 + 100000 z_0_10 + 100000 z_0_3 + 100000 z_0_4 + 100000 z_0_6 + 100000 z_0_7 + 100000 z_0_9 <= 701030.10309287161
 c2967: 120 p_0_10 + 120 p_0_2 + 120 p_0_3 + 120 p_0_4 + 120 p_0_6 + 120 p_0_7 + 120 p_0_9 + 100000 z_0_10 + 100000 z_0_2 + 100000 z_0_3 + 100000 z_0_4 + 100000 z_0_6 + 100000 z_0_7 + 100000 z_0_9 <= 700672.57893252431
 c2968: 120 p_0_1 + 120 p_0_10 + 120 p_0_2 + 120 p_0_3 + 120 p_0_4 + 120 p_0_6 + 120 p_0_7 + 120 p_0_9 + 100000 z_0_1 + 100000 z_0_10 + 100000 z_0_2 + 100000 z_0_3 + 100000 z_0_4 + 100000 z_0_6 + 100000 z_0_7 + 100000 z_0_9 <= 800665.49418104906
 c2969: 120 p_0_10 + 120 p_0_5 + 120 p_0_6 + 120 p_0_7 + 120 p_0_9 + 100000 z_0_10 + 100000 z_0_5 + 100000 z_0_6 + 100000 z_0_7 + 100000 z_0_9 <= 500915.56158278277
 c2970: 120 p_0_1 + 120 p_0_10 + 120 p_0_5 + 120 p_0_6 + 120 p_0_7 + 120 p_0_9 + 100000 z_0_1 + 100000 z_0_10 + 100000 z_0_5 + 100000 z_0_6 + 100000 z_0_7 + 100000 z_0_9 <= 600910.20515092788
 c2971: 120 p_0_10 + 120 p_0_2 + 120 p_0_5 + 120 p_0_6 + 120 p_0_7 + 120 p_0_9 + 100000 z_0_10 + 100000 z_0_2 + 100000 z_0_5 + 100000 z_0_6 + 100000 z_0_7 + 100000 z_0_9 <= 600814.89447979222
 c2972: 120 p_0_1 + 120 p_0_10 + 120 p_0_2 + 120 p_0_5 + 120 p_0_6 + 120 p_0_7 + 120 p_0_9 + 100000 z_0_1 + 100000 z_0_10 + 100000 z_0_2 + 100000 z_0_5 + 100000 z_0_6 + 100000 z_0_7 + 100000 z_0_9 <= 700809.53804793733
 c2973: 120 p_0_10 + 120 p_0_3 + 120 p_0_5 + 120 p_0_6 + 120 p_0_7 + 120 p_0_9 + 100000 z_0_10 + 100000 z_0_3 + 100000 z_0_5 + 100000 z_0_6 + 100000 z_0_7 + 100000 z_0_9 <= 600771.39876215544
 c2974: 120 p_0_1 + 120 p_0_10 + 120 p_0_3 + 120 p_0_5 + 120 p_0_6 + 120 p_0_7 + 120 p_0_9 + 100000 z_0_1 + 100000 z_0_10 + 100000 z_0_3 + 100000 z_0_5 + 100000 z_0_6 + 100000 z_0_7 + 100000 z_0_9 <= 700766.04233030055
 c2975: 120 p_0_10 + 120 p_0_2 + 120 p_0_3 + 120 p_0_5 + 120 p_0_6 + 120 p_0_7 + 120 p_0_9 + 100000 z_0_10 + 100000 z_0_2 + 100000 z_0_3 + 100000 z_0_5 + 100000 z_0_6 + 100000 z_0_7 + 100000 z_0_9 <= 700670.73165916489
 c2976: 120 p_0_1 + 120 p_0_10 + 120 p_0_2 + 120 p_0_3 + 120 p_0_5 + 120 p_0_6 + 120 p_0_7 + 120 p_0_9 + 100000 z_0_1 + 100000 z_0_10 + 100000 z_0_2 + 100000 z_0_3 + 100000 z_0_5 + 100000 z_0_6 + 100000 z_0_7 + 100000 z_0_9 <= 800665.37522731
 c2977: 120 p_0_10 + 120 p_0_4 + 120 p_0_5 + 120 p_0_6 + 120 p_0_7 + 120 p_0_9 + 100000 z_0_10 + 100000 z_0_4 + 100000 z_0_5 + 100000 z_0_6 + 100000 z_0_7 + 100000 z_0_9 <= 600914.36303968995
 c2978: 120 p_0_1 + 120 p_0_10 + 120 p_0_4 + 120 p_0_5 + 120 p_0_6 + 120 p_0_7 + 120 p_0_9 + 100000 z_0_1 + 100000 z_0_10 + 100000 z_0_4 + 100000 z_0_5 + 100000 z_0_6 + 100000 z_0_7 + 100000 z_0_9 <= 700907.2782882147
 c2979: 120 p_0_10 + 120 p_0_2 + 120 p_0_4 + 120 p_0_5 + 120 p_0_6 + 120 p_0_7 + 120 p_0_9 + 100000 z_0_10 + 100000 z_0_2 + 100000 z_0_4 + 100000 z_0_5 + 100000 z_0_6 + 100000 z_0_7 + 100000 z_0_9 <= 700813.6959366994
 c2980: 120 p_0_1 + 120 p_0_10 + 120 p_0_2 + 120 p_0_4 + 120 p_0_5 + 120 p_0_6 + 120 p_0_7 + 120 p_0_9 + 100000 z_0_1 + 100000 z_0_10 + 100000 z_0_2 + 100000 z_0_4 + 100000 z_0_5 + 100000 z_0_6 + 100000 z_0_7 + 100000 z_0_9 <= 800806.61118522414
 c2981: 120 p_0_10 + 120 p_0_3 + 120 p_0_4 + 120 p_0_5 + 120 p_0_6 + 120 p_0_7 + 120 p_0_9 + 100000 z_0_10 + 100000 z_0_3 + 100000 z_0_4 + 100000 z_0_5 + 100000 z_0_6 + 100000 z_0_7 + 100000 z_0_9 <= 700770.20021906262
 c2982: 120 p_0_1 + 120 p_0_10 + 120 p_0_3 + 120 p_0_4 + 120 p_0_5 + 120 p_0_6 + 120 p_0_7 + 120 p_0_9 + 100000 z_0_1 + 100000 z_0_10 + 100000 z_0_3 + 100000 z_0_4 + 100000 z_0_5 + 100000 z_0_6 + 100000 z_0_7 + 100000 z_0_9 <= 800763.11546758737
 c2983: 120 p_0_10 + 120 p_0_2 + 120 p_0_3 + 120 p_0_4 + 120 p_0_5 + 120 p_0_6 + 120 p_0_7 + 120 p_0_9 + 100000 z_0_10 + 100000 z_0_2 + 100000 z_0_3 + 100000 z_0_4 + 100000 z_0_5 + 100000 z_0_6 + 100000 z_0_7 + 100000 z_0_9 <= 800669.53311607207
 c2984: 120 p_0_1 + 120 p_0_10 + 120 p_0_2 + 120 p_0_3 + 120 p_0_4 + 120 p_0_5 + 120 p_0_6 + 120 p_0_7 + 120 p_0_9 + 100000 z_0_1 + 100000 z_0_10 + 100000 z_0_2 + 100000 z_0_3 + 100000 z_0_4 + 100000 z_0_5 + 100000 z_0_6 + 100000 z_0_7 + 100000 z_0_9 <= 900662.44836459681
 c2985: 120 p_0_10 + 120 p_0_8 + 120 p_0_9 + 100000 z_0_10 + 100000 z_0_8 + 100000 z_0_9 <= 301079.10019803961
 c2986: 120 p_0_1 + 120 p_0_10 + 120 p_0_8 + 120 p_0_9 + 100000 z_0_1 + 100000 z_0_10 + 100000 z_0_8 + 100000 z_0_9 <= 400926.5783307571
 c2987: 120 p_0_10 + 120 p_0_2 + 120 p_0_8 + 120 p_0_9 + 100000 z_0_10 + 100000 z_0_2 + 100000 z_0_8 + 100000 z_0_9 <= 401006.14437380387
 c2988: 120 p_0_1 + 120 p_0_10 + 120 p_0_2 + 120 p_0_8 + 120 p_0_9 + 100000 z_0_1 + 100000 z_0_10 + 100000 z_0_2 + 100000 z_0_8 + 100000 z_0_9 <= 500852.93341568287
 c2989: 120 p_0_10 + 120 p_0_3 + 120 p_0_8 + 120 p_0_9 + 100000 z_0_10 + 100000 z_0_3 + 100000 z_0_8 + 100000 z_0_9 <= 400916.30420016591
 c2990: 120 p_0_1 + 120 p_0_10 + 120 p_0_3 + 120 p_0_8 + 120 p_0_9 + 100000 z_0_1 + 100000 z_0_10 + 100000 z_0_3 + 100000 z_0_8 + 100000 z_0_9 <= 500763.78233288339
 c2991: 120 p_0_10 + 120 p_0_2 + 120 p_0_3 + 120 p_0_8 + 120 p_0_9 + 100000 z_0_10 + 100000 z_0_2 + 100000 z_0_3 + 100000 z_0_8 + 100000 z_0_9 <= 500843.34837593022
 c2992: 120 p_0_1 + 120 p_0_10 + 120 p_0_2 + 120 p_0_3 + 120 p_0_8 + 120 p_0_9 + 100000 z_0_1 + 100000 z_0_10 + 100000 z_0_2 + 100000 z_0_3 + 100000 z_0_8 + 100000 z_0_9 <= 600690.13741780922
 c2993: 120 p_0_10 + 120 p_0_4 + 120 p_0_8 + 120 p_0_9 + 100000 z_0_10 + 100000 z_0_4 + 100000 z_0_8 + 100000 z_0_9 <= 401064.72493051895
 c2994: 120 p_0_1 + 120 p_0_10 + 120 p_0_4 + 120 p_0_8 + 120 p_0_9 + 100000 z_0_1 + 100000 z_0_10 + 100000 z_0_4 + 100000 z_0_8 + 100000 z_0_9 <= 500923.65146804386
 c2995: 120 p_0_10 + 120 p_0_2 + 120 p_0_4 + 120 p_0_8 + 120 p_0_9 + 100000 z_0_10 + 100000 z_0_2 + 100000 z_0_4 + 100000 z_0_8 + 100000 z_0_9 <= 500991.08001544472
 c2996: 120 p_0_1 + 120 p_0_10 + 120 p_0_2 + 120 p_0_4 + 120 p_0_8 + 120 p_0_9 + 100000 z_0_1 + 100000 z_0_10 + 100000 z_0_2 + 100000 z_0_4 + 100000 z_0_8 + 100000 z_0_9 <= 600850.00655296969
 c2997: 120 p_0_10 + 120 p_0_3 + 120 p_0_4 + 120 p_0_8 + 120 p_0_9 + 100000 z_0_10 + 100000 z_0_3 + 100000 z_0_4 + 100000 z_0_8 + 100000 z_0_9 <= 500901.92893264524
 c2998: 120 p_0_1 + 120 p_0_10 + 120 p_0_3 + 120 p_0_4 + 120 p_0_8 + 120 p_0_9 + 100000 z_0_1 + 100000 z_0_10 + 100000 z_0_3 + 100000 z_0_4 + 100000 z_0_8 + 100000 z_0_9 <= 600760.85547017015
 c2999: 120 p_0_10 + 120 p_0_2 + 120 p_0_3 + 120 p_0_4 + 120 p_0_8 + 120 p_0_9 + 100000 z_0_10 + 100000 z_0_2 + 100000 z_0_3 + 100000 z_0_4 + 100000 z_0_8 + 100000 z_0_9 <= 600828.28401757102
 c3000: 120 p_0_1 + 120 p_0_10 + 120 p_0_2 + 120 p_0_3 + 120 p_0_4 + 120 p_0_8 + 120 p_0_9 + 100000 z_0_1 + 100000 z_0_10 + 100000 z_0_2 + 100000 z_0_3 + 100000 z_0_4 + 100000 z_0_8 + 100000 z_0_9 <= 700687.21055509604
 c3001: 120 p_0_10 + 120 p_0_5 + 120 p_0_8 + 120 p_0_9 + 100000 z_0_10 + 100000 z_0_5 + 100000 z_0_8 + 100000 z_0_9 <= 401072.47122024355
 c3002: 120 p_0_1 + 120 p_0_10 + 120 p_0_5 + 120 p_0_8 + 120 p_0_9 + 100000 z_0_1 + 100000 z_0_10 + 100000 z_0_5 + 100000 z_0_8 + 100000 z_0_9 <= 500919.94935296103
 c3003: 120 p_0_10 + 120 p_0_2 + 120 p_0_5 + 120 p_0_8 + 120 p_0_9 + 100000 z_0_10 + 100000 z_0_2 + 100000 z_0_5 + 100000 z_0_8 + 100000 z_0_9 <= 501002.40946651314
 c3004: 120 p_0_1 + 120 p_0_10 + 120 p_0_2 + 120 p_0_5 + 120 p_0_8 + 120 p_0_9 + 100000 z_0_1 + 100000 z_0_10 + 100000 z_0_2 + 100000 z_0_5 + 100000 z_0_8 + 100000 z_0_9 <= 600849.88759923063
 c3005: 120 p_0_10 + 120 p_0_3 + 120 p_0_5 + 120 p_0_8 + 120 p_0_9 + 100000 z_0_10 + 100000 z_0_3 + 100000 z_0_5 + 100000 z_0_8 + 100000 z_0_9 <= 500909.67522236984
 c3006: 120 p_0_1 + 120 p_0_10 + 120 p_0_3 + 120 p_0_5 + 120 p_0_8 + 120 p_0_9 + 100000 z_0_1 + 100000 z_0_10 + 100000 z_0_3 + 100000 z_0_5 + 100000 z_0_8 + 100000 z_0_9 <= 600757.15335508739
 c3007: 120 p_0_10 + 120 p_0_2 + 120 p_0_3 + 120 p_0_5 + 120 p_0_8 + 120 p_0_9 + 100000 z_0_10 + 100000 z_0_2 + 100000 z_0_3 + 100000 z_0_5 + 100000 z_0_8 + 100000 z_0_9 <= 600839.61346863944
 c3008: 120 p_0_1 + 120 p_0_10 + 120 p_0_2 + 120 p_0_3 + 120 p_0_5 + 120 p_0_8 + 120 p_0_9 + 100000 z_0_1 + 100000 z_0_10 + 100000 z_0_2 + 100000 z_0_3 + 100000 z_0_5 + 100000 z_0_8 + 100000 z_0_9 <= 700687.09160135698
 c3009: 120 p_0_10 + 120 p_0_4 + 120 p_0_5 + 120 p_0_8 + 120 p_0_9 + 100000 z_0_10 + 100000 z_0_4 + 100000 z_0_5 + 100000 z_0_8 + 100000 z_0_9 <= 501058.09595272288
 c3010: 120 p_0_1 + 120 p_0_10 + 120 p_0_4 + 120 p_0_5 + 120 p_0_8 + 120 p_0_9 + 100000 z_0_1 + 100000 z_0_10 + 100000 z_0_4 + 100000 z_0_5 + 100000 z_0_8 + 100000 z_0_9 <= 600917.02249024785
 c3011: 120 p_0_10 + 120 p_0_2 + 120 p_0_4 + 120 p_0_5 + 120 p_0_8 + 120 p_0_9 + 100000 z_0_10 + 100000 z_0_2 + 100000 z_0_4 + 100000 z_0_5 + 100000 z_0_8 + 100000 z_0_9 <= 600988.03419899242
 c3012: 120 p_0_1 + 120 p_0_10 + 120 p_0_2 + 120 p_0_4 + 120 p_0_5 + 120 p_0_8 + 120 p_0_9 + 100000 z_0_1 + 100000 z_0_10 + 100000 z_0_2 + 100000 z_0_4 + 100000 z_0_5 + 100000 z_0_8 + 100000 z_0_9 <= 700846.96073651745
 c3013: 120 p_0_10 + 120 p_0_3 + 120 p_0_4 + 120 p_0_5 + 120 p_0_8 + 120 p_0_9 + 100000 z_0_10 + 100000 z_0_3 + 100000 z_0_4 + 100000 z_0_5 + 100000 z_0_8 + 100000 z_0_9 <= 600895.29995484918
 c3014: 120 p_0_1 + 120 p_0_10 + 120 p_0_3 + 120 p_0_4 + 120 p_0_5 + 120 p_0_8 + 120 p_0_9 + 100000 z_0_1 + 100000 z_0_10 + 100000 z_0_3 + 100000 z_0_4 + 100000 z_0_5 + 100000 z_0_8 + 100000 z_0_9 <= 700754.2264923742
 c3015: 120 p_0_10 + 120 p_0_2 + 120 p_0_3 + 120 p_0_4 + 120 p_0_5 + 120 p_0_8 + 120 p_0_9 + 100000 z_0_10 + 100000 z_0_2 + 100000 z_0_3 + 100000 z_0_4 + 100000 z_0_5 + 100000 z_0_8 + 100000 z_0_9 <= 700825.23820111877
 c3016: 120 p_0_1 + 120 p_0_10 + 120 p_0_2 + 120 p_0_3 + 120 p_0_4 + 120 p_0_5 + 120 p_0_8 + 120 p_0_9 + 100000 z_0_1 + 100000 z_0_10 + 100000 z_0_2 + 100000 z_0_3 + 100000 z_0_4 + 100000 z_0_5 + 100000 z_0_8 + 100000 z_0_9 <= 800684.1647386438
 c3017: 120 p_0_10 + 120 p_0_6 + 120 p_0_8 + 120 p_0_9 + 100000 z_0_10 + 100000 z_0_6 + 100000 z_0_8 + 100000 z_0_9 <= 401049.19442787673
 c3018: 120 p_0_1 + 120 p_0_10 + 120 p_0_6 + 120 p_0_8 + 120 p_0_9 + 100000 z_0_1 + 100000 z_0_10 + 100000 z_0_6 + 100000 z_0_8 + 100000 z_0_9 <= 500896.67256059422
 c3019: 120 p_0_10 + 120 p_0_2 + 120 p_0_6 + 120 p_0_8 + 120 p_0_9 + 100000 z_0_10 + 100000 z_0_2 + 100000 z_0_6 + 100000 z_0_8 + 100000 z_0_9 <= 500976.23860364105
 c3020: 120 p_0_1 + 120 p_0_10 + 120 p_0_2 + 120 p_0_6 + 120 p_0_8 + 120 p_0_9 + 100000 z_0_1 + 100000 z_0_10 + 100000 z_0_2 + 100000 z_0_6 + 100000 z_0_8 + 100000 z_0_9 <= 600823.02764552005
 c3021: 120 p_0_10 + 120 p_0_3 + 120 p_0_6 + 120 p_0_8 + 120 p_0_9 + 100000 z_0_10 + 100000 z_0_3 + 100000 z_0_6 + 100000 z_0_8 + 100000 z_0_9 <= 500905.0316072494
 c3022: 120 p_0_1 + 120 p_0_10 + 120 p_0_3 + 120 p_0_6 + 120 p_0_8 + 120 p_0_9 + 100000 z_0_1 + 100000 z_0_10 + 100000 z_0_3 + 100000 z_0_6 + 100000 z_0_8 + 100000 z_0_9 <= 600752.50973996683
 c3023: 120 p_0_10 + 120 p_0_2 + 120 p_0_3 + 120 p_0_6 + 120 p_0_8 + 120 p_0_9 + 100000 z_0_10 + 100000 z_0_2 + 100000 z_0_3 + 100000 z_0_6 + 100000 z_0_8 + 100000 z_0_9 <= 600832.07578301372
 c3024: 120 p_0_1 + 120 p_0_10 + 120 p_0_2 + 120 p_0_3 + 120 p_0_6 + 120 p_0_8 + 120 p_0_9 + 100000 z_0_1 + 100000 z_0_10 + 100000 z_0_2 + 100000 z_0_3 + 100000 z_0_6 + 100000 z_0_8 + 100000 z_0_9 <= 700678.8648248926
 c3025: 120 p_0_10 + 120 p_0_4 + 120 p_0_6 + 120 p_0_8 + 120 p_0_9 + 100000 z_0_10 + 100000 z_0_4 + 100000 z_0_6 + 100000 z_0_8 + 100000 z_0_9 <= 501034.81916035607
 c3026: 120 p_0_1 + 120 p_0_10 + 120 p_0_4 + 120 p_0_6 + 120 p_0_8 + 120 p_0_9 + 100000 z_0_1 + 100000 z_0_10 + 100000 z_0_4 + 100000 z_0_6 + 100000 z_0_8 + 100000 z_0_9 <= 600893.74569788098
 c3027: 120 p_0_10 + 120 p_0_2 + 120 p_0_4 + 120 p_0_6 + 120 p_0_8 + 120 p_0_9 + 100000 z_0_10 + 100000 z_0_2 + 100000 z_0_4 + 100000 z_0_6 + 100000 z_0_8 + 100000 z_0_9 <= 600961.17424528184
 c3028: 120 p_0_1 + 120 p_0_10 + 120 p_0_2 + 120 p_0_4 + 120 p_0_6 + 120 p_0_8 + 120 p_0_9 + 100000 z_0_1 + 100000 z_0_10 + 100000 z_0_2 + 100000 z_0_4 + 100000 z_0_6 + 100000 z_0_8 + 100000 z_0_9 <= 700820.10078280675
 c3029: 120 p_0_10 + 120 p_0_3 + 120 p_0_4 + 120 p_0_6 + 120 p_0_8 + 120 p_0_9 + 100000 z_0_10 + 100000 z_0_3 + 100000 z_0_4 + 100000 z_0_6 + 100000 z_0_8 + 100000 z_0_9 <= 600890.65633972874
 c3030: 120 p_0_1 + 120 p_0_10 + 120 p_0_3 + 120 p_0_4 + 120 p_0_6 + 120 p_0_8 + 120 p_0_9 + 100000 z_0_1 + 100000 z_0_10 + 100000 z_0_3 + 100000 z_0_4 + 100000 z_0_6 + 100000 z_0_8 + 100000 z_0_9 <= 700749.58287725365
 c3031: 120 p_0_10 + 120 p_0_2 + 120 p_0_3 + 120 p_0_4 + 120 p_0_6 + 120 p_0_8 + 120 p_0_9 + 100000 z_0_10 + 100000 z_0_2 + 100000 z_0_3 + 100000 z_0_4 + 100000 z_0_6 + 100000 z_0_8 + 100000 z_0_9 <= 700817.01142465451
 c3032: 120 p_0_1 + 120 p_0_10 + 120 p_0_2 + 120 p_0_3 + 120 p_0_4 + 120 p_0_6 + 120 p_0_8 + 120 p_0_9 + 100000 z_0_1 + 100000 z_0_10 + 100000 z_0_2 + 100000 z_0_3 + 100000 z_0_4 + 100000 z_0_6 + 100000 z_0_8 + 100000 z_0_9 <= 800675.93796217942
 c3033: 120 p_0_10 + 120 p_0_5 + 120 p_0_6 + 120 p_0_8 + 120 p_0_9 + 100000 z_0_10 + 100000 z_0_5 + 100000 z_0_6 + 100000 z_0_8 + 100000 z_0_9 <= 501042.56545008067
 c3034: 120 p_0_1 + 120 p_0_10 + 120 p_0_5 + 120 p_0_6 + 120 p_0_8 + 120 p_0_9 + 100000 z_0_1 + 100000 z_0_10 + 100000 z_0_5 + 100000 z_0_6 + 100000 z_0_8 + 100000 z_0_9 <= 600890.04358279821
 c3035: 120 p_0_10 + 120 p_0_2 + 120 p_0_5 + 120 p_0_6 + 120 p_0_8 + 120 p_0_9 + 100000 z_0_10 + 100000 z_0_2 + 100000 z_0_5 + 100000 z_0_6 + 100000 z_0_8 + 100000 z_0_9 <= 600972.50369635026
 c3036: 120 p_0_1 + 120 p_0_10 + 120 p_0_2 + 120 p_0_5 + 120 p_0_6 + 120 p_0_8 + 120 p_0_9 + 100000 z_0_1 + 100000 z_0_10 + 100000 z_0_2 + 100000 z_0_5 + 100000 z_0_6 + 100000 z_0_8 + 100000 z_0_9 <= 700819.98182906781
 c3037: 120 p_0_10 + 120 p_0_3 + 120 p_0_5 + 120 p_0_6 + 120 p_0_8 + 120 p_0_9 + 100000 z_0_10 + 100000 z_0_3 + 100000 z_0_5 + 100000 z_0_6 + 100000 z_0_8 + 100000 z_0_9 <= 600898.40262945334
 c3038: 120 p_0_1 + 120 p_0_10 + 120 p_0_3 + 120 p_0_5 + 120 p_0_6 + 120 p_0_8 + 120 p_0_9 + 100000 z_0_1 + 100000 z_0_10 + 100000 z_0_3 + 100000 z_0_5 + 100000 z_0_6 + 100000 z_0_8 + 100000 z_0_9 <= 700745.88076217088
 c3039: 120 p_0_10 + 120 p_0_2 + 120 p_0_3 + 120 p_0_5 + 120 p_0_6 + 120 p_0_8 + 120 p_0_9 + 100000 z_0_10 + 100000 z_0_2 + 100000 z_0_3 + 100000 z_0_5 + 100000 z_0_6 + 100000 z_0_8 + 100000 z_0_9 <= 700828.34087572293
 c3040: 120 p_0_1 + 120 p_0_10 + 120 p_0_2 + 120 p_0_3 + 120 p_0_5 + 120 p_0_6 + 120 p_0_8 + 120 p_0_9 + 100000 z_0_1 + 100000 z_0_10 + 100000 z_0_2 + 100000 z_0_3 + 100000 z_0_5 + 100000 z_0_6 + 100000 z_0_8 + 100000 z_0_9 <= 800675.81900844036
 c3041: 120 p_0_10 + 120 p_0_4 + 120 p_0_5 + 120 p_0_6 + 120 p_0_8 + 120 p_0_9 + 100000 z_0_10 + 100000 z_0_4 + 100000 z_0_5 + 100000 z_0_6 + 100000 z_0_8 + 100000 z_0_9 <= 601028.19018256001
 c3042: 120 p_0_1 + 120 p_0_10 + 120 p_0_4 + 120 p_0_5 + 120 p_0_6 + 120 p_0_8 + 120 p_0_9 + 100000 z_0_1 + 100000 z_0_10 + 100000 z_0_4 + 100000 z_0_5 + 100000 z_0_6 + 100000 z_0_8 + 100000 z_0_9 <= 700887.11672008503
 c3043: 120 p_0_10 + 120 p_0_2 + 120 p_0_4 + 120 p_0_5 + 120 p_0_6 + 120 p_0_8 + 120 p_0_9 + 100000 z_0_10 + 100000 z_0_2 + 100000 z_0_4 + 100000 z_0_5 + 100000 z_0_6 + 100000 z_0_8 + 100000 z_0_9 <= 700958.1284288296
 c3044: 120 p_0_1 + 120 p_0_10 + 120 p_0_2 + 120 p_0_4 + 120 p_0_5 + 120 p_0_6 + 120 p_0_8 + 120 p_0_9 + 100000 z_0_1 + 100000 z_0_10 + 100000 z_0_2 + 100000 z_0_4 + 100000 z_0_5 + 100000 z_0_6 + 100000 z_0_8 + 100000 z_0_9 <= 800817.05496635451
 c3045: 120 p_0_10 + 120 p_0_3 + 120 p_0_4 + 120 p_0_5 + 120 p_0_6 + 120 p_0_8 + 120 p_0_9 + 100000 z_0_10 + 100000 z_0_3 + 100000 z_0_4 + 100000 z_0_5 + 100000 z_0_6 + 100000 z_0_8 + 100000 z_0_9 <= 700884.02736193268
 c3046: 120 p_0_1 + 120 p_0_10 + 120 p_0_3 + 120 p_0_4 + 120 p_0_5 + 120 p_0_6 + 120 p_0_8 + 120 p_0_9 + 100000 z_0_1 + 100000 z_0_10 + 100000 z_0_3 + 100000 z_0_4 + 100000 z_0_5 + 100000 z_0_6 + 100000 z_0_8 + 100000 z_0_9 <= 800742.95389945759
 c3047: 120 p_0_10 + 120 p_0_2 + 120 p_0_3 + 120 p_0_4 + 120 p_0_5 + 120 p_0_6 + 120 p_0_8 + 120 p_0_9 + 100000 z_0_10 + 100000 z_0_2 + 100000 z_0_3 + 100000 z_0_4 + 100000 z_0_5 + 100000 z_0_6 + 100000 z_0_8 + 100000 z_0_9 <= 800813.96560820227
 c3048: 120 p_0_1 + 120 p_0_10 + 120 p_0_2 + 120 p_0_3 + 120 p_0_4 + 120 p_0_5 + 120 p_0_6 + 120 p_0_8 + 120 p_0_9 + 100000 z_0_1 + 100000 z_0_10 + 100000 z_0_2 + 100000 z_0_3 + 100000 z_0_4 + 100000 z_0_5 + 100000 z_0_6 + 100000 z_0_8 + 100000 z_0_9 <= 900672.89214572718
 c3049: 120 p_0_10 + 120 p_0_7 + 120 p_0_8 + 120 p_0_9 + 100000 z_0_10 + 100000 z_0_7 + 100000 z_0_8 + 100000 z_0_9 <= 400920.72142947855
 c3050: 120 p_0_1 + 120 p_0_10 + 120 p_0_7 + 120 p_0_8 + 120 p_0_9 + 100000 z_0_1 + 100000 z_0_10 + 100000 z_0_7 + 100000 z_0_8 + 100000 z_0_9 <= 500915.36499762366
 c3051: 120 p_0_10 + 120 p_0_2 + 120 p_0_7 + 120 p_0_8 + 120 p_0_9 + 100000 z_0_10 + 100000 z_0_2 + 100000 z_0_7 + 100000 z_0_8 + 100000 z_0_9 <= 500847.07651440433
 c3052: 120 p_0_1 + 120 p_0_10 + 120 p_0_2 + 120 p_0_7 + 120 p_0_8 + 120 p_0_9 + 100000 z_0_1 + 100000 z_0_10 + 100000 z_0_2 + 100000 z_0_7 + 100000 z_0_8 + 100000 z_0_9 <= 600841.72008254949
 c3053: 120 p_0_10 + 120 p_0_3 + 120 p_0_7 + 120 p_0_8 + 120 p_0_9 + 100000 z_0_10 + 100000 z_0_3 + 100000 z_0_7 + 100000 z_0_8 + 100000 z_0_9 <= 500757.9254316049
 c3054: 120 p_0_1 + 120 p_0_10 + 120 p_0_3 + 120 p_0_7 + 120 p_0_8 + 120 p_0_9 + 100000 z_0_1 + 100000 z_0_10 + 100000 z_0_3 + 100000 z_0_7 + 100000 z_0_8 + 100000 z_0_9 <= 600752.56899974996
 c3055: 120 p_0_10 + 120 p_0_2 + 120 p_0_3 + 120 p_0_7 + 120 p_0_8 + 120 p_0_9 + 100000 z_0_10 + 100000 z_0_2 + 100000 z_0_3 + 100000 z_0_7 + 100000 z_0_8 + 100000 z_0_9 <= 600684.28051653062
 c3056: 120 p_0_1 + 120 p_0_10 + 120 p_0_2 + 120 p_0_3 + 120 p_0_7 + 120 p_0_8 + 120 p_0_9 + 100000 z_0_1 + 100000 z_0_10 + 100000 z_0_2 + 100000 z_0_3 + 100000 z_0_7 + 100000 z_0_8 + 100000 z_0_9 <= 700678.92408467573
 c3057: 120 p_0_10 + 120 p_0_4 + 120 p_0_7 + 120 p_0_8 + 120 p_0_9 + 100000 z_0_10 + 100000 z_0_4 + 100000 z_0_7 + 100000 z_0_8 + 100000 z_0_9 <= 500919.52288638568
 c3058: 120 p_0_1 + 120 p_0_10 + 120 p_0_4 + 120 p_0_7 + 120 p_0_8 + 120 p_0_9 + 100000 z_0_1 + 100000 z_0_10 + 100000 z_0_4 + 100000 z_0_7 + 100000 z_0_8 + 100000 z_0_9 <= 600912.43813491054
 c3059: 120 p_0_10 + 120 p_0_2 + 120 p_0_4 + 120 p_0_7 + 120 p_0_8 + 120 p_0_9 + 100000 z_0_10 + 100000 z_0_2 + 100000 z_0_4 + 100000 z_0_7 + 100000 z_0_8 + 100000 z_0_9 <= 600845.87797131145
 c3060: 120 p_0_1 + 120 p_0_10 + 120 p_0_2 + 120 p_0_4 + 120 p_0_7 + 120 p_0_8 + 120 p_0_9 + 100000 z_0_1 + 100000 z_0_10 + 100000 z_0_2 + 100000 z_0_4 + 100000 z_0_7 + 100000 z_0_8 + 100000 z_0_9 <= 700838.79321983631
 c3061: 120 p_0_10 + 120 p_0_3 + 120 p_0_4 + 120 p_0_7 + 120 p_0_8 + 120 p_0_9 + 100000 z_0_10 + 100000 z_0_3 + 100000 z_0_4 + 100000 z_0_7 + 100000 z_0_8 + 100000 z_0_9 <= 600756.72688851203
 c3062: 120 p_0_1 + 120 p_0_10 + 120 p_0_3 + 120 p_0_4 + 120 p_0_7 + 120 p_0_8 + 120 p_0_9 + 100000 z_0_1 + 100000 z_0_10 + 100000 z_0_3 + 100000 z_0_4 + 100000 z_0_7 + 100000 z_0_8 + 100000 z_0_9 <= 700749.64213703678
 c3063: 120 p_0_10 + 120 p_0_2 + 120 p_0_3 + 120 p_0_4 + 120 p_0_7 + 120 p_0_8 + 120 p_0_9 + 100000 z_0_10 + 100000 z_0_2 + 100000 z_0_3 + 100000 z_0_4 + 100000 z_0_7 + 100000 z_0_8 + 100000 z_0_9 <= 700683.0819734378
 c3064: 120 p_0_1 + 120 p_0_10 + 120 p_0_2 + 120 p_0_3 + 120 p_0_4 + 120 p_0_7 + 120 p_0_8 + 120 p_0_9 + 100000 z_0_1 + 100000 z_0_10 + 100000 z_0_2 + 100000 z_0_3 + 100000 z_0_4 + 100000 z_0_7 + 100000 z_0_8 + 100000 z_0_9 <= 800675.99722196255
 c3065: 120 p_0_10 + 120 p_0_5 + 120 p_0_7 + 120 p_0_8 + 120 p_0_9 + 100000 z_0_10 + 100000 z_0_5 + 100000 z_0_7 + 100000 z_0_8 + 100000 z_0_9 <= 500914.09245168249
 c3066: 120 p_0_1 + 120 p_0_10 + 120 p_0_5 + 120 p_0_7 + 120 p_0_8 + 120 p_0_9 + 100000 z_0_1 + 100000 z_0_10 + 100000 z_0_5 + 100000 z_0_7 + 100000 z_0_8 + 100000 z_0_9 <= 600908.73601982766
 c3067: 120 p_0_10 + 120 p_0_2 + 120 p_0_5 + 120 p_0_7 + 120 p_0_8 + 120 p_0_9 + 100000 z_0_10 + 100000 z_0_2 + 100000 z_0_5 + 100000 z_0_7 + 100000 z_0_8 + 100000 z_0_9 <= 600844.03069795214
 c3068: 120 p_0_1 + 120 p_0_10 + 120 p_0_2 + 120 p_0_5 + 120 p_0_7 + 120 p_0_8 + 120 p_0_9 + 100000 z_0_1 + 100000 z_0_10 + 100000 z_0_2 + 100000 z_0_5 + 100000 z_0_7 + 100000 z_0_8 + 100000 z_0_9 <= 700838.67426609725
 c3069: 120 p_0_10 + 120 p_0_3 + 120 p_0_5 + 120 p_0_7 + 120 p_0_8 + 120 p_0_9 + 100000 z_0_10 + 100000 z_0_3 + 100000 z_0_5 + 100000 z_0_7 + 100000 z_0_8 + 100000 z_0_9 <= 600751.29645380878
 c3070: 120 p_0_1 + 120 p_0_10 + 120 p_0_3 + 120 p_0_5 + 120 p_0_7 + 120 p_0_8 + 120 p_0_9 + 100000 z_0_1 + 100000 z_0_10 + 100000 z_0_3 + 100000 z_0_5 + 100000 z_0_7 + 100000 z_0_8 + 100000 z_0_9 <= 700745.94002195401
 c3071: 120 p_0_10 + 120 p_0_2 + 120 p_0_3 + 120 p_0_5 + 120 p_0_7 + 120 p_0_8 + 120 p_0_9 + 100000 z_0_10 + 100000 z_0_2 + 100000 z_0_3 + 100000 z_0_5 + 100000 z_0_7 + 100000 z_0_8 + 100000 z_0_9 <= 700681.23470007838
 c3072: 120 p_0_1 + 120 p_0_10 + 120 p_0_2 + 120 p_0_3 + 120 p_0_5 + 120 p_0_7 + 120 p_0_8 + 120 p_0_9 + 100000 z_0_1 + 100000 z_0_10 + 100000 z_0_2 + 100000 z_0_3 + 100000 z_0_5 + 100000 z_0_7 + 100000 z_0_8 + 100000 z_0_9 <= 800675.87826822349
 c3073: 120 p_0_10 + 120 p_0_4 + 120 p_0_5 + 120 p_0_7 + 120 p_0_8 + 120 p_0_9 + 100000 z_0_10 + 100000 z_0_4 + 100000 z_0_5 + 100000 z_0_7 + 100000 z_0_8 + 100000 z_0_9 <= 600912.89390858961
 c3074: 120 p_0_1 + 120 p_0_10 + 120 p_0_4 + 120 p_0_5 + 120 p_0_7 + 120 p_0_8 + 120 p_0_9 + 100000 z_0_1 + 100000 z_0_10 + 100000 z_0_4 + 100000 z_0_5 + 100000 z_0_7 + 100000 z_0_8 + 100000 z_0_9 <= 700905.80915711448
 c3075: 120 p_0_10 + 120 p_0_2 + 120 p_0_4 + 120 p_0_5 + 120 p_0_7 + 120 p_0_8 + 120 p_0_9 + 100000 z_0_10 + 100000 z_0_2 + 100000 z_0_4 + 100000 z_0_5 + 100000 z_0_7 + 100000 z_0_8 + 100000 z_0_9 <= 700842.83215485921
 c3076: 120 p_0_1 + 120 p_0_10 + 120 p_0_2 + 120 p_0_4 + 120 p_0_5 + 120 p_0_7 + 120 p_0_8 + 120 p_0_9 + 100000 z_0_1 + 100000 z_0_10 + 100000 z_0_2 + 100000 z_0_4 + 100000 z_0_5 + 100000 z_0_7 + 100000 z_0_8 + 100000 z_0_9 <= 800835.74740338407
 c3077: 120 p_0_10 + 120 p_0_3 + 120 p_0_4 + 120 p_0_5 + 120 p_0_7 + 120 p_0_8 + 120 p_0_9 + 100000 z_0_10 + 100000 z_0_3 + 100000 z_0_4 + 100000 z_0_5 + 100000 z_0_7 + 100000 z_0_8 + 100000 z_0_9 <= 700750.09791071597
 c3078: 120 p_0_1 + 120 p_0_10 + 120 p_0_3 + 120 p_0_4 + 120 p_0_5 + 120 p_0_7 + 120 p_0_8 + 120 p_0_9 + 100000 z_0_1 + 100000 z_0_10 + 100000 z_0_3 + 100000 z_0_4 + 100000 z_0_5 + 100000 z_0_7 + 100000 z_0_8 + 100000 z_0_9 <= 800743.01315924071
 c3079: 120 p_0_10 + 120 p_0_2 + 120 p_0_3 + 120 p_0_4 + 120 p_0_5 + 120 p_0_7 + 120 p_0_8 + 120 p_0_9 + 100000 z_0_10 + 100000 z_0_2 + 100000 z_0_3 + 100000 z_0_4 + 100000 z_0_5 + 100000 z_0_7 + 100000 z_0_8 + 100000 z_0_9 <= 800680.03615698556
 c3080: 120 p_0_1 + 120 p_0_10 + 120 p_0_2 + 120 p_0_3 + 120 p_0_4 + 120 p_0_5 + 120 p_0_7 + 120 p_0_8 + 120 p_0_9 + 100000 z_0_1 + 100000 z_0_10 + 100000 z_0_2 + 100000 z_0_3 + 100000 z_0_4 + 100000 z_0_5 + 100000 z_0_7 + 100000 z_0_8 + 100000 z_0_9 <= 900672.95140551031
 c3081: 120 p_0_10 + 120 p_0_6 + 120 p_0_7 + 120 p_0_8 + 120 p_0_9 + 100000 z_0_10 + 100000 z_0_6 + 100000 z_0_7 + 100000 z_0_8 + 100000 z_0_9 <= 500890.81565931567
 c3082: 120 p_0_1 + 120 p_0_10 + 120 p_0_6 + 120 p_0_7 + 120 p_0_8 + 120 p_0_9 + 100000 z_0_1 + 100000 z_0_10 + 100000 z_0_6 + 100000 z_0_7 + 100000 z_0_8 + 100000 z_0_9 <= 600885.45922746079
 c3083: 120 p_0_10 + 120 p_0_2 + 120 p_0_6 + 120 p_0_7 + 120 p_0_8 + 120 p_0_9 + 100000 z_0_10 + 100000 z_0_2 + 100000 z_0_6 + 100000 z_0_7 + 100000 z_0_8 + 100000 z_0_9 <= 600817.17074424145
 c3084: 120 p_0_1 + 120 p_0_10 + 120 p_0_2 + 120 p_0_6 + 120 p_0_7 + 120 p_0_8 + 120 p_0_9 + 100000 z_0_1 + 100000 z_0_10 + 100000 z_0_2 + 100000 z_0_6 + 100000 z_0_7 + 100000 z_0_8 + 100000 z_0_9 <= 700811.81431238656
 c3085: 120 p_0_10 + 120 p_0_3 + 120 p_0_6 + 120 p_0_7 + 120 p_0_8 + 120 p_0_9 + 100000 z_0_10 + 100000 z_0_3 + 100000 z_0_6 + 100000 z_0_7 + 100000 z_0_8 + 100000 z_0_9 <= 600746.65283868834
 c3086: 120 p_0_1 + 120 p_0_10 + 120 p_0_3 + 120 p_0_6 + 120 p_0_7 + 120 p_0_8 + 120 p_0_9 + 100000 z_0_1 + 100000 z_0_10 + 100000 z_0_3 + 100000 z_0_6 + 100000 z_0_7 + 100000 z_0_8 + 100000 z_0_9 <= 700741.29640683345
 c3087: 120 p_0_10 + 120 p_0_2 + 120 p_0_3 + 120 p_0_6 + 120 p_0_7 + 120 p_0_8 + 120 p_0_9 + 100000 z_0_10 + 100000 z_0_2 + 100000 z_0_3 + 100000 z_0_6 + 100000 z_0_7 + 100000 z_0_8 + 100000 z_0_9 <= 700673.00792361412
 c3088: 120 p_0_1 + 120 p_0_10 + 120 p_0_2 + 120 p_0_3 + 120 p_0_6 + 120 p_0_7 + 120 p_0_8 + 120 p_0_9 + 100000 z_0_1 + 100000 z_0_10 + 100000 z_0_2 + 100000 z_0_3 + 100000 z_0_6 + 100000 z_0_7 + 100000 z_0_8 + 100000 z_0_9 <= 800667.65149175923
 c3089: 120 p_0_10 + 120 p_0_4 + 120 p_0_6 + 120 p_0_7 + 120 p_0_8 + 120 p_0_9 + 100000 z_0_10 + 100000 z_0_4 + 100000 z_0_6 + 100000 z_0_7 + 100000 z_0_8 + 100000 z_0_9 <= 600889.61711622286
 c3090: 120 p_0_1 + 120 p_0_10 + 120 p_0_4 + 120 p_0_6 + 120 p_0_7 + 120 p_0_8 + 120 p_0_9 + 100000 z_0_1 + 100000 z_0_10 + 100000 z_0_4 + 100000 z_0_6 + 100000 z_0_7 + 100000 z_0_8 + 100000 z_0_9 <= 700882.5323647476
 c3091: 120 p_0_10 + 120 p_0_2 + 120 p_0_4 + 120 p_0_6 + 120 p_0_7 + 120 p_0_8 + 120 p_0_9 + 100000 z_0_10 + 100000 z_0_2 + 100000 z_0_4 + 100000 z_0_6 + 100000 z_0_7 + 100000 z_0_8 + 100000 z_0_9 <= 700815.97220114863
 c3092: 120 p_0_1 + 120 p_0_10 + 120 p_0_2 + 120 p_0_4 + 120 p_0_6 + 120 p_0_7 + 120 p_0_8 + 120 p_0_9 + 100000 z_0_1 + 100000 z_0_10 + 100000 z_0_2 + 100000 z_0_4 + 100000 z_0_6 + 100000 z_0_7 + 100000 z_0_8 + 100000 z_0_9 <= 800808.88744967338
 c3093: 120 p_0_10 + 120 p_0_3 + 120 p_0_4 + 120 p_0_6 + 120 p_0_7 + 120 p_0_8 + 120 p_0_9 + 100000 z_0_10 + 100000 z_0_3 + 100000 z_0_4 + 100000 z_0_6 + 100000 z_0_7 + 100000 z_0_8 + 100000 z_0_9 <= 700745.45429559553
 c3094: 120 p_0_1 + 120 p_0_10 + 120 p_0_3 + 120 p_0_4 + 120 p_0_6 + 120 p_0_7 + 120 p_0_8 + 120 p_0_9 + 100000 z_0_1 + 100000 z_0_10 + 100000 z_0_3 + 100000 z_0_4 + 100000 z_0_6 + 100000 z_0_7 + 100000 z_0_8 + 100000 z_0_9 <= 800738.36954412027
 c3095: 120 p_0_10 + 120 p_0_2 + 120 p_0_3 + 120 p_0_4 + 120 p_0_6 + 120 p_0_7 + 120 p_0_8 + 120 p_0_9 + 100000 z_0_10 + 100000 z_0_2 + 100000 z_0_3 + 100000 z_0_4 + 100000 z_0_6 + 100000 z_0_7 + 100000 z_0_8 + 100000 z_0_9 <= 800671.8093805213
 c3096: 120 p_0_1 + 120 p_0_10 + 120 p_0_2 + 120 p_0_3 + 120 p_0_4 + 120 p_0_6 + 120 p_0_7 + 120 p_0_8 + 120 p_0_9 + 100000 z_0_1 + 100000 z_0_10 + 100000 z_0_2 + 100000 z_0_3 + 100000 z_0_4 + 100000 z_0_6 + 100000 z_0_7 + 100000 z_0_8 + 100000 z_0_9 <= 900664.72462904605
 c3097: 120 p_0_10 + 120 p_0_5 + 120 p_0_6 + 120 p_0_7 + 120 p_0_8 + 120 p_0_9 + 100000 z_0_10 + 100000 z_0_5 + 100000 z_0_6 + 100000 z_0_7 + 100000 z_0_8 + 100000 z_0_9 <= 600884.18668151961
 c3098: 120 p_0_1 + 120 p_0_10 + 120 p_0_5 + 120 p_0_6 + 120 p_0_7 + 120 p_0_8 + 120 p_0_9 + 100000 z_0_1 + 100000 z_0_10 + 100000 z_0_5 + 100000 z_0_6 + 100000 z_0_7 + 100000 z_0_8 + 100000 z_0_9 <= 700878.83024966484
 c3099: 120 p_0_10 + 120 p_0_2 + 120 p_0_5 + 120 p_0_6 + 120 p_0_7 + 120 p_0_8 + 120 p_0_9 + 100000 z_0_10 + 100000 z_0_2 + 100000 z_0_5 + 100000 z_0_6 + 100000 z_0_7 + 100000 z_0_8 + 100000 z_0_9 <= 700814.12492778921
 c3100: 120 p_0_1 + 120 p_0_10 + 120 p_0_2 + 120 p_0_5 + 120 p_0_6 + 120 p_0_7 + 120 p_0_8 + 120 p_0_9 + 100000 z_0_1 + 100000 z_0_10 + 100000 z_0_2 + 100000 z_0_5 + 100000 z_0_6 + 100000 z_0_7 + 100000 z_0_8 + 100000 z_0_9 <= 800808.76849593432
 c3101: 120 p_0_10 + 120 p_0_3 + 120 p_0_5 + 120 p_0_6 + 120 p_0_7 + 120 p_0_8 + 120 p_0_9 + 100000 z_0_10 + 100000 z_0_3 + 100000 z_0_5 + 100000 z_0_6 + 100000 z_0_7 + 100000 z_0_8 + 100000 z_0_9 <= 700740.02386089228
 c3102: 120 p_0_1 + 120 p_0_10 + 120 p_0_3 + 120 p_0_5 + 120 p_0_6 + 120 p_0_7 + 120 p_0_8 + 120 p_0_9 + 100000 z_0_1 + 100000 z_0_10 + 100000 z_0_3 + 100000 z_0_5 + 100000 z_0_6 + 100000 z_0_7 + 100000 z_0_8 + 100000 z_0_9 <= 800734.66742903739
 c3103: 120 p_0_10 + 120 p_0_2 + 120 p_0_3 + 120 p_0_5 + 120 p_0_6 + 120 p_0_7 + 120 p_0_8 + 120 p_0_9 + 100000 z_0_10 + 100000 z_0_2 + 100000 z_0_3 + 100000 z_0_5 + 100000 z_0_6 + 100000 z_0_7 + 100000 z_0_8 + 100000 z_0_9 <= 800669.96210716187
 c3104: 120 p_0_1 + 120 p_0_10 + 120 p_0_2 + 120 p_0_3 + 120 p_0_5 + 120 p_0_6 + 120 p_0_7 + 120 p_0_8 + 120 p_0_9 + 100000 z_0_1 + 100000 z_0_10 + 100000 z_0_2 + 100000 z_0_3 + 100000 z_0_5 + 100000 z_0_6 + 100000 z_0_7 + 100000 z_0_8 + 100000 z_0_9 <= 900664.60567530699
 c3105: 120 p_0_10 + 120 p_0_4 + 120 p_0_5 + 120 p_0_6 + 120 p_0_7 + 120 p_0_8 + 120 p_0_9 + 100000 z_0_10 + 100000 z_0_4 + 100000 z_0_5 + 100000 z_0_6 + 100000 z_0_7 + 100000 z_0_8 + 100000 z_0_9 <= 700882.98813842679
 c3106: 120 p_0_1 + 120 p_0_10 + 120 p_0_4 + 120 p_0_5 + 120 p_0_6 + 120 p_0_7 + 120 p_0_8 + 120 p_0_9 + 100000 z_0_1 + 100000 z_0_10 + 100000 z_0_4 + 100000 z_0_5 + 100000 z_0_6 + 100000 z_0_7 + 100000 z_0_8 + 100000 z_0_9 <= 800875.90338695154
 c3107: 120 p_0_10 + 120 p_0_2 + 120 p_0_4 + 120 p_0_5 + 120 p_0_6 + 120 p_0_7 + 120 p_0_8 + 120 p_0_9 + 100000 z_0_10 + 100000 z_0_2 + 100000 z_0_4 + 100000 z_0_5 + 100000 z_0_6 + 100000 z_0_7 + 100000 z_0_8 + 100000 z_0_9 <= 800812.92638469639
 c3108: 120 p_0_1 + 120 p_0_10 + 120 p_0_2 + 120 p_0_4 + 120 p_0_5 + 120 p_0_6 + 120 p_0_7 + 120 p_0_8 + 120 p_0_9 + 100000 z_0_1 + 100000 z_0_10 + 100000 z_0_2 + 100000 z_0_4 + 100000 z_0_5 + 100000 z_0_6 + 100000 z_0_7 + 100000 z_0_8 + 100000 z_0_9 <= 900805.84163322113
 c3109: 120 p_0_10 + 120 p_0_3 + 120 p_0_4 + 120 p_0_5 + 120 p_0_6 + 120 p_0_7 + 120 p_0_8 + 120 p_0_9 + 100000 z_0_10 + 100000 z_0_3 + 100000 z_0_4 + 100000 z_0_5 + 100000 z_0_6 + 100000 z_0_7 + 100000 z_0_8 + 100000 z_0_9 <= 800738.82531779946
 c3110: 120 p_0_1 + 120 p_0_10 + 120 p_0_3 + 120 p_0_4 + 120 p_0_5 + 120 p_0_6 + 120 p_0_7 + 120 p_0_8 + 120 p_0_9 + 100000 z_0_1 + 100000 z_0_10 + 100000 z_0_3 + 100000 z_0_4 + 100000 z_0_5 + 100000 z_0_6 + 100000 z_0_7 + 100000 z_0_8 + 100000 z_0_9 <= 900731.74056632421
 c3111: 120 p_0_10 + 120 p_0_2 + 120 p_0_3 + 120 p_0_4 + 120 p_0_5 + 120 p_0_6 + 120 p_0_7 + 120 p_0_8 + 120 p_0_9 + 100000 z_0_10 + 100000 z_0_2 + 100000 z_0_3 + 100000 z_0_4 + 100000 z_0_5 + 100000 z_0_6 + 100000 z_0_7 + 100000 z_0_8 + 100000 z_0_9 <= 900668.76356406906
 c3112: 120 p_0_1 + 120 p_0_10 + 120 p_0_2 + 120 p_0_3 + 120 p_0_4 + 120 p_0_5 + 120 p_0_6 + 120 p_0_7 + 120 p_0_8 + 120 p_0_9 + 100000 z_0_1 + 100000 z_0_10 + 100000 z_0_2 + 100000 z_0_3 + 100000 z_0_4 + 100000 z_0_5 + 100000 z_0_6 + 100000 z_0_7 + 100000 z_0_8 + 100000 z_0_9 <= 1000661.6788125938
 c3113: 120 p_1_1 + 100000 z_1_1 <= 101675.06503412842
 c3114: 120 p_1_2 + 100000 z_1_2 <= 101900.29967108271
 c3115: 120 p_1_1 + 120 p_1_2 + 100000 z_1_1 + 100000 z_1_2 <= 201219.86161937672
 c3116: 120 p_1_3 + 100000 z_1_3 <= 101715.98393529319
 c3117: 120 p_1_1 + 120 p_1_3 + 100000 z_1_1 + 100000 z_1_3 <= 201063.25719919679
 c3118: 120 p_1_2 + 120 p_1_3 + 100000 z_1_2 + 100000 z_1_3 <= 201360.28394555656
 c3119: 120 p_1_1 + 120 p_1_2 + 120 p_1_3 + 100000 z_1_1 + 100000 z_1_2 + 100000 z_1_3 <= 300707.55720946018
 c3120: 120 p_1_4 + 100000 z_1_4 <= 101925.12278969793
 c3121: 120 p_1_1 + 120 p_1_4 + 100000 z_1_1 + 100000 z_1_4 <= 201668.17741467193
 c3122: 120 p_1_2 + 120 p_1_4 + 100000 z_1_2 + 100000 z_1_4 <= 201449.96473577357
 c3123: 120 p_1_1 + 120 p_1_2 + 120 p_1_4 + 100000 z_1_1 + 100000 z_1_2 + 100000 z_1_4 <= 301212.97399992024
 c3124: 120 p_1_3 + 120 p_1_4 + 100000 z_1_3 + 100000 z_1_4 <= 201317.44836775208
 c3125: 120 p_1_1 + 120 p_1_3 + 120 p_1_4 + 100000 z_1_1 + 100000 z_1_3 + 100000 z_1_4 <= 301060.50299272605
 c3126: 120 p_1_2 + 120 p_1_3 + 120 p_1_4 + 100000 z_1_2 + 100000 z_1_3 + 100000 z_1_4 <= 300961.74837801541
 c3127: 120 p_1_1 + 120 p_1_2 + 120 p_1_3 + 120 p_1_4 + 100000 z_1_1 + 100000 z_1_2 + 100000 z_1_3 + 100000 z_1_4 <= 400704.80300298939
 c3128: 120 p_1_5 + 100000 z_1_5 <= 102001.05104435893
 c3129: 120 p_1_1 + 120 p_1_5 + 100000 z_1_1 + 100000 z_1_5 <= 201307.36842503768
 c3130: 120 p_1_2 + 120 p_1_5 + 100000 z_1_2 + 100000 z_1_5 <= 201897.25385463049
 c3131: 120 p_1_1 + 120 p_1_2 + 120 p_1_5 + 100000 z_1_1 + 100000 z_1_2 + 100000 z_1_5 <= 301216.81580292451
 c3132: 120 p_1_3 + 120 p_1_5 + 100000 z_1_3 + 100000 z_1_5 <= 201454.98013048025
 c3133: 120 p_1_1 + 120 p_1_3 + 120 p_1_5 + 100000 z_1_1 + 100000 z_1_3 + 100000 z_1_5 <= 300802.25339438388
 c3134: 120 p_1_2 + 120 p_1_3 + 120 p_1_5 + 100000 z_1_2 + 100000 z_1_3 + 100000 z_1_5 <= 301357.23812910431
 c3135: 120 p_1_1 + 120 p_1_2 + 120 p_1_3 + 120 p_1_5 + 100000 z_1_1 + 100000 z_1_2 + 100000 z_1_3 + 100000 z_1_5 <= 400704.51139300788
 c3136: 120 p_1_4 + 120 p_1_5 + 100000 z_1_4 + 100000 z_1_5 <= 201542.93869840659
 c3137: 120 p_1_1 + 120 p_1_4 + 120 p_1_5 + 100000 z_1_1 + 100000 z_1_4 + 100000 z_1_5 <= 301300.4808055812
 c3138: 120 p_1_2 + 120 p_1_4 + 120 p_1_5 + 100000 z_1_2 + 100000 z_1_4 + 100000 z_1_5 <= 301446.91891932132
 c3139: 120 p_1_1 + 120 p_1_2 + 120 p_1_4 + 120 p_1_5 + 100000 z_1_1 + 100000 z_1_2 + 100000 z_1_4 + 100000 z_1_5 <= 401209.928183468
 c3140: 120 p_1_3 + 120 p_1_4 + 120 p_1_5 + 100000 z_1_3 + 100000 z_1_4 + 100000 z_1_5 <= 301056.44456293911
 c3141: 120 p_1_1 + 120 p_1_3 + 120 p_1_4 + 120 p_1_5 + 100000 z_1_1 + 100000 z_1_3 + 100000 z_1_4 + 100000 z_1_5 <= 400799.49918791314
 c3142: 120 p_1_2 + 120 p_1_3 + 120 p_1_4 + 120 p_1_5 + 100000 z_1_2 + 100000 z_1_3 + 100000 z_1_4 + 100000 z_1_5 <= 400958.70256156317
 c3143: 120 p_1_1 + 120 p_1_2 + 120 p_1_3 + 120 p_1_4 + 120 p_1_5 + 100000 z_1_1 + 100000 z_1_2 + 100000 z_1_3 + 100000 z_1_4 + 100000 z_1_5 <= 500701.75718653714
 c3144: 120 p_1_6 + 100000 z_1_6 <= 101902.41826399187
 c3145: 120 p_1_1 + 120 p_1_6 + 100000 z_1_1 + 100000 z_1_6 <= 201230.22787513465
 c3146: 120 p_1_2 + 120 p_1_6 + 100000 z_1_2 + 100000 z_1_6 <= 201537.80935216934
 c3147: 120 p_1_1 + 120 p_1_2 + 120 p_1_6 + 100000 z_1_1 + 100000 z_1_2 + 100000 z_1_6 <= 300865.61896331212
 c3148: 120 p_1_3 + 120 p_1_6 + 100000 z_1_3 + 100000 z_1_6 <= 201714.29552180853
 c3149: 120 p_1_1 + 120 p_1_3 + 120 p_1_6 + 100000 z_1_1 + 100000 z_1_3 + 100000 z_1_6 <= 301061.56878571212
 c3150: 120 p_1_2 + 120 p_1_3 + 120 p_1_6 + 100000 z_1_2 + 100000 z_1_3 + 100000 z_1_6 <= 301358.59553207189
 c3151: 120 p_1_1 + 120 p_1_2 + 120 p_1_3 + 120 p_1_6 + 100000 z_1_1 + 100000 z_1_2 + 100000 z_1_3 + 100000 z_1_6 <= 400696.95987388957
 c3152: 120 p_1_4 + 120 p_1_6 + 100000 z_1_4 + 100000 z_1_6 <= 201486.59712024784
 c3153: 120 p_1_1 + 120 p_1_4 + 120 p_1_6 + 100000 z_1_1 + 100000 z_1_4 + 100000 z_1_6 <= 301229.65174522181
 c3154: 120 p_1_2 + 120 p_1_4 + 120 p_1_6 + 100000 z_1_2 + 100000 z_1_4 + 100000 z_1_6 <= 301121.98820842529
 c3155: 120 p_1_1 + 120 p_1_2 + 120 p_1_4 + 120 p_1_6 + 100000 z_1_1 + 100000 z_1_2 + 100000 z_1_4 + 100000 z_1_6 <= 400865.04283339926
 c3156: 120 p_1_3 + 120 p_1_4 + 120 p_1_6 + 100000 z_1_3 + 100000 z_1_4 + 100000 z_1_6 <= 301315.75995426741
 c3157: 120 p_1_1 + 120 p_1_3 + 120 p_1_4 + 120 p_1_6 + 100000 z_1_1 + 100000 z_1_3 + 100000 z_1_4 + 100000 z_1_6 <= 401058.81457924139
 c3158: 120 p_1_2 + 120 p_1_3 + 120 p_1_4 + 120 p_1_6 + 100000 z_1_2 + 100000 z_1_3 + 100000 z_1_4 + 100000 z_1_6 <= 400951.15104244486
 c3159: 120 p_1_1 + 120 p_1_2 + 120 p_1_3 + 120 p_1_4 + 120 p_1_6 + 100000 z_1_1 + 100000 z_1_2 + 100000 z_1_3 + 100000 z_1_4 + 100000 z_1_6 <= 500694.20566741884
 c3160: 120 p_1_5 + 120 p_1_6 + 100000 z_1_5 + 100000 z_1_6 <= 201635.43063870762
 c3161: 120 p_1_1 + 120 p_1_5 + 120 p_1_6 + 100000 z_1_1 + 100000 z_1_5 + 100000 z_1_6 <= 300963.24024985038
 c3162: 120 p_1_2 + 120 p_1_5 + 120 p_1_6 + 100000 z_1_2 + 100000 z_1_5 + 100000 z_1_6 <= 301534.76353571709
 c3163: 120 p_1_1 + 120 p_1_2 + 120 p_1_5 + 120 p_1_6 + 100000 z_1_1 + 100000 z_1_2 + 100000 z_1_5 + 100000 z_1_6 <= 400862.57314685988
 c3164: 120 p_1_3 + 120 p_1_5 + 120 p_1_6 + 100000 z_1_3 + 100000 z_1_5 + 100000 z_1_6 <= 301453.29171699559
 c3165: 120 p_1_1 + 120 p_1_3 + 120 p_1_5 + 120 p_1_6 + 100000 z_1_1 + 100000 z_1_3 + 100000 z_1_5 + 100000 z_1_6 <= 400794.58116042789
 c3166: 120 p_1_2 + 120 p_1_3 + 120 p_1_5 + 120 p_1_6 + 100000 z_1_2 + 100000 z_1_3 + 100000 z_1_5 + 100000 z_1_6 <= 401355.54971561965
 c3167: 120 p_1_1 + 120 p_1_2 + 120 p_1_3 + 120 p_1_5 + 120 p_1_6 + 100000 z_1_1 + 100000 z_1_2 + 100000 z_1_3 + 100000 z_1_5 + 100000 z_1_6 <= 500693.91405743733
 c3168: 120 p_1_4 + 120 p_1_5 + 120 p_1_6 + 100000 z_1_4 + 100000 z_1_5 + 100000 z_1_6 <= 301219.60949496354
 c3169: 120 p_1_1 + 120 p_1_4 + 120 p_1_5 + 120 p_1_6 + 100000 z_1_1 + 100000 z_1_4 + 100000 z_1_5 + 100000 z_1_6 <= 400962.66411993757
 c3170: 120 p_1_2 + 120 p_1_4 + 120 p_1_5 + 120 p_1_6 + 100000 z_1_2 + 100000 z_1_4 + 100000 z_1_5 + 100000 z_1_6 <= 401118.94239197305
 c3171: 120 p_1_1 + 120 p_1_2 + 120 p_1_4 + 120 p_1_5 + 120 p_1_6 + 100000 z_1_1 + 100000 z_1_2 + 100000 z_1_4 + 100000 z_1_5 + 100000 z_1_6 <= 500861.99701694702
 c3172: 120 p_1_3 + 120 p_1_4 + 120 p_1_5 + 120 p_1_6 + 100000 z_1_3 + 100000 z_1_4 + 100000 z_1_5 + 100000 z_1_6 <= 401048.77232898312
 c3173: 120 p_1_1 + 120 p_1_3 + 120 p_1_4 + 120 p_1_5 + 120 p_1_6 + 100000 z_1_1 + 100000 z_1_3 + 100000 z_1_4 + 100000 z_1_5 + 100000 z_1_6 <= 500791.82695395715
 c3174: 120 p_1_2 + 120 p_1_3 + 120 p_1_4 + 120 p_1_5 + 120 p_1_6 + 100000 z_1_2 + 100000 z_1_3 + 100000 z_1_4 + 100000 z_1_5 + 100000 z_1_6 <= 500948.10522599262
 c3175: 120 p_1_1 + 120 p_1_2 + 120 p_1_3 + 120 p_1_4 + 120 p_1_5 + 120 p_1_6 + 100000 z_1_1 + 100000 z_1_2 + 100000 z_1_3 + 100000 z_1_4 + 100000 z_1_5 + 100000 z_1_6 <= 600691.15985096665
 c3176: 120 p_1_7 + 100000 z_1_7 <= 101668.21445784788
 c3177: 120 p_1_1 + 120 p_1_7 + 100000 z_1_1 + 100000 z_1_7 <= 201657.33161619358
 c3178: 120 p_1_2 + 120 p_1_7 + 100000 z_1_2 + 100000 z_1_7 <= 201217.57721762368
 c3179: 120 p_1_1 + 120 p_1_2 + 120 p_1_7 + 100000 z_1_1 + 100000 z_1_2 + 100000 z_1_7 <= 301206.69437596941
 c3180: 120 p_1_3 + 120 p_1_7 + 100000 z_1_3 + 100000 z_1_7 <= 201050.90097570317
 c3181: 120 p_1_1 + 120 p_1_3 + 120 p_1_7 + 100000 z_1_1 + 100000 z_1_3 + 100000 z_1_7 <= 301045.52378126199
 c3182: 120 p_1_2 + 120 p_1_3 + 120 p_1_7 + 100000 z_1_2 + 100000 z_1_3 + 100000 z_1_7 <= 300695.20098596654
 c3183: 120 p_1_1 + 120 p_1_2 + 120 p_1_3 + 120 p_1_7 + 100000 z_1_1 + 100000 z_1_2 + 100000 z_1_3 + 100000 z_1_7 <= 400689.82379152533
 c3184: 120 p_1_4 + 120 p_1_7 + 100000 z_1_4 + 100000 z_1_7 <= 201657.52874821229
 c3185: 120 p_1_1 + 120 p_1_4 + 120 p_1_7 + 100000 z_1_1 + 100000 z_1_4 + 100000 z_1_7 <= 301650.44399673707
 c3186: 120 p_1_2 + 120 p_1_4 + 120 p_1_7 + 100000 z_1_2 + 100000 z_1_4 + 100000 z_1_7 <= 301206.8915079881
 c3187: 120 p_1_1 + 120 p_1_2 + 120 p_1_4 + 120 p_1_7 + 100000 z_1_1 + 100000 z_1_2 + 100000 z_1_4 + 100000 z_1_7 <= 401199.8067565129
 c3188: 120 p_1_3 + 120 p_1_4 + 120 p_1_7 + 100000 z_1_3 + 100000 z_1_4 + 100000 z_1_7 <= 301049.85432626645
 c3189: 120 p_1_1 + 120 p_1_3 + 120 p_1_4 + 120 p_1_7 + 100000 z_1_1 + 100000 z_1_3 + 100000 z_1_4 + 100000 z_1_7 <= 401042.76957479125
 c3190: 120 p_1_2 + 120 p_1_3 + 120 p_1_4 + 120 p_1_7 + 100000 z_1_2 + 100000 z_1_3 + 100000 z_1_4 + 100000 z_1_7 <= 400694.15433652978
 c3191: 120 p_1_1 + 120 p_1_2 + 120 p_1_3 + 120 p_1_4 + 120 p_1_7 + 100000 z_1_1 + 100000 z_1_2 + 100000 z_1_3 + 100000 z_1_4 + 100000 z_1_7 <= 500687.06958505459
 c3192: 120 p_1_5 + 120 p_1_7 + 100000 z_1_5 + 100000 z_1_7 <= 201304.070837921
 c3193: 120 p_1_1 + 120 p_1_5 + 120 p_1_7 + 100000 z_1_1 + 100000 z_1_5 + 100000 z_1_7 <= 301293.1879962667
 c3194: 120 p_1_2 + 120 p_1_5 + 120 p_1_7 + 100000 z_1_2 + 100000 z_1_5 + 100000 z_1_7 <= 301214.53140117147
 c3195: 120 p_1_1 + 120 p_1_2 + 120 p_1_5 + 120 p_1_7 + 100000 z_1_1 + 100000 z_1_2 + 100000 z_1_5 + 100000 z_1_7 <= 401203.64855951717
 c3196: 120 p_1_3 + 120 p_1_5 + 120 p_1_7 + 100000 z_1_3 + 100000 z_1_5 + 100000 z_1_7 <= 300789.89717089024
 c3197: 120 p_1_1 + 120 p_1_3 + 120 p_1_5 + 120 p_1_7 + 100000 z_1_1 + 100000 z_1_3 + 100000 z_1_5 + 100000 z_1_7 <= 400784.51997644902
 c3198: 120 p_1_2 + 120 p_1_3 + 120 p_1_5 + 120 p_1_7 + 100000 z_1_2 + 100000 z_1_3 + 100000 z_1_5 + 100000 z_1_7 <= 400692.1551695143
 c3199: 120 p_1_1 + 120 p_1_2 + 120 p_1_3 + 120 p_1_5 + 120 p_1_7 + 100000 z_1_1 + 100000 z_1_2 + 100000 z_1_3 + 100000 z_1_5 + 100000 z_1_7 <= 500686.77797507308
 c3200: 120 p_1_4 + 120 p_1_5 + 120 p_1_7 + 100000 z_1_4 + 100000 z_1_5 + 100000 z_1_7 <= 301293.38512828544
 c3201: 120 p_1_1 + 120 p_1_4 + 120 p_1_5 + 120 p_1_7 + 100000 z_1_1 + 100000 z_1_4 + 100000 z_1_5 + 100000 z_1_7 <= 401286.30037681019
 c3202: 120 p_1_2 + 120 p_1_4 + 120 p_1_5 + 120 p_1_7 + 100000 z_1_2 + 100000 z_1_4 + 100000 z_1_5 + 100000 z_1_7 <= 401203.84569153585
 c3203: 120 p_1_1 + 120 p_1_2 + 120 p_1_4 + 120 p_1_5 + 120 p_1_7 + 100000 z_1_1 + 100000 z_1_2 + 100000 z_1_4 + 100000 z_1_5 + 100000 z_1_7 <= 501196.76094006066
 c3204: 120 p_1_3 + 120 p_1_4 + 120 p_1_5 + 120 p_1_7 + 100000 z_1_3 + 100000 z_1_4 + 100000 z_1_5 + 100000 z_1_7 <= 400788.85052145348
 c3205: 120 p_1_1 + 120 p_1_3 + 120 p_1_4 + 120 p_1_5 + 120 p_1_7 + 100000 z_1_1 + 100000 z_1_3 + 100000 z_1_4 + 100000 z_1_5 + 100000 z_1_7 <= 500781.76576997829
 c3206: 120 p_1_2 + 120 p_1_3 + 120 p_1_4 + 120 p_1_5 + 120 p_1_7 + 100000 z_1_2 + 100000 z_1_3 + 100000 z_1_4 + 100000 z_1_5 + 100000 z_1_7 <= 500691.10852007754
 c3207: 120 p_1_1 + 120 p_1_2 + 120 p_1_3 + 120 p_1_4 + 120 p_1_5 + 120 p_1_7 + 100000 z_1_1 + 100000 z_1_2 + 100000 z_1_3 + 100000 z_1_4 + 100000 z_1_5 + 100000 z_1_7 <= 600684.02376860229
 c3208: 120 p_1_6 + 120 p_1_7 + 100000 z_1_6 + 100000 z_1_7 <= 201219.01609453044
 c3209: 120 p_1_1 + 120 p_1_6 + 120 p_1_7 + 100000 z_1_1 + 100000 z_1_6 + 100000 z_1_7 <= 301212.49445719982
 c3210: 120 p_1_2 + 120 p_1_6 + 120 p_1_7 + 100000 z_1_2 + 100000 z_1_6 + 100000 z_1_7 <= 300855.08689871029
 c3211: 120 p_1_1 + 120 p_1_2 + 120 p_1_6 + 120 p_1_7 + 100000 z_1_1 + 100000 z_1_2 + 100000 z_1_6 + 100000 z_1_7 <= 400847.88554537727
 c3212: 120 p_1_3 + 120 p_1_6 + 120 p_1_7 + 100000 z_1_3 + 100000 z_1_6 + 100000 z_1_7 <= 301049.21256221848
 c3213: 120 p_1_1 + 120 p_1_3 + 120 p_1_6 + 120 p_1_7 + 100000 z_1_1 + 100000 z_1_3 + 100000 z_1_6 + 100000 z_1_7 <= 401043.83536777727
 c3214: 120 p_1_2 + 120 p_1_3 + 120 p_1_6 + 120 p_1_7 + 100000 z_1_2 + 100000 z_1_3 + 100000 z_1_6 + 100000 z_1_7 <= 400684.60365039593
 c3215: 120 p_1_1 + 120 p_1_2 + 120 p_1_3 + 120 p_1_6 + 120 p_1_7 + 100000 z_1_1 + 100000 z_1_2 + 100000 z_1_3 + 100000 z_1_6 + 100000 z_1_7 <= 500679.22645595478
 c3216: 120 p_1_4 + 120 p_1_6 + 120 p_1_7 + 100000 z_1_4 + 100000 z_1_6 + 100000 z_1_7 <= 301219.00307876221
 c3217: 120 p_1_1 + 120 p_1_4 + 120 p_1_6 + 120 p_1_7 + 100000 z_1_1 + 100000 z_1_4 + 100000 z_1_6 + 100000 z_1_7 <= 401211.91832728701
 c3218: 120 p_1_2 + 120 p_1_4 + 120 p_1_6 + 120 p_1_7 + 100000 z_1_2 + 100000 z_1_4 + 100000 z_1_6 + 100000 z_1_7 <= 400854.39416693966
 c3219: 120 p_1_1 + 120 p_1_2 + 120 p_1_4 + 120 p_1_6 + 120 p_1_7 + 100000 z_1_1 + 100000 z_1_2 + 100000 z_1_4 + 100000 z_1_6 + 100000 z_1_7 <= 500847.30941546446
 c3220: 120 p_1_3 + 120 p_1_4 + 120 p_1_6 + 120 p_1_7 + 100000 z_1_3 + 100000 z_1_4 + 100000 z_1_6 + 100000 z_1_7 <= 401048.16591278178
 c3221: 120 p_1_1 + 120 p_1_3 + 120 p_1_4 + 120 p_1_6 + 120 p_1_7 + 100000 z_1_1 + 100000 z_1_3 + 100000 z_1_4 + 100000 z_1_6 + 100000 z_1_7 <= 501041.08116130653
 c3222: 120 p_1_2 + 120 p_1_3 + 120 p_1_4 + 120 p_1_6 + 120 p_1_7 + 100000 z_1_2 + 100000 z_1_3 + 100000 z_1_4 + 100000 z_1_6 + 100000 z_1_7 <= 500683.55700095923
 c3223: 120 p_1_1 + 120 p_1_2 + 120 p_1_3 + 120 p_1_4 + 120 p_1_6 + 120 p_1_7 + 100000 z_1_1 + 100000 z_1_2 + 100000 z_1_3 + 100000 z_1_4 + 100000 z_1_6 + 100000 z_1_7 <= 600676.47224948404
 c3224: 120 p_1_5 + 120 p_1_6 + 120 p_1_7 + 100000 z_1_5 + 100000 z_1_6 + 100000 z_1_7 <= 300952.02846924617
 c3225: 120 p_1_1 + 120 p_1_5 + 120 p_1_6 + 120 p_1_7 + 100000 z_1_1 + 100000 z_1_5 + 100000 z_1_6 + 100000 z_1_7 <= 400945.50683191558
 c3226: 120 p_1_2 + 120 p_1_5 + 120 p_1_6 + 120 p_1_7 + 100000 z_1_2 + 100000 z_1_5 + 100000 z_1_6 + 100000 z_1_7 <= 400851.36136625562
 c3227: 120 p_1_1 + 120 p_1_2 + 120 p_1_5 + 120 p_1_6 + 120 p_1_7 + 100000 z_1_1 + 100000 z_1_2 + 100000 z_1_5 + 100000 z_1_6 + 100000 z_1_7 <= 500844.83972892503
 c3228: 120 p_1_3 + 120 p_1_5 + 120 p_1_6 + 120 p_1_7 + 100000 z_1_3 + 100000 z_1_5 + 100000 z_1_6 + 100000 z_1_7 <= 400782.22493693425
 c3229: 120 p_1_1 + 120 p_1_3 + 120 p_1_5 + 120 p_1_6 + 120 p_1_7 + 100000 z_1_1 + 100000 z_1_3 + 100000 z_1_5 + 100000 z_1_6 + 100000 z_1_7 <= 500776.84774249303
 c3230: 120 p_1_2 + 120 p_1_3 + 120 p_1_5 + 120 p_1_6 + 120 p_1_7 + 100000 z_1_2 + 100000 z_1_3 + 100000 z_1_5 + 100000 z_1_6 + 100000 z_1_7 <= 500681.55783394369
 c3231: 120 p_1_1 + 120 p_1_2 + 120 p_1_3 + 120 p_1_5 + 120 p_1_6 + 120 p_1_7 + 100000 z_1_1 + 100000 z_1_2 + 100000 z_1_3 + 100000 z_1_5 + 100000 z_1_6 + 100000 z_1_7 <= 600676.18063950248
 c3232: 120 p_1_4 + 120 p_1_5 + 120 p_1_6 + 120 p_1_7 + 100000 z_1_4 + 100000 z_1_5 + 100000 z_1_6 + 100000 z_1_7 <= 400952.01545347797
 c3233: 120 p_1_1 + 120 p_1_4 + 120 p_1_5 + 120 p_1_6 + 120 p_1_7 + 100000 z_1_1 + 100000 z_1_4 + 100000 z_1_5 + 100000 z_1_6 + 100000 z_1_7 <= 500944.93070200272
 c3234: 120 p_1_2 + 120 p_1_4 + 120 p_1_5 + 120 p_1_6 + 120 p_1_7 + 100000 z_1_2 + 100000 z_1_4 + 100000 z_1_5 + 100000 z_1_6 + 100000 z_1_7 <= 500851.34835048742
 c3235: 120 p_1_1 + 120 p_1_2 + 120 p_1_4 + 120 p_1_5 + 120 p_1_6 + 120 p_1_7 + 100000 z_1_1 + 100000 z_1_2 + 100000 z_1_4 + 100000 z_1_5 + 100000 z_1_6 + 100000 z_1_7 <= 600844.26359901216
 c3236: 120 p_1_3 + 120 p_1_4 + 120 p_1_5 + 120 p_1_6 + 120 p_1_7 + 100000 z_1_3 + 100000 z_1_4 + 100000 z_1_5 + 100000 z_1_6 + 100000 z_1_7 <= 500781.17828749749
 c3237: 120 p_1_1 + 120 p_1_3 + 120 p_1_4 + 120 p_1_5 + 120 p_1_6 + 120 p_1_7 + 100000 z_1_1 + 100000 z_1_3 + 100000 z_1_4 + 100000 z_1_5 + 100000 z_1_6 + 100000 z_1_7 <= 600774.09353602235
 c3238: 120 p_1_2 + 120 p_1_3 + 120 p_1_4 + 120 p_1_5 + 120 p_1_6 + 120 p_1_7 + 100000 z_1_2 + 100000 z_1_3 + 100000 z_1_4 + 100000 z_1_5 + 100000 z_1_6 + 100000 z_1_7 <= 600680.51118450693
 c3239: 120 p_1_1 + 120 p_1_2 + 120 p_1_3 + 120 p_1_4 + 120 p_1_5 + 120 p_1_6 + 120 p_1_7 + 100000 z_1_1 + 100000 z_1_2 + 100000 z_1_3 + 100000 z_1_4 + 100000 z_1_5 + 100000 z_1_6 + 100000 z_1_7 <= 700673.4264330318
 c3240: 120 p_1_8 + 100000 z_1_8 <= 101951.84865761652
 c3241: 120 p_1_1 + 120 p_1_8 + 100000 z_1_1 + 100000 z_1_8 <= 201252.48426566023
 c3242: 120 p_1_2 + 120 p_1_8 + 100000 z_1_2 + 100000 z_1_8 <= 201878.2037425423
 c3243: 120 p_1_1 + 120 p_1_2 + 120 p_1_8 + 100000 z_1_1 + 100000 z_1_2 + 100000 z_1_8 <= 301197.7656908363
 c3244: 120 p_1_3 + 120 p_1_8 + 100000 z_1_3 + 100000 z_1_8 <= 201433.83456597372
 c3245: 120 p_1_1 + 120 p_1_3 + 120 p_1_8 + 100000 z_1_1 + 100000 z_1_3 + 100000 z_1_8 <= 300781.10782987729
 c3246: 120 p_1_2 + 120 p_1_3 + 120 p_1_8 + 100000 z_1_2 + 100000 z_1_3 + 100000 z_1_8 <= 301360.1896508995
 c3247: 120 p_1_1 + 120 p_1_2 + 120 p_1_3 + 120 p_1_8 + 100000 z_1_1 + 100000 z_1_2 + 100000 z_1_3 + 100000 z_1_8 <= 400707.46291480312
 c3248: 120 p_1_4 + 120 p_1_8 + 100000 z_1_4 + 100000 z_1_8 <= 201489.48378822688
 c3249: 120 p_1_1 + 120 p_1_4 + 120 p_1_8 + 100000 z_1_1 + 100000 z_1_4 + 100000 z_1_8 <= 301245.59664620372
 c3250: 120 p_1_2 + 120 p_1_4 + 120 p_1_8 + 100000 z_1_2 + 100000 z_1_4 + 100000 z_1_8 <= 301427.86880723311
 c3251: 120 p_1_1 + 120 p_1_2 + 120 p_1_4 + 120 p_1_8 + 100000 z_1_1 + 100000 z_1_2 + 100000 z_1_4 + 100000 z_1_8 <= 401190.87807137979
 c3252: 120 p_1_3 + 120 p_1_4 + 120 p_1_8 + 100000 z_1_3 + 100000 z_1_4 + 100000 z_1_8 <= 301035.29899843258
 c3253: 120 p_1_1 + 120 p_1_3 + 120 p_1_4 + 120 p_1_8 + 100000 z_1_1 + 100000 z_1_3 + 100000 z_1_4 + 100000 z_1_8 <= 400778.35362340655
 c3254: 120 p_1_2 + 120 p_1_3 + 120 p_1_4 + 120 p_1_8 + 100000 z_1_2 + 100000 z_1_3 + 100000 z_1_4 + 100000 z_1_8 <= 400961.65408335836
 c3255: 120 p_1_1 + 120 p_1_2 + 120 p_1_3 + 120 p_1_4 + 120 p_1_8 + 100000 z_1_1 + 100000 z_1_2 + 100000 z_1_3 + 100000 z_1_4 + 100000 z_1_8 <= 500704.70870833239
 c3256: 120 p_1_5 + 120 p_1_8 + 100000 z_1_5 + 100000 z_1_8 <= 201945.21967982047
 c3257: 120 p_1_1 + 120 p_1_5 + 120 p_1_8 + 100000 z_1_1 + 100000 z_1_5 + 100000 z_1_8 <= 301251.53706049925
 c3258: 120 p_1_2 + 120 p_1_5 + 120 p_1_8 + 100000 z_1_2 + 100000 z_1_5 + 100000 z_1_8 <= 301875.15792609006
 c3259: 120 p_1_1 + 120 p_1_2 + 120 p_1_5 + 120 p_1_8 + 100000 z_1_1 + 100000 z_1_2 + 100000 z_1_5 + 100000 z_1_8 <= 401191.13671304029
 c3260: 120 p_1_3 + 120 p_1_5 + 120 p_1_8 + 100000 z_1_3 + 100000 z_1_5 + 100000 z_1_8 <= 301427.20558817766
 c3261: 120 p_1_1 + 120 p_1_3 + 120 p_1_5 + 120 p_1_8 + 100000 z_1_1 + 100000 z_1_3 + 100000 z_1_5 + 100000 z_1_8 <= 400774.47885208129
 c3262: 120 p_1_2 + 120 p_1_3 + 120 p_1_5 + 120 p_1_8 + 100000 z_1_2 + 100000 z_1_3 + 100000 z_1_5 + 100000 z_1_8 <= 401357.14383444726
 c3263: 120 p_1_1 + 120 p_1_2 + 120 p_1_3 + 120 p_1_5 + 120 p_1_8 + 100000 z_1_1 + 100000 z_1_2 + 100000 z_1_3 + 100000 z_1_5 + 100000 z_1_8 <= 500704.41709835088
 c3264: 120 p_1_4 + 120 p_1_5 + 120 p_1_8 + 100000 z_1_4 + 100000 z_1_5 + 100000 z_1_8 <= 301487.10733386816
 c3265: 120 p_1_1 + 120 p_1_4 + 120 p_1_5 + 120 p_1_8 + 100000 z_1_1 + 100000 z_1_4 + 100000 z_1_5 + 100000 z_1_8 <= 401244.64944104274
 c3266: 120 p_1_2 + 120 p_1_4 + 120 p_1_5 + 120 p_1_8 + 100000 z_1_2 + 100000 z_1_4 + 100000 z_1_5 + 100000 z_1_8 <= 401421.23982943711
 c3267: 120 p_1_1 + 120 p_1_2 + 120 p_1_4 + 120 p_1_5 + 120 p_1_8 + 100000 z_1_1 + 100000 z_1_2 + 100000 z_1_4 + 100000 z_1_5 + 100000 z_1_8 <= 501184.24909358378
 c3268: 120 p_1_3 + 120 p_1_4 + 120 p_1_5 + 120 p_1_8 + 100000 z_1_3 + 100000 z_1_4 + 100000 z_1_5 + 100000 z_1_8 <= 401028.67002063652
 c3269: 120 p_1_1 + 120 p_1_3 + 120 p_1_4 + 120 p_1_5 + 120 p_1_8 + 100000 z_1_1 + 100000 z_1_3 + 100000 z_1_4 + 100000 z_1_5 + 100000 z_1_8 <= 500771.72464561055
 c3270: 120 p_1_2 + 120 p_1_3 + 120 p_1_4 + 120 p_1_5 + 120 p_1_8 + 100000 z_1_2 + 100000 z_1_3 + 100000 z_1_4 + 100000 z_1_5 + 100000 z_1_8 <= 500958.60826690611
 c3271: 120 p_1_1 + 120 p_1_2 + 120 p_1_3 + 120 p_1_4 + 120 p_1_5 + 120 p_1_8 + 100000 z_1_1 + 100000 z_1_2 + 100000 z_1_3 + 100000 z_1_4 + 100000 z_1_5 + 100000 z_1_8 <= 600701.66289188014
 c3272: 120 p_1_6 + 120 p_1_8 + 100000 z_1_6 + 100000 z_1_8 <= 201610.68471524052
 c3273: 120 p_1_1 + 120 p_1_6 + 120 p_1_8 + 100000 z_1_1 + 100000 z_1_6 + 100000 z_1_8 <= 300938.49432638334
 c3274: 120 p_1_2 + 120 p_1_6 + 120 p_1_8 + 100000 z_1_2 + 100000 z_1_6 + 100000 z_1_8 <= 301537.03980016633
 c3275: 120 p_1_1 + 120 p_1_2 + 120 p_1_6 + 120 p_1_8 + 100000 z_1_1 + 100000 z_1_2 + 100000 z_1_6 + 100000 z_1_8 <= 400864.84941130911
 c3276: 120 p_1_3 + 120 p_1_6 + 120 p_1_8 + 100000 z_1_3 + 100000 z_1_6 + 100000 z_1_8 <= 301432.14615248906
 c3277: 120 p_1_1 + 120 p_1_3 + 120 p_1_6 + 120 p_1_8 + 100000 z_1_1 + 100000 z_1_3 + 100000 z_1_6 + 100000 z_1_8 <= 400769.83523696079
 c3278: 120 p_1_2 + 120 p_1_3 + 120 p_1_6 + 120 p_1_8 + 100000 z_1_2 + 100000 z_1_3 + 100000 z_1_6 + 100000 z_1_8 <= 401358.50123741484
 c3279: 120 p_1_1 + 120 p_1_2 + 120 p_1_3 + 120 p_1_6 + 120 p_1_8 + 100000 z_1_1 + 100000 z_1_2 + 100000 z_1_3 + 100000 z_1_6 + 100000 z_1_8 <= 500696.19032188656
 c3280: 120 p_1_4 + 120 p_1_6 + 120 p_1_8 + 100000 z_1_4 + 100000 z_1_6 + 100000 z_1_8 <= 301194.86357149651
 c3281: 120 p_1_1 + 120 p_1_4 + 120 p_1_6 + 120 p_1_8 + 100000 z_1_1 + 100000 z_1_4 + 100000 z_1_6 + 100000 z_1_8 <= 400937.91819647048
 c3282: 120 p_1_2 + 120 p_1_4 + 120 p_1_6 + 120 p_1_8 + 100000 z_1_2 + 100000 z_1_4 + 100000 z_1_6 + 100000 z_1_8 <= 401121.21865642228
 c3283: 120 p_1_1 + 120 p_1_2 + 120 p_1_4 + 120 p_1_6 + 120 p_1_8 + 100000 z_1_1 + 100000 z_1_2 + 100000 z_1_4 + 100000 z_1_6 + 100000 z_1_8 <= 500864.27328139625
 c3284: 120 p_1_3 + 120 p_1_4 + 120 p_1_6 + 120 p_1_8 + 100000 z_1_3 + 100000 z_1_4 + 100000 z_1_6 + 100000 z_1_8 <= 401024.02640551608
 c3285: 120 p_1_1 + 120 p_1_3 + 120 p_1_4 + 120 p_1_6 + 120 p_1_8 + 100000 z_1_1 + 100000 z_1_3 + 100000 z_1_4 + 100000 z_1_6 + 100000 z_1_8 <= 500767.08103049005
 c3286: 120 p_1_2 + 120 p_1_3 + 120 p_1_4 + 120 p_1_6 + 120 p_1_8 + 100000 z_1_2 + 100000 z_1_3 + 100000 z_1_4 + 100000 z_1_6 + 100000 z_1_8 <= 500950.38149044185
 c3287: 120 p_1_1 + 120 p_1_2 + 120 p_1_3 + 120 p_1_4 + 120 p_1_6 + 120 p_1_8 + 100000 z_1_1 + 100000 z_1_2 + 100000 z_1_3 + 100000 z_1_4 + 100000 z_1_6 + 100000 z_1_8 <= 600693.43611541588
 c3288: 120 p_1_5 + 120 p_1_6 + 120 p_1_8 + 100000 z_1_5 + 100000 z_1_6 + 100000 z_1_8 <= 301604.05573744449
 c3289: 120 p_1_1 + 120 p_1_5 + 120 p_1_6 + 120 p_1_8 + 100000 z_1_1 + 100000 z_1_5 + 100000 z_1_6 + 100000 z_1_8 <= 400931.86534858728
 c3290: 120 p_1_2 + 120 p_1_5 + 120 p_1_6 + 120 p_1_8 + 100000 z_1_2 + 100000 z_1_5 + 100000 z_1_6 + 100000 z_1_8 <= 401533.99398371408
 c3291: 120 p_1_1 + 120 p_1_2 + 120 p_1_5 + 120 p_1_6 + 120 p_1_8 + 100000 z_1_1 + 100000 z_1_2 + 100000 z_1_5 + 100000 z_1_6 + 100000 z_1_8 <= 500861.80359485687
 c3292: 120 p_1_3 + 120 p_1_5 + 120 p_1_6 + 120 p_1_8 + 100000 z_1_3 + 100000 z_1_5 + 100000 z_1_6 + 100000 z_1_8 <= 401425.517174693
 c3293: 120 p_1_1 + 120 p_1_3 + 120 p_1_5 + 120 p_1_6 + 120 p_1_8 + 100000 z_1_1 + 100000 z_1_3 + 100000 z_1_5 + 100000 z_1_6 + 100000 z_1_8 <= 500763.20625916473
 c3294: 120 p_1_2 + 120 p_1_3 + 120 p_1_5 + 120 p_1_6 + 120 p_1_8 + 100000 z_1_2 + 100000 z_1_3 + 100000 z_1_5 + 100000 z_1_6 + 100000 z_1_8 <= 501355.45542096259
 c3295: 120 p_1_1 + 120 p_1_2 + 120 p_1_3 + 120 p_1_5 + 120 p_1_6 + 120 p_1_8 + 100000 z_1_1 + 100000 z_1_2 + 100000 z_1_3 + 100000 z_1_5 + 100000 z_1_6 + 100000 z_1_8 <= 600693.14450543432
 c3296: 120 p_1_4 + 120 p_1_5 + 120 p_1_6 + 120 p_1_8 + 100000 z_1_4 + 100000 z_1_5 + 100000 z_1_6 + 100000 z_1_8 <= 401188.23459370044
 c3297: 120 p_1_1 + 120 p_1_4 + 120 p_1_5 + 120 p_1_6 + 120 p_1_8 + 100000 z_1_1 + 100000 z_1_4 + 100000 z_1_5 + 100000 z_1_6 + 100000 z_1_8 <= 500931.28921867447
 c3298: 120 p_1_2 + 120 p_1_4 + 120 p_1_5 + 120 p_1_6 + 120 p_1_8 + 100000 z_1_2 + 100000 z_1_4 + 100000 z_1_5 + 100000 z_1_6 + 100000 z_1_8 <= 501118.17283997004
 c3299: 120 p_1_1 + 120 p_1_2 + 120 p_1_4 + 120 p_1_5 + 120 p_1_6 + 120 p_1_8 + 100000 z_1_1 + 100000 z_1_2 + 100000 z_1_4 + 100000 z_1_5 + 100000 z_1_6 + 100000 z_1_8 <= 600861.22746494401
 c3300: 120 p_1_3 + 120 p_1_4 + 120 p_1_5 + 120 p_1_6 + 120 p_1_8 + 100000 z_1_3 + 100000 z_1_4 + 100000 z_1_5 + 100000 z_1_6 + 100000 z_1_8 <= 501017.39742772002
 c3301: 120 p_1_1 + 120 p_1_3 + 120 p_1_4 + 120 p_1_5 + 120 p_1_6 + 120 p_1_8 + 100000 z_1_1 + 100000 z_1_3 + 100000 z_1_4 + 100000 z_1_5 + 100000 z_1_6 + 100000 z_1_8 <= 600760.45205269405
 c3302: 120 p_1_2 + 120 p_1_3 + 120 p_1_4 + 120 p_1_5 + 120 p_1_6 + 120 p_1_8 + 100000 z_1_2 + 100000 z_1_3 + 100000 z_1_4 + 100000 z_1_5 + 100000 z_1_6 + 100000 z_1_8 <= 600947.33567398961
 c3303: 120 p_1_1 + 120 p_1_2 + 120 p_1_3 + 120 p_1_4 + 120 p_1_5 + 120 p_1_6 + 120 p_1_8 + 100000 z_1_1 + 100000 z_1_2 + 100000 z_1_3 + 100000 z_1_4 + 100000 z_1_5 + 100000 z_1_6 + 100000 z_1_8 <= 700690.39029896364
 c3304: 120 p_1_7 + 120 p_1_8 + 100000 z_1_7 + 100000 z_1_8 <= 201248.99693338963
 c3305: 120 p_1_1 + 120 p_1_7 + 120 p_1_8 + 100000 z_1_1 + 100000 z_1_7 + 100000 z_1_8 <= 301238.11409173533
 c3306: 120 p_1_2 + 120 p_1_7 + 120 p_1_8 + 100000 z_1_2 + 100000 z_1_7 + 100000 z_1_8 <= 301195.48128908325
 c3307: 120 p_1_1 + 120 p_1_2 + 120 p_1_7 + 120 p_1_8 + 100000 z_1_1 + 100000 z_1_2 + 100000 z_1_7 + 100000 z_1_8 <= 401184.59844742896
 c3308: 120 p_1_3 + 120 p_1_7 + 120 p_1_8 + 100000 z_1_3 + 100000 z_1_7 + 100000 z_1_8 <= 300768.75160638371
 c3309: 120 p_1_1 + 120 p_1_3 + 120 p_1_7 + 120 p_1_8 + 100000 z_1_1 + 100000 z_1_3 + 100000 z_1_7 + 100000 z_1_8 <= 400763.3744119425
 c3310: 120 p_1_2 + 120 p_1_3 + 120 p_1_7 + 120 p_1_8 + 100000 z_1_2 + 100000 z_1_3 + 100000 z_1_7 + 100000 z_1_8 <= 400695.10669130948
 c3311: 120 p_1_1 + 120 p_1_2 + 120 p_1_3 + 120 p_1_7 + 120 p_1_8 + 100000 z_1_1 + 100000 z_1_2 + 100000 z_1_3 + 100000 z_1_7 + 100000 z_1_8 <= 500689.72949686827
 c3312: 120 p_1_4 + 120 p_1_7 + 120 p_1_8 + 100000 z_1_4 + 100000 z_1_7 + 100000 z_1_8 <= 301238.31122375408
 c3313: 120 p_1_1 + 120 p_1_4 + 120 p_1_7 + 120 p_1_8 + 100000 z_1_1 + 100000 z_1_4 + 100000 z_1_7 + 100000 z_1_8 <= 401231.22647227882
 c3314: 120 p_1_2 + 120 p_1_4 + 120 p_1_7 + 120 p_1_8 + 100000 z_1_2 + 100000 z_1_4 + 100000 z_1_7 + 100000 z_1_8 <= 401184.7955794477
 c3315: 120 p_1_1 + 120 p_1_2 + 120 p_1_4 + 120 p_1_7 + 120 p_1_8 + 100000 z_1_1 + 100000 z_1_2 + 100000 z_1_4 + 100000 z_1_7 + 100000 z_1_8 <= 501177.71082797245
 c3316: 120 p_1_3 + 120 p_1_4 + 120 p_1_7 + 120 p_1_8 + 100000 z_1_3 + 100000 z_1_4 + 100000 z_1_7 + 100000 z_1_8 <= 400767.70495694695
 c3317: 120 p_1_1 + 120 p_1_3 + 120 p_1_4 + 120 p_1_7 + 120 p_1_8 + 100000 z_1_1 + 100000 z_1_3 + 100000 z_1_4 + 100000 z_1_7 + 100000 z_1_8 <= 500760.62020547176
 c3318: 120 p_1_2 + 120 p_1_3 + 120 p_1_4 + 120 p_1_7 + 120 p_1_8 + 100000 z_1_2 + 100000 z_1_3 + 100000 z_1_4 + 100000 z_1_7 + 100000 z_1_8 <= 500694.06004187273
 c3319: 120 p_1_1 + 120 p_1_2 + 120 p_1_3 + 120 p_1_4 + 120 p_1_7 + 120 p_1_8 + 100000 z_1_1 + 100000 z_1_2 + 100000 z_1_3 + 100000 z_1_4 + 100000 z_1_7 + 100000 z_1_8 <= 600686.97529039753
 c3320: 120 p_1_5 + 120 p_1_7 + 120 p_1_8 + 100000 z_1_5 + 100000 z_1_7 + 100000 z_1_8 <= 301248.23947338253
 c3321: 120 p_1_1 + 120 p_1_5 + 120 p_1_7 + 120 p_1_8 + 100000 z_1_1 + 100000 z_1_5 + 100000 z_1_7 + 100000 z_1_8 <= 401237.35663172824
 c3322: 120 p_1_2 + 120 p_1_5 + 120 p_1_7 + 120 p_1_8 + 100000 z_1_2 + 100000 z_1_5 + 100000 z_1_7 + 100000 z_1_8 <= 401188.85231128725
 c3323: 120 p_1_1 + 120 p_1_2 + 120 p_1_5 + 120 p_1_7 + 120 p_1_8 + 100000 z_1_1 + 100000 z_1_2 + 100000 z_1_5 + 100000 z_1_7 + 100000 z_1_8 <= 501177.96946963295
 c3324: 120 p_1_3 + 120 p_1_5 + 120 p_1_7 + 120 p_1_8 + 100000 z_1_3 + 100000 z_1_5 + 100000 z_1_7 + 100000 z_1_8 <= 400762.12262858765
 c3325: 120 p_1_1 + 120 p_1_3 + 120 p_1_5 + 120 p_1_7 + 120 p_1_8 + 100000 z_1_1 + 100000 z_1_3 + 100000 z_1_5 + 100000 z_1_7 + 100000 z_1_8 <= 500756.74543414643
 c3326: 120 p_1_2 + 120 p_1_3 + 120 p_1_5 + 120 p_1_7 + 120 p_1_8 + 100000 z_1_2 + 100000 z_1_3 + 100000 z_1_5 + 100000 z_1_7 + 100000 z_1_8 <= 500692.06087485724
 c3327: 120 p_1_1 + 120 p_1_2 + 120 p_1_3 + 120 p_1_5 + 120 p_1_7 + 120 p_1_8 + 100000 z_1_1 + 100000 z_1_2 + 100000 z_1_3 + 100000 z_1_5 + 100000 z_1_7 + 100000 z_1_8 <= 600686.68368041608
 c3328: 120 p_1_4 + 120 p_1_5 + 120 p_1_7 + 120 p_1_8 + 100000 z_1_4 + 100000 z_1_5 + 100000 z_1_7 + 100000 z_1_8 <= 401237.55376374698
 c3329: 120 p_1_1 + 120 p_1_4 + 120 p_1_5 + 120 p_1_7 + 120 p_1_8 + 100000 z_1_1 + 100000 z_1_4 + 100000 z_1_5 + 100000 z_1_7 + 100000 z_1_8 <= 501230.46901227173
 c3330: 120 p_1_2 + 120 p_1_4 + 120 p_1_5 + 120 p_1_7 + 120 p_1_8 + 100000 z_1_2 + 100000 z_1_4 + 100000 z_1_5 + 100000 z_1_7 + 100000 z_1_8 <= 501178.16660165164
 c3331: 120 p_1_1 + 120 p_1_2 + 120 p_1_4 + 120 p_1_5 + 120 p_1_7 + 120 p_1_8 + 100000 z_1_1 + 100000 z_1_2 + 100000 z_1_4 + 100000 z_1_5 + 100000 z_1_7 + 100000 z_1_8 <= 601171.08185017644
 c3332: 120 p_1_3 + 120 p_1_4 + 120 p_1_5 + 120 p_1_7 + 120 p_1_8 + 100000 z_1_3 + 100000 z_1_4 + 100000 z_1_5 + 100000 z_1_7 + 100000 z_1_8 <= 500761.07597915095
 c3333: 120 p_1_1 + 120 p_1_3 + 120 p_1_4 + 120 p_1_5 + 120 p_1_7 + 120 p_1_8 + 100000 z_1_1 + 100000 z_1_3 + 100000 z_1_4 + 100000 z_1_5 + 100000 z_1_7 + 100000 z_1_8 <= 600753.99122767569
 c3334: 120 p_1_2 + 120 p_1_3 + 120 p_1_4 + 120 p_1_5 + 120 p_1_7 + 120 p_1_8 + 100000 z_1_2 + 100000 z_1_3 + 100000 z_1_4 + 100000 z_1_5 + 100000 z_1_7 + 100000 z_1_8 <= 600691.01422542054
 c3335: 120 p_1_1 + 120 p_1_2 + 120 p_1_3 + 120 p_1_4 + 120 p_1_5 + 120 p_1_7 + 120 p_1_8 + 100000 z_1_1 + 100000 z_1_2 + 100000 z_1_3 + 100000 z_1_4 + 100000 z_1_5 + 100000 z_1_7 + 100000 z_1_8 <= 700683.92947394529
 c3336: 120 p_1_6 + 120 p_1_7 + 120 p_1_8 + 100000 z_1_6 + 100000 z_1_7 + 100000 z_1_8 <= 300927.28254577908
 c3337: 120 p_1_1 + 120 p_1_6 + 120 p_1_7 + 120 p_1_8 + 100000 z_1_1 + 100000 z_1_6 + 100000 z_1_7 + 100000 z_1_8 <= 400920.76090844849
 c3338: 120 p_1_2 + 120 p_1_6 + 120 p_1_7 + 120 p_1_8 + 100000 z_1_2 + 100000 z_1_6 + 100000 z_1_7 + 100000 z_1_8 <= 400854.31734670728
 c3339: 120 p_1_1 + 120 p_1_2 + 120 p_1_6 + 120 p_1_7 + 120 p_1_8 + 100000 z_1_1 + 100000 z_1_2 + 100000 z_1_6 + 100000 z_1_7 + 100000 z_1_8 <= 500847.11599337426
 c3340: 120 p_1_3 + 120 p_1_6 + 120 p_1_7 + 120 p_1_8 + 100000 z_1_3 + 100000 z_1_6 + 100000 z_1_7 + 100000 z_1_8 <= 400757.47901346715
 c3341: 120 p_1_1 + 120 p_1_3 + 120 p_1_6 + 120 p_1_7 + 120 p_1_8 + 100000 z_1_1 + 100000 z_1_3 + 100000 z_1_6 + 100000 z_1_7 + 100000 z_1_8 <= 500752.10181902599
 c3342: 120 p_1_2 + 120 p_1_3 + 120 p_1_6 + 120 p_1_7 + 120 p_1_8 + 100000 z_1_2 + 100000 z_1_3 + 100000 z_1_6 + 100000 z_1_7 + 100000 z_1_8 <= 500683.83409839292
 c3343: 120 p_1_1 + 120 p_1_2 + 120 p_1_3 + 120 p_1_6 + 120 p_1_7 + 120 p_1_8 + 100000 z_1_1 + 100000 z_1_2 + 100000 z_1_3 + 100000 z_1_6 + 100000 z_1_7 + 100000 z_1_8 <= 600678.45690395171
 c3344: 120 p_1_4 + 120 p_1_6 + 120 p_1_7 + 120 p_1_8 + 100000 z_1_4 + 100000 z_1_6 + 100000 z_1_7 + 100000 z_1_8 <= 400927.26953001088
 c3345: 120 p_1_1 + 120 p_1_4 + 120 p_1_6 + 120 p_1_7 + 120 p_1_8 + 100000 z_1_1 + 100000 z_1_4 + 100000 z_1_6 + 100000 z_1_7 + 100000 z_1_8 <= 500920.18477853568
 c3346: 120 p_1_2 + 120 p_1_4 + 120 p_1_6 + 120 p_1_7 + 120 p_1_8 + 100000 z_1_2 + 100000 z_1_4 + 100000 z_1_6 + 100000 z_1_7 + 100000 z_1_8 <= 500853.62461493665
 c3347: 120 p_1_1 + 120 p_1_2 + 120 p_1_4 + 120 p_1_6 + 120 p_1_7 + 120 p_1_8 + 100000 z_1_1 + 100000 z_1_2 + 100000 z_1_4 + 100000 z_1_6 + 100000 z_1_7 + 100000 z_1_8 <= 600846.5398634614
 c3348: 120 p_1_3 + 120 p_1_4 + 120 p_1_6 + 120 p_1_7 + 120 p_1_8 + 100000 z_1_3 + 100000 z_1_4 + 100000 z_1_6 + 100000 z_1_7 + 100000 z_1_8 <= 500756.43236403045
 c3349: 120 p_1_1 + 120 p_1_3 + 120 p_1_4 + 120 p_1_6 + 120 p_1_7 + 120 p_1_8 + 100000 z_1_1 + 100000 z_1_3 + 100000 z_1_4 + 100000 z_1_6 + 100000 z_1_7 + 100000 z_1_8 <= 600749.34761255526
 c3350: 120 p_1_2 + 120 p_1_3 + 120 p_1_4 + 120 p_1_6 + 120 p_1_7 + 120 p_1_8 + 100000 z_1_2 + 100000 z_1_3 + 100000 z_1_4 + 100000 z_1_6 + 100000 z_1_7 + 100000 z_1_8 <= 600682.78744895628
 c3351: 120 p_1_1 + 120 p_1_2 + 120 p_1_3 + 120 p_1_4 + 120 p_1_6 + 120 p_1_7 + 120 p_1_8 + 100000 z_1_1 + 100000 z_1_2 + 100000 z_1_3 + 100000 z_1_4 + 100000 z_1_6 + 100000 z_1_7 + 100000 z_1_8 <= 700675.70269748103
 c3352: 120 p_1_5 + 120 p_1_6 + 120 p_1_7 + 120 p_1_8 + 100000 z_1_5 + 100000 z_1_6 + 100000 z_1_7 + 100000 z_1_8 <= 400920.65356798307
 c3353: 120 p_1_1 + 120 p_1_5 + 120 p_1_6 + 120 p_1_7 + 120 p_1_8 + 100000 z_1_1 + 100000 z_1_5 + 100000 z_1_6 + 100000 z_1_7 + 100000 z_1_8 <= 500914.13193065242
 c3354: 120 p_1_2 + 120 p_1_5 + 120 p_1_6 + 120 p_1_7 + 120 p_1_8 + 100000 z_1_2 + 100000 z_1_5 + 100000 z_1_6 + 100000 z_1_7 + 100000 z_1_8 <= 500850.59181425266
 c3355: 120 p_1_1 + 120 p_1_2 + 120 p_1_5 + 120 p_1_6 + 120 p_1_7 + 120 p_1_8 + 100000 z_1_1 + 100000 z_1_2 + 100000 z_1_5 + 100000 z_1_6 + 100000 z_1_7 + 100000 z_1_8 <= 600844.07017692202
 c3356: 120 p_1_3 + 120 p_1_5 + 120 p_1_6 + 120 p_1_7 + 120 p_1_8 + 100000 z_1_3 + 100000 z_1_5 + 100000 z_1_6 + 100000 z_1_7 + 100000 z_1_8 <= 500750.85003567114
 c3357: 120 p_1_1 + 120 p_1_3 + 120 p_1_5 + 120 p_1_6 + 120 p_1_7 + 120 p_1_8 + 100000 z_1_1 + 100000 z_1_3 + 100000 z_1_5 + 100000 z_1_6 + 100000 z_1_7 + 100000 z_1_8 <= 600745.47284122987
 c3358: 120 p_1_2 + 120 p_1_3 + 120 p_1_5 + 120 p_1_6 + 120 p_1_7 + 120 p_1_8 + 100000 z_1_2 + 100000 z_1_3 + 100000 z_1_5 + 100000 z_1_6 + 100000 z_1_7 + 100000 z_1_8 <= 600680.78828194074
 c3359: 120 p_1_1 + 120 p_1_2 + 120 p_1_3 + 120 p_1_5 + 120 p_1_6 + 120 p_1_7 + 120 p_1_8 + 100000 z_1_1 + 100000 z_1_2 + 100000 z_1_3 + 100000 z_1_5 + 100000 z_1_6 + 100000 z_1_7 + 100000 z_1_8 <= 700675.41108749947
 c3360: 120 p_1_4 + 120 p_1_5 + 120 p_1_6 + 120 p_1_7 + 120 p_1_8 + 100000 z_1_4 + 100000 z_1_5 + 100000 z_1_6 + 100000 z_1_7 + 100000 z_1_8 <= 500920.64055221481
 c3361: 120 p_1_1 + 120 p_1_4 + 120 p_1_5 + 120 p_1_6 + 120 p_1_7 + 120 p_1_8 + 100000 z_1_1 + 100000 z_1_4 + 100000 z_1_5 + 100000 z_1_6 + 100000 z_1_7 + 100000 z_1_8 <= 600913.55580073968
 c3362: 120 p_1_2 + 120 p_1_4 + 120 p_1_5 + 120 p_1_6 + 120 p_1_7 + 120 p_1_8 + 100000 z_1_2 + 100000 z_1_4 + 100000 z_1_5 + 100000 z_1_6 + 100000 z_1_7 + 100000 z_1_8 <= 600850.57879848441
 c3363: 120 p_1_1 + 120 p_1_2 + 120 p_1_4 + 120 p_1_5 + 120 p_1_6 + 120 p_1_7 + 120 p_1_8 + 100000 z_1_1 + 100000 z_1_2 + 100000 z_1_4 + 100000 z_1_5 + 100000 z_1_6 + 100000 z_1_7 + 100000 z_1_8 <= 700843.49404700915
 c3364: 120 p_1_3 + 120 p_1_4 + 120 p_1_5 + 120 p_1_6 + 120 p_1_7 + 120 p_1_8 + 100000 z_1_3 + 100000 z_1_4 + 100000 z_1_5 + 100000 z_1_6 + 100000 z_1_7 + 100000 z_1_8 <= 600749.80338623445
 c3365: 120 p_1_1 + 120 p_1_3 + 120 p_1_4 + 120 p_1_5 + 120 p_1_6 + 120 p_1_7 + 120 p_1_8 + 100000 z_1_1 + 100000 z_1_3 + 100000 z_1_4 + 100000 z_1_5 + 100000 z_1_6 + 100000 z_1_7 + 100000 z_1_8 <= 700742.71863475919
 c3366: 120 p_1_2 + 120 p_1_3 + 120 p_1_4 + 120 p_1_5 + 120 p_1_6 + 120 p_1_7 + 120 p_1_8 + 100000 z_1_2 + 100000 z_1_3 + 100000 z_1_4 + 100000 z_1_5 + 100000 z_1_6 + 100000 z_1_7 + 100000 z_1_8 <= 700679.74163250392
 c3367: 120 p_1_1 + 120 p_1_2 + 120 p_1_3 + 120 p_1_4 + 120 p_1_5 + 120 p_1_6 + 120 p_1_7 + 120 p_1_8 + 100000 z_1_1 + 100000 z_1_2 + 100000 z_1_3 + 100000 z_1_4 + 100000 z_1_5 + 100000 z_1_6 + 100000 z_1_7 + 100000 z_1_8 <= 800672.65688102879
 c3368: 120 p_1_9 + 100000 z_1_9 <= 101917.88356615882
 c3369: 120 p_1_1 + 120 p_1_9 + 100000 z_1_1 + 100000 z_1_9 <= 201284.46281396586
 c3370: 120 p_1_2 + 120 p_1_9 + 100000 z_1_2 + 100000 z_1_9 <= 201506.46930946462
 c3371: 120 p_1_1 + 120 p_1_2 + 120 p_1_9 + 100000 z_1_1 + 100000 z_1_2 + 100000 z_1_9 <= 300873.04855727166
 c3372: 120 p_1_3 + 120 p_1_9 + 100000 z_1_3 + 100000 z_1_9 <= 201696.67790523914
 c3373: 120 p_1_1 + 120 p_1_3 + 120 p_1_9 + 100000 z_1_1 + 100000 z_1_3 + 100000 z_1_9 <= 301063.2571530462
 c3374: 120 p_1_2 + 120 p_1_3 + 120 p_1_9 + 100000 z_1_2 + 100000 z_1_3 + 100000 z_1_9 <= 301340.9779155025
 c3375: 120 p_1_1 + 120 p_1_2 + 120 p_1_3 + 120 p_1_9 + 100000 z_1_1 + 100000 z_1_2 + 100000 z_1_3 + 100000 z_1_9 <= 400707.55716330954
 c3376: 120 p_1_4 + 120 p_1_9 + 100000 z_1_4 + 100000 z_1_9 <= 201538.48132627868
 c3377: 120 p_1_1 + 120 p_1_4 + 120 p_1_9 + 100000 z_1_1 + 100000 z_1_4 + 100000 z_1_9 <= 301281.53595125268
 c3378: 120 p_1_2 + 120 p_1_4 + 120 p_1_9 + 100000 z_1_2 + 100000 z_1_4 + 100000 z_1_9 <= 301127.06706958445
 c3379: 120 p_1_1 + 120 p_1_2 + 120 p_1_4 + 120 p_1_9 + 100000 z_1_1 + 100000 z_1_2 + 100000 z_1_4 + 100000 z_1_9 <= 400870.12169455847
 c3380: 120 p_1_3 + 120 p_1_4 + 120 p_1_9 + 100000 z_1_3 + 100000 z_1_4 + 100000 z_1_9 <= 301317.27566535899
 c3381: 120 p_1_1 + 120 p_1_3 + 120 p_1_4 + 120 p_1_9 + 100000 z_1_1 + 100000 z_1_3 + 100000 z_1_4 + 100000 z_1_9 <= 401060.33029033296
 c3382: 120 p_1_2 + 120 p_1_3 + 120 p_1_4 + 120 p_1_9 + 100000 z_1_2 + 100000 z_1_3 + 100000 z_1_4 + 100000 z_1_9 <= 400961.57567562233
 c3383: 120 p_1_1 + 120 p_1_2 + 120 p_1_3 + 120 p_1_4 + 120 p_1_9 + 100000 z_1_1 + 100000 z_1_2 + 100000 z_1_3 + 100000 z_1_4 + 100000 z_1_9 <= 500704.63030059636
 c3384: 120 p_1_5 + 120 p_1_9 + 100000 z_1_5 + 100000 z_1_9 <= 201607.61564086896
 c3385: 120 p_1_1 + 120 p_1_5 + 120 p_1_9 + 100000 z_1_1 + 100000 z_1_5 + 100000 z_1_9 <= 300974.19488867599
 c3386: 120 p_1_2 + 120 p_1_5 + 120 p_1_9 + 100000 z_1_2 + 100000 z_1_5 + 100000 z_1_9 <= 301503.81845114048
 c3387: 120 p_1_1 + 120 p_1_2 + 120 p_1_5 + 120 p_1_9 + 100000 z_1_1 + 100000 z_1_2 + 100000 z_1_5 + 100000 z_1_9 <= 400870.39769894752
 c3388: 120 p_1_3 + 120 p_1_5 + 120 p_1_9 + 100000 z_1_3 + 100000 z_1_5 + 100000 z_1_9 <= 301435.6741004262
 c3389: 120 p_1_1 + 120 p_1_3 + 120 p_1_5 + 120 p_1_9 + 100000 z_1_1 + 100000 z_1_3 + 100000 z_1_5 + 100000 z_1_9 <= 400802.25334823324
 c3390: 120 p_1_2 + 120 p_1_3 + 120 p_1_5 + 120 p_1_9 + 100000 z_1_2 + 100000 z_1_3 + 100000 z_1_5 + 100000 z_1_9 <= 401337.93209905026
 c3391: 120 p_1_1 + 120 p_1_2 + 120 p_1_3 + 120 p_1_5 + 120 p_1_9 + 100000 z_1_1 + 100000 z_1_2 + 100000 z_1_3 + 100000 z_1_5 + 100000 z_1_9 <= 500704.5113468573
 c3392: 120 p_1_4 + 120 p_1_5 + 120 p_1_9 + 100000 z_1_4 + 100000 z_1_5 + 100000 z_1_9 <= 301228.21340098878
 c3393: 120 p_1_1 + 120 p_1_4 + 120 p_1_5 + 120 p_1_9 + 100000 z_1_1 + 100000 z_1_4 + 100000 z_1_5 + 100000 z_1_9 <= 400971.26802596281
 c3394: 120 p_1_2 + 120 p_1_4 + 120 p_1_5 + 120 p_1_9 + 100000 z_1_2 + 100000 z_1_4 + 100000 z_1_5 + 100000 z_1_9 <= 401124.41621126037
 c3395: 120 p_1_1 + 120 p_1_2 + 120 p_1_4 + 120 p_1_5 + 120 p_1_9 + 100000 z_1_1 + 100000 z_1_2 + 100000 z_1_4 + 100000 z_1_5 + 100000 z_1_9 <= 500867.47083623434
 c3396: 120 p_1_3 + 120 p_1_4 + 120 p_1_5 + 120 p_1_9 + 100000 z_1_3 + 100000 z_1_4 + 100000 z_1_5 + 100000 z_1_9 <= 401056.27186054602
 c3397: 120 p_1_1 + 120 p_1_3 + 120 p_1_4 + 120 p_1_5 + 120 p_1_9 + 100000 z_1_1 + 100000 z_1_3 + 100000 z_1_4 + 100000 z_1_5 + 100000 z_1_9 <= 500799.32648552005
 c3398: 120 p_1_2 + 120 p_1_3 + 120 p_1_4 + 120 p_1_5 + 120 p_1_9 + 100000 z_1_2 + 100000 z_1_3 + 100000 z_1_4 + 100000 z_1_5 + 100000 z_1_9 <= 500958.52985917008
 c3399: 120 p_1_1 + 120 p_1_2 + 120 p_1_3 + 120 p_1_4 + 120 p_1_5 + 120 p_1_9 + 100000 z_1_1 + 100000 z_1_2 + 100000 z_1_3 + 100000 z_1_4 + 100000 z_1_5 + 100000 z_1_9 <= 600701.58448414411
 c3400: 120 p_1_6 + 120 p_1_9 + 100000 z_1_6 + 100000 z_1_9 <= 201839.1523123818
 c3401: 120 p_1_1 + 120 p_1_6 + 120 p_1_9 + 100000 z_1_1 + 100000 z_1_6 + 100000 z_1_9 <= 301205.73156018887
 c3402: 120 p_1_2 + 120 p_1_6 + 120 p_1_9 + 100000 z_1_2 + 100000 z_1_6 + 100000 z_1_9 <= 301474.54340055928
 c3403: 120 p_1_1 + 120 p_1_2 + 120 p_1_6 + 120 p_1_9 + 100000 z_1_1 + 100000 z_1_2 + 100000 z_1_6 + 100000 z_1_9 <= 400841.12264836632
 c3404: 120 p_1_3 + 120 p_1_6 + 120 p_1_9 + 100000 z_1_3 + 100000 z_1_6 + 100000 z_1_9 <= 301694.98949175444
 c3405: 120 p_1_1 + 120 p_1_3 + 120 p_1_6 + 120 p_1_9 + 100000 z_1_1 + 100000 z_1_3 + 100000 z_1_6 + 100000 z_1_9 <= 401061.56873956148
 c3406: 120 p_1_2 + 120 p_1_3 + 120 p_1_6 + 120 p_1_9 + 100000 z_1_2 + 100000 z_1_3 + 100000 z_1_6 + 100000 z_1_9 <= 401330.38057993189
 c3407: 120 p_1_1 + 120 p_1_2 + 120 p_1_3 + 120 p_1_6 + 120 p_1_9 + 100000 z_1_1 + 100000 z_1_2 + 100000 z_1_3 + 100000 z_1_6 + 100000 z_1_9 <= 500696.95982773899
 c3408: 120 p_1_4 + 120 p_1_6 + 120 p_1_9 + 100000 z_1_4 + 100000 z_1_6 + 100000 z_1_9 <= 301459.75007250166
 c3409: 120 p_1_1 + 120 p_1_4 + 120 p_1_6 + 120 p_1_9 + 100000 z_1_1 + 100000 z_1_4 + 100000 z_1_6 + 100000 z_1_9 <= 401202.80469747563
 c3410: 120 p_1_2 + 120 p_1_4 + 120 p_1_6 + 120 p_1_9 + 100000 z_1_2 + 100000 z_1_4 + 100000 z_1_6 + 100000 z_1_9 <= 401095.14116067911
 c3411: 120 p_1_1 + 120 p_1_2 + 120 p_1_4 + 120 p_1_6 + 120 p_1_9 + 100000 z_1_1 + 100000 z_1_2 + 100000 z_1_4 + 100000 z_1_6 + 100000 z_1_9 <= 500838.19578565314
 c3412: 120 p_1_3 + 120 p_1_4 + 120 p_1_6 + 120 p_1_9 + 100000 z_1_3 + 100000 z_1_4 + 100000 z_1_6 + 100000 z_1_9 <= 401315.58725187433
 c3413: 120 p_1_1 + 120 p_1_3 + 120 p_1_4 + 120 p_1_6 + 120 p_1_9 + 100000 z_1_1 + 100000 z_1_3 + 100000 z_1_4 + 100000 z_1_6 + 100000 z_1_9 <= 501058.6418768483
 c3414: 120 p_1_2 + 120 p_1_3 + 120 p_1_4 + 120 p_1_6 + 120 p_1_9 + 100000 z_1_2 + 100000 z_1_3 + 100000 z_1_4 + 100000 z_1_6 + 100000 z_1_9 <= 500950.97834005178
 c3415: 120 p_1_1 + 120 p_1_2 + 120 p_1_3 + 120 p_1_4 + 120 p_1_6 + 120 p_1_9 + 100000 z_1_1 + 100000 z_1_2 + 100000 z_1_3 + 100000 z_1_4 + 100000 z_1_6 + 100000 z_1_9 <= 600694.03296502575
 c3416: 120 p_1_5 + 120 p_1_6 + 120 p_1_9 + 100000 z_1_5 + 100000 z_1_6 + 100000 z_1_9 <= 301572.16468709754
 c3417: 120 p_1_1 + 120 p_1_5 + 120 p_1_6 + 120 p_1_9 + 100000 z_1_1 + 100000 z_1_5 + 100000 z_1_6 + 100000 z_1_9 <= 400938.74393490457
 c3418: 120 p_1_2 + 120 p_1_5 + 120 p_1_6 + 120 p_1_9 + 100000 z_1_2 + 100000 z_1_5 + 100000 z_1_6 + 100000 z_1_9 <= 401471.49758410704
 c3419: 120 p_1_1 + 120 p_1_2 + 120 p_1_5 + 120 p_1_6 + 120 p_1_9 + 100000 z_1_1 + 100000 z_1_2 + 100000 z_1_5 + 100000 z_1_6 + 100000 z_1_9 <= 500838.07683191408
 c3420: 120 p_1_3 + 120 p_1_5 + 120 p_1_6 + 120 p_1_9 + 100000 z_1_3 + 100000 z_1_5 + 100000 z_1_6 + 100000 z_1_9 <= 401428.00186647021
 c3421: 120 p_1_1 + 120 p_1_3 + 120 p_1_5 + 120 p_1_6 + 120 p_1_9 + 100000 z_1_1 + 100000 z_1_3 + 100000 z_1_5 + 100000 z_1_6 + 100000 z_1_9 <= 500794.58111427724
 c3422: 120 p_1_2 + 120 p_1_3 + 120 p_1_5 + 120 p_1_6 + 120 p_1_9 + 100000 z_1_2 + 100000 z_1_3 + 100000 z_1_5 + 100000 z_1_6 + 100000 z_1_9 <= 501327.33476347965
 c3423: 120 p_1_1 + 120 p_1_2 + 120 p_1_3 + 120 p_1_5 + 120 p_1_6 + 120 p_1_9 + 100000 z_1_1 + 100000 z_1_2 + 100000 z_1_3 + 100000 z_1_5 + 100000 z_1_6 + 100000 z_1_9 <= 600693.91401128669
 c3424: 120 p_1_4 + 120 p_1_5 + 120 p_1_6 + 120 p_1_9 + 100000 z_1_4 + 100000 z_1_5 + 100000 z_1_6 + 100000 z_1_9 <= 401192.76244721742
 c3425: 120 p_1_1 + 120 p_1_4 + 120 p_1_5 + 120 p_1_6 + 120 p_1_9 + 100000 z_1_1 + 100000 z_1_4 + 100000 z_1_5 + 100000 z_1_6 + 100000 z_1_9 <= 500935.81707219139
 c3426: 120 p_1_2 + 120 p_1_4 + 120 p_1_5 + 120 p_1_6 + 120 p_1_9 + 100000 z_1_2 + 100000 z_1_4 + 100000 z_1_5 + 100000 z_1_6 + 100000 z_1_9 <= 501092.09534422687
 c3427: 120 p_1_1 + 120 p_1_2 + 120 p_1_4 + 120 p_1_5 + 120 p_1_6 + 120 p_1_9 + 100000 z_1_1 + 100000 z_1_2 + 100000 z_1_4 + 100000 z_1_5 + 100000 z_1_6 + 100000 z_1_9 <= 600835.14996920084
 c3428: 120 p_1_3 + 120 p_1_4 + 120 p_1_5 + 120 p_1_6 + 120 p_1_9 + 100000 z_1_3 + 100000 z_1_4 + 100000 z_1_5 + 100000 z_1_6 + 100000 z_1_9 <= 501048.59962659003
 c3429: 120 p_1_1 + 120 p_1_3 + 120 p_1_4 + 120 p_1_5 + 120 p_1_6 + 120 p_1_9 + 100000 z_1_1 + 100000 z_1_3 + 100000 z_1_4 + 100000 z_1_5 + 100000 z_1_6 + 100000 z_1_9 <= 600791.65425156406
 c3430: 120 p_1_2 + 120 p_1_3 + 120 p_1_4 + 120 p_1_5 + 120 p_1_6 + 120 p_1_9 + 100000 z_1_2 + 100000 z_1_3 + 100000 z_1_4 + 100000 z_1_5 + 100000 z_1_6 + 100000 z_1_9 <= 600947.93252359948
 c3431: 120 p_1_1 + 120 p_1_2 + 120 p_1_3 + 120 p_1_4 + 120 p_1_5 + 120 p_1_6 + 120 p_1_9 + 100000 z_1_1 + 100000 z_1_2 + 100000 z_1_3 + 100000 z_1_4 + 100000 z_1_5 + 100000 z_1_6 + 100000 z_1_9 <= 700690.98714857351
 c3432: 120 p_1_7 + 120 p_1_9 + 100000 z_1_7 + 100000 z_1_9 <= 201272.08582788589
 c3433: 120 p_1_1 + 120 p_1_7 + 120 p_1_9 + 100000 z_1_1 + 100000 z_1_7 + 100000 z_1_9 <= 301266.72939603101
 c3434: 120 p_1_2 + 120 p_1_7 + 120 p_1_9 + 100000 z_1_2 + 100000 z_1_7 + 100000 z_1_9 <= 300860.67157119169
 c3435: 120 p_1_1 + 120 p_1_2 + 120 p_1_7 + 120 p_1_9 + 100000 z_1_1 + 100000 z_1_2 + 100000 z_1_7 + 100000 z_1_9 <= 400855.3151393368
 c3436: 120 p_1_3 + 120 p_1_7 + 120 p_1_9 + 100000 z_1_3 + 100000 z_1_7 + 100000 z_1_9 <= 301050.88016696624
 c3437: 120 p_1_1 + 120 p_1_3 + 120 p_1_7 + 120 p_1_9 + 100000 z_1_1 + 100000 z_1_3 + 100000 z_1_7 + 100000 z_1_9 <= 401045.52373511135
 c3438: 120 p_1_2 + 120 p_1_3 + 120 p_1_7 + 120 p_1_9 + 100000 z_1_2 + 100000 z_1_3 + 100000 z_1_7 + 100000 z_1_9 <= 400695.18017722957
 c3439: 120 p_1_1 + 120 p_1_2 + 120 p_1_3 + 120 p_1_7 + 120 p_1_9 + 100000 z_1_1 + 100000 z_1_2 + 100000 z_1_3 + 100000 z_1_7 + 100000 z_1_9 <= 500689.82374537468
 c3440: 120 p_1_4 + 120 p_1_7 + 120 p_1_9 + 100000 z_1_4 + 100000 z_1_7 + 100000 z_1_9 <= 301270.88728479308
 c3441: 120 p_1_1 + 120 p_1_4 + 120 p_1_7 + 120 p_1_9 + 100000 z_1_1 + 100000 z_1_4 + 100000 z_1_7 + 100000 z_1_9 <= 401263.80253331782
 c3442: 120 p_1_2 + 120 p_1_4 + 120 p_1_7 + 120 p_1_9 + 100000 z_1_2 + 100000 z_1_4 + 100000 z_1_7 + 100000 z_1_9 <= 400859.47302809887
 c3443: 120 p_1_1 + 120 p_1_2 + 120 p_1_4 + 120 p_1_7 + 120 p_1_9 + 100000 z_1_1 + 100000 z_1_2 + 100000 z_1_4 + 100000 z_1_7 + 100000 z_1_9 <= 500852.38827662362
 c3444: 120 p_1_3 + 120 p_1_4 + 120 p_1_7 + 120 p_1_9 + 100000 z_1_3 + 100000 z_1_4 + 100000 z_1_7 + 100000 z_1_9 <= 401049.68162387336
 c3445: 120 p_1_1 + 120 p_1_3 + 120 p_1_4 + 120 p_1_7 + 120 p_1_9 + 100000 z_1_1 + 100000 z_1_3 + 100000 z_1_4 + 100000 z_1_7 + 100000 z_1_9 <= 501042.59687239816
 c3446: 120 p_1_2 + 120 p_1_3 + 120 p_1_4 + 120 p_1_7 + 120 p_1_9 + 100000 z_1_2 + 100000 z_1_3 + 100000 z_1_4 + 100000 z_1_7 + 100000 z_1_9 <= 500693.9816341367
 c3447: 120 p_1_1 + 120 p_1_2 + 120 p_1_3 + 120 p_1_4 + 120 p_1_7 + 120 p_1_9 + 100000 z_1_1 + 100000 z_1_2 + 100000 z_1_3 + 100000 z_1_4 + 100000 z_1_7 + 100000 z_1_9 <= 600686.8968826615
 c3448: 120 p_1_5 + 120 p_1_7 + 120 p_1_9 + 100000 z_1_5 + 100000 z_1_7 + 100000 z_1_9 <= 300961.81790259603
 c3449: 120 p_1_1 + 120 p_1_5 + 120 p_1_7 + 120 p_1_9 + 100000 z_1_1 + 100000 z_1_5 + 100000 z_1_7 + 100000 z_1_9 <= 400956.46147074114
 c3450: 120 p_1_2 + 120 p_1_5 + 120 p_1_7 + 120 p_1_9 + 100000 z_1_2 + 100000 z_1_5 + 100000 z_1_7 + 100000 z_1_9 <= 400858.02071286761
 c3451: 120 p_1_1 + 120 p_1_2 + 120 p_1_5 + 120 p_1_7 + 120 p_1_9 + 100000 z_1_1 + 100000 z_1_2 + 100000 z_1_5 + 100000 z_1_7 + 100000 z_1_9 <= 500852.66428101272
 c3452: 120 p_1_3 + 120 p_1_5 + 120 p_1_7 + 120 p_1_9 + 100000 z_1_3 + 100000 z_1_5 + 100000 z_1_7 + 100000 z_1_9 <= 400789.87636215327
 c3453: 120 p_1_1 + 120 p_1_3 + 120 p_1_5 + 120 p_1_7 + 120 p_1_9 + 100000 z_1_1 + 100000 z_1_3 + 100000 z_1_5 + 100000 z_1_7 + 100000 z_1_9 <= 500784.51993029838
 c3454: 120 p_1_2 + 120 p_1_3 + 120 p_1_5 + 120 p_1_7 + 120 p_1_9 + 100000 z_1_2 + 100000 z_1_3 + 100000 z_1_5 + 100000 z_1_7 + 100000 z_1_9 <= 500692.13436077733
 c3455: 120 p_1_1 + 120 p_1_2 + 120 p_1_3 + 120 p_1_5 + 120 p_1_7 + 120 p_1_9 + 100000 z_1_1 + 100000 z_1_2 + 100000 z_1_3 + 100000 z_1_5 + 100000 z_1_7 + 100000 z_1_9 <= 600686.77792892244
 c3456: 120 p_1_4 + 120 p_1_5 + 120 p_1_7 + 120 p_1_9 + 100000 z_1_4 + 100000 z_1_5 + 100000 z_1_7 + 100000 z_1_9 <= 400960.61935950321
 c3457: 120 p_1_1 + 120 p_1_4 + 120 p_1_5 + 120 p_1_7 + 120 p_1_9 + 100000 z_1_1 + 100000 z_1_4 + 100000 z_1_5 + 100000 z_1_7 + 100000 z_1_9 <= 500953.53460802796
 c3458: 120 p_1_2 + 120 p_1_4 + 120 p_1_5 + 120 p_1_7 + 120 p_1_9 + 100000 z_1_2 + 100000 z_1_4 + 100000 z_1_5 + 100000 z_1_7 + 100000 z_1_9 <= 500856.82216977474
 c3459: 120 p_1_1 + 120 p_1_2 + 120 p_1_4 + 120 p_1_5 + 120 p_1_7 + 120 p_1_9 + 100000 z_1_1 + 100000 z_1_2 + 100000 z_1_4 + 100000 z_1_5 + 100000 z_1_7 + 100000 z_1_9 <= 600849.73741829954
 c3460: 120 p_1_3 + 120 p_1_4 + 120 p_1_5 + 120 p_1_7 + 120 p_1_9 + 100000 z_1_3 + 100000 z_1_4 + 100000 z_1_5 + 100000 z_1_7 + 100000 z_1_9 <= 500788.67781906045
 c3461: 120 p_1_1 + 120 p_1_3 + 120 p_1_4 + 120 p_1_5 + 120 p_1_7 + 120 p_1_9 + 100000 z_1_1 + 100000 z_1_3 + 100000 z_1_4 + 100000 z_1_5 + 100000 z_1_7 + 100000 z_1_9 <= 600781.59306758526
 c3462: 120 p_1_2 + 120 p_1_3 + 120 p_1_4 + 120 p_1_5 + 120 p_1_7 + 120 p_1_9 + 100000 z_1_2 + 100000 z_1_3 + 100000 z_1_4 + 100000 z_1_5 + 100000 z_1_7 + 100000 z_1_9 <= 600690.93581768451
 c3463: 120 p_1_1 + 120 p_1_2 + 120 p_1_3 + 120 p_1_4 + 120 p_1_5 + 120 p_1_7 + 120 p_1_9 + 100000 z_1_1 + 100000 z_1_2 + 100000 z_1_3 + 100000 z_1_4 + 100000 z_1_5 + 100000 z_1_7 + 100000 z_1_9 <= 700683.85106620926
 c3464: 120 p_1_6 + 120 p_1_7 + 120 p_1_9 + 100000 z_1_6 + 100000 z_1_7 + 100000 z_1_9 <= 301193.3545741089
 c3465: 120 p_1_1 + 120 p_1_6 + 120 p_1_7 + 120 p_1_9 + 100000 z_1_1 + 100000 z_1_6 + 100000 z_1_7 + 100000 z_1_9 <= 401187.99814225401
 c3466: 120 p_1_2 + 120 p_1_6 + 120 p_1_7 + 120 p_1_9 + 100000 z_1_2 + 100000 z_1_6 + 100000 z_1_7 + 100000 z_1_9 <= 400828.74566228635
 c3467: 120 p_1_1 + 120 p_1_2 + 120 p_1_6 + 120 p_1_7 + 120 p_1_9 + 100000 z_1_1 + 100000 z_1_2 + 100000 z_1_6 + 100000 z_1_7 + 100000 z_1_9 <= 500823.38923043146
 c3468: 120 p_1_3 + 120 p_1_6 + 120 p_1_7 + 120 p_1_9 + 100000 z_1_3 + 100000 z_1_6 + 100000 z_1_7 + 100000 z_1_9 <= 401049.19175348157
 c3469: 120 p_1_1 + 120 p_1_3 + 120 p_1_6 + 120 p_1_7 + 120 p_1_9 + 100000 z_1_1 + 100000 z_1_3 + 100000 z_1_6 + 100000 z_1_7 + 100000 z_1_9 <= 501043.83532162668
 c3470: 120 p_1_2 + 120 p_1_3 + 120 p_1_6 + 120 p_1_7 + 120 p_1_9 + 100000 z_1_2 + 100000 z_1_3 + 100000 z_1_6 + 100000 z_1_7 + 100000 z_1_9 <= 500684.58284165902
 c3471: 120 p_1_1 + 120 p_1_2 + 120 p_1_3 + 120 p_1_6 + 120 p_1_7 + 120 p_1_9 + 100000 z_1_1 + 100000 z_1_2 + 100000 z_1_3 + 100000 z_1_6 + 100000 z_1_7 + 100000 z_1_9 <= 600679.22640980408
 c3472: 120 p_1_4 + 120 p_1_6 + 120 p_1_7 + 120 p_1_9 + 100000 z_1_4 + 100000 z_1_6 + 100000 z_1_7 + 100000 z_1_9 <= 401192.15603101603
 c3473: 120 p_1_1 + 120 p_1_4 + 120 p_1_6 + 120 p_1_7 + 120 p_1_9 + 100000 z_1_1 + 100000 z_1_4 + 100000 z_1_6 + 100000 z_1_7 + 100000 z_1_9 <= 501185.07127954083
 c3474: 120 p_1_2 + 120 p_1_4 + 120 p_1_6 + 120 p_1_7 + 120 p_1_9 + 100000 z_1_2 + 100000 z_1_4 + 100000 z_1_6 + 100000 z_1_7 + 100000 z_1_9 <= 500827.54711919348
 c3475: 120 p_1_1 + 120 p_1_2 + 120 p_1_4 + 120 p_1_6 + 120 p_1_7 + 120 p_1_9 + 100000 z_1_1 + 100000 z_1_2 + 100000 z_1_4 + 100000 z_1_6 + 100000 z_1_7 + 100000 z_1_9 <= 600820.46236771834
 c3476: 120 p_1_3 + 120 p_1_4 + 120 p_1_6 + 120 p_1_7 + 120 p_1_9 + 100000 z_1_3 + 100000 z_1_4 + 100000 z_1_6 + 100000 z_1_7 + 100000 z_1_9 <= 501047.9932103887
 c3477: 120 p_1_1 + 120 p_1_3 + 120 p_1_4 + 120 p_1_6 + 120 p_1_7 + 120 p_1_9 + 100000 z_1_1 + 100000 z_1_3 + 100000 z_1_4 + 100000 z_1_6 + 100000 z_1_7 + 100000 z_1_9 <= 601040.90845891344
 c3478: 120 p_1_2 + 120 p_1_3 + 120 p_1_4 + 120 p_1_6 + 120 p_1_7 + 120 p_1_9 + 100000 z_1_2 + 100000 z_1_3 + 100000 z_1_4 + 100000 z_1_6 + 100000 z_1_7 + 100000 z_1_9 <= 600683.38429856615
 c3479: 120 p_1_1 + 120 p_1_2 + 120 p_1_3 + 120 p_1_4 + 120 p_1_6 + 120 p_1_7 + 120 p_1_9 + 100000 z_1_1 + 100000 z_1_2 + 100000 z_1_3 + 100000 z_1_4 + 100000 z_1_6 + 100000 z_1_7 + 100000 z_1_9 <= 700676.29954709089
 c3480: 120 p_1_5 + 120 p_1_6 + 120 p_1_7 + 120 p_1_9 + 100000 z_1_5 + 100000 z_1_6 + 100000 z_1_7 + 100000 z_1_9 <= 400926.36694882461
 c3481: 120 p_1_1 + 120 p_1_5 + 120 p_1_6 + 120 p_1_7 + 120 p_1_9 + 100000 z_1_1 + 100000 z_1_5 + 100000 z_1_6 + 100000 z_1_7 + 100000 z_1_9 <= 500921.01051696978
 c3482: 120 p_1_2 + 120 p_1_5 + 120 p_1_6 + 120 p_1_7 + 120 p_1_9 + 100000 z_1_2 + 100000 z_1_5 + 100000 z_1_6 + 100000 z_1_7 + 100000 z_1_9 <= 500825.69984583411
 c3483: 120 p_1_1 + 120 p_1_2 + 120 p_1_5 + 120 p_1_6 + 120 p_1_7 + 120 p_1_9 + 100000 z_1_1 + 100000 z_1_2 + 100000 z_1_5 + 100000 z_1_6 + 100000 z_1_7 + 100000 z_1_9 <= 600820.34341397928
 c3484: 120 p_1_3 + 120 p_1_5 + 120 p_1_6 + 120 p_1_7 + 120 p_1_9 + 100000 z_1_3 + 100000 z_1_5 + 100000 z_1_6 + 100000 z_1_7 + 100000 z_1_9 <= 500782.20412819728
 c3485: 120 p_1_1 + 120 p_1_3 + 120 p_1_5 + 120 p_1_6 + 120 p_1_7 + 120 p_1_9 + 100000 z_1_1 + 100000 z_1_3 + 100000 z_1_5 + 100000 z_1_6 + 100000 z_1_7 + 100000 z_1_9 <= 600776.84769634239
 c3486: 120 p_1_2 + 120 p_1_3 + 120 p_1_5 + 120 p_1_6 + 120 p_1_7 + 120 p_1_9 + 100000 z_1_2 + 100000 z_1_3 + 100000 z_1_5 + 100000 z_1_6 + 100000 z_1_7 + 100000 z_1_9 <= 600681.53702520672
 c3487: 120 p_1_1 + 120 p_1_2 + 120 p_1_3 + 120 p_1_5 + 120 p_1_6 + 120 p_1_7 + 120 p_1_9 + 100000 z_1_1 + 100000 z_1_2 + 100000 z_1_3 + 100000 z_1_5 + 100000 z_1_6 + 100000 z_1_7 + 100000 z_1_9 <= 700676.18059335183
 c3488: 120 p_1_4 + 120 p_1_5 + 120 p_1_6 + 120 p_1_7 + 120 p_1_9 + 100000 z_1_4 + 100000 z_1_5 + 100000 z_1_6 + 100000 z_1_7 + 100000 z_1_9 <= 500925.16840573179
 c3489: 120 p_1_1 + 120 p_1_4 + 120 p_1_5 + 120 p_1_6 + 120 p_1_7 + 120 p_1_9 + 100000 z_1_1 + 100000 z_1_4 + 100000 z_1_5 + 100000 z_1_6 + 100000 z_1_7 + 100000 z_1_9 <= 600918.08365425654
 c3490: 120 p_1_2 + 120 p_1_4 + 120 p_1_5 + 120 p_1_6 + 120 p_1_7 + 120 p_1_9 + 100000 z_1_2 + 100000 z_1_4 + 100000 z_1_5 + 100000 z_1_6 + 100000 z_1_7 + 100000 z_1_9 <= 600824.50130274124
 c3491: 120 p_1_1 + 120 p_1_2 + 120 p_1_4 + 120 p_1_5 + 120 p_1_6 + 120 p_1_7 + 120 p_1_9 + 100000 z_1_1 + 100000 z_1_2 + 100000 z_1_4 + 100000 z_1_5 + 100000 z_1_6 + 100000 z_1_7 + 100000 z_1_9 <= 700817.41655126598
 c3492: 120 p_1_3 + 120 p_1_4 + 120 p_1_5 + 120 p_1_6 + 120 p_1_7 + 120 p_1_9 + 100000 z_1_3 + 100000 z_1_4 + 100000 z_1_5 + 100000 z_1_6 + 100000 z_1_7 + 100000 z_1_9 <= 600781.00558510446
 c3493: 120 p_1_1 + 120 p_1_3 + 120 p_1_4 + 120 p_1_5 + 120 p_1_6 + 120 p_1_7 + 120 p_1_9 + 100000 z_1_1 + 100000 z_1_3 + 100000 z_1_4 + 100000 z_1_5 + 100000 z_1_6 + 100000 z_1_7 + 100000 z_1_9 <= 700773.92083362921
 c3494: 120 p_1_2 + 120 p_1_3 + 120 p_1_4 + 120 p_1_5 + 120 p_1_6 + 120 p_1_7 + 120 p_1_9 + 100000 z_1_2 + 100000 z_1_3 + 100000 z_1_4 + 100000 z_1_5 + 100000 z_1_6 + 100000 z_1_7 + 100000 z_1_9 <= 700680.3384821139
 c3495: 120 p_1_1 + 120 p_1_2 + 120 p_1_3 + 120 p_1_4 + 120 p_1_5 + 120 p_1_6 + 120 p_1_7 + 120 p_1_9 + 100000 z_1_1 + 100000 z_1_2 + 100000 z_1_3 + 100000 z_1_4 + 100000 z_1_5 + 100000 z_1_6 + 100000 z_1_7 + 100000 z_1_9 <= 800673.25373063865
 c3496: 120 p_1_8 + 120 p_1_9 + 100000 z_1_8 + 100000 z_1_9 <= 201577.32453379335
 c3497: 120 p_1_1 + 120 p_1_8 + 120 p_1_9 + 100000 z_1_1 + 100000 z_1_8 + 100000 z_1_9 <= 300943.90378160035
 c3498: 120 p_1_2 + 120 p_1_8 + 120 p_1_9 + 100000 z_1_2 + 100000 z_1_8 + 100000 z_1_9 <= 301503.67961871909
 c3499: 120 p_1_1 + 120 p_1_2 + 120 p_1_8 + 120 p_1_9 + 100000 z_1_1 + 100000 z_1_2 + 100000 z_1_8 + 100000 z_1_9 <= 400870.25886652619
 c3500: 120 p_1_3 + 120 p_1_8 + 120 p_1_9 + 100000 z_1_3 + 100000 z_1_8 + 100000 z_1_9 <= 301414.52853591967
 c3501: 120 p_1_1 + 120 p_1_3 + 120 p_1_8 + 120 p_1_9 + 100000 z_1_1 + 100000 z_1_3 + 100000 z_1_8 + 100000 z_1_9 <= 400781.10778372671
 c3502: 120 p_1_2 + 120 p_1_3 + 120 p_1_8 + 120 p_1_9 + 100000 z_1_2 + 100000 z_1_3 + 100000 z_1_8 + 100000 z_1_9 <= 401340.88362084544
 c3503: 120 p_1_1 + 120 p_1_2 + 120 p_1_3 + 120 p_1_8 + 120 p_1_9 + 100000 z_1_1 + 100000 z_1_2 + 100000 z_1_3 + 100000 z_1_8 + 100000 z_1_9 <= 500707.46286865248
 c3504: 120 p_1_4 + 120 p_1_8 + 120 p_1_9 + 100000 z_1_4 + 100000 z_1_8 + 100000 z_1_9 <= 301197.9222939132
 c3505: 120 p_1_1 + 120 p_1_4 + 120 p_1_8 + 120 p_1_9 + 100000 z_1_1 + 100000 z_1_4 + 100000 z_1_8 + 100000 z_1_9 <= 400940.97691888717
 c3506: 120 p_1_2 + 120 p_1_4 + 120 p_1_8 + 120 p_1_9 + 100000 z_1_2 + 100000 z_1_4 + 100000 z_1_8 + 100000 z_1_9 <= 401124.27737883897
 c3507: 120 p_1_1 + 120 p_1_2 + 120 p_1_4 + 120 p_1_8 + 120 p_1_9 + 100000 z_1_1 + 100000 z_1_2 + 100000 z_1_4 + 100000 z_1_8 + 100000 z_1_9 <= 500867.33200381295
 c3508: 120 p_1_3 + 120 p_1_4 + 120 p_1_8 + 120 p_1_9 + 100000 z_1_3 + 100000 z_1_4 + 100000 z_1_8 + 100000 z_1_9 <= 401035.1262960395
 c3509: 120 p_1_1 + 120 p_1_3 + 120 p_1_4 + 120 p_1_8 + 120 p_1_9 + 100000 z_1_1 + 100000 z_1_3 + 100000 z_1_4 + 100000 z_1_8 + 100000 z_1_9 <= 500778.18092101353
 c3510: 120 p_1_2 + 120 p_1_3 + 120 p_1_4 + 120 p_1_8 + 120 p_1_9 + 100000 z_1_2 + 100000 z_1_3 + 100000 z_1_4 + 100000 z_1_8 + 100000 z_1_9 <= 500961.48138096527
 c3511: 120 p_1_1 + 120 p_1_2 + 120 p_1_3 + 120 p_1_4 + 120 p_1_8 + 120 p_1_9 + 100000 z_1_1 + 100000 z_1_2 + 100000 z_1_3 + 100000 z_1_4 + 100000 z_1_8 + 100000 z_1_9 <= 600704.53600593924
 c3512: 120 p_1_5 + 120 p_1_8 + 120 p_1_9 + 100000 z_1_5 + 100000 z_1_8 + 100000 z_1_9 <= 301570.69555599731
 c3513: 120 p_1_1 + 120 p_1_5 + 120 p_1_8 + 120 p_1_9 + 100000 z_1_1 + 100000 z_1_5 + 100000 z_1_8 + 100000 z_1_9 <= 400937.27480380435
 c3514: 120 p_1_2 + 120 p_1_5 + 120 p_1_8 + 120 p_1_9 + 100000 z_1_2 + 100000 z_1_5 + 100000 z_1_8 + 100000 z_1_9 <= 401500.63380226685
 c3515: 120 p_1_1 + 120 p_1_2 + 120 p_1_5 + 120 p_1_8 + 120 p_1_9 + 100000 z_1_1 + 100000 z_1_2 + 100000 z_1_5 + 100000 z_1_8 + 100000 z_1_9 <= 500867.21305007394
 c3516: 120 p_1_3 + 120 p_1_5 + 120 p_1_8 + 120 p_1_9 + 100000 z_1_3 + 100000 z_1_5 + 100000 z_1_8 + 100000 z_1_9 <= 401407.89955812361
 c3517: 120 p_1_1 + 120 p_1_3 + 120 p_1_5 + 120 p_1_8 + 120 p_1_9 + 100000 z_1_1 + 100000 z_1_3 + 100000 z_1_5 + 100000 z_1_8 + 100000 z_1_9 <= 500774.47880593064
 c3518: 120 p_1_2 + 120 p_1_3 + 120 p_1_5 + 120 p_1_8 + 120 p_1_9 + 100000 z_1_2 + 100000 z_1_3 + 100000 z_1_5 + 100000 z_1_8 + 100000 z_1_9 <= 501337.8378043932
 c3519: 120 p_1_1 + 120 p_1_2 + 120 p_1_3 + 120 p_1_5 + 120 p_1_8 + 120 p_1_9 + 100000 z_1_1 + 100000 z_1_2 + 100000 z_1_3 + 100000 z_1_5 + 100000 z_1_8 + 100000 z_1_9 <= 600704.41705220018
 c3520: 120 p_1_4 + 120 p_1_5 + 120 p_1_8 + 120 p_1_9 + 100000 z_1_4 + 100000 z_1_5 + 100000 z_1_8 + 100000 z_1_9 <= 401191.29331611714
 c3521: 120 p_1_1 + 120 p_1_4 + 120 p_1_5 + 120 p_1_8 + 120 p_1_9 + 100000 z_1_1 + 100000 z_1_4 + 100000 z_1_5 + 100000 z_1_8 + 100000 z_1_9 <= 500934.34794109117
 c3522: 120 p_1_2 + 120 p_1_4 + 120 p_1_5 + 120 p_1_8 + 120 p_1_9 + 100000 z_1_2 + 100000 z_1_4 + 100000 z_1_5 + 100000 z_1_8 + 100000 z_1_9 <= 501121.23156238673
 c3523: 120 p_1_1 + 120 p_1_2 + 120 p_1_4 + 120 p_1_5 + 120 p_1_8 + 120 p_1_9 + 100000 z_1_1 + 100000 z_1_2 + 100000 z_1_4 + 100000 z_1_5 + 100000 z_1_8 + 100000 z_1_9 <= 600864.28618736076
 c3524: 120 p_1_3 + 120 p_1_4 + 120 p_1_5 + 120 p_1_8 + 120 p_1_9 + 100000 z_1_3 + 100000 z_1_4 + 100000 z_1_5 + 100000 z_1_8 + 100000 z_1_9 <= 501028.49731824349
 c3525: 120 p_1_1 + 120 p_1_3 + 120 p_1_4 + 120 p_1_5 + 120 p_1_8 + 120 p_1_9 + 100000 z_1_1 + 100000 z_1_3 + 100000 z_1_4 + 100000 z_1_5 + 100000 z_1_8 + 100000 z_1_9 <= 600771.55194321752
 c3526: 120 p_1_2 + 120 p_1_3 + 120 p_1_4 + 120 p_1_5 + 120 p_1_8 + 120 p_1_9 + 100000 z_1_2 + 100000 z_1_3 + 100000 z_1_4 + 100000 z_1_5 + 100000 z_1_8 + 100000 z_1_9 <= 600958.43556451309
 c3527: 120 p_1_1 + 120 p_1_2 + 120 p_1_3 + 120 p_1_4 + 120 p_1_5 + 120 p_1_8 + 120 p_1_9 + 100000 z_1_1 + 100000 z_1_2 + 100000 z_1_3 + 100000 z_1_4 + 100000 z_1_5 + 100000 z_1_8 + 100000 z_1_9 <= 700701.490189487
 c3528: 120 p_1_6 + 120 p_1_8 + 120 p_1_9 + 100000 z_1_6 + 100000 z_1_8 + 100000 z_1_9 <= 301547.4187636305
 c3529: 120 p_1_1 + 120 p_1_6 + 120 p_1_8 + 120 p_1_9 + 100000 z_1_1 + 100000 z_1_6 + 100000 z_1_8 + 100000 z_1_9 <= 400913.99801143754
 c3530: 120 p_1_2 + 120 p_1_6 + 120 p_1_8 + 120 p_1_9 + 100000 z_1_2 + 100000 z_1_6 + 100000 z_1_8 + 100000 z_1_9 <= 401473.77384855627
 c3531: 120 p_1_1 + 120 p_1_2 + 120 p_1_6 + 120 p_1_8 + 120 p_1_9 + 100000 z_1_1 + 100000 z_1_2 + 100000 z_1_6 + 100000 z_1_8 + 100000 z_1_9 <= 500840.35309636331
 c3532: 120 p_1_3 + 120 p_1_6 + 120 p_1_8 + 120 p_1_9 + 100000 z_1_3 + 100000 z_1_6 + 100000 z_1_8 + 100000 z_1_9 <= 401403.25594300311
 c3533: 120 p_1_1 + 120 p_1_3 + 120 p_1_6 + 120 p_1_8 + 120 p_1_9 + 100000 z_1_1 + 100000 z_1_3 + 100000 z_1_6 + 100000 z_1_8 + 100000 z_1_9 <= 500769.83519081015
 c3534: 120 p_1_2 + 120 p_1_3 + 120 p_1_6 + 120 p_1_8 + 120 p_1_9 + 100000 z_1_2 + 100000 z_1_3 + 100000 z_1_6 + 100000 z_1_8 + 100000 z_1_9 <= 501329.61102792894
 c3535: 120 p_1_1 + 120 p_1_2 + 120 p_1_3 + 120 p_1_6 + 120 p_1_8 + 120 p_1_9 + 100000 z_1_1 + 100000 z_1_2 + 100000 z_1_3 + 100000 z_1_6 + 100000 z_1_8 + 100000 z_1_9 <= 600696.19027573592
 c3536: 120 p_1_4 + 120 p_1_6 + 120 p_1_8 + 120 p_1_9 + 100000 z_1_4 + 100000 z_1_6 + 100000 z_1_8 + 100000 z_1_9 <= 401168.01652375032
 c3537: 120 p_1_1 + 120 p_1_4 + 120 p_1_6 + 120 p_1_8 + 120 p_1_9 + 100000 z_1_1 + 100000 z_1_4 + 100000 z_1_6 + 100000 z_1_8 + 100000 z_1_9 <= 500911.0711487243
 c3538: 120 p_1_2 + 120 p_1_4 + 120 p_1_6 + 120 p_1_8 + 120 p_1_9 + 100000 z_1_2 + 100000 z_1_4 + 100000 z_1_6 + 100000 z_1_8 + 100000 z_1_9 <= 501094.3716086761
 c3539: 120 p_1_1 + 120 p_1_2 + 120 p_1_4 + 120 p_1_6 + 120 p_1_8 + 120 p_1_9 + 100000 z_1_1 + 100000 z_1_2 + 100000 z_1_4 + 100000 z_1_6 + 100000 z_1_8 + 100000 z_1_9 <= 600837.42623365007
 c3540: 120 p_1_3 + 120 p_1_4 + 120 p_1_6 + 120 p_1_8 + 120 p_1_9 + 100000 z_1_3 + 100000 z_1_4 + 100000 z_1_6 + 100000 z_1_8 + 100000 z_1_9 <= 501023.85370312299
 c3541: 120 p_1_1 + 120 p_1_3 + 120 p_1_4 + 120 p_1_6 + 120 p_1_8 + 120 p_1_9 + 100000 z_1_1 + 100000 z_1_3 + 100000 z_1_4 + 100000 z_1_6 + 100000 z_1_8 + 100000 z_1_9 <= 600766.90832809696
 c3542: 120 p_1_2 + 120 p_1_3 + 120 p_1_4 + 120 p_1_6 + 120 p_1_8 + 120 p_1_9 + 100000 z_1_2 + 100000 z_1_3 + 100000 z_1_4 + 100000 z_1_6 + 100000 z_1_8 + 100000 z_1_9 <= 600950.20878804871
 c3543: 120 p_1_1 + 120 p_1_2 + 120 p_1_3 + 120 p_1_4 + 120 p_1_6 + 120 p_1_8 + 120 p_1_9 + 100000 z_1_1 + 100000 z_1_2 + 100000 z_1_3 + 100000 z_1_4 + 100000 z_1_6 + 100000 z_1_8 + 100000 z_1_9 <= 700693.26341302274
 c3544: 120 p_1_5 + 120 p_1_6 + 120 p_1_8 + 120 p_1_9 + 100000 z_1_5 + 100000 z_1_6 + 100000 z_1_8 + 100000 z_1_9 <= 401540.78978583444
 c3545: 120 p_1_1 + 120 p_1_5 + 120 p_1_6 + 120 p_1_8 + 120 p_1_9 + 100000 z_1_1 + 100000 z_1_5 + 100000 z_1_6 + 100000 z_1_8 + 100000 z_1_9 <= 500907.36903364147
 c3546: 120 p_1_2 + 120 p_1_5 + 120 p_1_6 + 120 p_1_8 + 120 p_1_9 + 100000 z_1_2 + 100000 z_1_5 + 100000 z_1_6 + 100000 z_1_8 + 100000 z_1_9 <= 501470.72803210403
 c3547: 120 p_1_1 + 120 p_1_2 + 120 p_1_5 + 120 p_1_6 + 120 p_1_8 + 120 p_1_9 + 100000 z_1_1 + 100000 z_1_2 + 100000 z_1_5 + 100000 z_1_6 + 100000 z_1_8 + 100000 z_1_9 <= 600837.30727991101
 c3548: 120 p_1_3 + 120 p_1_5 + 120 p_1_6 + 120 p_1_8 + 120 p_1_9 + 100000 z_1_3 + 100000 z_1_5 + 100000 z_1_6 + 100000 z_1_8 + 100000 z_1_9 <= 501396.62696520711
 c3549: 120 p_1_1 + 120 p_1_3 + 120 p_1_5 + 120 p_1_6 + 120 p_1_8 + 120 p_1_9 + 100000 z_1_1 + 100000 z_1_3 + 100000 z_1_5 + 100000 z_1_6 + 100000 z_1_8 + 100000 z_1_9 <= 600763.20621301408
 c3550: 120 p_1_2 + 120 p_1_3 + 120 p_1_5 + 120 p_1_6 + 120 p_1_8 + 120 p_1_9 + 100000 z_1_2 + 100000 z_1_3 + 100000 z_1_5 + 100000 z_1_6 + 100000 z_1_8 + 100000 z_1_9 <= 601326.56521147664
 c3551: 120 p_1_1 + 120 p_1_2 + 120 p_1_3 + 120 p_1_5 + 120 p_1_6 + 120 p_1_8 + 120 p_1_9 + 100000 z_1_1 + 100000 z_1_2 + 100000 z_1_3 + 100000 z_1_5 + 100000 z_1_6 + 100000 z_1_8 + 100000 z_1_9 <= 700693.14445928368
 c3552: 120 p_1_4 + 120 p_1_5 + 120 p_1_6 + 120 p_1_8 + 120 p_1_9 + 100000 z_1_4 + 100000 z_1_5 + 100000 z_1_6 + 100000 z_1_8 + 100000 z_1_9 <= 501161.38754595426
 c3553: 120 p_1_1 + 120 p_1_4 + 120 p_1_5 + 120 p_1_6 + 120 p_1_8 + 120 p_1_9 + 100000 z_1_1 + 100000 z_1_4 + 100000 z_1_5 + 100000 z_1_6 + 100000 z_1_8 + 100000 z_1_9 <= 600904.44217092823
 c3554: 120 p_1_2 + 120 p_1_4 + 120 p_1_5 + 120 p_1_6 + 120 p_1_8 + 120 p_1_9 + 100000 z_1_2 + 100000 z_1_4 + 100000 z_1_5 + 100000 z_1_6 + 100000 z_1_8 + 100000 z_1_9 <= 601091.32579222391
 c3555: 120 p_1_1 + 120 p_1_2 + 120 p_1_4 + 120 p_1_5 + 120 p_1_6 + 120 p_1_8 + 120 p_1_9 + 100000 z_1_1 + 100000 z_1_2 + 100000 z_1_4 + 100000 z_1_5 + 100000 z_1_6 + 100000 z_1_8 + 100000 z_1_9 <= 700834.38041719783
 c3556: 120 p_1_3 + 120 p_1_4 + 120 p_1_5 + 120 p_1_6 + 120 p_1_8 + 120 p_1_9 + 100000 z_1_3 + 100000 z_1_4 + 100000 z_1_5 + 100000 z_1_6 + 100000 z_1_8 + 100000 z_1_9 <= 601017.22472532699
 c3557: 120 p_1_1 + 120 p_1_3 + 120 p_1_4 + 120 p_1_5 + 120 p_1_6 + 120 p_1_8 + 120 p_1_9 + 100000 z_1_1 + 100000 z_1_3 + 100000 z_1_4 + 100000 z_1_5 + 100000 z_1_6 + 100000 z_1_8 + 100000 z_1_9 <= 700760.2793503009
 c3558: 120 p_1_2 + 120 p_1_3 + 120 p_1_4 + 120 p_1_5 + 120 p_1_6 + 120 p_1_8 + 120 p_1_9 + 100000 z_1_2 + 100000 z_1_3 + 100000 z_1_4 + 100000 z_1_5 + 100000 z_1_6 + 100000 z_1_8 + 100000 z_1_9 <= 700947.16297159647
 c3559: 120 p_1_1 + 120 p_1_2 + 120 p_1_3 + 120 p_1_4 + 120 p_1_5 + 120 p_1_6 + 120 p_1_8 + 120 p_1_9 + 100000 z_1_1 + 100000 z_1_2 + 100000 z_1_3 + 100000 z_1_4 + 100000 z_1_5 + 100000 z_1_6 + 100000 z_1_8 + 100000 z_1_9 <= 800690.2175965705
 c3560: 120 p_1_7 + 120 p_1_8 + 120 p_1_9 + 100000 z_1_7 + 100000 z_1_8 + 100000 z_1_9 <= 300931.52679552045
 c3561: 120 p_1_1 + 120 p_1_7 + 120 p_1_8 + 120 p_1_9 + 100000 z_1_1 + 100000 z_1_7 + 100000 z_1_8 + 100000 z_1_9 <= 400926.17036366556
 c3562: 120 p_1_2 + 120 p_1_7 + 120 p_1_8 + 120 p_1_9 + 100000 z_1_2 + 100000 z_1_7 + 100000 z_1_8 + 100000 z_1_9 <= 400857.88188044622
 c3563: 120 p_1_1 + 120 p_1_2 + 120 p_1_7 + 120 p_1_8 + 120 p_1_9 + 100000 z_1_1 + 100000 z_1_2 + 100000 z_1_7 + 100000 z_1_8 + 100000 z_1_9 <= 500852.52544859133
 c3564: 120 p_1_3 + 120 p_1_7 + 120 p_1_8 + 120 p_1_9 + 100000 z_1_3 + 100000 z_1_7 + 100000 z_1_8 + 100000 z_1_9 <= 400768.73079764674
 c3565: 120 p_1_1 + 120 p_1_3 + 120 p_1_7 + 120 p_1_8 + 120 p_1_9 + 100000 z_1_1 + 100000 z_1_3 + 100000 z_1_7 + 100000 z_1_8 + 100000 z_1_9 <= 500763.37436579185
 c3566: 120 p_1_2 + 120 p_1_3 + 120 p_1_7 + 120 p_1_8 + 120 p_1_9 + 100000 z_1_2 + 100000 z_1_3 + 100000 z_1_7 + 100000 z_1_8 + 100000 z_1_9 <= 500695.08588257252
 c3567: 120 p_1_1 + 120 p_1_2 + 120 p_1_3 + 120 p_1_7 + 120 p_1_8 + 120 p_1_9 + 100000 z_1_1 + 100000 z_1_2 + 100000 z_1_3 + 100000 z_1_7 + 100000 z_1_8 + 100000 z_1_9 <= 600689.72945071768
 c3568: 120 p_1_4 + 120 p_1_7 + 120 p_1_8 + 120 p_1_9 + 100000 z_1_4 + 100000 z_1_7 + 100000 z_1_8 + 100000 z_1_9 <= 400930.32825242757
 c3569: 120 p_1_1 + 120 p_1_4 + 120 p_1_7 + 120 p_1_8 + 120 p_1_9 + 100000 z_1_1 + 100000 z_1_4 + 100000 z_1_7 + 100000 z_1_8 + 100000 z_1_9 <= 500923.24350095238
 c3570: 120 p_1_2 + 120 p_1_4 + 120 p_1_7 + 120 p_1_8 + 120 p_1_9 + 100000 z_1_2 + 100000 z_1_4 + 100000 z_1_7 + 100000 z_1_8 + 100000 z_1_9 <= 500856.68333735334
 c3571: 120 p_1_1 + 120 p_1_2 + 120 p_1_4 + 120 p_1_7 + 120 p_1_8 + 120 p_1_9 + 100000 z_1_1 + 100000 z_1_2 + 100000 z_1_4 + 100000 z_1_7 + 100000 z_1_8 + 100000 z_1_9 <= 600849.59858587815
 c3572: 120 p_1_3 + 120 p_1_4 + 120 p_1_7 + 120 p_1_8 + 120 p_1_9 + 100000 z_1_3 + 100000 z_1_4 + 100000 z_1_7 + 100000 z_1_8 + 100000 z_1_9 <= 500767.53225455387
 c3573: 120 p_1_1 + 120 p_1_3 + 120 p_1_4 + 120 p_1_7 + 120 p_1_8 + 120 p_1_9 + 100000 z_1_1 + 100000 z_1_3 + 100000 z_1_4 + 100000 z_1_7 + 100000 z_1_8 + 100000 z_1_9 <= 600760.44750307873
 c3574: 120 p_1_2 + 120 p_1_3 + 120 p_1_4 + 120 p_1_7 + 120 p_1_8 + 120 p_1_9 + 100000 z_1_2 + 100000 z_1_3 + 100000 z_1_4 + 100000 z_1_7 + 100000 z_1_8 + 100000 z_1_9 <= 600693.88733947964
 c3575: 120 p_1_1 + 120 p_1_2 + 120 p_1_3 + 120 p_1_4 + 120 p_1_7 + 120 p_1_8 + 120 p_1_9 + 100000 z_1_1 + 100000 z_1_2 + 100000 z_1_3 + 100000 z_1_4 + 100000 z_1_7 + 100000 z_1_8 + 100000 z_1_9 <= 700686.8025880045
 c3576: 120 p_1_5 + 120 p_1_7 + 120 p_1_8 + 120 p_1_9 + 100000 z_1_5 + 100000 z_1_7 + 100000 z_1_8 + 100000 z_1_9 <= 400924.89781772438
 c3577: 120 p_1_1 + 120 p_1_5 + 120 p_1_7 + 120 p_1_8 + 120 p_1_9 + 100000 z_1_1 + 100000 z_1_5 + 100000 z_1_7 + 100000 z_1_8 + 100000 z_1_9 <= 500919.5413858695
 c3578: 120 p_1_2 + 120 p_1_5 + 120 p_1_7 + 120 p_1_8 + 120 p_1_9 + 100000 z_1_2 + 100000 z_1_5 + 100000 z_1_7 + 100000 z_1_8 + 100000 z_1_9 <= 500854.83606399398
 c3579: 120 p_1_1 + 120 p_1_2 + 120 p_1_5 + 120 p_1_7 + 120 p_1_8 + 120 p_1_9 + 100000 z_1_1 + 100000 z_1_2 + 100000 z_1_5 + 100000 z_1_7 + 100000 z_1_8 + 100000 z_1_9 <= 600849.47963213909
 c3580: 120 p_1_3 + 120 p_1_5 + 120 p_1_7 + 120 p_1_8 + 120 p_1_9 + 100000 z_1_3 + 100000 z_1_5 + 100000 z_1_7 + 100000 z_1_8 + 100000 z_1_9 <= 500762.10181985068
 c3581: 120 p_1_1 + 120 p_1_3 + 120 p_1_5 + 120 p_1_7 + 120 p_1_8 + 120 p_1_9 + 100000 z_1_1 + 100000 z_1_3 + 100000 z_1_5 + 100000 z_1_7 + 100000 z_1_8 + 100000 z_1_9 <= 600756.74538799585
 c3582: 120 p_1_2 + 120 p_1_3 + 120 p_1_5 + 120 p_1_7 + 120 p_1_8 + 120 p_1_9 + 100000 z_1_2 + 100000 z_1_3 + 100000 z_1_5 + 100000 z_1_7 + 100000 z_1_8 + 100000 z_1_9 <= 600692.04006612033
 c3583: 120 p_1_1 + 120 p_1_2 + 120 p_1_3 + 120 p_1_5 + 120 p_1_7 + 120 p_1_8 + 120 p_1_9 + 100000 z_1_1 + 100000 z_1_2 + 100000 z_1_3 + 100000 z_1_5 + 100000 z_1_7 + 100000 z_1_8 + 100000 z_1_9 <= 700686.68363426544
 c3584: 120 p_1_4 + 120 p_1_5 + 120 p_1_7 + 120 p_1_8 + 120 p_1_9 + 100000 z_1_4 + 100000 z_1_5 + 100000 z_1_7 + 100000 z_1_8 + 100000 z_1_9 <= 500923.69927463151
 c3585: 120 p_1_1 + 120 p_1_4 + 120 p_1_5 + 120 p_1_7 + 120 p_1_8 + 120 p_1_9 + 100000 z_1_1 + 100000 z_1_4 + 100000 z_1_5 + 100000 z_1_7 + 100000 z_1_8 + 100000 z_1_9 <= 600916.61452315631
 c3586: 120 p_1_2 + 120 p_1_4 + 120 p_1_5 + 120 p_1_7 + 120 p_1_8 + 120 p_1_9 + 100000 z_1_2 + 100000 z_1_4 + 100000 z_1_5 + 100000 z_1_7 + 100000 z_1_8 + 100000 z_1_9 <= 600853.63752090116
 c3587: 120 p_1_1 + 120 p_1_2 + 120 p_1_4 + 120 p_1_5 + 120 p_1_7 + 120 p_1_8 + 120 p_1_9 + 100000 z_1_1 + 100000 z_1_2 + 100000 z_1_4 + 100000 z_1_5 + 100000 z_1_7 + 100000 z_1_8 + 100000 z_1_9 <= 700846.55276942591
 c3588: 120 p_1_3 + 120 p_1_4 + 120 p_1_5 + 120 p_1_7 + 120 p_1_8 + 120 p_1_9 + 100000 z_1_3 + 100000 z_1_4 + 100000 z_1_5 + 100000 z_1_7 + 100000 z_1_8 + 100000 z_1_9 <= 600760.9032767578
 c3589: 120 p_1_1 + 120 p_1_3 + 120 p_1_4 + 120 p_1_5 + 120 p_1_7 + 120 p_1_8 + 120 p_1_9 + 100000 z_1_1 + 100000 z_1_3 + 100000 z_1_4 + 100000 z_1_5 + 100000 z_1_7 + 100000 z_1_8 + 100000 z_1_9 <= 700753.81852528267
 c3590: 120 p_1_2 + 120 p_1_3 + 120 p_1_4 + 120 p_1_5 + 120 p_1_7 + 120 p_1_8 + 120 p_1_9 + 100000 z_1_2 + 100000 z_1_3 + 100000 z_1_4 + 100000 z_1_5 + 100000 z_1_7 + 100000 z_1_8 + 100000 z_1_9 <= 700690.8415230274
 c3591: 120 p_1_1 + 120 p_1_2 + 120 p_1_3 + 120 p_1_4 + 120 p_1_5 + 120 p_1_7 + 120 p_1_8 + 120 p_1_9 + 100000 z_1_1 + 100000 z_1_2 + 100000 z_1_3 + 100000 z_1_4 + 100000 z_1_5 + 100000 z_1_7 + 100000 z_1_8 + 100000 z_1_9 <= 800683.75677155226
 c3592: 120 p_1_6 + 120 p_1_7 + 120 p_1_8 + 120 p_1_9 + 100000 z_1_6 + 100000 z_1_7 + 100000 z_1_8 + 100000 z_1_9 <= 400901.62102535757
 c3593: 120 p_1_1 + 120 p_1_6 + 120 p_1_7 + 120 p_1_8 + 120 p_1_9 + 100000 z_1_1 + 100000 z_1_6 + 100000 z_1_7 + 100000 z_1_8 + 100000 z_1_9 <= 500896.26459350268
 c3594: 120 p_1_2 + 120 p_1_6 + 120 p_1_7 + 120 p_1_8 + 120 p_1_9 + 100000 z_1_2 + 100000 z_1_6 + 100000 z_1_7 + 100000 z_1_8 + 100000 z_1_9 <= 500827.97611028334
 c3595: 120 p_1_1 + 120 p_1_2 + 120 p_1_6 + 120 p_1_7 + 120 p_1_8 + 120 p_1_9 + 100000 z_1_1 + 100000 z_1_2 + 100000 z_1_6 + 100000 z_1_7 + 100000 z_1_8 + 100000 z_1_9 <= 600822.61967842851
 c3596: 120 p_1_3 + 120 p_1_6 + 120 p_1_7 + 120 p_1_8 + 120 p_1_9 + 100000 z_1_3 + 100000 z_1_6 + 100000 z_1_7 + 100000 z_1_8 + 100000 z_1_9 <= 500757.45820473024
 c3597: 120 p_1_1 + 120 p_1_3 + 120 p_1_6 + 120 p_1_7 + 120 p_1_8 + 120 p_1_9 + 100000 z_1_1 + 100000 z_1_3 + 100000 z_1_6 + 100000 z_1_7 + 100000 z_1_8 + 100000 z_1_9 <= 600752.10177287529
 c3598: 120 p_1_2 + 120 p_1_3 + 120 p_1_6 + 120 p_1_7 + 120 p_1_8 + 120 p_1_9 + 100000 z_1_2 + 100000 z_1_3 + 100000 z_1_6 + 100000 z_1_7 + 100000 z_1_8 + 100000 z_1_9 <= 600683.81328965595
 c3599: 120 p_1_1 + 120 p_1_2 + 120 p_1_3 + 120 p_1_6 + 120 p_1_7 + 120 p_1_8 + 120 p_1_9 + 100000 z_1_1 + 100000 z_1_2 + 100000 z_1_3 + 100000 z_1_6 + 100000 z_1_7 + 100000 z_1_8 + 100000 z_1_9 <= 700678.45685780118
 c3600: 120 p_1_4 + 120 p_1_6 + 120 p_1_7 + 120 p_1_8 + 120 p_1_9 + 100000 z_1_4 + 100000 z_1_6 + 100000 z_1_7 + 100000 z_1_8 + 100000 z_1_9 <= 500900.42248226469
 c3601: 120 p_1_1 + 120 p_1_4 + 120 p_1_6 + 120 p_1_7 + 120 p_1_8 + 120 p_1_9 + 100000 z_1_1 + 100000 z_1_4 + 100000 z_1_6 + 100000 z_1_7 + 100000 z_1_8 + 100000 z_1_9 <= 600893.33773078944
 c3602: 120 p_1_2 + 120 p_1_4 + 120 p_1_6 + 120 p_1_7 + 120 p_1_8 + 120 p_1_9 + 100000 z_1_2 + 100000 z_1_4 + 100000 z_1_6 + 100000 z_1_7 + 100000 z_1_8 + 100000 z_1_9 <= 600826.77756719047
 c3603: 120 p_1_1 + 120 p_1_2 + 120 p_1_4 + 120 p_1_6 + 120 p_1_7 + 120 p_1_8 + 120 p_1_9 + 100000 z_1_1 + 100000 z_1_2 + 100000 z_1_4 + 100000 z_1_6 + 100000 z_1_7 + 100000 z_1_8 + 100000 z_1_9 <= 700819.69281571533
 c3604: 120 p_1_3 + 120 p_1_4 + 120 p_1_6 + 120 p_1_7 + 120 p_1_8 + 120 p_1_9 + 100000 z_1_3 + 100000 z_1_4 + 100000 z_1_6 + 100000 z_1_7 + 100000 z_1_8 + 100000 z_1_9 <= 600756.25966163736
 c3605: 120 p_1_1 + 120 p_1_3 + 120 p_1_4 + 120 p_1_6 + 120 p_1_7 + 120 p_1_8 + 120 p_1_9 + 100000 z_1_1 + 100000 z_1_3 + 100000 z_1_4 + 100000 z_1_6 + 100000 z_1_7 + 100000 z_1_8 + 100000 z_1_9 <= 700749.17491016211
 c3606: 120 p_1_2 + 120 p_1_3 + 120 p_1_4 + 120 p_1_6 + 120 p_1_7 + 120 p_1_8 + 120 p_1_9 + 100000 z_1_2 + 100000 z_1_3 + 100000 z_1_4 + 100000 z_1_6 + 100000 z_1_7 + 100000 z_1_8 + 100000 z_1_9 <= 700682.61474656314
 c3607: 120 p_1_1 + 120 p_1_2 + 120 p_1_3 + 120 p_1_4 + 120 p_1_6 + 120 p_1_7 + 120 p_1_8 + 120 p_1_9 + 100000 z_1_1 + 100000 z_1_2 + 100000 z_1_3 + 100000 z_1_4 + 100000 z_1_6 + 100000 z_1_7 + 100000 z_1_8 + 100000 z_1_9 <= 800675.52999508788
 c3608: 120 p_1_5 + 120 p_1_6 + 120 p_1_7 + 120 p_1_8 + 120 p_1_9 + 100000 z_1_5 + 100000 z_1_6 + 100000 z_1_7 + 100000 z_1_8 + 100000 z_1_9 <= 500894.99204756151
 c3609: 120 p_1_1 + 120 p_1_5 + 120 p_1_6 + 120 p_1_7 + 120 p_1_8 + 120 p_1_9 + 100000 z_1_1 + 100000 z_1_5 + 100000 z_1_6 + 100000 z_1_7 + 100000 z_1_8 + 100000 z_1_9 <= 600889.63561570668
 c3610: 120 p_1_2 + 120 p_1_5 + 120 p_1_6 + 120 p_1_7 + 120 p_1_8 + 120 p_1_9 + 100000 z_1_2 + 100000 z_1_5 + 100000 z_1_6 + 100000 z_1_7 + 100000 z_1_8 + 100000 z_1_9 <= 600824.93029383104
 c3611: 120 p_1_1 + 120 p_1_2 + 120 p_1_5 + 120 p_1_6 + 120 p_1_7 + 120 p_1_8 + 120 p_1_9 + 100000 z_1_1 + 100000 z_1_2 + 100000 z_1_5 + 100000 z_1_6 + 100000 z_1_7 + 100000 z_1_8 + 100000 z_1_9 <= 700819.57386197627
 c3612: 120 p_1_3 + 120 p_1_5 + 120 p_1_6 + 120 p_1_7 + 120 p_1_8 + 120 p_1_9 + 100000 z_1_3 + 100000 z_1_5 + 100000 z_1_6 + 100000 z_1_7 + 100000 z_1_8 + 100000 z_1_9 <= 600750.82922693412
 c3613: 120 p_1_1 + 120 p_1_3 + 120 p_1_5 + 120 p_1_6 + 120 p_1_7 + 120 p_1_8 + 120 p_1_9 + 100000 z_1_1 + 100000 z_1_3 + 100000 z_1_5 + 100000 z_1_6 + 100000 z_1_7 + 100000 z_1_8 + 100000 z_1_9 <= 700745.47279507935
 c3614: 120 p_1_2 + 120 p_1_3 + 120 p_1_5 + 120 p_1_6 + 120 p_1_7 + 120 p_1_8 + 120 p_1_9 + 100000 z_1_2 + 100000 z_1_3 + 100000 z_1_5 + 100000 z_1_6 + 100000 z_1_7 + 100000 z_1_8 + 100000 z_1_9 <= 700680.76747320371
 c3615: 120 p_1_1 + 120 p_1_2 + 120 p_1_3 + 120 p_1_5 + 120 p_1_6 + 120 p_1_7 + 120 p_1_8 + 120 p_1_9 + 100000 z_1_1 + 100000 z_1_2 + 100000 z_1_3 + 100000 z_1_5 + 100000 z_1_6 + 100000 z_1_7 + 100000 z_1_8 + 100000 z_1_9 <= 800675.41104134882
 c3616: 120 p_1_4 + 120 p_1_5 + 120 p_1_6 + 120 p_1_7 + 120 p_1_8 + 120 p_1_9 + 100000 z_1_4 + 100000 z_1_5 + 100000 z_1_6 + 100000 z_1_7 + 100000 z_1_8 + 100000 z_1_9 <= 600893.79350446863
 c3617: 120 p_1_1 + 120 p_1_4 + 120 p_1_5 + 120 p_1_6 + 120 p_1_7 + 120 p_1_8 + 120 p_1_9 + 100000 z_1_1 + 100000 z_1_4 + 100000 z_1_5 + 100000 z_1_6 + 100000 z_1_7 + 100000 z_1_8 + 100000 z_1_9 <= 700886.70875299349
 c3618: 120 p_1_2 + 120 p_1_4 + 120 p_1_5 + 120 p_1_6 + 120 p_1_7 + 120 p_1_8 + 120 p_1_9 + 100000 z_1_2 + 100000 z_1_4 + 100000 z_1_5 + 100000 z_1_6 + 100000 z_1_7 + 100000 z_1_8 + 100000 z_1_9 <= 700823.73175073822
 c3619: 120 p_1_1 + 120 p_1_2 + 120 p_1_4 + 120 p_1_5 + 120 p_1_6 + 120 p_1_7 + 120 p_1_8 + 120 p_1_9 + 100000 z_1_1 + 100000 z_1_2 + 100000 z_1_4 + 100000 z_1_5 + 100000 z_1_6 + 100000 z_1_7 + 100000 z_1_8 + 100000 z_1_9 <= 800816.64699926309
 c3620: 120 p_1_3 + 120 p_1_4 + 120 p_1_5 + 120 p_1_6 + 120 p_1_7 + 120 p_1_8 + 120 p_1_9 + 100000 z_1_3 + 100000 z_1_4 + 100000 z_1_5 + 100000 z_1_6 + 100000 z_1_7 + 100000 z_1_8 + 100000 z_1_9 <= 700749.6306838413
 c3621: 120 p_1_1 + 120 p_1_3 + 120 p_1_4 + 120 p_1_5 + 120 p_1_6 + 120 p_1_7 + 120 p_1_8 + 120 p_1_9 + 100000 z_1_1 + 100000 z_1_3 + 100000 z_1_4 + 100000 z_1_5 + 100000 z_1_6 + 100000 z_1_7 + 100000 z_1_8 + 100000 z_1_9 <= 800742.54593236616
 c3622: 120 p_1_2 + 120 p_1_3 + 120 p_1_4 + 120 p_1_5 + 120 p_1_6 + 120 p_1_7 + 120 p_1_8 + 120 p_1_9 + 100000 z_1_2 + 100000 z_1_3 + 100000 z_1_4 + 100000 z_1_5 + 100000 z_1_6 + 100000 z_1_7 + 100000 z_1_8 + 100000 z_1_9 <= 800679.56893011089
 c3623: 120 p_1_1 + 120 p_1_2 + 120 p_1_3 + 120 p_1_4 + 120 p_1_5 + 120 p_1_6 + 120 p_1_7 + 120 p_1_8 + 120 p_1_9 + 100000 z_1_1 + 100000 z_1_2 + 100000 z_1_3 + 100000 z_1_4 + 100000 z_1_5 + 100000 z_1_6 + 100000 z_1_7 + 100000 z_1_8 + 100000 z_1_9 <= 900672.48417863564
 c3624: 120 p_1_10 + 100000 z_1_10 <= 101842.97725267388
 c3625: 120 p_1_1 + 120 p_1_10 + 100000 z_1_1 + 100000 z_1_10 <= 201657.73958328512
 c3626: 120 p_1_10 + 120 p_1_2 + 100000 z_1_10 + 100000 z_1_2 <= 201402.7644261675
 c3627: 120 p_1_1 + 120 p_1_10 + 120 p_1_2 + 100000 z_1_1 + 100000 z_1_10 + 100000 z_1_2 <= 301217.52675677871
 c3628: 120 p_1_10 + 120 p_1_3 + 100000 z_1_10 + 100000 z_1_3 <= 201199.98161672137
 c3629: 120 p_1_1 + 120 p_1_10 + 120 p_1_3 + 100000 z_1_1 + 100000 z_1_10 + 100000 z_1_3 <= 301045.93174835353
 c3630: 120 p_1_10 + 120 p_1_2 + 120 p_1_3 + 100000 z_1_10 + 100000 z_1_2 + 100000 z_1_3 <= 300862.74870064133
 c3631: 120 p_1_1 + 120 p_1_10 + 120 p_1_2 + 120 p_1_3 + 100000 z_1_1 + 100000 z_1_10 + 100000 z_1_2 + 100000 z_1_3 <= 400690.23175861686
 c3632: 120 p_1_10 + 120 p_1_4 + 100000 z_1_10 + 100000 z_1_4 <= 201791.92542630367
 c3633: 120 p_1_1 + 120 p_1_10 + 120 p_1_4 + 100000 z_1_1 + 100000 z_1_10 + 100000 z_1_4 <= 301650.85196382861
 c3634: 120 p_1_10 + 120 p_1_2 + 120 p_1_4 + 100000 z_1_10 + 100000 z_1_2 + 100000 z_1_4 <= 301351.71259979729
 c3635: 120 p_1_1 + 120 p_1_10 + 120 p_1_2 + 120 p_1_4 + 100000 z_1_1 + 100000 z_1_10 + 100000 z_1_2 + 100000 z_1_4 <= 401210.6391373222
 c3636: 120 p_1_10 + 120 p_1_3 + 120 p_1_4 + 100000 z_1_10 + 100000 z_1_3 + 100000 z_1_4 <= 301184.25100435782
 c3637: 120 p_1_1 + 120 p_1_10 + 120 p_1_3 + 120 p_1_4 + 100000 z_1_1 + 100000 z_1_10 + 100000 z_1_3 + 100000 z_1_4 <= 401043.17754188273
 c3638: 120 p_1_10 + 120 p_1_2 + 120 p_1_3 + 120 p_1_4 + 100000 z_1_10 + 100000 z_1_2 + 100000 z_1_3 + 100000 z_1_4 <= 400828.55101462116
 c3639: 120 p_1_1 + 120 p_1_10 + 120 p_1_2 + 120 p_1_3 + 120 p_1_4 + 100000 z_1_1 + 100000 z_1_10 + 100000 z_1_2 + 100000 z_1_3 + 100000 z_1_4 <= 500687.47755214613
 c3640: 120 p_1_10 + 120 p_1_5 + 100000 z_1_10 + 100000 z_1_5 <= 201488.25327167549
 c3641: 120 p_1_1 + 120 p_1_10 + 120 p_1_5 + 100000 z_1_1 + 100000 z_1_10 + 100000 z_1_5 <= 301303.01560228673
 c3642: 120 p_1_10 + 120 p_1_2 + 120 p_1_5 + 100000 z_1_10 + 100000 z_1_2 + 100000 z_1_5 <= 301399.71860971523
 c3643: 120 p_1_1 + 120 p_1_10 + 120 p_1_2 + 120 p_1_5 + 100000 z_1_1 + 100000 z_1_10 + 100000 z_1_2 + 100000 z_1_5 <= 401214.48094032647
 c3644: 120 p_1_10 + 120 p_1_3 + 120 p_1_5 + 100000 z_1_10 + 100000 z_1_3 + 100000 z_1_5 <= 300942.18235779682
 c3645: 120 p_1_1 + 120 p_1_10 + 120 p_1_3 + 120 p_1_5 + 100000 z_1_1 + 100000 z_1_10 + 100000 z_1_3 + 100000 z_1_5 <= 400784.92794354056
 c3646: 120 p_1_10 + 120 p_1_2 + 120 p_1_3 + 120 p_1_5 + 100000 z_1_10 + 100000 z_1_2 + 100000 z_1_3 + 100000 z_1_5 <= 400853.64769583661
 c3647: 120 p_1_1 + 120 p_1_10 + 120 p_1_2 + 120 p_1_3 + 120 p_1_5 + 100000 z_1_1 + 100000 z_1_10 + 100000 z_1_2 + 100000 z_1_3 + 100000 z_1_5 <= 500687.18594216462
 c3648: 120 p_1_10 + 120 p_1_4 + 120 p_1_5 + 100000 z_1_10 + 100000 z_1_4 + 100000 z_1_5 <= 301437.20144530525
 c3649: 120 p_1_1 + 120 p_1_10 + 120 p_1_4 + 120 p_1_5 + 100000 z_1_1 + 100000 z_1_10 + 100000 z_1_4 + 100000 z_1_5 <= 401296.12798283022
 c3650: 120 p_1_10 + 120 p_1_2 + 120 p_1_4 + 120 p_1_5 + 100000 z_1_10 + 100000 z_1_2 + 100000 z_1_4 + 100000 z_1_5 <= 401348.66678334499
 c3651: 120 p_1_1 + 120 p_1_10 + 120 p_1_2 + 120 p_1_4 + 120 p_1_5 + 100000 z_1_1 + 100000 z_1_10 + 100000 z_1_2 + 100000 z_1_4 + 100000 z_1_5 <= 501207.59332086996
 c3652: 120 p_1_10 + 120 p_1_3 + 120 p_1_4 + 120 p_1_5 + 100000 z_1_10 + 100000 z_1_3 + 100000 z_1_4 + 100000 z_1_5 <= 400923.24719954486
 c3653: 120 p_1_1 + 120 p_1_10 + 120 p_1_3 + 120 p_1_4 + 120 p_1_5 + 100000 z_1_1 + 100000 z_1_10 + 100000 z_1_3 + 100000 z_1_4 + 100000 z_1_5 <= 500782.17373706982
 c3654: 120 p_1_10 + 120 p_1_2 + 120 p_1_3 + 120 p_1_4 + 120 p_1_5 + 100000 z_1_10 + 100000 z_1_2 + 100000 z_1_3 + 100000 z_1_4 + 100000 z_1_5 <= 500825.50519816892
 c3655: 120 p_1_1 + 120 p_1_10 + 120 p_1_2 + 120 p_1_3 + 120 p_1_4 + 120 p_1_5 + 100000 z_1_1 + 100000 z_1_10 + 100000 z_1_2 + 100000 z_1_3 + 100000 z_1_4 + 100000 z_1_5 <= 600684.43173569383
 c3656: 120 p_1_10 + 120 p_1_6 + 100000 z_1_10 + 100000 z_1_6 <= 201374.97830859458
 c3657: 120 p_1_1 + 120 p_1_10 + 120 p_1_6 + 100000 z_1_1 + 100000 z_1_10 + 100000 z_1_6 <= 301212.90242429136
 c3658: 120 p_1_10 + 120 p_1_2 + 120 p_1_6 + 100000 z_1_10 + 100000 z_1_2 + 100000 z_1_6 <= 301040.27410725411
 c3659: 120 p_1_1 + 120 p_1_10 + 120 p_1_2 + 120 p_1_6 + 100000 z_1_1 + 100000 z_1_10 + 100000 z_1_2 + 100000 z_1_6 <= 400855.03643786535
 c3660: 120 p_1_10 + 120 p_1_3 + 120 p_1_6 + 100000 z_1_10 + 100000 z_1_3 + 100000 z_1_6 <= 301198.29320323671
 c3661: 120 p_1_1 + 120 p_1_10 + 120 p_1_3 + 120 p_1_6 + 100000 z_1_1 + 100000 z_1_10 + 100000 z_1_3 + 100000 z_1_6 <= 401044.24333486881
 c3662: 120 p_1_10 + 120 p_1_2 + 120 p_1_3 + 120 p_1_6 + 100000 z_1_10 + 100000 z_1_2 + 100000 z_1_3 + 100000 z_1_6 <= 400861.06028715667
 c3663: 120 p_1_1 + 120 p_1_10 + 120 p_1_2 + 120 p_1_3 + 120 p_1_6 + 100000 z_1_1 + 100000 z_1_10 + 100000 z_1_2 + 100000 z_1_3 + 100000 z_1_6 <= 500679.63442304631
 c3664: 120 p_1_10 + 120 p_1_4 + 120 p_1_6 + 100000 z_1_10 + 100000 z_1_4 + 100000 z_1_6 <= 301353.39975685359
 c3665: 120 p_1_1 + 120 p_1_10 + 120 p_1_4 + 120 p_1_6 + 100000 z_1_1 + 100000 z_1_10 + 100000 z_1_4 + 100000 z_1_6 <= 401212.32629437849
 c3666: 120 p_1_10 + 120 p_1_2 + 120 p_1_4 + 120 p_1_6 + 100000 z_1_10 + 100000 z_1_2 + 100000 z_1_4 + 100000 z_1_6 <= 400989.22228088387
 c3667: 120 p_1_1 + 120 p_1_10 + 120 p_1_2 + 120 p_1_4 + 120 p_1_6 + 100000 z_1_1 + 100000 z_1_10 + 100000 z_1_2 + 100000 z_1_4 + 100000 z_1_6 <= 500848.14881840884
 c3668: 120 p_1_10 + 120 p_1_3 + 120 p_1_4 + 120 p_1_6 + 100000 z_1_10 + 100000 z_1_3 + 100000 z_1_4 + 100000 z_1_6 <= 401182.5625908731
 c3669: 120 p_1_1 + 120 p_1_10 + 120 p_1_3 + 120 p_1_4 + 120 p_1_6 + 100000 z_1_1 + 100000 z_1_10 + 100000 z_1_3 + 100000 z_1_4 + 100000 z_1_6 <= 501041.48912839807
 c3670: 120 p_1_10 + 120 p_1_2 + 120 p_1_3 + 120 p_1_4 + 120 p_1_6 + 100000 z_1_10 + 100000 z_1_2 + 100000 z_1_3 + 100000 z_1_4 + 100000 z_1_6 <= 500817.95367905061
 c3671: 120 p_1_1 + 120 p_1_10 + 120 p_1_2 + 120 p_1_3 + 120 p_1_4 + 120 p_1_6 + 100000 z_1_1 + 100000 z_1_10 + 100000 z_1_2 + 100000 z_1_3 + 100000 z_1_4 + 100000 z_1_6 <= 600676.88021657558
 c3672: 120 p_1_10 + 120 p_1_5 + 120 p_1_6 + 100000 z_1_10 + 100000 z_1_5 + 100000 z_1_6 <= 301122.63286602421
 c3673: 120 p_1_1 + 120 p_1_10 + 120 p_1_5 + 120 p_1_6 + 100000 z_1_1 + 100000 z_1_10 + 100000 z_1_5 + 100000 z_1_6 <= 400945.91479900712
 c3674: 120 p_1_10 + 120 p_1_2 + 120 p_1_5 + 120 p_1_6 + 100000 z_1_10 + 100000 z_1_2 + 100000 z_1_5 + 100000 z_1_6 <= 401034.09820406395
 c3675: 120 p_1_1 + 120 p_1_10 + 120 p_1_2 + 120 p_1_5 + 120 p_1_6 + 100000 z_1_1 + 100000 z_1_10 + 100000 z_1_2 + 100000 z_1_5 + 100000 z_1_6 <= 500848.86053467519
 c3676: 120 p_1_10 + 120 p_1_3 + 120 p_1_5 + 120 p_1_6 + 100000 z_1_10 + 100000 z_1_3 + 100000 z_1_5 + 100000 z_1_6 <= 400940.49394431215
 c3677: 120 p_1_1 + 120 p_1_10 + 120 p_1_3 + 120 p_1_5 + 120 p_1_6 + 100000 z_1_1 + 100000 z_1_10 + 100000 z_1_3 + 100000 z_1_5 + 100000 z_1_6 <= 500777.25570958457
 c3678: 120 p_1_10 + 120 p_1_2 + 120 p_1_3 + 120 p_1_5 + 120 p_1_6 + 100000 z_1_10 + 100000 z_1_2 + 100000 z_1_3 + 100000 z_1_5 + 100000 z_1_6 <= 500851.95928235189
 c3679: 120 p_1_1 + 120 p_1_10 + 120 p_1_2 + 120 p_1_3 + 120 p_1_5 + 120 p_1_6 + 100000 z_1_1 + 100000 z_1_10 + 100000 z_1_2 + 100000 z_1_3 + 100000 z_1_5 + 100000 z_1_6 <= 600676.58860659401
 c3680: 120 p_1_10 + 120 p_1_4 + 120 p_1_5 + 120 p_1_6 + 100000 z_1_10 + 100000 z_1_4 + 100000 z_1_5 + 100000 z_1_6 <= 401086.41213156929
 c3681: 120 p_1_1 + 120 p_1_10 + 120 p_1_4 + 120 p_1_5 + 120 p_1_6 + 100000 z_1_1 + 100000 z_1_10 + 100000 z_1_4 + 100000 z_1_5 + 100000 z_1_6 <= 500945.33866909426
 c3682: 120 p_1_10 + 120 p_1_2 + 120 p_1_4 + 120 p_1_5 + 120 p_1_6 + 100000 z_1_10 + 100000 z_1_2 + 100000 z_1_4 + 100000 z_1_5 + 100000 z_1_6 <= 500985.74502857879
 c3683: 120 p_1_1 + 120 p_1_10 + 120 p_1_2 + 120 p_1_4 + 120 p_1_5 + 120 p_1_6 + 100000 z_1_1 + 100000 z_1_10 + 100000 z_1_2 + 100000 z_1_4 + 100000 z_1_5 + 100000 z_1_6 <= 600844.6715661037
 c3684: 120 p_1_10 + 120 p_1_3 + 120 p_1_4 + 120 p_1_5 + 120 p_1_6 + 100000 z_1_10 + 100000 z_1_3 + 100000 z_1_4 + 100000 z_1_5 + 100000 z_1_6 <= 500915.57496558886
 c3685: 120 p_1_1 + 120 p_1_10 + 120 p_1_3 + 120 p_1_4 + 120 p_1_5 + 120 p_1_6 + 100000 z_1_1 + 100000 z_1_10 + 100000 z_1_3 + 100000 z_1_4 + 100000 z_1_5 + 100000 z_1_6 <= 600774.50150311377
 c3686: 120 p_1_10 + 120 p_1_2 + 120 p_1_3 + 120 p_1_4 + 120 p_1_5 + 120 p_1_6 + 100000 z_1_10 + 100000 z_1_2 + 100000 z_1_3 + 100000 z_1_4 + 100000 z_1_5 + 100000 z_1_6 <= 600814.90786259831
 c3687: 120 p_1_1 + 120 p_1_10 + 120 p_1_2 + 120 p_1_3 + 120 p_1_4 + 120 p_1_5 + 120 p_1_6 + 100000 z_1_1 + 100000 z_1_10 + 100000 z_1_2 + 100000 z_1_3 + 100000 z_1_4 + 100000 z_1_5 + 100000 z_1_6 <= 700673.83440012333
 c3688: 120 p_1_10 + 120 p_1_7 + 100000 z_1_10 + 100000 z_1_7 <= 201657.40909180601
 c3689: 120 p_1_1 + 120 p_1_10 + 120 p_1_7 + 100000 z_1_1 + 100000 z_1_10 + 100000 z_1_7 <= 301646.52625015174
 c3690: 120 p_1_10 + 120 p_1_2 + 120 p_1_7 + 100000 z_1_10 + 100000 z_1_2 + 100000 z_1_7 <= 301217.19626529963
 c3691: 120 p_1_1 + 120 p_1_10 + 120 p_1_2 + 120 p_1_7 + 100000 z_1_1 + 100000 z_1_10 + 100000 z_1_2 + 100000 z_1_7 <= 401206.31342364533
 c3692: 120 p_1_10 + 120 p_1_3 + 120 p_1_7 + 100000 z_1_10 + 100000 z_1_3 + 100000 z_1_7 <= 301040.09560966131
 c3693: 120 p_1_1 + 120 p_1_10 + 120 p_1_3 + 120 p_1_7 + 100000 z_1_1 + 100000 z_1_10 + 100000 z_1_3 + 100000 z_1_7 <= 401034.71841522009
 c3694: 120 p_1_10 + 120 p_1_2 + 120 p_1_3 + 120 p_1_7 + 100000 z_1_10 + 100000 z_1_2 + 100000 z_1_3 + 100000 z_1_7 <= 400684.39561992465
 c3695: 120 p_1_1 + 120 p_1_10 + 120 p_1_2 + 120 p_1_3 + 120 p_1_7 + 100000 z_1_1 + 100000 z_1_10 + 100000 z_1_2 + 100000 z_1_3 + 100000 z_1_7 <= 500679.01842548343
 c3696: 120 p_1_10 + 120 p_1_4 + 120 p_1_7 + 100000 z_1_10 + 100000 z_1_4 + 100000 z_1_7 <= 301646.72338217043
 c3697: 120 p_1_1 + 120 p_1_10 + 120 p_1_4 + 120 p_1_7 + 100000 z_1_1 + 100000 z_1_10 + 100000 z_1_4 + 100000 z_1_7 <= 401639.63863069523
 c3698: 120 p_1_10 + 120 p_1_2 + 120 p_1_4 + 120 p_1_7 + 100000 z_1_10 + 100000 z_1_2 + 100000 z_1_4 + 100000 z_1_7 <= 401206.51055566402
 c3699: 120 p_1_1 + 120 p_1_10 + 120 p_1_2 + 120 p_1_4 + 120 p_1_7 + 100000 z_1_1 + 100000 z_1_10 + 100000 z_1_2 + 100000 z_1_4 + 100000 z_1_7 <= 501199.42580418882
 c3700: 120 p_1_10 + 120 p_1_3 + 120 p_1_4 + 120 p_1_7 + 100000 z_1_10 + 100000 z_1_3 + 100000 z_1_4 + 100000 z_1_7 <= 401039.04896022461
 c3701: 120 p_1_1 + 120 p_1_10 + 120 p_1_3 + 120 p_1_4 + 120 p_1_7 + 100000 z_1_1 + 100000 z_1_10 + 100000 z_1_3 + 100000 z_1_4 + 100000 z_1_7 <= 501031.96420874936
 c3702: 120 p_1_10 + 120 p_1_2 + 120 p_1_3 + 120 p_1_4 + 120 p_1_7 + 100000 z_1_10 + 100000 z_1_2 + 100000 z_1_3 + 100000 z_1_4 + 100000 z_1_7 <= 500683.34897048795
 c3703: 120 p_1_1 + 120 p_1_10 + 120 p_1_2 + 120 p_1_3 + 120 p_1_4 + 120 p_1_7 + 100000 z_1_1 + 100000 z_1_10 + 100000 z_1_2 + 100000 z_1_3 + 100000 z_1_4 + 100000 z_1_7 <= 600676.26421901269
 c3704: 120 p_1_10 + 120 p_1_5 + 120 p_1_7 + 100000 z_1_10 + 100000 z_1_5 + 100000 z_1_7 <= 301302.68511080765
 c3705: 120 p_1_1 + 120 p_1_10 + 120 p_1_5 + 120 p_1_7 + 100000 z_1_1 + 100000 z_1_10 + 100000 z_1_5 + 100000 z_1_7 <= 401291.80226915336
 c3706: 120 p_1_10 + 120 p_1_2 + 120 p_1_5 + 120 p_1_7 + 100000 z_1_10 + 100000 z_1_2 + 100000 z_1_5 + 100000 z_1_7 <= 401214.15044884739
 c3707: 120 p_1_1 + 120 p_1_10 + 120 p_1_2 + 120 p_1_5 + 120 p_1_7 + 100000 z_1_1 + 100000 z_1_10 + 100000 z_1_2 + 100000 z_1_5 + 100000 z_1_7 <= 501203.26760719309
 c3708: 120 p_1_10 + 120 p_1_3 + 120 p_1_5 + 120 p_1_7 + 100000 z_1_10 + 100000 z_1_3 + 100000 z_1_5 + 100000 z_1_7 <= 400779.09180484834
 c3709: 120 p_1_1 + 120 p_1_10 + 120 p_1_3 + 120 p_1_5 + 120 p_1_7 + 100000 z_1_1 + 100000 z_1_10 + 100000 z_1_3 + 100000 z_1_5 + 100000 z_1_7 <= 500773.71461040719
 c3710: 120 p_1_10 + 120 p_1_2 + 120 p_1_3 + 120 p_1_5 + 120 p_1_7 + 100000 z_1_10 + 100000 z_1_2 + 100000 z_1_3 + 100000 z_1_5 + 100000 z_1_7 <= 500681.3498034724
 c3711: 120 p_1_1 + 120 p_1_10 + 120 p_1_2 + 120 p_1_3 + 120 p_1_5 + 120 p_1_7 + 100000 z_1_1 + 100000 z_1_10 + 100000 z_1_2 + 100000 z_1_3 + 100000 z_1_5 + 100000 z_1_7 <= 600675.97260903125
 c3712: 120 p_1_10 + 120 p_1_4 + 120 p_1_5 + 120 p_1_7 + 100000 z_1_10 + 100000 z_1_4 + 100000 z_1_5 + 100000 z_1_7 <= 401291.99940117204
 c3713: 120 p_1_1 + 120 p_1_10 + 120 p_1_4 + 120 p_1_5 + 120 p_1_7 + 100000 z_1_1 + 100000 z_1_10 + 100000 z_1_4 + 100000 z_1_5 + 100000 z_1_7 <= 501284.91464969685
 c3714: 120 p_1_10 + 120 p_1_2 + 120 p_1_4 + 120 p_1_5 + 120 p_1_7 + 100000 z_1_10 + 100000 z_1_2 + 100000 z_1_4 + 100000 z_1_5 + 100000 z_1_7 <= 501203.46473921178
 c3715: 120 p_1_1 + 120 p_1_10 + 120 p_1_2 + 120 p_1_4 + 120 p_1_5 + 120 p_1_7 + 100000 z_1_1 + 100000 z_1_10 + 100000 z_1_2 + 100000 z_1_4 + 100000 z_1_5 + 100000 z_1_7 <= 601196.37998773658
 c3716: 120 p_1_10 + 120 p_1_3 + 120 p_1_4 + 120 p_1_5 + 120 p_1_7 + 100000 z_1_10 + 100000 z_1_3 + 100000 z_1_4 + 100000 z_1_5 + 100000 z_1_7 <= 500778.04515541164
 c3717: 120 p_1_1 + 120 p_1_10 + 120 p_1_3 + 120 p_1_4 + 120 p_1_5 + 120 p_1_7 + 100000 z_1_1 + 100000 z_1_10 + 100000 z_1_3 + 100000 z_1_4 + 100000 z_1_5 + 100000 z_1_7 <= 600770.96040393645
 c3718: 120 p_1_10 + 120 p_1_2 + 120 p_1_3 + 120 p_1_4 + 120 p_1_5 + 120 p_1_7 + 100000 z_1_10 + 100000 z_1_2 + 100000 z_1_3 + 100000 z_1_4 + 100000 z_1_5 + 100000 z_1_7 <= 600680.3031540357
 c3719: 120 p_1_1 + 120 p_1_10 + 120 p_1_2 + 120 p_1_3 + 120 p_1_4 + 120 p_1_5 + 120 p_1_7 + 100000 z_1_1 + 100000 z_1_10 + 100000 z_1_2 + 100000 z_1_3 + 100000 z_1_4 + 100000 z_1_5 + 100000 z_1_7 <= 700673.21840256045
 c3720: 120 p_1_10 + 120 p_1_6 + 120 p_1_7 + 100000 z_1_10 + 100000 z_1_6 + 100000 z_1_7 <= 301208.21072848857
 c3721: 120 p_1_1 + 120 p_1_10 + 120 p_1_6 + 120 p_1_7 + 100000 z_1_1 + 100000 z_1_10 + 100000 z_1_6 + 100000 z_1_7 <= 401201.68909115798
 c3722: 120 p_1_10 + 120 p_1_2 + 120 p_1_6 + 120 p_1_7 + 100000 z_1_10 + 100000 z_1_2 + 100000 z_1_6 + 100000 z_1_7 <= 400854.70594638621
 c3723: 120 p_1_1 + 120 p_1_10 + 120 p_1_2 + 120 p_1_6 + 120 p_1_7 + 100000 z_1_1 + 100000 z_1_10 + 100000 z_1_2 + 100000 z_1_6 + 100000 z_1_7 <= 500843.82310473191
 c3724: 120 p_1_10 + 120 p_1_3 + 120 p_1_6 + 120 p_1_7 + 100000 z_1_10 + 100000 z_1_3 + 100000 z_1_6 + 100000 z_1_7 <= 401038.40719617665
 c3725: 120 p_1_1 + 120 p_1_10 + 120 p_1_3 + 120 p_1_6 + 120 p_1_7 + 100000 z_1_1 + 100000 z_1_10 + 100000 z_1_3 + 100000 z_1_6 + 100000 z_1_7 <= 501033.03000173543
 c3726: 120 p_1_10 + 120 p_1_2 + 120 p_1_3 + 120 p_1_6 + 120 p_1_7 + 100000 z_1_10 + 100000 z_1_2 + 100000 z_1_3 + 100000 z_1_6 + 100000 z_1_7 <= 500675.49212628877
 c3727: 120 p_1_1 + 120 p_1_10 + 120 p_1_2 + 120 p_1_3 + 120 p_1_6 + 120 p_1_7 + 100000 z_1_1 + 100000 z_1_10 + 100000 z_1_2 + 100000 z_1_3 + 100000 z_1_6 + 100000 z_1_7 <= 600668.42108991288
 c3728: 120 p_1_10 + 120 p_1_4 + 120 p_1_6 + 120 p_1_7 + 100000 z_1_10 + 100000 z_1_4 + 100000 z_1_6 + 100000 z_1_7 <= 401208.19771272037
 c3729: 120 p_1_1 + 120 p_1_10 + 120 p_1_4 + 120 p_1_6 + 120 p_1_7 + 100000 z_1_1 + 100000 z_1_10 + 100000 z_1_4 + 100000 z_1_6 + 100000 z_1_7 <= 501201.11296124512
 c3730: 120 p_1_10 + 120 p_1_2 + 120 p_1_4 + 120 p_1_6 + 120 p_1_7 + 100000 z_1_10 + 100000 z_1_2 + 100000 z_1_4 + 100000 z_1_6 + 100000 z_1_7 <= 500844.02023675066
 c3731: 120 p_1_1 + 120 p_1_10 + 120 p_1_2 + 120 p_1_4 + 120 p_1_6 + 120 p_1_7 + 100000 z_1_1 + 100000 z_1_10 + 100000 z_1_2 + 100000 z_1_4 + 100000 z_1_6 + 100000 z_1_7 <= 600836.93548527546
 c3732: 120 p_1_10 + 120 p_1_3 + 120 p_1_4 + 120 p_1_6 + 120 p_1_7 + 100000 z_1_10 + 100000 z_1_3 + 100000 z_1_4 + 100000 z_1_6 + 100000 z_1_7 <= 501037.36054673989
 c3733: 120 p_1_1 + 120 p_1_10 + 120 p_1_3 + 120 p_1_4 + 120 p_1_6 + 120 p_1_7 + 100000 z_1_1 + 100000 z_1_10 + 100000 z_1_3 + 100000 z_1_4 + 100000 z_1_6 + 100000 z_1_7 <= 601030.27579526464
 c3734: 120 p_1_10 + 120 p_1_2 + 120 p_1_3 + 120 p_1_4 + 120 p_1_6 + 120 p_1_7 + 100000 z_1_10 + 100000 z_1_2 + 100000 z_1_3 + 100000 z_1_4 + 100000 z_1_6 + 100000 z_1_7 <= 600672.75163491734
 c3735: 120 p_1_1 + 120 p_1_10 + 120 p_1_2 + 120 p_1_3 + 120 p_1_4 + 120 p_1_6 + 120 p_1_7 + 100000 z_1_1 + 100000 z_1_10 + 100000 z_1_2 + 100000 z_1_3 + 100000 z_1_4 + 100000 z_1_6 + 100000 z_1_7 <= 700665.6668834422
 c3736: 120 p_1_10 + 120 p_1_5 + 120 p_1_6 + 120 p_1_7 + 100000 z_1_10 + 100000 z_1_5 + 100000 z_1_6 + 100000 z_1_7 <= 400941.22310320428
 c3737: 120 p_1_1 + 120 p_1_10 + 120 p_1_5 + 120 p_1_6 + 120 p_1_7 + 100000 z_1_1 + 100000 z_1_10 + 100000 z_1_5 + 100000 z_1_6 + 100000 z_1_7 <= 500934.70146587369
 c3738: 120 p_1_10 + 120 p_1_2 + 120 p_1_5 + 120 p_1_6 + 120 p_1_7 + 100000 z_1_10 + 100000 z_1_2 + 100000 z_1_5 + 100000 z_1_6 + 100000 z_1_7 <= 500848.53004319605
 c3739: 120 p_1_1 + 120 p_1_10 + 120 p_1_2 + 120 p_1_5 + 120 p_1_6 + 120 p_1_7 + 100000 z_1_1 + 100000 z_1_10 + 100000 z_1_2 + 100000 z_1_5 + 100000 z_1_6 + 100000 z_1_7 <= 600837.64720154181
 c3740: 120 p_1_10 + 120 p_1_3 + 120 p_1_5 + 120 p_1_6 + 120 p_1_7 + 100000 z_1_10 + 100000 z_1_3 + 100000 z_1_5 + 100000 z_1_6 + 100000 z_1_7 <= 500771.41957089235
 c3741: 120 p_1_1 + 120 p_1_10 + 120 p_1_3 + 120 p_1_5 + 120 p_1_6 + 120 p_1_7 + 100000 z_1_1 + 100000 z_1_10 + 100000 z_1_3 + 100000 z_1_5 + 100000 z_1_6 + 100000 z_1_7 <= 600766.04237645119
 c3742: 120 p_1_10 + 120 p_1_2 + 120 p_1_3 + 120 p_1_5 + 120 p_1_6 + 120 p_1_7 + 100000 z_1_10 + 100000 z_1_2 + 100000 z_1_3 + 100000 z_1_5 + 100000 z_1_6 + 100000 z_1_7 <= 600670.7524679018
 c3743: 120 p_1_1 + 120 p_1_10 + 120 p_1_2 + 120 p_1_3 + 120 p_1_5 + 120 p_1_6 + 120 p_1_7 + 100000 z_1_1 + 100000 z_1_10 + 100000 z_1_2 + 100000 z_1_3 + 100000 z_1_5 + 100000 z_1_6 + 100000 z_1_7 <= 700665.37527346064
 c3744: 120 p_1_10 + 120 p_1_4 + 120 p_1_5 + 120 p_1_6 + 120 p_1_7 + 100000 z_1_10 + 100000 z_1_4 + 100000 z_1_5 + 100000 z_1_6 + 100000 z_1_7 <= 500941.21008743608
 c3745: 120 p_1_1 + 120 p_1_10 + 120 p_1_4 + 120 p_1_5 + 120 p_1_6 + 120 p_1_7 + 100000 z_1_1 + 100000 z_1_10 + 100000 z_1_4 + 100000 z_1_5 + 100000 z_1_6 + 100000 z_1_7 <= 600934.12533596088
 c3746: 120 p_1_10 + 120 p_1_2 + 120 p_1_4 + 120 p_1_5 + 120 p_1_6 + 120 p_1_7 + 100000 z_1_10 + 100000 z_1_2 + 100000 z_1_4 + 100000 z_1_5 + 100000 z_1_6 + 100000 z_1_7 <= 600840.54298444558
 c3747: 120 p_1_1 + 120 p_1_10 + 120 p_1_2 + 120 p_1_4 + 120 p_1_5 + 120 p_1_6 + 120 p_1_7 + 100000 z_1_1 + 100000 z_1_10 + 100000 z_1_2 + 100000 z_1_4 + 100000 z_1_5 + 100000 z_1_6 + 100000 z_1_7 <= 700833.45823297033
 c3748: 120 p_1_10 + 120 p_1_3 + 120 p_1_4 + 120 p_1_5 + 120 p_1_6 + 120 p_1_7 + 100000 z_1_10 + 100000 z_1_3 + 100000 z_1_4 + 100000 z_1_5 + 100000 z_1_6 + 100000 z_1_7 <= 600770.37292145565
 c3749: 120 p_1_1 + 120 p_1_10 + 120 p_1_3 + 120 p_1_4 + 120 p_1_5 + 120 p_1_6 + 120 p_1_7 + 100000 z_1_1 + 100000 z_1_10 + 100000 z_1_3 + 100000 z_1_4 + 100000 z_1_5 + 100000 z_1_6 + 100000 z_1_7 <= 700763.2881699804
 c3750: 120 p_1_10 + 120 p_1_2 + 120 p_1_3 + 120 p_1_4 + 120 p_1_5 + 120 p_1_6 + 120 p_1_7 + 100000 z_1_10 + 100000 z_1_2 + 100000 z_1_3 + 100000 z_1_4 + 100000 z_1_5 + 100000 z_1_6 + 100000 z_1_7 <= 700669.7058184651
 c3751: 120 p_1_1 + 120 p_1_10 + 120 p_1_2 + 120 p_1_3 + 120 p_1_4 + 120 p_1_5 + 120 p_1_6 + 120 p_1_7 + 100000 z_1_1 + 100000 z_1_10 + 100000 z_1_2 + 100000 z_1_3 + 100000 z_1_4 + 100000 z_1_5 + 100000 z_1_6 + 100000 z_1_7 <= 800662.62106698996
 c3752: 120 p_1_10 + 120 p_1_8 + 100000 z_1_10 + 100000 z_1_8 <= 201432.96188910143
 c3753: 120 p_1_1 + 120 p_1_10 + 120 p_1_8 + 100000 z_1_1 + 100000 z_1_10 + 100000 z_1_8 <= 301247.72421971266
 c3754: 120 p_1_10 + 120 p_1_2 + 120 p_1_8 + 100000 z_1_10 + 100000 z_1_2 + 100000 z_1_8 <= 301380.66849762708
 c3755: 120 p_1_1 + 120 p_1_10 + 120 p_1_2 + 120 p_1_8 + 100000 z_1_1 + 100000 z_1_10 + 100000 z_1_2 + 100000 z_1_8 <= 401195.43082823831
 c3756: 120 p_1_10 + 120 p_1_3 + 120 p_1_8 + 100000 z_1_10 + 100000 z_1_3 + 100000 z_1_8 <= 300917.83224740188
 c3757: 120 p_1_1 + 120 p_1_10 + 120 p_1_3 + 120 p_1_8 + 100000 z_1_1 + 100000 z_1_10 + 100000 z_1_3 + 100000 z_1_8 <= 400763.78237903403
 c3758: 120 p_1_10 + 120 p_1_2 + 120 p_1_3 + 120 p_1_8 + 100000 z_1_10 + 100000 z_1_2 + 100000 z_1_3 + 100000 z_1_8 <= 400862.65440598427
 c3759: 120 p_1_1 + 120 p_1_10 + 120 p_1_2 + 120 p_1_3 + 120 p_1_8 + 100000 z_1_1 + 100000 z_1_10 + 100000 z_1_2 + 100000 z_1_3 + 100000 z_1_8 <= 500690.13746395981
 c3760: 120 p_1_10 + 120 p_1_4 + 120 p_1_8 + 100000 z_1_10 + 100000 z_1_4 + 100000 z_1_8 <= 301381.91006273119
 c3761: 120 p_1_1 + 120 p_1_10 + 120 p_1_4 + 120 p_1_8 + 100000 z_1_1 + 100000 z_1_10 + 100000 z_1_4 + 100000 z_1_8 <= 401240.83660025615
 c3762: 120 p_1_10 + 120 p_1_2 + 120 p_1_4 + 120 p_1_8 + 100000 z_1_10 + 100000 z_1_2 + 100000 z_1_4 + 100000 z_1_8 <= 401329.61667125684
 c3763: 120 p_1_1 + 120 p_1_10 + 120 p_1_2 + 120 p_1_4 + 120 p_1_8 + 100000 z_1_1 + 100000 z_1_10 + 100000 z_1_2 + 100000 z_1_4 + 100000 z_1_8 <= 501188.5432087818
 c3764: 120 p_1_10 + 120 p_1_3 + 120 p_1_4 + 120 p_1_8 + 100000 z_1_10 + 100000 z_1_3 + 100000 z_1_4 + 100000 z_1_8 <= 400902.10163503833
 c3765: 120 p_1_1 + 120 p_1_10 + 120 p_1_3 + 120 p_1_4 + 120 p_1_8 + 100000 z_1_1 + 100000 z_1_10 + 100000 z_1_3 + 100000 z_1_4 + 100000 z_1_8 <= 500761.0281725633
 c3766: 120 p_1_10 + 120 p_1_2 + 120 p_1_3 + 120 p_1_4 + 120 p_1_8 + 100000 z_1_10 + 100000 z_1_2 + 100000 z_1_3 + 100000 z_1_4 + 100000 z_1_8 <= 500828.4567199641
 c3767: 120 p_1_1 + 120 p_1_10 + 120 p_1_2 + 120 p_1_3 + 120 p_1_4 + 120 p_1_8 + 100000 z_1_1 + 100000 z_1_10 + 100000 z_1_2 + 100000 z_1_3 + 100000 z_1_4 + 100000 z_1_8 <= 600687.38325748907
 c3768: 120 p_1_10 + 120 p_1_5 + 120 p_1_8 + 100000 z_1_10 + 100000 z_1_5 + 100000 z_1_8 <= 301432.42190713703
 c3769: 120 p_1_1 + 120 p_1_10 + 120 p_1_5 + 120 p_1_8 + 100000 z_1_1 + 100000 z_1_10 + 100000 z_1_5 + 100000 z_1_8 <= 401247.18423774827
 c3770: 120 p_1_10 + 120 p_1_2 + 120 p_1_5 + 120 p_1_8 + 100000 z_1_10 + 100000 z_1_2 + 100000 z_1_5 + 100000 z_1_8 <= 401374.03951983101
 c3771: 120 p_1_1 + 120 p_1_10 + 120 p_1_2 + 120 p_1_5 + 120 p_1_8 + 100000 z_1_1 + 100000 z_1_10 + 100000 z_1_2 + 100000 z_1_5 + 100000 z_1_8 <= 501188.80185044225
 c3772: 120 p_1_10 + 120 p_1_3 + 120 p_1_5 + 120 p_1_8 + 100000 z_1_10 + 100000 z_1_3 + 100000 z_1_5 + 100000 z_1_8 <= 400914.40781549428
 c3773: 120 p_1_1 + 120 p_1_10 + 120 p_1_3 + 120 p_1_5 + 120 p_1_8 + 100000 z_1_1 + 100000 z_1_10 + 100000 z_1_3 + 100000 z_1_5 + 100000 z_1_8 <= 500757.15340123797
 c3774: 120 p_1_10 + 120 p_1_2 + 120 p_1_3 + 120 p_1_5 + 120 p_1_8 + 100000 z_1_10 + 100000 z_1_2 + 100000 z_1_3 + 100000 z_1_5 + 100000 z_1_8 <= 500844.34606176382
 c3775: 120 p_1_1 + 120 p_1_10 + 120 p_1_2 + 120 p_1_3 + 120 p_1_5 + 120 p_1_8 + 100000 z_1_1 + 100000 z_1_10 + 100000 z_1_2 + 100000 z_1_3 + 100000 z_1_5 + 100000 z_1_8 <= 600687.09164750751
 c3776: 120 p_1_10 + 120 p_1_4 + 120 p_1_5 + 120 p_1_8 + 100000 z_1_10 + 100000 z_1_4 + 100000 z_1_5 + 100000 z_1_8 <= 401381.37008076685
 c3777: 120 p_1_1 + 120 p_1_10 + 120 p_1_4 + 120 p_1_5 + 120 p_1_8 + 100000 z_1_1 + 100000 z_1_10 + 100000 z_1_4 + 100000 z_1_5 + 100000 z_1_8 <= 501240.29661829176
 c3778: 120 p_1_10 + 120 p_1_2 + 120 p_1_4 + 120 p_1_5 + 120 p_1_8 + 100000 z_1_10 + 100000 z_1_2 + 100000 z_1_4 + 100000 z_1_5 + 100000 z_1_8 <= 501322.98769346077
 c3779: 120 p_1_1 + 120 p_1_10 + 120 p_1_2 + 120 p_1_4 + 120 p_1_5 + 120 p_1_8 + 100000 z_1_1 + 100000 z_1_10 + 100000 z_1_2 + 100000 z_1_4 + 100000 z_1_5 + 100000 z_1_8 <= 601181.9142309858
 c3780: 120 p_1_10 + 120 p_1_3 + 120 p_1_4 + 120 p_1_5 + 120 p_1_8 + 100000 z_1_10 + 100000 z_1_3 + 100000 z_1_4 + 100000 z_1_5 + 100000 z_1_8 <= 500895.47265724227
 c3781: 120 p_1_1 + 120 p_1_10 + 120 p_1_3 + 120 p_1_4 + 120 p_1_5 + 120 p_1_8 + 100000 z_1_1 + 100000 z_1_10 + 100000 z_1_3 + 100000 z_1_4 + 100000 z_1_5 + 100000 z_1_8 <= 600754.39919476723
 c3782: 120 p_1_10 + 120 p_1_2 + 120 p_1_3 + 120 p_1_4 + 120 p_1_5 + 120 p_1_8 + 100000 z_1_10 + 100000 z_1_2 + 100000 z_1_3 + 100000 z_1_4 + 100000 z_1_5 + 100000 z_1_8 <= 600825.41090351192
 c3783: 120 p_1_1 + 120 p_1_10 + 120 p_1_2 + 120 p_1_3 + 120 p_1_4 + 120 p_1_5 + 120 p_1_8 + 100000 z_1_1 + 100000 z_1_10 + 100000 z_1_2 + 100000 z_1_3 + 100000 z_1_4 + 100000 z_1_5 + 100000 z_1_8 <= 700684.33744103683
 c3784: 120 p_1_10 + 120 p_1_6 + 120 p_1_8 + 100000 z_1_10 + 100000 z_1_6 + 100000 z_1_8 <= 301091.79794672545
 c3785: 120 p_1_1 + 120 p_1_10 + 120 p_1_6 + 120 p_1_8 + 100000 z_1_1 + 100000 z_1_10 + 100000 z_1_6 + 100000 z_1_8 <= 400921.16887554002
 c3786: 120 p_1_10 + 120 p_1_2 + 120 p_1_6 + 120 p_1_8 + 100000 z_1_10 + 100000 z_1_2 + 100000 z_1_6 + 100000 z_1_8 <= 401039.5045552511
 c3787: 120 p_1_1 + 120 p_1_10 + 120 p_1_2 + 120 p_1_6 + 120 p_1_8 + 100000 z_1_1 + 100000 z_1_10 + 100000 z_1_2 + 100000 z_1_6 + 100000 z_1_8 <= 500854.26688586234
 c3788: 120 p_1_10 + 120 p_1_3 + 120 p_1_6 + 120 p_1_8 + 100000 z_1_10 + 100000 z_1_3 + 100000 z_1_6 + 100000 z_1_8 <= 400913.25938397396
 c3789: 120 p_1_1 + 120 p_1_10 + 120 p_1_3 + 120 p_1_6 + 120 p_1_8 + 100000 z_1_1 + 100000 z_1_10 + 100000 z_1_3 + 100000 z_1_6 + 100000 z_1_8 <= 500752.50978611747
 c3790: 120 p_1_10 + 120 p_1_2 + 120 p_1_3 + 120 p_1_6 + 120 p_1_8 + 100000 z_1_10 + 100000 z_1_2 + 100000 z_1_3 + 100000 z_1_6 + 100000 z_1_8 <= 500860.96599249961
 c3791: 120 p_1_1 + 120 p_1_10 + 120 p_1_2 + 120 p_1_3 + 120 p_1_6 + 120 p_1_8 + 100000 z_1_1 + 100000 z_1_10 + 100000 z_1_2 + 100000 z_1_3 + 100000 z_1_6 + 100000 z_1_8 <= 600678.86487104325
 c3792: 120 p_1_10 + 120 p_1_4 + 120 p_1_6 + 120 p_1_8 + 100000 z_1_10 + 100000 z_1_4 + 100000 z_1_6 + 100000 z_1_8 <= 401061.66620810225
 c3793: 120 p_1_1 + 120 p_1_10 + 120 p_1_4 + 120 p_1_6 + 120 p_1_8 + 100000 z_1_1 + 100000 z_1_10 + 100000 z_1_4 + 100000 z_1_6 + 100000 z_1_8 <= 500920.59274562722
 c3794: 120 p_1_10 + 120 p_1_2 + 120 p_1_4 + 120 p_1_6 + 120 p_1_8 + 100000 z_1_10 + 100000 z_1_2 + 100000 z_1_4 + 100000 z_1_6 + 100000 z_1_8 <= 500988.45272888086
 c3795: 120 p_1_1 + 120 p_1_10 + 120 p_1_2 + 120 p_1_4 + 120 p_1_6 + 120 p_1_8 + 100000 z_1_1 + 100000 z_1_10 + 100000 z_1_2 + 100000 z_1_4 + 100000 z_1_6 + 100000 z_1_8 <= 600847.37926640583
 c3796: 120 p_1_10 + 120 p_1_3 + 120 p_1_4 + 120 p_1_6 + 120 p_1_8 + 100000 z_1_10 + 100000 z_1_3 + 100000 z_1_4 + 100000 z_1_6 + 100000 z_1_8 <= 500890.82904212177
 c3797: 120 p_1_1 + 120 p_1_10 + 120 p_1_3 + 120 p_1_4 + 120 p_1_6 + 120 p_1_8 + 100000 z_1_1 + 100000 z_1_10 + 100000 z_1_3 + 100000 z_1_4 + 100000 z_1_6 + 100000 z_1_8 <= 600749.75557964679
 c3798: 120 p_1_10 + 120 p_1_2 + 120 p_1_3 + 120 p_1_4 + 120 p_1_6 + 120 p_1_8 + 100000 z_1_10 + 100000 z_1_2 + 100000 z_1_3 + 100000 z_1_4 + 100000 z_1_6 + 100000 z_1_8 <= 600817.18412704754
 c3799: 120 p_1_1 + 120 p_1_10 + 120 p_1_2 + 120 p_1_3 + 120 p_1_4 + 120 p_1_6 + 120 p_1_8 + 100000 z_1_1 + 100000 z_1_10 + 100000 z_1_2 + 100000 z_1_3 + 100000 z_1_4 + 100000 z_1_6 + 100000 z_1_8 <= 700676.11066457257
 c3800: 120 p_1_10 + 120 p_1_5 + 120 p_1_6 + 120 p_1_8 + 100000 z_1_10 + 100000 z_1_5 + 100000 z_1_6 + 100000 z_1_8 <= 401091.25796476105
 c3801: 120 p_1_1 + 120 p_1_10 + 120 p_1_5 + 120 p_1_6 + 120 p_1_8 + 100000 z_1_1 + 100000 z_1_10 + 100000 z_1_5 + 100000 z_1_6 + 100000 z_1_8 <= 500914.53989774396
 c3802: 120 p_1_10 + 120 p_1_2 + 120 p_1_5 + 120 p_1_6 + 120 p_1_8 + 100000 z_1_10 + 100000 z_1_2 + 100000 z_1_5 + 100000 z_1_6 + 100000 z_1_8 <= 501021.19621103065
 c3803: 120 p_1_1 + 120 p_1_10 + 120 p_1_2 + 120 p_1_5 + 120 p_1_6 + 120 p_1_8 + 100000 z_1_1 + 100000 z_1_10 + 100000 z_1_2 + 100000 z_1_5 + 100000 z_1_6 + 100000 z_1_8 <= 600844.47814401356
 c3804: 120 p_1_10 + 120 p_1_3 + 120 p_1_5 + 120 p_1_6 + 120 p_1_8 + 100000 z_1_10 + 100000 z_1_3 + 100000 z_1_5 + 100000 z_1_6 + 100000 z_1_8 <= 500912.71940200956
 c3805: 120 p_1_1 + 120 p_1_10 + 120 p_1_3 + 120 p_1_5 + 120 p_1_6 + 120 p_1_8 + 100000 z_1_1 + 100000 z_1_10 + 100000 z_1_3 + 100000 z_1_5 + 100000 z_1_6 + 100000 z_1_8 <= 600745.88080832141
 c3806: 120 p_1_10 + 120 p_1_2 + 120 p_1_3 + 120 p_1_5 + 120 p_1_6 + 120 p_1_8 + 100000 z_1_10 + 100000 z_1_2 + 100000 z_1_3 + 100000 z_1_5 + 100000 z_1_6 + 100000 z_1_8 <= 600842.65764827922
 c3807: 120 p_1_1 + 120 p_1_10 + 120 p_1_2 + 120 p_1_3 + 120 p_1_5 + 120 p_1_6 + 120 p_1_8 + 100000 z_1_1 + 100000 z_1_10 + 100000 z_1_2 + 100000 z_1_3 + 100000 z_1_5 + 100000 z_1_6 + 100000 z_1_8 <= 700675.819054591
 c3808: 120 p_1_10 + 120 p_1_4 + 120 p_1_5 + 120 p_1_6 + 120 p_1_8 + 100000 z_1_10 + 100000 z_1_4 + 100000 z_1_5 + 100000 z_1_6 + 100000 z_1_8 <= 501055.03723030619
 c3809: 120 p_1_1 + 120 p_1_10 + 120 p_1_4 + 120 p_1_5 + 120 p_1_6 + 120 p_1_8 + 100000 z_1_1 + 100000 z_1_10 + 100000 z_1_4 + 100000 z_1_5 + 100000 z_1_6 + 100000 z_1_8 <= 600913.9637678311
 c3810: 120 p_1_10 + 120 p_1_2 + 120 p_1_4 + 120 p_1_5 + 120 p_1_6 + 120 p_1_8 + 100000 z_1_10 + 100000 z_1_2 + 100000 z_1_4 + 100000 z_1_5 + 100000 z_1_6 + 100000 z_1_8 <= 600984.97547657578
 c3811: 120 p_1_1 + 120 p_1_10 + 120 p_1_2 + 120 p_1_4 + 120 p_1_5 + 120 p_1_6 + 120 p_1_8 + 100000 z_1_1 + 100000 z_1_10 + 100000 z_1_2 + 100000 z_1_4 + 100000 z_1_5 + 100000 z_1_6 + 100000 z_1_8 <= 700843.90201410069
 c3812: 120 p_1_10 + 120 p_1_3 + 120 p_1_4 + 120 p_1_5 + 120 p_1_6 + 120 p_1_8 + 100000 z_1_10 + 100000 z_1_3 + 100000 z_1_4 + 100000 z_1_5 + 100000 z_1_6 + 100000 z_1_8 <= 600884.20006432571
 c3813: 120 p_1_1 + 120 p_1_10 + 120 p_1_3 + 120 p_1_4 + 120 p_1_5 + 120 p_1_6 + 120 p_1_8 + 100000 z_1_1 + 100000 z_1_10 + 100000 z_1_3 + 100000 z_1_4 + 100000 z_1_5 + 100000 z_1_6 + 100000 z_1_8 <= 700743.12660185073
 c3814: 120 p_1_10 + 120 p_1_2 + 120 p_1_3 + 120 p_1_4 + 120 p_1_5 + 120 p_1_6 + 120 p_1_8 + 100000 z_1_10 + 100000 z_1_2 + 100000 z_1_3 + 100000 z_1_4 + 100000 z_1_5 + 100000 z_1_6 + 100000 z_1_8 <= 700814.1383105953
 c3815: 120 p_1_1 + 120 p_1_10 + 120 p_1_2 + 120 p_1_3 + 120 p_1_4 + 120 p_1_5 + 120 p_1_6 + 120 p_1_8 + 100000 z_1_1 + 100000 z_1_10 + 100000 z_1_2 + 100000 z_1_3 + 100000 z_1_4 + 100000 z_1_5 + 100000 z_1_6 + 100000 z_1_8 <= 800673.06484812032
 c3816: 120 p_1_10 + 120 p_1_7 + 120 p_1_8 + 100000 z_1_10 + 100000 z_1_7 + 100000 z_1_8 <= 301247.39372823358
 c3817: 120 p_1_1 + 120 p_1_10 + 120 p_1_7 + 120 p_1_8 + 100000 z_1_1 + 100000 z_1_10 + 100000 z_1_7 + 100000 z_1_8 <= 401236.51088657929
 c3818: 120 p_1_10 + 120 p_1_2 + 120 p_1_7 + 120 p_1_8 + 100000 z_1_10 + 100000 z_1_2 + 100000 z_1_7 + 100000 z_1_8 <= 401195.10033675918
 c3819: 120 p_1_1 + 120 p_1_10 + 120 p_1_2 + 120 p_1_7 + 120 p_1_8 + 100000 z_1_1 + 100000 z_1_10 + 100000 z_1_2 + 100000 z_1_7 + 100000 z_1_8 <= 501184.21749510488
 c3820: 120 p_1_10 + 120 p_1_3 + 120 p_1_7 + 120 p_1_8 + 100000 z_1_10 + 100000 z_1_3 + 100000 z_1_7 + 100000 z_1_8 <= 400757.94624034181
 c3821: 120 p_1_1 + 120 p_1_10 + 120 p_1_3 + 120 p_1_7 + 120 p_1_8 + 100000 z_1_1 + 100000 z_1_10 + 100000 z_1_3 + 100000 z_1_7 + 100000 z_1_8 <= 500752.5690459006
 c3822: 120 p_1_10 + 120 p_1_2 + 120 p_1_3 + 120 p_1_7 + 120 p_1_8 + 100000 z_1_10 + 100000 z_1_2 + 100000 z_1_3 + 100000 z_1_7 + 100000 z_1_8 <= 500684.30132526759
 c3823: 120 p_1_1 + 120 p_1_10 + 120 p_1_2 + 120 p_1_3 + 120 p_1_7 + 120 p_1_8 + 100000 z_1_1 + 100000 z_1_10 + 100000 z_1_2 + 100000 z_1_3 + 100000 z_1_7 + 100000 z_1_8 <= 600678.92413082637
 c3824: 120 p_1_10 + 120 p_1_4 + 120 p_1_7 + 120 p_1_8 + 100000 z_1_10 + 100000 z_1_4 + 100000 z_1_7 + 100000 z_1_8 <= 401236.70801859797
 c3825: 120 p_1_1 + 120 p_1_10 + 120 p_1_4 + 120 p_1_7 + 120 p_1_8 + 100000 z_1_1 + 100000 z_1_10 + 100000 z_1_4 + 100000 z_1_7 + 100000 z_1_8 <= 501229.62326712278
 c3826: 120 p_1_10 + 120 p_1_2 + 120 p_1_4 + 120 p_1_7 + 120 p_1_8 + 100000 z_1_10 + 100000 z_1_2 + 100000 z_1_4 + 100000 z_1_7 + 100000 z_1_8 <= 501184.41462712362
 c3827: 120 p_1_1 + 120 p_1_10 + 120 p_1_2 + 120 p_1_4 + 120 p_1_7 + 120 p_1_8 + 100000 z_1_1 + 100000 z_1_10 + 100000 z_1_2 + 100000 z_1_4 + 100000 z_1_7 + 100000 z_1_8 <= 601177.32987564837
 c3828: 120 p_1_10 + 120 p_1_3 + 120 p_1_4 + 120 p_1_7 + 120 p_1_8 + 100000 z_1_10 + 100000 z_1_3 + 100000 z_1_4 + 100000 z_1_7 + 100000 z_1_8 <= 500756.89959090512
 c3829: 120 p_1_1 + 120 p_1_10 + 120 p_1_3 + 120 p_1_4 + 120 p_1_7 + 120 p_1_8 + 100000 z_1_1 + 100000 z_1_10 + 100000 z_1_3 + 100000 z_1_4 + 100000 z_1_7 + 100000 z_1_8 <= 600749.81483942992
 c3830: 120 p_1_10 + 120 p_1_2 + 120 p_1_3 + 120 p_1_4 + 120 p_1_7 + 120 p_1_8 + 100000 z_1_10 + 100000 z_1_2 + 100000 z_1_3 + 100000 z_1_4 + 100000 z_1_7 + 100000 z_1_8 <= 600683.25467583083
 c3831: 120 p_1_1 + 120 p_1_10 + 120 p_1_2 + 120 p_1_3 + 120 p_1_4 + 120 p_1_7 + 120 p_1_8 + 100000 z_1_1 + 100000 z_1_10 + 100000 z_1_2 + 100000 z_1_3 + 100000 z_1_4 + 100000 z_1_7 + 100000 z_1_8 <= 700676.16992435569
 c3832: 120 p_1_10 + 120 p_1_5 + 120 p_1_7 + 120 p_1_8 + 100000 z_1_10 + 100000 z_1_5 + 100000 z_1_7 + 100000 z_1_8 <= 401246.85374626919
 c3833: 120 p_1_1 + 120 p_1_10 + 120 p_1_5 + 120 p_1_7 + 120 p_1_8 + 100000 z_1_1 + 100000 z_1_10 + 100000 z_1_5 + 100000 z_1_7 + 100000 z_1_8 <= 501235.97090461489
 c3834: 120 p_1_10 + 120 p_1_2 + 120 p_1_5 + 120 p_1_7 + 120 p_1_8 + 100000 z_1_10 + 100000 z_1_2 + 100000 z_1_5 + 100000 z_1_7 + 100000 z_1_8 <= 501188.47135896317
 c3835: 120 p_1_1 + 120 p_1_10 + 120 p_1_2 + 120 p_1_5 + 120 p_1_7 + 120 p_1_8 + 100000 z_1_1 + 100000 z_1_10 + 100000 z_1_2 + 100000 z_1_5 + 100000 z_1_7 + 100000 z_1_8 <= 601177.58851730882
 c3836: 120 p_1_10 + 120 p_1_3 + 120 p_1_5 + 120 p_1_7 + 120 p_1_8 + 100000 z_1_10 + 100000 z_1_3 + 100000 z_1_5 + 100000 z_1_7 + 100000 z_1_8 <= 500751.31726254581
 c3837: 120 p_1_1 + 120 p_1_10 + 120 p_1_3 + 120 p_1_5 + 120 p_1_7 + 120 p_1_8 + 100000 z_1_1 + 100000 z_1_10 + 100000 z_1_3 + 100000 z_1_5 + 100000 z_1_7 + 100000 z_1_8 <= 600745.94006810454
 c3838: 120 p_1_10 + 120 p_1_2 + 120 p_1_3 + 120 p_1_5 + 120 p_1_7 + 120 p_1_8 + 100000 z_1_10 + 100000 z_1_2 + 100000 z_1_3 + 100000 z_1_5 + 100000 z_1_7 + 100000 z_1_8 <= 600681.2555088154
 c3839: 120 p_1_1 + 120 p_1_10 + 120 p_1_2 + 120 p_1_3 + 120 p_1_5 + 120 p_1_7 + 120 p_1_8 + 100000 z_1_1 + 100000 z_1_10 + 100000 z_1_2 + 100000 z_1_3 + 100000 z_1_5 + 100000 z_1_7 + 100000 z_1_8 <= 700675.87831437413
 c3840: 120 p_1_10 + 120 p_1_4 + 120 p_1_5 + 120 p_1_7 + 120 p_1_8 + 100000 z_1_10 + 100000 z_1_4 + 100000 z_1_5 + 100000 z_1_7 + 100000 z_1_8 <= 501236.16803663364
 c3841: 120 p_1_1 + 120 p_1_10 + 120 p_1_4 + 120 p_1_5 + 120 p_1_7 + 120 p_1_8 + 100000 z_1_1 + 100000 z_1_10 + 100000 z_1_4 + 100000 z_1_5 + 100000 z_1_7 + 100000 z_1_8 <= 601229.08328515838
 c3842: 120 p_1_10 + 120 p_1_2 + 120 p_1_4 + 120 p_1_5 + 120 p_1_7 + 120 p_1_8 + 100000 z_1_10 + 100000 z_1_2 + 100000 z_1_4 + 100000 z_1_5 + 100000 z_1_7 + 100000 z_1_8 <= 601177.78564932756
 c3843: 120 p_1_1 + 120 p_1_10 + 120 p_1_2 + 120 p_1_4 + 120 p_1_5 + 120 p_1_7 + 120 p_1_8 + 100000 z_1_1 + 100000 z_1_10 + 100000 z_1_2 + 100000 z_1_4 + 100000 z_1_5 + 100000 z_1_7 + 100000 z_1_8 <= 701170.70089785231
 c3844: 120 p_1_10 + 120 p_1_3 + 120 p_1_4 + 120 p_1_5 + 120 p_1_7 + 120 p_1_8 + 100000 z_1_10 + 100000 z_1_3 + 100000 z_1_4 + 100000 z_1_5 + 100000 z_1_7 + 100000 z_1_8 <= 600750.27061310911
 c3845: 120 p_1_1 + 120 p_1_10 + 120 p_1_3 + 120 p_1_4 + 120 p_1_5 + 120 p_1_7 + 120 p_1_8 + 100000 z_1_1 + 100000 z_1_10 + 100000 z_1_3 + 100000 z_1_4 + 100000 z_1_5 + 100000 z_1_7 + 100000 z_1_8 <= 700743.18586163386
 c3846: 120 p_1_10 + 120 p_1_2 + 120 p_1_3 + 120 p_1_4 + 120 p_1_5 + 120 p_1_7 + 120 p_1_8 + 100000 z_1_10 + 100000 z_1_2 + 100000 z_1_3 + 100000 z_1_4 + 100000 z_1_5 + 100000 z_1_7 + 100000 z_1_8 <= 700680.20885937859
 c3847: 120 p_1_1 + 120 p_1_10 + 120 p_1_2 + 120 p_1_3 + 120 p_1_4 + 120 p_1_5 + 120 p_1_7 + 120 p_1_8 + 100000 z_1_1 + 100000 z_1_10 + 100000 z_1_2 + 100000 z_1_3 + 100000 z_1_4 + 100000 z_1_5 + 100000 z_1_7 + 100000 z_1_8 <= 800673.12410790345
 c3848: 120 p_1_10 + 120 p_1_6 + 120 p_1_7 + 120 p_1_8 + 100000 z_1_10 + 100000 z_1_6 + 100000 z_1_7 + 100000 z_1_8 <= 400916.47717973724
 c3849: 120 p_1_1 + 120 p_1_10 + 120 p_1_6 + 120 p_1_7 + 120 p_1_8 + 100000 z_1_1 + 100000 z_1_10 + 100000 z_1_6 + 100000 z_1_7 + 100000 z_1_8 <= 500909.95554240665
 c3850: 120 p_1_10 + 120 p_1_2 + 120 p_1_6 + 120 p_1_7 + 120 p_1_8 + 100000 z_1_10 + 100000 z_1_2 + 100000 z_1_6 + 100000 z_1_7 + 100000 z_1_8 <= 500853.9363943832
 c3851: 120 p_1_1 + 120 p_1_10 + 120 p_1_2 + 120 p_1_6 + 120 p_1_7 + 120 p_1_8 + 100000 z_1_1 + 100000 z_1_10 + 100000 z_1_2 + 100000 z_1_6 + 100000 z_1_7 + 100000 z_1_8 <= 600843.05355272896
 c3852: 120 p_1_10 + 120 p_1_3 + 120 p_1_6 + 120 p_1_7 + 120 p_1_8 + 100000 z_1_10 + 100000 z_1_3 + 100000 z_1_6 + 100000 z_1_7 + 100000 z_1_8 <= 500746.67364742531
 c3853: 120 p_1_1 + 120 p_1_10 + 120 p_1_3 + 120 p_1_6 + 120 p_1_7 + 120 p_1_8 + 100000 z_1_1 + 100000 z_1_10 + 100000 z_1_3 + 100000 z_1_6 + 100000 z_1_7 + 100000 z_1_8 <= 600741.2964529841
 c3854: 120 p_1_10 + 120 p_1_2 + 120 p_1_3 + 120 p_1_6 + 120 p_1_7 + 120 p_1_8 + 100000 z_1_10 + 100000 z_1_2 + 100000 z_1_3 + 100000 z_1_6 + 100000 z_1_7 + 100000 z_1_8 <= 600675.39783163171
 c3855: 120 p_1_1 + 120 p_1_10 + 120 p_1_2 + 120 p_1_3 + 120 p_1_6 + 120 p_1_7 + 120 p_1_8 + 100000 z_1_1 + 100000 z_1_10 + 100000 z_1_2 + 100000 z_1_3 + 100000 z_1_6 + 100000 z_1_7 + 100000 z_1_8 <= 700667.65153790987
 c3856: 120 p_1_10 + 120 p_1_4 + 120 p_1_6 + 120 p_1_7 + 120 p_1_8 + 100000 z_1_10 + 100000 z_1_4 + 100000 z_1_6 + 100000 z_1_7 + 100000 z_1_8 <= 500916.46416396904
 c3857: 120 p_1_1 + 120 p_1_10 + 120 p_1_4 + 120 p_1_6 + 120 p_1_7 + 120 p_1_8 + 100000 z_1_1 + 100000 z_1_10 + 100000 z_1_4 + 100000 z_1_6 + 100000 z_1_7 + 100000 z_1_8 <= 600909.37941249378
 c3858: 120 p_1_10 + 120 p_1_2 + 120 p_1_4 + 120 p_1_6 + 120 p_1_7 + 120 p_1_8 + 100000 z_1_10 + 100000 z_1_2 + 100000 z_1_4 + 100000 z_1_6 + 100000 z_1_7 + 100000 z_1_8 <= 600843.25068474771
 c3859: 120 p_1_1 + 120 p_1_10 + 120 p_1_2 + 120 p_1_4 + 120 p_1_6 + 120 p_1_7 + 120 p_1_8 + 100000 z_1_1 + 100000 z_1_10 + 100000 z_1_2 + 100000 z_1_4 + 100000 z_1_6 + 100000 z_1_7 + 100000 z_1_8 <= 700836.16593327245
 c3860: 120 p_1_10 + 120 p_1_3 + 120 p_1_4 + 120 p_1_6 + 120 p_1_7 + 120 p_1_8 + 100000 z_1_10 + 100000 z_1_3 + 100000 z_1_4 + 100000 z_1_6 + 100000 z_1_7 + 100000 z_1_8 <= 600745.62699798855
 c3861: 120 p_1_1 + 120 p_1_10 + 120 p_1_3 + 120 p_1_4 + 120 p_1_6 + 120 p_1_7 + 120 p_1_8 + 100000 z_1_1 + 100000 z_1_10 + 100000 z_1_3 + 100000 z_1_4 + 100000 z_1_6 + 100000 z_1_7 + 100000 z_1_8 <= 700738.5422465133
 c3862: 120 p_1_10 + 120 p_1_2 + 120 p_1_3 + 120 p_1_4 + 120 p_1_6 + 120 p_1_7 + 120 p_1_8 + 100000 z_1_10 + 100000 z_1_2 + 100000 z_1_3 + 100000 z_1_4 + 100000 z_1_6 + 100000 z_1_7 + 100000 z_1_8 <= 700671.98208291433
 c3863: 120 p_1_1 + 120 p_1_10 + 120 p_1_2 + 120 p_1_3 + 120 p_1_4 + 120 p_1_6 + 120 p_1_7 + 120 p_1_8 + 100000 z_1_1 + 100000 z_1_10 + 100000 z_1_2 + 100000 z_1_3 + 100000 z_1_4 + 100000 z_1_6 + 100000 z_1_7 + 100000 z_1_8 <= 800664.89733143919
 c3864: 120 p_1_10 + 120 p_1_5 + 120 p_1_6 + 120 p_1_7 + 120 p_1_8 + 100000 z_1_10 + 100000 z_1_5 + 100000 z_1_6 + 100000 z_1_7 + 100000 z_1_8 <= 500909.84820194117
 c3865: 120 p_1_1 + 120 p_1_10 + 120 p_1_5 + 120 p_1_6 + 120 p_1_7 + 120 p_1_8 + 100000 z_1_1 + 100000 z_1_10 + 100000 z_1_5 + 100000 z_1_6 + 100000 z_1_7 + 100000 z_1_8 <= 600903.32656461059
 c3866: 120 p_1_10 + 120 p_1_2 + 120 p_1_5 + 120 p_1_6 + 120 p_1_7 + 120 p_1_8 + 100000 z_1_10 + 100000 z_1_2 + 100000 z_1_5 + 100000 z_1_6 + 100000 z_1_7 + 100000 z_1_8 <= 600839.78644821083
 c3867: 120 p_1_1 + 120 p_1_10 + 120 p_1_2 + 120 p_1_5 + 120 p_1_6 + 120 p_1_7 + 120 p_1_8 + 100000 z_1_1 + 100000 z_1_10 + 100000 z_1_2 + 100000 z_1_5 + 100000 z_1_6 + 100000 z_1_7 + 100000 z_1_8 <= 700833.26481088018
 c3868: 120 p_1_10 + 120 p_1_3 + 120 p_1_5 + 120 p_1_6 + 120 p_1_7 + 120 p_1_8 + 100000 z_1_10 + 100000 z_1_3 + 100000 z_1_5 + 100000 z_1_6 + 100000 z_1_7 + 100000 z_1_8 <= 600740.04466962931
 c3869: 120 p_1_1 + 120 p_1_10 + 120 p_1_3 + 120 p_1_5 + 120 p_1_6 + 120 p_1_7 + 120 p_1_8 + 100000 z_1_1 + 100000 z_1_10 + 100000 z_1_3 + 100000 z_1_5 + 100000 z_1_6 + 100000 z_1_7 + 100000 z_1_8 <= 700734.66747518803
 c3870: 120 p_1_10 + 120 p_1_2 + 120 p_1_3 + 120 p_1_5 + 120 p_1_6 + 120 p_1_7 + 120 p_1_8 + 100000 z_1_10 + 100000 z_1_2 + 100000 z_1_3 + 100000 z_1_5 + 100000 z_1_6 + 100000 z_1_7 + 100000 z_1_8 <= 700669.98291589878
 c3871: 120 p_1_1 + 120 p_1_10 + 120 p_1_2 + 120 p_1_3 + 120 p_1_5 + 120 p_1_6 + 120 p_1_7 + 120 p_1_8 + 100000 z_1_1 + 100000 z_1_10 + 100000 z_1_2 + 100000 z_1_3 + 100000 z_1_5 + 100000 z_1_6 + 100000 z_1_7 + 100000 z_1_8 <= 800664.60572145763
 c3872: 120 p_1_10 + 120 p_1_4 + 120 p_1_5 + 120 p_1_6 + 120 p_1_7 + 120 p_1_8 + 100000 z_1_10 + 100000 z_1_4 + 100000 z_1_5 + 100000 z_1_6 + 100000 z_1_7 + 100000 z_1_8 <= 600909.83518617298
 c3873: 120 p_1_1 + 120 p_1_10 + 120 p_1_4 + 120 p_1_5 + 120 p_1_6 + 120 p_1_7 + 120 p_1_8 + 100000 z_1_1 + 100000 z_1_10 + 100000 z_1_4 + 100000 z_1_5 + 100000 z_1_6 + 100000 z_1_7 + 100000 z_1_8 <= 700902.75043469772
 c3874: 120 p_1_10 + 120 p_1_2 + 120 p_1_4 + 120 p_1_5 + 120 p_1_6 + 120 p_1_7 + 120 p_1_8 + 100000 z_1_10 + 100000 z_1_2 + 100000 z_1_4 + 100000 z_1_5 + 100000 z_1_6 + 100000 z_1_7 + 100000 z_1_8 <= 700839.77343244257
 c3875: 120 p_1_1 + 120 p_1_10 + 120 p_1_2 + 120 p_1_4 + 120 p_1_5 + 120 p_1_6 + 120 p_1_7 + 120 p_1_8 + 100000 z_1_1 + 100000 z_1_10 + 100000 z_1_2 + 100000 z_1_4 + 100000 z_1_5 + 100000 z_1_6 + 100000 z_1_7 + 100000 z_1_8 <= 800832.68868096732
 c3876: 120 p_1_10 + 120 p_1_3 + 120 p_1_4 + 120 p_1_5 + 120 p_1_6 + 120 p_1_7 + 120 p_1_8 + 100000 z_1_10 + 100000 z_1_3 + 100000 z_1_4 + 100000 z_1_5 + 100000 z_1_6 + 100000 z_1_7 + 100000 z_1_8 <= 700738.99802019249
 c3877: 120 p_1_1 + 120 p_1_10 + 120 p_1_3 + 120 p_1_4 + 120 p_1_5 + 120 p_1_6 + 120 p_1_7 + 120 p_1_8 + 100000 z_1_1 + 100000 z_1_10 + 100000 z_1_3 + 100000 z_1_4 + 100000 z_1_5 + 100000 z_1_6 + 100000 z_1_7 + 100000 z_1_8 <= 800731.91326871736
 c3878: 120 p_1_10 + 120 p_1_2 + 120 p_1_3 + 120 p_1_4 + 120 p_1_5 + 120 p_1_6 + 120 p_1_7 + 120 p_1_8 + 100000 z_1_10 + 100000 z_1_2 + 100000 z_1_3 + 100000 z_1_4 + 100000 z_1_5 + 100000 z_1_6 + 100000 z_1_7 + 100000 z_1_8 <= 800668.93626646209
 c3879: 120 p_1_1 + 120 p_1_10 + 120 p_1_2 + 120 p_1_3 + 120 p_1_4 + 120 p_1_5 + 120 p_1_6 + 120 p_1_7 + 120 p_1_8 + 100000 z_1_1 + 100000 z_1_10 + 100000 z_1_2 + 100000 z_1_3 + 100000 z_1_4 + 100000 z_1_5 + 100000 z_1_6 + 100000 z_1_7 + 100000 z_1_8 <= 900661.85151498695
 c3880: 120 p_1_10 + 120 p_1_9 + 100000 z_1_10 + 100000 z_1_9 <= 201419.65923040506
 c3881: 120 p_1_1 + 120 p_1_10 + 120 p_1_9 + 100000 z_1_1 + 100000 z_1_10 + 100000 z_1_9 <= 301267.13736312254
 c3882: 120 p_1_10 + 120 p_1_2 + 120 p_1_9 + 100000 z_1_10 + 100000 z_1_2 + 100000 z_1_9 <= 301008.93406454939
 c3883: 120 p_1_1 + 120 p_1_10 + 120 p_1_2 + 120 p_1_9 + 100000 z_1_1 + 100000 z_1_10 + 100000 z_1_2 + 100000 z_1_9 <= 400855.72310642834
 c3884: 120 p_1_10 + 120 p_1_3 + 120 p_1_9 + 100000 z_1_10 + 100000 z_1_3 + 100000 z_1_9 <= 301198.4535694854
 c3885: 120 p_1_1 + 120 p_1_10 + 120 p_1_3 + 120 p_1_9 + 100000 z_1_1 + 100000 z_1_10 + 100000 z_1_3 + 100000 z_1_9 <= 401045.93170220288
 c3886: 120 p_1_10 + 120 p_1_2 + 120 p_1_3 + 120 p_1_9 + 100000 z_1_10 + 100000 z_1_2 + 100000 z_1_3 + 100000 z_1_9 <= 400843.44267058728
 c3887: 120 p_1_1 + 120 p_1_10 + 120 p_1_2 + 120 p_1_3 + 120 p_1_9 + 100000 z_1_1 + 100000 z_1_10 + 100000 z_1_2 + 100000 z_1_3 + 100000 z_1_9 <= 500690.23171246622
 c3888: 120 p_1_10 + 120 p_1_4 + 120 p_1_9 + 100000 z_1_10 + 100000 z_1_4 + 100000 z_1_9 <= 301405.28396288439
 c3889: 120 p_1_1 + 120 p_1_10 + 120 p_1_4 + 120 p_1_9 + 100000 z_1_1 + 100000 z_1_10 + 100000 z_1_4 + 100000 z_1_9 <= 401264.21050040936
 c3890: 120 p_1_10 + 120 p_1_2 + 120 p_1_4 + 120 p_1_9 + 100000 z_1_10 + 100000 z_1_2 + 100000 z_1_4 + 100000 z_1_9 <= 400993.86970619019
 c3891: 120 p_1_1 + 120 p_1_10 + 120 p_1_2 + 120 p_1_4 + 120 p_1_9 + 100000 z_1_1 + 100000 z_1_10 + 100000 z_1_2 + 100000 z_1_4 + 100000 z_1_9 <= 500852.79624371516
 c3892: 120 p_1_10 + 120 p_1_3 + 120 p_1_4 + 120 p_1_9 + 100000 z_1_10 + 100000 z_1_3 + 100000 z_1_4 + 100000 z_1_9 <= 401184.07830196474
 c3893: 120 p_1_1 + 120 p_1_10 + 120 p_1_3 + 120 p_1_4 + 120 p_1_9 + 100000 z_1_1 + 100000 z_1_10 + 100000 z_1_3 + 100000 z_1_4 + 100000 z_1_9 <= 501043.0048394897
 c3894: 120 p_1_10 + 120 p_1_2 + 120 p_1_3 + 120 p_1_4 + 120 p_1_9 + 100000 z_1_10 + 100000 z_1_2 + 100000 z_1_3 + 100000 z_1_4 + 100000 z_1_9 <= 500828.37831222807
 c3895: 120 p_1_1 + 120 p_1_10 + 120 p_1_2 + 120 p_1_3 + 120 p_1_4 + 120 p_1_9 + 100000 z_1_1 + 100000 z_1_10 + 100000 z_1_2 + 100000 z_1_3 + 100000 z_1_4 + 100000 z_1_9 <= 600687.30484975304
 c3896: 120 p_1_10 + 120 p_1_5 + 120 p_1_9 + 100000 z_1_10 + 100000 z_1_5 + 100000 z_1_9 <= 301109.39130511519
 c3897: 120 p_1_1 + 120 p_1_10 + 120 p_1_5 + 120 p_1_9 + 100000 z_1_1 + 100000 z_1_10 + 100000 z_1_5 + 100000 z_1_9 <= 400956.86943783268
 c3898: 120 p_1_10 + 120 p_1_2 + 120 p_1_5 + 120 p_1_9 + 100000 z_1_10 + 100000 z_1_2 + 100000 z_1_5 + 100000 z_1_9 <= 401006.28320622526
 c3899: 120 p_1_1 + 120 p_1_10 + 120 p_1_2 + 120 p_1_5 + 120 p_1_9 + 100000 z_1_1 + 100000 z_1_10 + 100000 z_1_2 + 100000 z_1_5 + 100000 z_1_9 <= 500853.07224810426
 c3900: 120 p_1_10 + 120 p_1_3 + 120 p_1_5 + 120 p_1_9 + 100000 z_1_10 + 100000 z_1_3 + 100000 z_1_5 + 100000 z_1_9 <= 400937.44976467243
 c3901: 120 p_1_1 + 120 p_1_10 + 120 p_1_3 + 120 p_1_5 + 120 p_1_9 + 100000 z_1_1 + 100000 z_1_10 + 100000 z_1_3 + 100000 z_1_5 + 100000 z_1_9 <= 500784.92789738992
 c3902: 120 p_1_10 + 120 p_1_2 + 120 p_1_3 + 120 p_1_5 + 120 p_1_9 + 100000 z_1_10 + 100000 z_1_2 + 100000 z_1_3 + 100000 z_1_5 + 100000 z_1_9 <= 500839.70776329649
 c3903: 120 p_1_1 + 120 p_1_10 + 120 p_1_2 + 120 p_1_3 + 120 p_1_5 + 120 p_1_9 + 100000 z_1_1 + 100000 z_1_10 + 100000 z_1_2 + 100000 z_1_3 + 100000 z_1_5 + 100000 z_1_9 <= 600687.18589601398
 c3904: 120 p_1_10 + 120 p_1_4 + 120 p_1_5 + 120 p_1_9 + 100000 z_1_10 + 100000 z_1_4 + 100000 z_1_5 + 100000 z_1_9 <= 401095.01603759453
 c3905: 120 p_1_1 + 120 p_1_10 + 120 p_1_4 + 120 p_1_5 + 120 p_1_9 + 100000 z_1_1 + 100000 z_1_10 + 100000 z_1_4 + 100000 z_1_5 + 100000 z_1_9 <= 500953.94257511949
 c3906: 120 p_1_10 + 120 p_1_2 + 120 p_1_4 + 120 p_1_5 + 120 p_1_9 + 100000 z_1_10 + 100000 z_1_2 + 100000 z_1_4 + 100000 z_1_5 + 100000 z_1_9 <= 500991.21884786611
 c3907: 120 p_1_1 + 120 p_1_10 + 120 p_1_2 + 120 p_1_4 + 120 p_1_5 + 120 p_1_9 + 100000 z_1_1 + 100000 z_1_10 + 100000 z_1_2 + 100000 z_1_4 + 100000 z_1_5 + 100000 z_1_9 <= 600850.14538539108
 c3908: 120 p_1_10 + 120 p_1_3 + 120 p_1_4 + 120 p_1_5 + 120 p_1_9 + 100000 z_1_10 + 100000 z_1_3 + 100000 z_1_4 + 100000 z_1_5 + 100000 z_1_9 <= 500923.07449715177
 c3909: 120 p_1_1 + 120 p_1_10 + 120 p_1_3 + 120 p_1_4 + 120 p_1_5 + 120 p_1_9 + 100000 z_1_1 + 100000 z_1_10 + 100000 z_1_3 + 100000 z_1_4 + 100000 z_1_5 + 100000 z_1_9 <= 600782.0010346768
 c3910: 120 p_1_10 + 120 p_1_2 + 120 p_1_3 + 120 p_1_4 + 120 p_1_5 + 120 p_1_9 + 100000 z_1_10 + 100000 z_1_2 + 100000 z_1_3 + 100000 z_1_4 + 100000 z_1_5 + 100000 z_1_9 <= 600825.33249577577
 c3911: 120 p_1_1 + 120 p_1_10 + 120 p_1_2 + 120 p_1_3 + 120 p_1_4 + 120 p_1_5 + 120 p_1_9 + 100000 z_1_1 + 100000 z_1_10 + 100000 z_1_2 + 100000 z_1_3 + 100000 z_1_4 + 100000 z_1_5 + 100000 z_1_9 <= 700684.2590333008
 c3912: 120 p_1_10 + 120 p_1_6 + 120 p_1_9 + 100000 z_1_10 + 100000 z_1_6 + 100000 z_1_9 <= 301340.92797662807
 c3913: 120 p_1_1 + 120 p_1_10 + 120 p_1_6 + 120 p_1_9 + 100000 z_1_1 + 100000 z_1_10 + 100000 z_1_6 + 100000 z_1_9 <= 401188.40610934555
 c3914: 120 p_1_10 + 120 p_1_2 + 120 p_1_6 + 120 p_1_9 + 100000 z_1_10 + 100000 z_1_2 + 100000 z_1_6 + 100000 z_1_9 <= 400977.00815564406
 c3915: 120 p_1_1 + 120 p_1_10 + 120 p_1_2 + 120 p_1_6 + 120 p_1_9 + 100000 z_1_1 + 100000 z_1_10 + 100000 z_1_2 + 100000 z_1_6 + 100000 z_1_9 <= 500823.797197523
 c3916: 120 p_1_10 + 120 p_1_3 + 120 p_1_6 + 120 p_1_9 + 100000 z_1_10 + 100000 z_1_3 + 100000 z_1_6 + 100000 z_1_9 <= 401196.76515600074
 c3917: 120 p_1_1 + 120 p_1_10 + 120 p_1_3 + 120 p_1_6 + 120 p_1_9 + 100000 z_1_1 + 100000 z_1_10 + 100000 z_1_3 + 100000 z_1_6 + 100000 z_1_9 <= 501044.24328871822
 c3918: 120 p_1_10 + 120 p_1_2 + 120 p_1_3 + 120 p_1_6 + 120 p_1_9 + 100000 z_1_10 + 100000 z_1_2 + 100000 z_1_3 + 100000 z_1_6 + 100000 z_1_9 <= 500832.84533501667
 c3919: 120 p_1_1 + 120 p_1_10 + 120 p_1_2 + 120 p_1_3 + 120 p_1_6 + 120 p_1_9 + 100000 z_1_1 + 100000 z_1_10 + 100000 z_1_2 + 100000 z_1_3 + 100000 z_1_6 + 100000 z_1_9 <= 600679.63437689561
 c3920: 120 p_1_10 + 120 p_1_4 + 120 p_1_6 + 120 p_1_9 + 100000 z_1_10 + 100000 z_1_4 + 100000 z_1_6 + 100000 z_1_9 <= 401326.5527091074
 c3921: 120 p_1_1 + 120 p_1_10 + 120 p_1_4 + 120 p_1_6 + 120 p_1_9 + 100000 z_1_1 + 100000 z_1_10 + 100000 z_1_4 + 100000 z_1_6 + 100000 z_1_9 <= 501185.47924663237
 c3922: 120 p_1_10 + 120 p_1_2 + 120 p_1_4 + 120 p_1_6 + 120 p_1_9 + 100000 z_1_10 + 100000 z_1_2 + 100000 z_1_4 + 100000 z_1_6 + 100000 z_1_9 <= 500961.94379728485
 c3923: 120 p_1_1 + 120 p_1_10 + 120 p_1_2 + 120 p_1_4 + 120 p_1_6 + 120 p_1_9 + 100000 z_1_1 + 100000 z_1_10 + 100000 z_1_2 + 100000 z_1_4 + 100000 z_1_6 + 100000 z_1_9 <= 600820.87033480976
 c3924: 120 p_1_10 + 120 p_1_3 + 120 p_1_4 + 120 p_1_6 + 120 p_1_9 + 100000 z_1_10 + 100000 z_1_3 + 100000 z_1_4 + 100000 z_1_6 + 100000 z_1_9 <= 501182.38988848007
 c3925: 120 p_1_1 + 120 p_1_10 + 120 p_1_3 + 120 p_1_4 + 120 p_1_6 + 120 p_1_9 + 100000 z_1_1 + 100000 z_1_10 + 100000 z_1_3 + 100000 z_1_4 + 100000 z_1_6 + 100000 z_1_9 <= 601041.31642600498
 c3926: 120 p_1_10 + 120 p_1_2 + 120 p_1_3 + 120 p_1_4 + 120 p_1_6 + 120 p_1_9 + 100000 z_1_10 + 100000 z_1_2 + 100000 z_1_3 + 100000 z_1_4 + 100000 z_1_6 + 100000 z_1_9 <= 600817.78097665752
 c3927: 120 p_1_1 + 120 p_1_10 + 120 p_1_2 + 120 p_1_3 + 120 p_1_4 + 120 p_1_6 + 120 p_1_9 + 100000 z_1_1 + 100000 z_1_10 + 100000 z_1_2 + 100000 z_1_3 + 100000 z_1_4 + 100000 z_1_6 + 100000 z_1_9 <= 700676.70751418243
 c3928: 120 p_1_10 + 120 p_1_5 + 120 p_1_6 + 120 p_1_9 + 100000 z_1_10 + 100000 z_1_5 + 100000 z_1_6 + 100000 z_1_9 <= 401073.94035134377
 c3929: 120 p_1_1 + 120 p_1_10 + 120 p_1_5 + 120 p_1_6 + 120 p_1_9 + 100000 z_1_1 + 100000 z_1_10 + 100000 z_1_5 + 100000 z_1_6 + 100000 z_1_9 <= 500921.41848406132
 c3930: 120 p_1_10 + 120 p_1_2 + 120 p_1_5 + 120 p_1_6 + 120 p_1_9 + 100000 z_1_10 + 100000 z_1_2 + 100000 z_1_5 + 100000 z_1_6 + 100000 z_1_9 <= 500973.27324835327
 c3931: 120 p_1_1 + 120 p_1_10 + 120 p_1_2 + 120 p_1_5 + 120 p_1_6 + 120 p_1_9 + 100000 z_1_1 + 100000 z_1_10 + 100000 z_1_2 + 100000 z_1_5 + 100000 z_1_6 + 100000 z_1_9 <= 600820.75138107082
 c3932: 120 p_1_10 + 120 p_1_3 + 120 p_1_5 + 120 p_1_6 + 120 p_1_9 + 100000 z_1_10 + 100000 z_1_3 + 100000 z_1_5 + 100000 z_1_6 + 100000 z_1_9 <= 500929.77753071644
 c3933: 120 p_1_1 + 120 p_1_10 + 120 p_1_3 + 120 p_1_5 + 120 p_1_6 + 120 p_1_9 + 100000 z_1_1 + 100000 z_1_10 + 100000 z_1_3 + 100000 z_1_5 + 100000 z_1_6 + 100000 z_1_9 <= 600777.25566343393
 c3934: 120 p_1_10 + 120 p_1_2 + 120 p_1_3 + 120 p_1_5 + 120 p_1_6 + 120 p_1_9 + 100000 z_1_10 + 100000 z_1_2 + 100000 z_1_3 + 100000 z_1_5 + 100000 z_1_6 + 100000 z_1_9 <= 600829.11042772594
 c3935: 120 p_1_1 + 120 p_1_10 + 120 p_1_2 + 120 p_1_3 + 120 p_1_5 + 120 p_1_6 + 120 p_1_9 + 100000 z_1_1 + 100000 z_1_10 + 100000 z_1_2 + 100000 z_1_3 + 100000 z_1_5 + 100000 z_1_6 + 100000 z_1_9 <= 700676.58856044337
 c3936: 120 p_1_10 + 120 p_1_4 + 120 p_1_5 + 120 p_1_6 + 120 p_1_9 + 100000 z_1_10 + 100000 z_1_4 + 100000 z_1_5 + 100000 z_1_6 + 100000 z_1_9 <= 501059.56508382311
 c3937: 120 p_1_1 + 120 p_1_10 + 120 p_1_4 + 120 p_1_5 + 120 p_1_6 + 120 p_1_9 + 100000 z_1_1 + 100000 z_1_10 + 100000 z_1_4 + 100000 z_1_5 + 100000 z_1_6 + 100000 z_1_9 <= 600918.49162134808
 c3938: 120 p_1_10 + 120 p_1_2 + 120 p_1_4 + 120 p_1_5 + 120 p_1_6 + 120 p_1_9 + 100000 z_1_10 + 100000 z_1_2 + 100000 z_1_4 + 100000 z_1_5 + 100000 z_1_6 + 100000 z_1_9 <= 600958.89798083261
 c3939: 120 p_1_1 + 120 p_1_10 + 120 p_1_2 + 120 p_1_4 + 120 p_1_5 + 120 p_1_6 + 120 p_1_9 + 100000 z_1_1 + 100000 z_1_10 + 100000 z_1_2 + 100000 z_1_4 + 100000 z_1_5 + 100000 z_1_6 + 100000 z_1_9 <= 700817.82451835752
 c3940: 120 p_1_10 + 120 p_1_3 + 120 p_1_4 + 120 p_1_5 + 120 p_1_6 + 120 p_1_9 + 100000 z_1_10 + 100000 z_1_3 + 100000 z_1_4 + 100000 z_1_5 + 100000 z_1_6 + 100000 z_1_9 <= 600915.40226319584
 c3941: 120 p_1_1 + 120 p_1_10 + 120 p_1_3 + 120 p_1_4 + 120 p_1_5 + 120 p_1_6 + 120 p_1_9 + 100000 z_1_1 + 100000 z_1_10 + 100000 z_1_3 + 100000 z_1_4 + 100000 z_1_5 + 100000 z_1_6 + 100000 z_1_9 <= 700774.32880072074
 c3942: 120 p_1_10 + 120 p_1_2 + 120 p_1_3 + 120 p_1_4 + 120 p_1_5 + 120 p_1_6 + 120 p_1_9 + 100000 z_1_10 + 100000 z_1_2 + 100000 z_1_3 + 100000 z_1_4 + 100000 z_1_5 + 100000 z_1_6 + 100000 z_1_9 <= 700814.73516020528
 c3943: 120 p_1_1 + 120 p_1_10 + 120 p_1_2 + 120 p_1_3 + 120 p_1_4 + 120 p_1_5 + 120 p_1_6 + 120 p_1_9 + 100000 z_1_1 + 100000 z_1_10 + 100000 z_1_2 + 100000 z_1_3 + 100000 z_1_4 + 100000 z_1_5 + 100000 z_1_6 + 100000 z_1_9 <= 800673.66169773019
 c3944: 120 p_1_10 + 120 p_1_7 + 120 p_1_9 + 100000 z_1_10 + 100000 z_1_7 + 100000 z_1_9 <= 301261.28046184406
 c3945: 120 p_1_1 + 120 p_1_10 + 120 p_1_7 + 120 p_1_9 + 100000 z_1_1 + 100000 z_1_10 + 100000 z_1_7 + 100000 z_1_9 <= 401255.92402998917
 c3946: 120 p_1_10 + 120 p_1_2 + 120 p_1_7 + 120 p_1_9 + 100000 z_1_10 + 100000 z_1_2 + 100000 z_1_7 + 100000 z_1_9 <= 400849.86620514985
 c3947: 120 p_1_1 + 120 p_1_10 + 120 p_1_2 + 120 p_1_7 + 120 p_1_9 + 100000 z_1_1 + 100000 z_1_10 + 100000 z_1_2 + 100000 z_1_7 + 100000 z_1_9 <= 500844.50977329497
 c3948: 120 p_1_10 + 120 p_1_3 + 120 p_1_7 + 120 p_1_9 + 100000 z_1_10 + 100000 z_1_3 + 100000 z_1_7 + 100000 z_1_9 <= 401040.07480092434
 c3949: 120 p_1_1 + 120 p_1_10 + 120 p_1_3 + 120 p_1_7 + 120 p_1_9 + 100000 z_1_1 + 100000 z_1_10 + 100000 z_1_3 + 100000 z_1_7 + 100000 z_1_9 <= 501034.71836906951
 c3950: 120 p_1_10 + 120 p_1_2 + 120 p_1_3 + 120 p_1_7 + 120 p_1_9 + 100000 z_1_10 + 100000 z_1_2 + 100000 z_1_3 + 100000 z_1_7 + 100000 z_1_9 <= 500684.37481118774
 c3951: 120 p_1_1 + 120 p_1_10 + 120 p_1_2 + 120 p_1_3 + 120 p_1_7 + 120 p_1_9 + 100000 z_1_1 + 100000 z_1_10 + 100000 z_1_2 + 100000 z_1_3 + 100000 z_1_7 + 100000 z_1_9 <= 600679.01837933285
 c3952: 120 p_1_10 + 120 p_1_4 + 120 p_1_7 + 120 p_1_9 + 100000 z_1_10 + 100000 z_1_4 + 100000 z_1_7 + 100000 z_1_9 <= 401260.08191875118
 c3953: 120 p_1_1 + 120 p_1_10 + 120 p_1_4 + 120 p_1_7 + 120 p_1_9 + 100000 z_1_1 + 100000 z_1_10 + 100000 z_1_4 + 100000 z_1_7 + 100000 z_1_9 <= 501252.99716727599
 c3954: 120 p_1_10 + 120 p_1_2 + 120 p_1_4 + 120 p_1_7 + 120 p_1_9 + 100000 z_1_10 + 100000 z_1_2 + 100000 z_1_4 + 100000 z_1_7 + 100000 z_1_9 <= 500848.66766205698
 c3955: 120 p_1_1 + 120 p_1_10 + 120 p_1_2 + 120 p_1_4 + 120 p_1_7 + 120 p_1_9 + 100000 z_1_1 + 100000 z_1_10 + 100000 z_1_2 + 100000 z_1_4 + 100000 z_1_7 + 100000 z_1_9 <= 600841.58291058172
 c3956: 120 p_1_10 + 120 p_1_3 + 120 p_1_4 + 120 p_1_7 + 120 p_1_9 + 100000 z_1_10 + 100000 z_1_3 + 100000 z_1_4 + 100000 z_1_7 + 100000 z_1_9 <= 501038.87625783152
 c3957: 120 p_1_1 + 120 p_1_10 + 120 p_1_3 + 120 p_1_4 + 120 p_1_7 + 120 p_1_9 + 100000 z_1_1 + 100000 z_1_10 + 100000 z_1_3 + 100000 z_1_4 + 100000 z_1_7 + 100000 z_1_9 <= 601031.79150635633
 c3958: 120 p_1_10 + 120 p_1_2 + 120 p_1_3 + 120 p_1_4 + 120 p_1_7 + 120 p_1_9 + 100000 z_1_10 + 100000 z_1_2 + 100000 z_1_3 + 100000 z_1_4 + 100000 z_1_7 + 100000 z_1_9 <= 600683.1762680948
 c3959: 120 p_1_1 + 120 p_1_10 + 120 p_1_2 + 120 p_1_3 + 120 p_1_4 + 120 p_1_7 + 120 p_1_9 + 100000 z_1_1 + 100000 z_1_10 + 100000 z_1_2 + 100000 z_1_3 + 100000 z_1_4 + 100000 z_1_7 + 100000 z_1_9 <= 700676.09151661966
 c3960: 120 p_1_10 + 120 p_1_5 + 120 p_1_7 + 120 p_1_9 + 100000 z_1_10 + 100000 z_1_5 + 100000 z_1_7 + 100000 z_1_9 <= 400951.01253655419
 c3961: 120 p_1_1 + 120 p_1_10 + 120 p_1_5 + 120 p_1_7 + 120 p_1_9 + 100000 z_1_1 + 100000 z_1_10 + 100000 z_1_5 + 100000 z_1_7 + 100000 z_1_9 <= 500945.6561046993
 c3962: 120 p_1_10 + 120 p_1_2 + 120 p_1_5 + 120 p_1_7 + 120 p_1_9 + 100000 z_1_10 + 100000 z_1_2 + 100000 z_1_5 + 100000 z_1_7 + 100000 z_1_9 <= 500847.21534682572
 c3963: 120 p_1_1 + 120 p_1_10 + 120 p_1_2 + 120 p_1_5 + 120 p_1_7 + 120 p_1_9 + 100000 z_1_1 + 100000 z_1_10 + 100000 z_1_2 + 100000 z_1_5 + 100000 z_1_7 + 100000 z_1_9 <= 600841.85891497089
 c3964: 120 p_1_10 + 120 p_1_3 + 120 p_1_5 + 120 p_1_7 + 120 p_1_9 + 100000 z_1_10 + 100000 z_1_3 + 100000 z_1_5 + 100000 z_1_7 + 100000 z_1_9 <= 500779.07099611143
 c3965: 120 p_1_1 + 120 p_1_10 + 120 p_1_3 + 120 p_1_5 + 120 p_1_7 + 120 p_1_9 + 100000 z_1_1 + 100000 z_1_10 + 100000 z_1_3 + 100000 z_1_5 + 100000 z_1_7 + 100000 z_1_9 <= 600773.71456425649
 c3966: 120 p_1_10 + 120 p_1_2 + 120 p_1_3 + 120 p_1_5 + 120 p_1_7 + 120 p_1_9 + 100000 z_1_10 + 100000 z_1_2 + 100000 z_1_3 + 100000 z_1_5 + 100000 z_1_7 + 100000 z_1_9 <= 600681.32899473549
 c3967: 120 p_1_1 + 120 p_1_10 + 120 p_1_2 + 120 p_1_3 + 120 p_1_5 + 120 p_1_7 + 120 p_1_9 + 100000 z_1_1 + 100000 z_1_10 + 100000 z_1_2 + 100000 z_1_3 + 100000 z_1_5 + 100000 z_1_7 + 100000 z_1_9 <= 700675.9725628806
 c3968: 120 p_1_10 + 120 p_1_4 + 120 p_1_5 + 120 p_1_7 + 120 p_1_9 + 100000 z_1_10 + 100000 z_1_4 + 100000 z_1_5 + 100000 z_1_7 + 100000 z_1_9 <= 500949.81399346131
 c3969: 120 p_1_1 + 120 p_1_10 + 120 p_1_4 + 120 p_1_5 + 120 p_1_7 + 120 p_1_9 + 100000 z_1_1 + 100000 z_1_10 + 100000 z_1_4 + 100000 z_1_5 + 100000 z_1_7 + 100000 z_1_9 <= 600942.72924198606
 c3970: 120 p_1_10 + 120 p_1_2 + 120 p_1_4 + 120 p_1_5 + 120 p_1_7 + 120 p_1_9 + 100000 z_1_10 + 100000 z_1_2 + 100000 z_1_4 + 100000 z_1_5 + 100000 z_1_7 + 100000 z_1_9 <= 600846.01680373284
 c3971: 120 p_1_1 + 120 p_1_10 + 120 p_1_2 + 120 p_1_4 + 120 p_1_5 + 120 p_1_7 + 120 p_1_9 + 100000 z_1_1 + 100000 z_1_10 + 100000 z_1_2 + 100000 z_1_4 + 100000 z_1_5 + 100000 z_1_7 + 100000 z_1_9 <= 700838.9320522577
 c3972: 120 p_1_10 + 120 p_1_3 + 120 p_1_4 + 120 p_1_5 + 120 p_1_7 + 120 p_1_9 + 100000 z_1_10 + 100000 z_1_3 + 100000 z_1_4 + 100000 z_1_5 + 100000 z_1_7 + 100000 z_1_9 <= 600777.87245301856
 c3973: 120 p_1_1 + 120 p_1_10 + 120 p_1_3 + 120 p_1_4 + 120 p_1_5 + 120 p_1_7 + 120 p_1_9 + 100000 z_1_1 + 100000 z_1_10 + 100000 z_1_3 + 100000 z_1_4 + 100000 z_1_5 + 100000 z_1_7 + 100000 z_1_9 <= 700770.7877015433
 c3974: 120 p_1_10 + 120 p_1_2 + 120 p_1_3 + 120 p_1_4 + 120 p_1_5 + 120 p_1_7 + 120 p_1_9 + 100000 z_1_10 + 100000 z_1_2 + 100000 z_1_3 + 100000 z_1_4 + 100000 z_1_5 + 100000 z_1_7 + 100000 z_1_9 <= 700680.13045164256
 c3975: 120 p_1_1 + 120 p_1_10 + 120 p_1_2 + 120 p_1_3 + 120 p_1_4 + 120 p_1_5 + 120 p_1_7 + 120 p_1_9 + 100000 z_1_1 + 100000 z_1_10 + 100000 z_1_2 + 100000 z_1_3 + 100000 z_1_4 + 100000 z_1_5 + 100000 z_1_7 + 100000 z_1_9 <= 800673.04570016742
 c3976: 120 p_1_10 + 120 p_1_6 + 120 p_1_7 + 120 p_1_9 + 100000 z_1_10 + 100000 z_1_6 + 100000 z_1_7 + 100000 z_1_9 <= 401182.54920806701
 c3977: 120 p_1_1 + 120 p_1_10 + 120 p_1_6 + 120 p_1_7 + 120 p_1_9 + 100000 z_1_1 + 100000 z_1_10 + 100000 z_1_6 + 100000 z_1_7 + 100000 z_1_9 <= 501177.19277621218
 c3978: 120 p_1_10 + 120 p_1_2 + 120 p_1_6 + 120 p_1_7 + 120 p_1_9 + 100000 z_1_10 + 100000 z_1_2 + 100000 z_1_6 + 100000 z_1_7 + 100000 z_1_9 <= 500817.94029624452
 c3979: 120 p_1_1 + 120 p_1_10 + 120 p_1_2 + 120 p_1_6 + 120 p_1_7 + 120 p_1_9 + 100000 z_1_1 + 100000 z_1_10 + 100000 z_1_2 + 100000 z_1_6 + 100000 z_1_7 + 100000 z_1_9 <= 600812.58386438957
 c3980: 120 p_1_10 + 120 p_1_3 + 120 p_1_6 + 120 p_1_7 + 120 p_1_9 + 100000 z_1_10 + 100000 z_1_3 + 100000 z_1_6 + 100000 z_1_7 + 100000 z_1_9 <= 501038.38638743968
 c3981: 120 p_1_1 + 120 p_1_10 + 120 p_1_3 + 120 p_1_6 + 120 p_1_7 + 120 p_1_9 + 100000 z_1_1 + 100000 z_1_10 + 100000 z_1_3 + 100000 z_1_6 + 100000 z_1_7 + 100000 z_1_9 <= 601033.02995558479
 c3982: 120 p_1_10 + 120 p_1_2 + 120 p_1_3 + 120 p_1_6 + 120 p_1_7 + 120 p_1_9 + 100000 z_1_10 + 100000 z_1_2 + 100000 z_1_3 + 100000 z_1_6 + 100000 z_1_7 + 100000 z_1_9 <= 600673.77747561713
 c3983: 120 p_1_1 + 120 p_1_10 + 120 p_1_2 + 120 p_1_3 + 120 p_1_6 + 120 p_1_7 + 120 p_1_9 + 100000 z_1_1 + 100000 z_1_10 + 100000 z_1_2 + 100000 z_1_3 + 100000 z_1_6 + 100000 z_1_7 + 100000 z_1_9 <= 700668.42104376224
 c3984: 120 p_1_10 + 120 p_1_4 + 120 p_1_6 + 120 p_1_7 + 120 p_1_9 + 100000 z_1_10 + 100000 z_1_4 + 100000 z_1_6 + 100000 z_1_7 + 100000 z_1_9 <= 501181.35066497419
 c3985: 120 p_1_1 + 120 p_1_10 + 120 p_1_4 + 120 p_1_6 + 120 p_1_7 + 120 p_1_9 + 100000 z_1_1 + 100000 z_1_10 + 100000 z_1_4 + 100000 z_1_6 + 100000 z_1_7 + 100000 z_1_9 <= 601174.26591349894
 c3986: 120 p_1_10 + 120 p_1_2 + 120 p_1_4 + 120 p_1_6 + 120 p_1_7 + 120 p_1_9 + 100000 z_1_10 + 100000 z_1_2 + 100000 z_1_4 + 100000 z_1_6 + 100000 z_1_7 + 100000 z_1_9 <= 600816.74175315164
 c3987: 120 p_1_1 + 120 p_1_10 + 120 p_1_2 + 120 p_1_4 + 120 p_1_6 + 120 p_1_7 + 120 p_1_9 + 100000 z_1_1 + 100000 z_1_10 + 100000 z_1_2 + 100000 z_1_4 + 100000 z_1_6 + 100000 z_1_7 + 100000 z_1_9 <= 700809.65700167639
 c3988: 120 p_1_10 + 120 p_1_3 + 120 p_1_4 + 120 p_1_6 + 120 p_1_7 + 120 p_1_9 + 100000 z_1_10 + 100000 z_1_3 + 100000 z_1_4 + 100000 z_1_6 + 100000 z_1_7 + 100000 z_1_9 <= 601037.18784434686
 c3989: 120 p_1_1 + 120 p_1_10 + 120 p_1_3 + 120 p_1_4 + 120 p_1_6 + 120 p_1_7 + 120 p_1_9 + 100000 z_1_1 + 100000 z_1_10 + 100000 z_1_3 + 100000 z_1_4 + 100000 z_1_6 + 100000 z_1_7 + 100000 z_1_9 <= 701030.10309287161
 c3990: 120 p_1_10 + 120 p_1_2 + 120 p_1_3 + 120 p_1_4 + 120 p_1_6 + 120 p_1_7 + 120 p_1_9 + 100000 z_1_10 + 100000 z_1_2 + 100000 z_1_3 + 100000 z_1_4 + 100000 z_1_6 + 100000 z_1_7 + 100000 z_1_9 <= 700672.57893252431
 c3991: 120 p_1_1 + 120 p_1_10 + 120 p_1_2 + 120 p_1_3 + 120 p_1_4 + 120 p_1_6 + 120 p_1_7 + 120 p_1_9 + 100000 z_1_1 + 100000 z_1_10 + 100000 z_1_2 + 100000 z_1_3 + 100000 z_1_4 + 100000 z_1_6 + 100000 z_1_7 + 100000 z_1_9 <= 800665.49418104906
 c3992: 120 p_1_10 + 120 p_1_5 + 120 p_1_6 + 120 p_1_7 + 120 p_1_9 + 100000 z_1_10 + 100000 z_1_5 + 100000 z_1_6 + 100000 z_1_7 + 100000 z_1_9 <= 500915.56158278277
 c3993: 120 p_1_1 + 120 p_1_10 + 120 p_1_5 + 120 p_1_6 + 120 p_1_7 + 120 p_1_9 + 100000 z_1_1 + 100000 z_1_10 + 100000 z_1_5 + 100000 z_1_6 + 100000 z_1_7 + 100000 z_1_9 <= 600910.20515092788
 c3994: 120 p_1_10 + 120 p_1_2 + 120 p_1_5 + 120 p_1_6 + 120 p_1_7 + 120 p_1_9 + 100000 z_1_10 + 100000 z_1_2 + 100000 z_1_5 + 100000 z_1_6 + 100000 z_1_7 + 100000 z_1_9 <= 600814.89447979222
 c3995: 120 p_1_1 + 120 p_1_10 + 120 p_1_2 + 120 p_1_5 + 120 p_1_6 + 120 p_1_7 + 120 p_1_9 + 100000 z_1_1 + 100000 z_1_10 + 100000 z_1_2 + 100000 z_1_5 + 100000 z_1_6 + 100000 z_1_7 + 100000 z_1_9 <= 700809.53804793733
 c3996: 120 p_1_10 + 120 p_1_3 + 120 p_1_5 + 120 p_1_6 + 120 p_1_7 + 120 p_1_9 + 100000 z_1_10 + 100000 z_1_3 + 100000 z_1_5 + 100000 z_1_6 + 100000 z_1_7 + 100000 z_1_9 <= 600771.39876215544
 c3997: 120 p_1_1 + 120 p_1_10 + 120 p_1_3 + 120 p_1_5 + 120 p_1_6 + 120 p_1_7 + 120 p_1_9 + 100000 z_1_1 + 100000 z_1_10 + 100000 z_1_3 + 100000 z_1_5 + 100000 z_1_6 + 100000 z_1_7 + 100000 z_1_9 <= 700766.04233030055
 c3998: 120 p_1_10 + 120 p_1_2 + 120 p_1_3 + 120 p_1_5 + 120 p_1_6 + 120 p_1_7 + 120 p_1_9 + 100000 z_1_10 + 100000 z_1_2 + 100000 z_1_3 + 100000 z_1_5 + 100000 z_1_6 + 100000 z_1_7 + 100000 z_1_9 <= 700670.73165916489
 c3999: 120 p_1_1 + 120 p_1_10 + 120 p_1_2 + 120 p_1_3 + 120 p_1_5 + 120 p_1_6 + 120 p_1_7 + 120 p_1_9 + 100000 z_1_1 + 100000 z_1_10 + 100000 z_1_2 + 100000 z_1_3 + 100000 z_1_5 + 100000 z_1_6 + 100000 z_1_7 + 100000 z_1_9 <= 800665.37522731
 c4000: 120 p_1_10 + 120 p_1_4 + 120 p_1_5 + 120 p_1_6 + 120 p_1_7 + 120 p_1_9 + 100000 z_1_10 + 100000 z_1_4 + 100000 z_1_5 + 100000 z_1_6 + 100000 z_1_7 + 100000 z_1_9 <= 600914.36303968995
 c4001: 120 p_1_1 + 120 p_1_10 + 120 p_1_4 + 120 p_1_5 + 120 p_1_6 + 120 p_1_7 + 120 p_1_9 + 100000 z_1_1 + 100000 z_1_10 + 100000 z_1_4 + 100000 z_1_5 + 100000 z_1_6 + 100000 z_1_7 + 100000 z_1_9 <= 700907.2782882147
 c4002: 120 p_1_10 + 120 p_1_2 + 120 p_1_4 + 120 p_1_5 + 120 p_1_6 + 120 p_1_7 + 120 p_1_9 + 100000 z_1_10 + 100000 z_1_2 + 100000 z_1_4 + 100000 z_1_5 + 100000 z_1_6 + 100000 z_1_7 + 100000 z_1_9 <= 700813.6959366994
 c4003: 120 p_1_1 + 120 p_1_10 + 120 p_1_2 + 120 p_1_4 + 120 p_1_5 + 120 p_1_6 + 120 p_1_7 + 120 p_1_9 + 100000 z_1_1 + 100000 z_1_10 + 100000 z_1_2 + 100000 z_1_4 + 100000 z_1_5 + 100000 z_1_6 + 100000 z_1_7 + 100000 z_1_9 <= 800806.61118522414
 c4004: 120 p_1_10 + 120 p_1_3 + 120 p_1_4 + 120 p_1_5 + 120 p_1_6 + 120 p_1_7 + 120 p_1_9 + 100000 z_1_10 + 100000 z_1_3 + 100000 z_1_4 + 100000 z_1_5 + 100000 z_1_6 + 100000 z_1_7 + 100000 z_1_9 <= 700770.20021906262
 c4005: 120 p_1_1 + 120 p_1_10 + 120 p_1_3 + 120 p_1_4 + 120 p_1_5 + 120 p_1_6 + 120 p_1_7 + 120 p_1_9 + 100000 z_1_1 + 100000 z_1_10 + 100000 z_1_3 + 100000 z_1_4 + 100000 z_1_5 + 100000 z_1_6 + 100000 z_1_7 + 100000 z_1_9 <= 800763.11546758737
 c4006: 120 p_1_10 + 120 p_1_2 + 120 p_1_3 + 120 p_1_4 + 120 p_1_5 + 120 p_1_6 + 120 p_1_7 + 120 p_1_9 + 100000 z_1_10 + 100000 z_1_2 + 100000 z_1_3 + 100000 z_1_4 + 100000 z_1_5 + 100000 z_1_6 + 100000 z_1_7 + 100000 z_1_9 <= 800669.53311607207
 c4007: 120 p_1_1 + 120 p_1_10 + 120 p_1_2 + 120 p_1_3 + 120 p_1_4 + 120 p_1_5 + 120 p_1_6 + 120 p_1_7 + 120 p_1_9 + 100000 z_1_1 + 100000 z_1_10 + 100000 z_1_2 + 100000 z_1_3 + 100000 z_1_4 + 100000 z_1_5 + 100000 z_1_6 + 100000 z_1_7 + 100000 z_1_9 <= 900662.44836459681
 c4008: 120 p_1_10 + 120 p_1_8 + 120 p_1_9 + 100000 z_1_10 + 100000 z_1_8 + 100000 z_1_9 <= 301079.10019803961
 c4009: 120 p_1_1 + 120 p_1_10 + 120 p_1_8 + 120 p_1_9 + 100000 z_1_1 + 100000 z_1_10 + 100000 z_1_8 + 100000 z_1_9 <= 400926.5783307571
 c4010: 120 p_1_10 + 120 p_1_2 + 120 p_1_8 + 120 p_1_9 + 100000 z_1_10 + 100000 z_1_2 + 100000 z_1_8 + 100000 z_1_9 <= 401006.14437380387
 c4011: 120 p_1_1 + 120 p_1_10 + 120 p_1_2 + 120 p_1_8 + 120 p_1_9 + 100000 z_1_1 + 100000 z_1_10 + 100000 z_1_2 + 100000 z_1_8 + 100000 z_1_9 <= 500852.93341568287
 c4012: 120 p_1_10 + 120 p_1_3 + 120 p_1_8 + 120 p_1_9 + 100000 z_1_10 + 100000 z_1_3 + 100000 z_1_8 + 100000 z_1_9 <= 400916.30420016591
 c4013: 120 p_1_1 + 120 p_1_10 + 120 p_1_3 + 120 p_1_8 + 120 p_1_9 + 100000 z_1_1 + 100000 z_1_10 + 100000 z_1_3 + 100000 z_1_8 + 100000 z_1_9 <= 500763.78233288339
 c4014: 120 p_1_10 + 120 p_1_2 + 120 p_1_3 + 120 p_1_8 + 120 p_1_9 + 100000 z_1_10 + 100000 z_1_2 + 100000 z_1_3 + 100000 z_1_8 + 100000 z_1_9 <= 500843.34837593022
 c4015: 120 p_1_1 + 120 p_1_10 + 120 p_1_2 + 120 p_1_3 + 120 p_1_8 + 120 p_1_9 + 100000 z_1_1 + 100000 z_1_10 + 100000 z_1_2 + 100000 z_1_3 + 100000 z_1_8 + 100000 z_1_9 <= 600690.13741780922
 c4016: 120 p_1_10 + 120 p_1_4 + 120 p_1_8 + 120 p_1_9 + 100000 z_1_10 + 100000 z_1_4 + 100000 z_1_8 + 100000 z_1_9 <= 401064.72493051895
 c4017: 120 p_1_1 + 120 p_1_10 + 120 p_1_4 + 120 p_1_8 + 120 p_1_9 + 100000 z_1_1 + 100000 z_1_10 + 100000 z_1_4 + 100000 z_1_8 + 100000 z_1_9 <= 500923.65146804386
 c4018: 120 p_1_10 + 120 p_1_2 + 120 p_1_4 + 120 p_1_8 + 120 p_1_9 + 100000 z_1_10 + 100000 z_1_2 + 100000 z_1_4 + 100000 z_1_8 + 100000 z_1_9 <= 500991.08001544472
 c4019: 120 p_1_1 + 120 p_1_10 + 120 p_1_2 + 120 p_1_4 + 120 p_1_8 + 120 p_1_9 + 100000 z_1_1 + 100000 z_1_10 + 100000 z_1_2 + 100000 z_1_4 + 100000 z_1_8 + 100000 z_1_9 <= 600850.00655296969
 c4020: 120 p_1_10 + 120 p_1_3 + 120 p_1_4 + 120 p_1_8 + 120 p_1_9 + 100000 z_1_10 + 100000 z_1_3 + 100000 z_1_4 + 100000 z_1_8 + 100000 z_1_9 <= 500901.92893264524
 c4021: 120 p_1_1 + 120 p_1_10 + 120 p_1_3 + 120 p_1_4 + 120 p_1_8 + 120 p_1_9 + 100000 z_1_1 + 100000 z_1_10 + 100000 z_1_3 + 100000 z_1_4 + 100000 z_1_8 + 100000 z_1_9 <= 600760.85547017015
 c4022: 120 p_1_10 + 120 p_1_2 + 120 p_1_3 + 120 p_1_4 + 120 p_1_8 + 120 p_1_9 + 100000 z_1_10 + 100000 z_1_2 + 100000 z_1_3 + 100000 z_1_4 + 100000 z_1_8 + 100000 z_1_9 <= 600828.28401757102
 c4023: 120 p_1_1 + 120 p_1_10 + 120 p_1_2 + 120 p_1_3 + 120 p_1_4 + 120 p_1_8 + 120 p_1_9 + 100000 z_1_1 + 100000 z_1_10 + 100000 z_1_2 + 100000 z_1_3 + 100000 z_1_4 + 100000 z_1_8 + 100000 z_1_9 <= 700687.21055509604
 c4024: 120 p_1_10 + 120 p_1_5 + 120 p_1_8 + 120 p_1_9 + 100000 z_1_10 + 100000 z_1_5 + 100000 z_1_8 + 100000 z_1_9 <= 401072.47122024355
 c4025: 120 p_1_1 + 120 p_1_10 + 120 p_1_5 + 120 p_1_8 + 120 p_1_9 + 100000 z_1_1 + 100000 z_1_10 + 100000 z_1_5 + 100000 z_1_8 + 100000 z_1_9 <= 500919.94935296103
 c4026: 120 p_1_10 + 120 p_1_2 + 120 p_1_5 + 120 p_1_8 + 120 p_1_9 + 100000 z_1_10 + 100000 z_1_2 + 100000 z_1_5 + 100000 z_1_8 + 100000 z_1_9 <= 501002.40946651314
 c4027: 120 p_1_1 + 120 p_1_10 + 120 p_1_2 + 120 p_1_5 + 120 p_1_8 + 120 p_1_9 + 100000 z_1_1 + 100000 z_1_10 + 100000 z_1_2 + 100000 z_1_5 + 100000 z_1_8 + 100000 z_1_9 <= 600849.88759923063
 c4028: 120 p_1_10 + 120 p_1_3 + 120 p_1_5 + 120 p_1_8 + 120 p_1_9 + 100000 z_1_10 + 100000 z_1_3 + 100000 z_1_5 + 100000 z_1_8 + 100000 z_1_9 <= 500909.67522236984
 c4029: 120 p_1_1 + 120 p_1_10 + 120 p_1_3 + 120 p_1_5 + 120 p_1_8 + 120 p_1_9 + 100000 z_1_1 + 100000 z_1_10 + 100000 z_1_3 + 100000 z_1_5 + 100000 z_1_8 + 100000 z_1_9 <= 600757.15335508739
 c4030: 120 p_1_10 + 120 p_1_2 + 120 p_1_3 + 120 p_1_5 + 120 p_1_8 + 120 p_1_9 + 100000 z_1_10 + 100000 z_1_2 + 100000 z_1_3 + 100000 z_1_5 + 100000 z_1_8 + 100000 z_1_9 <= 600839.61346863944
 c4031: 120 p_1_1 + 120 p_1_10 + 120 p_1_2 + 120 p_1_3 + 120 p_1_5 + 120 p_1_8 + 120 p_1_9 + 100000 z_1_1 + 100000 z_1_10 + 100000 z_1_2 + 100000 z_1_3 + 100000 z_1_5 + 100000 z_1_8 + 100000 z_1_9 <= 700687.09160135698
 c4032: 120 p_1_10 + 120 p_1_4 + 120 p_1_5 + 120 p_1_8 + 120 p_1_9 + 100000 z_1_10 + 100000 z_1_4 + 100000 z_1_5 + 100000 z_1_8 + 100000 z_1_9 <= 501058.09595272288
 c4033: 120 p_1_1 + 120 p_1_10 + 120 p_1_4 + 120 p_1_5 + 120 p_1_8 + 120 p_1_9 + 100000 z_1_1 + 100000 z_1_10 + 100000 z_1_4 + 100000 z_1_5 + 100000 z_1_8 + 100000 z_1_9 <= 600917.02249024785
 c4034: 120 p_1_10 + 120 p_1_2 + 120 p_1_4 + 120 p_1_5 + 120 p_1_8 + 120 p_1_9 + 100000 z_1_10 + 100000 z_1_2 + 100000 z_1_4 + 100000 z_1_5 + 100000 z_1_8 + 100000 z_1_9 <= 600988.03419899242
 c4035: 120 p_1_1 + 120 p_1_10 + 120 p_1_2 + 120 p_1_4 + 120 p_1_5 + 120 p_1_8 + 120 p_1_9 + 100000 z_1_1 + 100000 z_1_10 + 100000 z_1_2 + 100000 z_1_4 + 100000 z_1_5 + 100000 z_1_8 + 100000 z_1_9 <= 700846.96073651745
 c4036: 120 p_1_10 + 120 p_1_3 + 120 p_1_4 + 120 p_1_5 + 120 p_1_8 + 120 p_1_9 + 100000 z_1_10 + 100000 z_1_3 + 100000 z_1_4 + 100000 z_1_5 + 100000 z_1_8 + 100000 z_1_9 <= 600895.29995484918
 c4037: 120 p_1_1 + 120 p_1_10 + 120 p_1_3 + 120 p_1_4 + 120 p_1_5 + 120 p_1_8 + 120 p_1_9 + 100000 z_1_1 + 100000 z_1_10 + 100000 z_1_3 + 100000 z_1_4 + 100000 z_1_5 + 100000 z_1_8 + 100000 z_1_9 <= 700754.2264923742
 c4038: 120 p_1_10 + 120 p_1_2 + 120 p_1_3 + 120 p_1_4 + 120 p_1_5 + 120 p_1_8 + 120 p_1_9 + 100000 z_1_10 + 100000 z_1_2 + 100000 z_1_3 + 100000 z_1_4 + 100000 z_1_5 + 100000 z_1_8 + 100000 z_1_9 <= 700825.23820111877
 c4039: 120 p_1_1 + 120 p_1_10 + 120 p_1_2 + 120 p_1_3 + 120 p_1_4 + 120 p_1_5 + 120 p_1_8 + 120 p_1_9 + 100000 z_1_1 + 100000 z_1_10 + 100000 z_1_2 + 100000 z_1_3 + 100000 z_1_4 + 100000 z_1_5 + 100000 z_1_8 + 100000 z_1_9 <= 800684.1647386438
 c4040: 120 p_1_10 + 120 p_1_6 + 120 p_1_8 + 120 p_1_9 + 100000 z_1_10 + 100000 z_1_6 + 100000 z_1_8 + 100000 z_1_9 <= 401049.19442787673
 c4041: 120 p_1_1 + 120 p_1_10 + 120 p_1_6 + 120 p_1_8 + 120 p_1_9 + 100000 z_1_1 + 100000 z_1_10 + 100000 z_1_6 + 100000 z_1_8 + 100000 z_1_9 <= 500896.67256059422
 c4042: 120 p_1_10 + 120 p_1_2 + 120 p_1_6 + 120 p_1_8 + 120 p_1_9 + 100000 z_1_10 + 100000 z_1_2 + 100000 z_1_6 + 100000 z_1_8 + 100000 z_1_9 <= 500976.23860364105
 c4043: 120 p_1_1 + 120 p_1_10 + 120 p_1_2 + 120 p_1_6 + 120 p_1_8 + 120 p_1_9 + 100000 z_1_1 + 100000 z_1_10 + 100000 z_1_2 + 100000 z_1_6 + 100000 z_1_8 + 100000 z_1_9 <= 600823.02764552005
 c4044: 120 p_1_10 + 120 p_1_3 + 120 p_1_6 + 120 p_1_8 + 120 p_1_9 + 100000 z_1_10 + 100000 z_1_3 + 100000 z_1_6 + 100000 z_1_8 + 100000 z_1_9 <= 500905.0316072494
 c4045: 120 p_1_1 + 120 p_1_10 + 120 p_1_3 + 120 p_1_6 + 120 p_1_8 + 120 p_1_9 + 100000 z_1_1 + 100000 z_1_10 + 100000 z_1_3 + 100000 z_1_6 + 100000 z_1_8 + 100000 z_1_9 <= 600752.50973996683
 c4046: 120 p_1_10 + 120 p_1_2 + 120 p_1_3 + 120 p_1_6 + 120 p_1_8 + 120 p_1_9 + 100000 z_1_10 + 100000 z_1_2 + 100000 z_1_3 + 100000 z_1_6 + 100000 z_1_8 + 100000 z_1_9 <= 600832.07578301372
 c4047: 120 p_1_1 + 120 p_1_10 + 120 p_1_2 + 120 p_1_3 + 120 p_1_6 + 120 p_1_8 + 120 p_1_9 + 100000 z_1_1 + 100000 z_1_10 + 100000 z_1_2 + 100000 z_1_3 + 100000 z_1_6 + 100000 z_1_8 + 100000 z_1_9 <= 700678.8648248926
 c4048: 120 p_1_10 + 120 p_1_4 + 120 p_1_6 + 120 p_1_8 + 120 p_1_9 + 100000 z_1_10 + 100000 z_1_4 + 100000 z_1_6 + 100000 z_1_8 + 100000 z_1_9 <= 501034.81916035607
 c4049: 120 p_1_1 + 120 p_1_10 + 120 p_1_4 + 120 p_1_6 + 120 p_1_8 + 120 p_1_9 + 100000 z_1_1 + 100000 z_1_10 + 100000 z_1_4 + 100000 z_1_6 + 100000 z_1_8 + 100000 z_1_9 <= 600893.74569788098
 c4050: 120 p_1_10 + 120 p_1_2 + 120 p_1_4 + 120 p_1_6 + 120 p_1_8 + 120 p_1_9 + 100000 z_1_10 + 100000 z_1_2 + 100000 z_1_4 + 100000 z_1_6 + 100000 z_1_8 + 100000 z_1_9 <= 600961.17424528184
 c4051: 120 p_1_1 + 120 p_1_10 + 120 p_1_2 + 120 p_1_4 + 120 p_1_6 + 120 p_1_8 + 120 p_1_9 + 100000 z_1_1 + 100000 z_1_10 + 100000 z_1_2 + 100000 z_1_4 + 100000 z_1_6 + 100000 z_1_8 + 100000 z_1_9 <= 700820.10078280675
 c4052: 120 p_1_10 + 120 p_1_3 + 120 p_1_4 + 120 p_1_6 + 120 p_1_8 + 120 p_1_9 + 100000 z_1_10 + 100000 z_1_3 + 100000 z_1_4 + 100000 z_1_6 + 100000 z_1_8 + 100000 z_1_9 <= 600890.65633972874
 c4053: 120 p_1_1 + 120 p_1_10 + 120 p_1_3 + 120 p_1_4 + 120 p_1_6 + 120 p_1_8 + 120 p_1_9 + 100000 z_1_1 + 100000 z_1_10 + 100000 z_1_3 + 100000 z_1_4 + 100000 z_1_6 + 100000 z_1_8 + 100000 z_1_9 <= 700749.58287725365
 c4054: 120 p_1_10 + 120 p_1_2 + 120 p_1_3 + 120 p_1_4 + 120 p_1_6 + 120 p_1_8 + 120 p_1_9 + 100000 z_1_10 + 100000 z_1_2 + 100000 z_1_3 + 100000 z_1_4 + 100000 z_1_6 + 100000 z_1_8 + 100000 z_1_9 <= 700817.01142465451
 c4055: 120 p_1_1 + 120 p_1_10 + 120 p_1_2 + 120 p_1_3 + 120 p_1_4 + 120 p_1_6 + 120 p_1_8 + 120 p_1_9 + 100000 z_1_1 + 100000 z_1_10 + 100000 z_1_2 + 100000 z_1_3 + 100000 z_1_4 + 100000 z_1_6 + 100000 z_1_8 + 100000 z_1_9 <= 800675.93796217942
 c4056: 120 p_1_10 + 120 p_1_5 + 120 p_1_6 + 120 p_1_8 + 120 p_1_9 + 100000 z_1_10 + 100000 z_1_5 + 100000 z_1_6 + 100000 z_1_8 + 100000 z_1_9 <= 501042.56545008067
 c4057: 120 p_1_1 + 120 p_1_10 + 120 p_1_5 + 120 p_1_6 + 120 p_1_8 + 120 p_1_9 + 100000 z_1_1 + 100000 z_1_10 + 100000 z_1_5 + 100000 z_1_6 + 100000 z_1_8 + 100000 z_1_9 <= 600890.04358279821
 c4058: 120 p_1_10 + 120 p_1_2 + 120 p_1_5 + 120 p_1_6 + 120 p_1_8 + 120 p_1_9 + 100000 z_1_10 + 100000 z_1_2 + 100000 z_1_5 + 100000 z_1_6 + 100000 z_1_8 + 100000 z_1_9 <= 600972.50369635026
 c4059: 120 p_1_1 + 120 p_1_10 + 120 p_1_2 + 120 p_1_5 + 120 p_1_6 + 120 p_1_8 + 120 p_1_9 + 100000 z_1_1 + 100000 z_1_10 + 100000 z_1_2 + 100000 z_1_5 + 100000 z_1_6 + 100000 z_1_8 + 100000 z_1_9 <= 700819.98182906781
 c4060: 120 p_1_10 + 120 p_1_3 + 120 p_1_5 + 120 p_1_6 + 120 p_1_8 + 120 p_1_9 + 100000 z_1_10 + 100000 z_1_3 + 100000 z_1_5 + 100000 z_1_6 + 100000 z_1_8 + 100000 z_1_9 <= 600898.40262945334
 c4061: 120 p_1_1 + 120 p_1_10 + 120 p_1_3 + 120 p_1_5 + 120 p_1_6 + 120 p_1_8 + 120 p_1_9 + 100000 z_1_1 + 100000 z_1_10 + 100000 z_1_3 + 100000 z_1_5 + 100000 z_1_6 + 100000 z_1_8 + 100000 z_1_9 <= 700745.88076217088
 c4062: 120 p_1_10 + 120 p_1_2 + 120 p_1_3 + 120 p_1_5 + 120 p_1_6 + 120 p_1_8 + 120 p_1_9 + 100000 z_1_10 + 100000 z_1_2 + 100000 z_1_3 + 100000 z_1_5 + 100000 z_1_6 + 100000 z_1_8 + 100000 z_1_9 <= 700828.34087572293
 c4063: 120 p_1_1 + 120 p_1_10 + 120 p_1_2 + 120 p_1_3 + 120 p_1_5 + 120 p_1_6 + 120 p_1_8 + 120 p_1_9 + 100000 z_1_1 + 100000 z_1_10 + 100000 z_1_2 + 100000 z_1_3 + 100000 z_1_5 + 100000 z_1_6 + 100000 z_1_8 + 100000 z_1_9 <= 800675.81900844036
 c4064: 120 p_1_10 + 120 p_1_4 + 120 p_1_5 + 120 p_1_6 + 120 p_1_8 + 120 p_1_9 + 100000 z_1_10 + 100000 z_1_4 + 100000 z_1_5 + 100000 z_1_6 + 100000 z_1_8 + 100000 z_1_9 <= 601028.19018256001
 c4065: 120 p_1_1 + 120 p_1_10 + 120 p_1_4 + 120 p_1_5 + 120 p_1_6 + 120 p_1_8 + 120 p_1_9 + 100000 z_1_1 + 100000 z_1_10 + 100000 z_1_4 + 100000 z_1_5 + 100000 z_1_6 + 100000 z_1_8 + 100000 z_1_9 <= 700887.11672008503
 c4066: 120 p_1_10 + 120 p_1_2 + 120 p_1_4 + 120 p_1_5 + 120 p_1_6 + 120 p_1_8 + 120 p_1_9 + 100000 z_1_10 + 100000 z_1_2 + 100000 z_1_4 + 100000 z_1_5 + 100000 z_1_6 + 100000 z_1_8 + 100000 z_1_9 <= 700958.1284288296
 c4067: 120 p_1_1 + 120 p_1_10 + 120 p_1_2 + 120 p_1_4 + 120 p_1_5 + 120 p_1_6 + 120 p_1_8 + 120 p_1_9 + 100000 z_1_1 + 100000 z_1_10 + 100000 z_1_2 + 100000 z_1_4 + 100000 z_1_5 + 100000 z_1_6 + 100000 z_1_8 + 100000 z_1_9 <= 800817.05496635451
 c4068: 120 p_1_10 + 120 p_1_3 + 120 p_1_4 + 120 p_1_5 + 120 p_1_6 + 120 p_1_8 + 120 p_1_9 + 100000 z_1_10 + 100000 z_1_3 + 100000 z_1_4 + 100000 z_1_5 + 100000 z_1_6 + 100000 z_1_8 + 100000 z_1_9 <= 700884.02736193268
 c4069: 120 p_1_1 + 120 p_1_10 + 120 p_1_3 + 120 p_1_4 + 120 p_1_5 + 120 p_1_6 + 120 p_1_8 + 120 p_1_9 + 100000 z_1_1 + 100000 z_1_10 + 100000 z_1_3 + 100000 z_1_4 + 100000 z_1_5 + 100000 z_1_6 + 100000 z_1_8 + 100000 z_1_9 <= 800742.95389945759
 c4070: 120 p_1_10 + 120 p_1_2 + 120 p_1_3 + 120 p_1_4 + 120 p_1_5 + 120 p_1_6 + 120 p_1_8 + 120 p_1_9 + 100000 z_1_10 + 100000 z_1_2 + 100000 z_1_3 + 100000 z_1_4 + 100000 z_1_5 + 100000 z_1_6 + 100000 z_1_8 + 100000 z_1_9 <= 800813.96560820227
 c4071: 120 p_1_1 + 120 p_1_10 + 120 p_1_2 + 120 p_1_3 + 120 p_1_4 + 120 p_1_5 + 120 p_1_6 + 120 p_1_8 + 120 p_1_9 + 100000 z_1_1 + 100000 z_1_10 + 100000 z_1_2 + 100000 z_1_3 + 100000 z_1_4 + 100000 z_1_5 + 100000 z_1_6 + 100000 z_1_8 + 100000 z_1_9 <= 900672.89214572718
 c4072: 120 p_1_10 + 120 p_1_7 + 120 p_1_8 + 120 p_1_9 + 100000 z_1_10 + 100000 z_1_7 + 100000 z_1_8 + 100000 z_1_9 <= 400920.72142947855
 c4073: 120 p_1_1 + 120 p_1_10 + 120 p_1_7 + 120 p_1_8 + 120 p_1_9 + 100000 z_1_1 + 100000 z_1_10 + 100000 z_1_7 + 100000 z_1_8 + 100000 z_1_9 <= 500915.36499762366
 c4074: 120 p_1_10 + 120 p_1_2 + 120 p_1_7 + 120 p_1_8 + 120 p_1_9 + 100000 z_1_10 + 100000 z_1_2 + 100000 z_1_7 + 100000 z_1_8 + 100000 z_1_9 <= 500847.07651440433
 c4075: 120 p_1_1 + 120 p_1_10 + 120 p_1_2 + 120 p_1_7 + 120 p_1_8 + 120 p_1_9 + 100000 z_1_1 + 100000 z_1_10 + 100000 z_1_2 + 100000 z_1_7 + 100000 z_1_8 + 100000 z_1_9 <= 600841.72008254949
 c4076: 120 p_1_10 + 120 p_1_3 + 120 p_1_7 + 120 p_1_8 + 120 p_1_9 + 100000 z_1_10 + 100000 z_1_3 + 100000 z_1_7 + 100000 z_1_8 + 100000 z_1_9 <= 500757.9254316049
 c4077: 120 p_1_1 + 120 p_1_10 + 120 p_1_3 + 120 p_1_7 + 120 p_1_8 + 120 p_1_9 + 100000 z_1_1 + 100000 z_1_10 + 100000 z_1_3 + 100000 z_1_7 + 100000 z_1_8 + 100000 z_1_9 <= 600752.56899974996
 c4078: 120 p_1_10 + 120 p_1_2 + 120 p_1_3 + 120 p_1_7 + 120 p_1_8 + 120 p_1_9 + 100000 z_1_10 + 100000 z_1_2 + 100000 z_1_3 + 100000 z_1_7 + 100000 z_1_8 + 100000 z_1_9 <= 600684.28051653062
 c4079: 120 p_1_1 + 120 p_1_10 + 120 p_1_2 + 120 p_1_3 + 120 p_1_7 + 120 p_1_8 + 120 p_1_9 + 100000 z_1_1 + 100000 z_1_10 + 100000 z_1_2 + 100000 z_1_3 + 100000 z_1_7 + 100000 z_1_8 + 100000 z_1_9 <= 700678.92408467573
 c4080: 120 p_1_10 + 120 p_1_4 + 120 p_1_7 + 120 p_1_8 + 120 p_1_9 + 100000 z_1_10 + 100000 z_1_4 + 100000 z_1_7 + 100000 z_1_8 + 100000 z_1_9 <= 500919.52288638568
 c4081: 120 p_1_1 + 120 p_1_10 + 120 p_1_4 + 120 p_1_7 + 120 p_1_8 + 120 p_1_9 + 100000 z_1_1 + 100000 z_1_10 + 100000 z_1_4 + 100000 z_1_7 + 100000 z_1_8 + 100000 z_1_9 <= 600912.43813491054
 c4082: 120 p_1_10 + 120 p_1_2 + 120 p_1_4 + 120 p_1_7 + 120 p_1_8 + 120 p_1_9 + 100000 z_1_10 + 100000 z_1_2 + 100000 z_1_4 + 100000 z_1_7 + 100000 z_1_8 + 100000 z_1_9 <= 600845.87797131145
 c4083: 120 p_1_1 + 120 p_1_10 + 120 p_1_2 + 120 p_1_4 + 120 p_1_7 + 120 p_1_8 + 120 p_1_9 + 100000 z_1_1 + 100000 z_1_10 + 100000 z_1_2 + 100000 z_1_4 + 100000 z_1_7 + 100000 z_1_8 + 100000 z_1_9 <= 700838.79321983631
 c4084: 120 p_1_10 + 120 p_1_3 + 120 p_1_4 + 120 p_1_7 + 120 p_1_8 + 120 p_1_9 + 100000 z_1_10 + 100000 z_1_3 + 100000 z_1_4 + 100000 z_1_7 + 100000 z_1_8 + 100000 z_1_9 <= 600756.72688851203
 c4085: 120 p_1_1 + 120 p_1_10 + 120 p_1_3 + 120 p_1_4 + 120 p_1_7 + 120 p_1_8 + 120 p_1_9 + 100000 z_1_1 + 100000 z_1_10 + 100000 z_1_3 + 100000 z_1_4 + 100000 z_1_7 + 100000 z_1_8 + 100000 z_1_9 <= 700749.64213703678
 c4086: 120 p_1_10 + 120 p_1_2 + 120 p_1_3 + 120 p_1_4 + 120 p_1_7 + 120 p_1_8 + 120 p_1_9 + 100000 z_1_10 + 100000 z_1_2 + 100000 z_1_3 + 100000 z_1_4 + 100000 z_1_7 + 100000 z_1_8 + 100000 z_1_9 <= 700683.0819734378
 c4087: 120 p_1_1 + 120 p_1_10 + 120 p_1_2 + 120 p_1_3 + 120 p_1_4 + 120 p_1_7 + 120 p_1_8 + 120 p_1_9 + 100000 z_1_1 + 100000 z_1_10 + 100000 z_1_2 + 100000 z_1_3 + 100000 z_1_4 + 100000 z_1_7 + 100000 z_1_8 + 100000 z_1_9 <= 800675.99722196255
 c4088: 120 p_1_10 + 120 p_1_5 + 120 p_1_7 + 120 p_1_8 + 120 p_1_9 + 100000 z_1_10 + 100000 z_1_5 + 100000 z_1_7 + 100000 z_1_8 + 100000 z_1_9 <= 500914.09245168249
 c4089: 120 p_1_1 + 120 p_1_10 + 120 p_1_5 + 120 p_1_7 + 120 p_1_8 + 120 p_1_9 + 100000 z_1_1 + 100000 z_1_10 + 100000 z_1_5 + 100000 z_1_7 + 100000 z_1_8 + 100000 z_1_9 <= 600908.73601982766
 c4090: 120 p_1_10 + 120 p_1_2 + 120 p_1_5 + 120 p_1_7 + 120 p_1_8 + 120 p_1_9 + 100000 z_1_10 + 100000 z_1_2 + 100000 z_1_5 + 100000 z_1_7 + 100000 z_1_8 + 100000 z_1_9 <= 600844.03069795214
 c4091: 120 p_1_1 + 120 p_1_10 + 120 p_1_2 + 120 p_1_5 + 120 p_1_7 + 120 p_1_8 + 120 p_1_9 + 100000 z_1_1 + 100000 z_1_10 + 100000 z_1_2 + 100000 z_1_5 + 100000 z_1_7 + 100000 z_1_8 + 100000 z_1_9 <= 700838.67426609725
 c4092: 120 p_1_10 + 120 p_1_3 + 120 p_1_5 + 120 p_1_7 + 120 p_1_8 + 120 p_1_9 + 100000 z_1_10 + 100000 z_1_3 + 100000 z_1_5 + 100000 z_1_7 + 100000 z_1_8 + 100000 z_1_9 <= 600751.29645380878
 c4093: 120 p_1_1 + 120 p_1_10 + 120 p_1_3 + 120 p_1_5 + 120 p_1_7 + 120 p_1_8 + 120 p_1_9 + 100000 z_1_1 + 100000 z_1_10 + 100000 z_1_3 + 100000 z_1_5 + 100000 z_1_7 + 100000 z_1_8 + 100000 z_1_9 <= 700745.94002195401
 c4094: 120 p_1_10 + 120 p_1_2 + 120 p_1_3 + 120 p_1_5 + 120 p_1_7 + 120 p_1_8 + 120 p_1_9 + 100000 z_1_10 + 100000 z_1_2 + 100000 z_1_3 + 100000 z_1_5 + 100000 z_1_7 + 100000 z_1_8 + 100000 z_1_9 <= 700681.23470007838
 c4095: 120 p_1_1 + 120 p_1_10 + 120 p_1_2 + 120 p_1_3 + 120 p_1_5 + 120 p_1_7 + 120 p_1_8 + 120 p_1_9 + 100000 z_1_1 + 100000 z_1_10 + 100000 z_1_2 + 100000 z_1_3 + 100000 z_1_5 + 100000 z_1_7 + 100000 z_1_8 + 100000 z_1_9 <= 800675.87826822349
 c4096: 120 p_1_10 + 120 p_1_4 + 120 p_1_5 + 120 p_1_7 + 120 p_1_8 + 120 p_1_9 + 100000 z_1_10 + 100000 z_1_4 + 100000 z_1_5 + 100000 z_1_7 + 100000 z_1_8 + 100000 z_1_9 <= 600912.89390858961
 c4097: 120 p_1_1 + 120 p_1_10 + 120 p_1_4 + 120 p_1_5 + 120 p_1_7 + 120 p_1_8 + 120 p_1_9 + 100000 z_1_1 + 100000 z_1_10 + 100000 z_1_4 + 100000 z_1_5 + 100000 z_1_7 + 100000 z_1_8 + 100000 z_1_9 <= 700905.80915711448
 c4098: 120 p_1_10 + 120 p_1_2 + 120 p_1_4 + 120 p_1_5 + 120 p_1_7 + 120 p_1_8 + 120 p_1_9 + 100000 z_1_10 + 100000 z_1_2 + 100000 z_1_4 + 100000 z_1_5 + 100000 z_1_7 + 100000 z_1_8 + 100000 z_1_9 <= 700842.83215485921
 c4099: 120 p_1_1 + 120 p_1_10 + 120 p_1_2 + 120 p_1_4 + 120 p_1_5 + 120 p_1_7 + 120 p_1_8 + 120 p_1_9 + 100000 z_1_1 + 100000 z_1_10 + 100000 z_1_2 + 100000 z_1_4 + 100000 z_1_5 + 100000 z_1_7 + 100000 z_1_8 + 100000 z_1_9 <= 800835.74740338407
 c4100: 120 p_1_10 + 120 p_1_3 + 120 p_1_4 + 120 p_1_5 + 120 p_1_7 + 120 p_1_8 + 120 p_1_9 + 100000 z_1_10 + 100000 z_1_3 + 100000 z_1_4 + 100000 z_1_5 + 100000 z_1_7 + 100000 z_1_8 + 100000 z_1_9 <= 700750.09791071597
 c4101: 120 p_1_1 + 120 p_1_10 + 120 p_1_3 + 120 p_1_4 + 120 p_1_5 + 120 p_1_7 + 120 p_1_8 + 120 p_1_9 + 100000 z_1_1 + 100000 z_1_10 + 100000 z_1_3 + 100000 z_1_4 + 100000 z_1_5 + 100000 z_1_7 + 100000 z_1_8 + 100000 z_1_9 <= 800743.01315924071
 c4102: 120 p_1_10 + 120 p_1_2 + 120 p_1_3 + 120 p_1_4 + 120 p_1_5 + 120 p_1_7 + 120 p_1_8 + 120 p_1_9 + 100000 z_1_10 + 100000 z_1_2 + 100000 z_1_3 + 100000 z_1_4 + 100000 z_1_5 + 100000 z_1_7 + 100000 z_1_8 + 100000 z_1_9 <= 800680.03615698556
 c4103: 120 p_1_1 + 120 p_1_10 + 120 p_1_2 + 120 p_1_3 + 120 p_1_4 + 120 p_1_5 + 120 p_1_7 + 120 p_1_8 + 120 p_1_9 + 100000 z_1_1 + 100000 z_1_10 + 100000 z_1_2 + 100000 z_1_3 + 100000 z_1_4 + 100000 z_1_5 + 100000 z_1_7 + 100000 z_1_8 + 100000 z_1_9 <= 900672.95140551031
 c4104: 120 p_1_10 + 120 p_1_6 + 120 p_1_7 + 120 p_1_8 + 120 p_1_9 + 100000 z_1_10 + 100000 z_1_6 + 100000 z_1_7 + 100000 z_1_8 + 100000 z_1_9 <= 500890.81565931567
 c4105: 120 p_1_1 + 120 p_1_10 + 120 p_1_6 + 120 p_1_7 + 120 p_1_8 + 120 p_1_9 + 100000 z_1_1 + 100000 z_1_10 + 100000 z_1_6 + 100000 z_1_7 + 100000 z_1_8 + 100000 z_1_9 <= 600885.45922746079
 c4106: 120 p_1_10 + 120 p_1_2 + 120 p_1_6 + 120 p_1_7 + 120 p_1_8 + 120 p_1_9 + 100000 z_1_10 + 100000 z_1_2 + 100000 z_1_6 + 100000 z_1_7 + 100000 z_1_8 + 100000 z_1_9 <= 600817.17074424145
 c4107: 120 p_1_1 + 120 p_1_10 + 120 p_1_2 + 120 p_1_6 + 120 p_1_7 + 120 p_1_8 + 120 p_1_9 + 100000 z_1_1 + 100000 z_1_10 + 100000 z_1_2 + 100000 z_1_6 + 100000 z_1_7 + 100000 z_1_8 + 100000 z_1_9 <= 700811.81431238656
 c4108: 120 p_1_10 + 120 p_1_3 + 120 p_1_6 + 120 p_1_7 + 120 p_1_8 + 120 p_1_9 + 100000 z_1_10 + 100000 z_1_3 + 100000 z_1_6 + 100000 z_1_7 + 100000 z_1_8 + 100000 z_1_9 <= 600746.65283868834
 c4109: 120 p_1_1 + 120 p_1_10 + 120 p_1_3 + 120 p_1_6 + 120 p_1_7 + 120 p_1_8 + 120 p_1_9 + 100000 z_1_1 + 100000 z_1_10 + 100000 z_1_3 + 100000 z_1_6 + 100000 z_1_7 + 100000 z_1_8 + 100000 z_1_9 <= 700741.29640683345
 c4110: 120 p_1_10 + 120 p_1_2 + 120 p_1_3 + 120 p_1_6 + 120 p_1_7 + 120 p_1_8 + 120 p_1_9 + 100000 z_1_10 + 100000 z_1_2 + 100000 z_1_3 + 100000 z_1_6 + 100000 z_1_7 + 100000 z_1_8 + 100000 z_1_9 <= 700673.00792361412
 c4111: 120 p_1_1 + 120 p_1_10 + 120 p_1_2 + 120 p_1_3 + 120 p_1_6 + 120 p_1_7 + 120 p_1_8 + 120 p_1_9 + 100000 z_1_1 + 100000 z_1_10 + 100000 z_1_2 + 100000 z_1_3 + 100000 z_1_6 + 100000 z_1_7 + 100000 z_1_8 + 100000 z_1_9 <= 800667.65149175923
 c4112: 120 p_1_10 + 120 p_1_4 + 120 p_1_6 + 120 p_1_7 + 120 p_1_8 + 120 p_1_9 + 100000 z_1_10 + 100000 z_1_4 + 100000 z_1_6 + 100000 z_1_7 + 100000 z_1_8 + 100000 z_1_9 <= 600889.61711622286
 c4113: 120 p_1_1 + 120 p_1_10 + 120 p_1_4 + 120 p_1_6 + 120 p_1_7 + 120 p_1_8 + 120 p_1_9 + 100000 z_1_1 + 100000 z_1_10 + 100000 z_1_4 + 100000 z_1_6 + 100000 z_1_7 + 100000 z_1_8 + 100000 z_1_9 <= 700882.5323647476
 c4114: 120 p_1_10 + 120 p_1_2 + 120 p_1_4 + 120 p_1_6 + 120 p_1_7 + 120 p_1_8 + 120 p_1_9 + 100000 z_1_10 + 100000 z_1_2 + 100000 z_1_4 + 100000 z_1_6 + 100000 z_1_7 + 100000 z_1_8 + 100000 z_1_9 <= 700815.97220114863
 c4115: 120 p_1_1 + 120 p_1_10 + 120 p_1_2 + 120 p_1_4 + 120 p_1_6 + 120 p_1_7 + 120 p_1_8 + 120 p_1_9 + 100000 z_1_1 + 100000 z_1_10 + 100000 z_1_2 + 100000 z_1_4 + 100000 z_1_6 + 100000 z_1_7 + 100000 z_1_8 + 100000 z_1_9 <= 800808.88744967338
 c4116: 120 p_1_10 + 120 p_1_3 + 120 p_1_4 + 120 p_1_6 + 120 p_1_7 + 120 p_1_8 + 120 p_1_9 + 100000 z_1_10 + 100000 z_1_3 + 100000 z_1_4 + 100000 z_1_6 + 100000 z_1_7 + 100000 z_1_8 + 100000 z_1_9 <= 700745.45429559553
 c4117: 120 p_1_1 + 120 p_1_10 + 120 p_1_3 + 120 p_1_4 + 120 p_1_6 + 120 p_1_7 + 120 p_1_8 + 120 p_1_9 + 100000 z_1_1 + 100000 z_1_10 + 100000 z_1_3 + 100000 z_1_4 + 100000 z_1_6 + 100000 z_1_7 + 100000 z_1_8 + 100000 z_1_9 <= 800738.36954412027
 c4118: 120 p_1_10 + 120 p_1_2 + 120 p_1_3 + 120 p_1_4 + 120 p_1_6 + 120 p_1_7 + 120 p_1_8 + 120 p_1_9 + 100000 z_1_10 + 100000 z_1_2 + 100000 z_1_3 + 100000 z_1_4 + 100000 z_1_6 + 100000 z_1_7 + 100000 z_1_8 + 100000 z_1_9 <= 800671.8093805213
 c4119: 120 p_1_1 + 120 p_1_10 + 120 p_1_2 + 120 p_1_3 + 120 p_1_4 + 120 p_1_6 + 120 p_1_7 + 120 p_1_8 + 120 p_1_9 + 100000 z_1_1 + 100000 z_1_10 + 100000 z_1_2 + 100000 z_1_3 + 100000 z_1_4 + 100000 z_1_6 + 100000 z_1_7 + 100000 z_1_8 + 100000 z_1_9 <= 900664.72462904605
 c4120: 120 p_1_10 + 120 p_1_5 + 120 p_1_6 + 120 p_1_7 + 120 p_1_8 + 120 p_1_9 + 100000 z_1_10 + 100000 z_1_5 + 100000 z_1_6 + 100000 z_1_7 + 100000 z_1_8 + 100000 z_1_9 <= 600884.18668151961
 c4121: 120 p_1_1 + 120 p_1_10 + 120 p_1_5 + 120 p_1_6 + 120 p_1_7 + 120 p_1_8 + 120 p_1_9 + 100000 z_1_1 + 100000 z_1_10 + 100000 z_1_5 + 100000 z_1_6 + 100000 z_1_7 + 100000 z_1_8 + 100000 z_1_9 <= 700878.83024966484
 c4122: 120 p_1_10 + 120 p_1_2 + 120 p_1_5 + 120 p_1_6 + 120 p_1_7 + 120 p_1_8 + 120 p_1_9 + 100000 z_1_10 + 100000 z_1_2 + 100000 z_1_5 + 100000 z_1_6 + 100000 z_1_7 + 100000 z_1_8 + 100000 z_1_9 <= 700814.12492778921
 c4123: 120 p_1_1 + 120 p_1_10 + 120 p_1_2 + 120 p_1_5 + 120 p_1_6 + 120 p_1_7 + 120 p_1_8 + 120 p_1_9 + 100000 z_1_1 + 100000 z_1_10 + 100000 z_1_2 + 100000 z_1_5 + 100000 z_1_6 + 100000 z_1_7 + 100000 z_1_8 + 100000 z_1_9 <= 800808.76849593432
 c4124: 120 p_1_10 + 120 p_1_3 + 120 p_1_5 + 120 p_1_6 + 120 p_1_7 + 120 p_1_8 + 120 p_1_9 + 100000 z_1_10 + 100000 z_1_3 + 100000 z_1_5 + 100000 z_1_6 + 100000 z_1_7 + 100000 z_1_8 + 100000 z_1_9 <= 700740.02386089228
 c4125: 120 p_1_1 + 120 p_1_10 + 120 p_1_3 + 120 p_1_5 + 120 p_1_6 + 120 p_1_7 + 120 p_1_8 + 120 p_1_9 + 100000 z_1_1 + 100000 z_1_10 + 100000 z_1_3 + 100000 z_1_5 + 100000 z_1_6 + 100000 z_1_7 + 100000 z_1_8 + 100000 z_1_9 <= 800734.66742903739
 c4126: 120 p_1_10 + 120 p_1_2 + 120 p_1_3 + 120 p_1_5 + 120 p_1_6 + 120 p_1_7 + 120 p_1_8 + 120 p_1_9 + 100000 z_1_10 + 100000 z_1_2 + 100000 z_1_3 + 100000 z_1_5 + 100000 z_1_6 + 100000 z_1_7 + 100000 z_1_8 + 100000 z_1_9 <= 800669.96210716187
 c4127: 120 p_1_1 + 120 p_1_10 + 120 p_1_2 + 120 p_1_3 + 120 p_1_5 + 120 p_1_6 + 120 p_1_7 + 120 p_1_8 + 120 p_1_9 + 100000 z_1_1 + 100000 z_1_10 + 100000 z_1_2 + 100000 z_1_3 + 100000 z_1_5 + 100000 z_1_6 + 100000 z_1_7 + 100000 z_1_8 + 100000 z_1_9 <= 900664.60567530699
 c4128: 120 p_1_10 + 120 p_1_4 + 120 p_1_5 + 120 p_1_6 + 120 p_1_7 + 120 p_1_8 + 120 p_1_9 + 100000 z_1_10 + 100000 z_1_4 + 100000 z_1_5 + 100000 z_1_6 + 100000 z_1_7 + 100000 z_1_8 + 100000 z_1_9 <= 700882.98813842679
 c4129: 120 p_1_1 + 120 p_1_10 + 120 p_1_4 + 120 p_1_5 + 120 p_1_6 + 120 p_1_7 + 120 p_1_8 + 120 p_1_9 + 100000 z_1_1 + 100000 z_1_10 + 100000 z_1_4 + 100000 z_1_5 + 100000 z_1_6 + 100000 z_1_7 + 100000 z_1_8 + 100000 z_1_9 <= 800875.90338695154
 c4130: 120 p_1_10 + 120 p_1_2 + 120 p_1_4 + 120 p_1_5 + 120 p_1_6 + 120 p_1_7 + 120 p_1_8 + 120 p_1_9 + 100000 z_1_10 + 100000 z_1_2 + 100000 z_1_4 + 100000 z_1_5 + 100000 z_1_6 + 100000 z_1_7 + 100000 z_1_8 + 100000 z_1_9 <= 800812.92638469639
 c4131: 120 p_1_1 + 120 p_1_10 + 120 p_1_2 + 120 p_1_4 + 120 p_1_5 + 120 p_1_6 + 120 p_1_7 + 120 p_1_8 + 120 p_1_9 + 100000 z_1_1 + 100000 z_1_10 + 100000 z_1_2 + 100000 z_1_4 + 100000 z_1_5 + 100000 z_1_6 + 100000 z_1_7 + 100000 z_1_8 + 100000 z_1_9 <= 900805.84163322113
 c4132: 120 p_1_10 + 120 p_1_3 + 120 p_1_4 + 120 p_1_5 + 120 p_1_6 + 120 p_1_7 + 120 p_1_8 + 120 p_1_9 + 100000 z_1_10 + 100000 z_1_3 + 100000 z_1_4 + 100000 z_1_5 + 100000 z_1_6 + 100000 z_1_7 + 100000 z_1_8 + 100000 z_1_9 <= 800738.82531779946
 c4133: 120 p_1_1 + 120 p_1_10 + 120 p_1_3 + 120 p_1_4 + 120 p_1_5 + 120 p_1_6 + 120 p_1_7 + 120 p_1_8 + 120 p_1_9 + 100000 z_1_1 + 100000 z_1_10 + 100000 z_1_3 + 100000 z_1_4 + 100000 z_1_5 + 100000 z_1_6 + 100000 z_1_7 + 100000 z_1_8 + 100000 z_1_9 <= 900731.74056632421
 c4134: 120 p_1_10 + 120 p_1_2 + 120 p_1_3 + 120 p_1_4 + 120 p_1_5 + 120 p_1_6 + 120 p_1_7 + 120 p_1_8 + 120 p_1_9 + 100000 z_1_10 + 100000 z_1_2 + 100000 z_1_3 + 100000 z_1_4 + 100000 z_1_5 + 100000 z_1_6 + 100000 z_1_7 + 100000 z_1_8 + 100000 z_1_9 <= 900668.76356406906
 c4135: 120 p_1_1 + 120 p_1_10 + 120 p_1_2 + 120 p_1_3 + 120 p_1_4 + 120 p_1_5 + 120 p_1_6 + 120 p_1_7 + 120 p_1_8 + 120 p_1_9 + 100000 z_1_1 + 100000 z_1_10 + 100000 z_1_2 + 100000 z_1_3 + 100000 z_1_4 + 100000 z_1_5 + 100000 z_1_6 + 100000 z_1_7 + 100000 z_1_8 + 100000 z_1_9 <= 1000661.6788125938
 c4136: 120 p_2_1 + 100000 z_2_1 <= 101675.06503412842
 c4137: 120 p_2_2 + 100000 z_2_2 <= 101900.29967108271
 c4138: 120 p_2_1 + 120 p_2_2 + 100000 z_2_1 + 100000 z_2_2 <= 201219.86161937672
 c4139: 120 p_2_3 + 100000 z_2_3 <= 101715.98393529319
 c4140: 120 p_2_1 + 120 p_2_3 + 100000 z_2_1 + 100000 z_2_3 <= 201063.25719919679
 c4141: 120 p_2_2 + 120 p_2_3 + 100000 z_2_2 + 100000 z_2_3 <= 201360.28394555656
 c4142: 120 p_2_1 + 120 p_2_2 + 120 p_2_3 + 100000 z_2_1 + 100000 z_2_2 + 100000 z_2_3 <= 300707.55720946018
 c4143: 120 p_2_4 + 100000 z_2_4 <= 101925.12278969793
 c4144: 120 p_2_1 + 120 p_2_4 + 100000 z_2_1 + 100000 z_2_4 <= 201668.17741467193
 c4145: 120 p_2_2 + 120 p_2_4 + 100000 z_2_2 + 100000 z_2_4 <= 201449.96473577357
 c4146: 120 p_2_1 + 120 p_2_2 + 120 p_2_4 + 100000 z_2_1 + 100000 z_2_2 + 100000 z_2_4 <= 301212.97399992024
 c4147: 120 p_2_3 + 120 p_2_4 + 100000 z_2_3 + 100000 z_2_4 <= 201317.44836775208
 c4148: 120 p_2_1 + 120 p_2_3 + 120 p_2_4 + 100000 z_2_1 + 100000 z_2_3 + 100000 z_2_4 <= 301060.50299272605
 c4149: 120 p_2_2 + 120 p_2_3 + 120 p_2_4 + 100000 z_2_2 + 100000 z_2_3 + 100000 z_2_4 <= 300961.74837801541
 c4150: 120 p_2_1 + 120 p_2_2 + 120 p_2_3 + 120 p_2_4 + 100000 z_2_1 + 100000 z_2_2 + 100000 z_2_3 + 100000 z_2_4 <= 400704.80300298939
 c4151: 120 p_2_5 + 100000 z_2_5 <= 102001.05104435893
 c4152: 120 p_2_1 + 120 p_2_5 + 100000 z_2_1 + 100000 z_2_5 <= 201307.36842503768
 c4153: 120 p_2_2 + 120 p_2_5 + 100000 z_2_2 + 100000 z_2_5 <= 201897.25385463049
 c4154: 120 p_2_1 + 120 p_2_2 + 120 p_2_5 + 100000 z_2_1 + 100000 z_2_2 + 100000 z_2_5 <= 301216.81580292451
 c4155: 120 p_2_3 + 120 p_2_5 + 100000 z_2_3 + 100000 z_2_5 <= 201454.98013048025
 c4156: 120 p_2_1 + 120 p_2_3 + 120 p_2_5 + 100000 z_2_1 + 100000 z_2_3 + 100000 z_2_5 <= 300802.25339438388
 c4157: 120 p_2_2 + 120 p_2_3 + 120 p_2_5 + 100000 z_2_2 + 100000 z_2_3 + 100000 z_2_5 <= 301357.23812910431
 c4158: 120 p_2_1 + 120 p_2_2 + 120 p_2_3 + 120 p_2_5 + 100000 z_2_1 + 100000 z_2_2 + 100000 z_2_3 + 100000 z_2_5 <= 400704.51139300788
 c4159: 120 p_2_4 + 120 p_2_5 + 100000 z_2_4 + 100000 z_2_5 <= 201542.93869840659
 c4160: 120 p_2_1 + 120 p_2_4 + 120 p_2_5 + 100000 z_2_1 + 100000 z_2_4 + 100000 z_2_5 <= 301300.4808055812
 c4161: 120 p_2_2 + 120 p_2_4 + 120 p_2_5 + 100000 z_2_2 + 100000 z_2_4 + 100000 z_2_5 <= 301446.91891932132
 c4162: 120 p_2_1 + 120 p_2_2 + 120 p_2_4 + 120 p_2_5 + 100000 z_2_1 + 100000 z_2_2 + 100000 z_2_4 + 100000 z_2_5 <= 401209.928183468
 c4163: 120 p_2_3 + 120 p_2_4 + 120 p_2_5 + 100000 z_2_3 + 100000 z_2_4 + 100000 z_2_5 <= 301056.44456293911
 c4164: 120 p_2_1 + 120 p_2_3 + 120 p_2_4 + 120 p_2_5 + 100000 z_2_1 + 100000 z_2_3 + 100000 z_2_4 + 100000 z_2_5 <= 400799.49918791314
 c4165: 120 p_2_2 + 120 p_2_3 + 120 p_2_4 + 120 p_2_5 + 100000 z_2_2 + 100000 z_2_3 + 100000 z_2_4 + 100000 z_2_5 <= 400958.70256156317
 c4166: 120 p_2_1 + 120 p_2_2 + 120 p_2_3 + 120 p_2_4 + 120 p_2_5 + 100000 z_2_1 + 100000 z_2_2 + 100000 z_2_3 + 100000 z_2_4 + 100000 z_2_5 <= 500701.75718653714
 c4167: 120 p_2_6 + 100000 z_2_6 <= 101902.41826399187
 c4168: 120 p_2_1 + 120 p_2_6 + 100000 z_2_1 + 100000 z_2_6 <= 201230.22787513465
 c4169: 120 p_2_2 + 120 p_2_6 + 100000 z_2_2 + 100000 z_2_6 <= 201537.80935216934
 c4170: 120 p_2_1 + 120 p_2_2 + 120 p_2_6 + 100000 z_2_1 + 100000 z_2_2 + 100000 z_2_6 <= 300865.61896331212
 c4171: 120 p_2_3 + 120 p_2_6 + 100000 z_2_3 + 100000 z_2_6 <= 201714.29552180853
 c4172: 120 p_2_1 + 120 p_2_3 + 120 p_2_6 + 100000 z_2_1 + 100000 z_2_3 + 100000 z_2_6 <= 301061.56878571212
 c4173: 120 p_2_2 + 120 p_2_3 + 120 p_2_6 + 100000 z_2_2 + 100000 z_2_3 + 100000 z_2_6 <= 301358.59553207189
 c4174: 120 p_2_1 + 120 p_2_2 + 120 p_2_3 + 120 p_2_6 + 100000 z_2_1 + 100000 z_2_2 + 100000 z_2_3 + 100000 z_2_6 <= 400696.95987388957
 c4175: 120 p_2_4 + 120 p_2_6 + 100000 z_2_4 + 100000 z_2_6 <= 201486.59712024784
 c4176: 120 p_2_1 + 120 p_2_4 + 120 p_2_6 + 100000 z_2_1 + 100000 z_2_4 + 100000 z_2_6 <= 301229.65174522181
 c4177: 120 p_2_2 + 120 p_2_4 + 120 p_2_6 + 100000 z_2_2 + 100000 z_2_4 + 100000 z_2_6 <= 301121.98820842529
 c4178: 120 p_2_1 + 120 p_2_2 + 120 p_2_4 + 120 p_2_6 + 100000 z_2_1 + 100000 z_2_2 + 100000 z_2_4 + 100000 z_2_6 <= 400865.04283339926
 c4179: 120 p_2_3 + 120 p_2_4 + 120 p_2_6 + 100000 z_2_3 + 100000 z_2_4 + 100000 z_2_6 <= 301315.75995426741
 c4180: 120 p_2_1 + 120 p_2_3 + 120 p_2_4 + 120 p_2_6 + 100000 z_2_1 + 100000 z_2_3 + 100000 z_2_4 + 100000 z_2_6 <= 401058.81457924139
 c4181: 120 p_2_2 + 120 p_2_3 + 120 p_2_4 + 120 p_2_6 + 100000 z_2_2 + 100000 z_2_3 + 100000 z_2_4 + 100000 z_2_6 <= 400951.15104244486
 c4182: 120 p_2_1 + 120 p_2_2 + 120 p_2_3 + 120 p_2_4 + 120 p_2_6 + 100000 z_2_1 + 100000 z_2_2 + 100000 z_2_3 + 100000 z_2_4 + 100000 z_2_6 <= 500694.20566741884
 c4183: 120 p_2_5 + 120 p_2_6 + 100000 z_2_5 + 100000 z_2_6 <= 201635.43063870762
 c4184: 120 p_2_1 + 120 p_2_5 + 120 p_2_6 + 100000 z_2_1 + 100000 z_2_5 + 100000 z_2_6 <= 300963.24024985038
 c4185: 120 p_2_2 + 120 p_2_5 + 120 p_2_6 + 100000 z_2_2 + 100000 z_2_5 + 100000 z_2_6 <= 301534.76353571709
 c4186: 120 p_2_1 + 120 p_2_2 + 120 p_2_5 + 120 p_2_6 + 100000 z_2_1 + 100000 z_2_2 + 100000 z_2_5 + 100000 z_2_6 <= 400862.57314685988
 c4187: 120 p_2_3 + 120 p_2_5 + 120 p_2_6 + 100000 z_2_3 + 100000 z_2_5 + 100000 z_2_6 <= 301453.29171699559
 c4188: 120 p_2_1 + 120 p_2_3 + 120 p_2_5 + 120 p_2_6 + 100000 z_2_1 + 100000 z_2_3 + 100000 z_2_5 + 100000 z_2_6 <= 400794.58116042789
 c4189: 120 p_2_2 + 120 p_2_3 + 120 p_2_5 + 120 p_2_6 + 100000 z_2_2 + 100000 z_2_3 + 100000 z_2_5 + 100000 z_2_6 <= 401355.54971561965
 c4190: 120 p_2_1 + 120 p_2_2 + 120 p_2_3 + 120 p_2_5 + 120 p_2_6 + 100000 z_2_1 + 100000 z_2_2 + 100000 z_2_3 + 100000 z_2_5 + 100000 z_2_6 <= 500693.91405743733
 c4191: 120 p_2_4 + 120 p_2_5 + 120 p_2_6 + 100000 z_2_4 + 100000 z_2_5 + 100000 z_2_6 <= 301219.60949496354
 c4192: 120 p_2_1 + 120 p_2_4 + 120 p_2_5 + 120 p_2_6 + 100000 z_2_1 + 100000 z_2_4 + 100000 z_2_5 + 100000 z_2_6 <= 400962.66411993757
 c4193: 120 p_2_2 + 120 p_2_4 + 120 p_2_5 + 120 p_2_6 + 100000 z_2_2 + 100000 z_2_4 + 100000 z_2_5 + 100000 z_2_6 <= 401118.94239197305
 c4194: 120 p_2_1 + 120 p_2_2 + 120 p_2_4 + 120 p_2_5 + 120 p_2_6 + 100000 z_2_1 + 100000 z_2_2 + 100000 z_2_4 + 100000 z_2_5 + 100000 z_2_6 <= 500861.99701694702
 c4195: 120 p_2_3 + 120 p_2_4 + 120 p_2_5 + 120 p_2_6 + 100000 z_2_3 + 100000 z_2_4 + 100000 z_2_5 + 100000 z_2_6 <= 401048.77232898312
 c4196: 120 p_2_1 + 120 p_2_3 + 120 p_2_4 + 120 p_2_5 + 120 p_2_6 + 100000 z_2_1 + 100000 z_2_3 + 100000 z_2_4 + 100000 z_2_5 + 100000 z_2_6 <= 500791.82695395715
 c4197: 120 p_2_2 + 120 p_2_3 + 120 p_2_4 + 120 p_2_5 + 120 p_2_6 + 100000 z_2_2 + 100000 z_2_3 + 100000 z_2_4 + 100000 z_2_5 + 100000 z_2_6 <= 500948.10522599262
 c4198: 120 p_2_1 + 120 p_2_2 + 120 p_2_3 + 120 p_2_4 + 120 p_2_5 + 120 p_2_6 + 100000 z_2_1 + 100000 z_2_2 + 100000 z_2_3 + 100000 z_2_4 + 100000 z_2_5 + 100000 z_2_6 <= 600691.15985096665
 c4199: 120 p_2_7 + 100000 z_2_7 <= 101668.21445784788
 c4200: 120 p_2_1 + 120 p_2_7 + 100000 z_2_1 + 100000 z_2_7 <= 201657.33161619358
 c4201: 120 p_2_2 + 120 p_2_7 + 100000 z_2_2 + 100000 z_2_7 <= 201217.57721762368
 c4202: 120 p_2_1 + 120 p_2_2 + 120 p_2_7 + 100000 z_2_1 + 100000 z_2_2 + 100000 z_2_7 <= 301206.69437596941
 c4203: 120 p_2_3 + 120 p_2_7 + 100000 z_2_3 + 100000 z_2_7 <= 201050.90097570317
 c4204: 120 p_2_1 + 120 p_2_3 + 120 p_2_7 + 100000 z_2_1 + 100000 z_2_3 + 100000 z_2_7 <= 301045.52378126199
 c4205: 120 p_2_2 + 120 p_2_3 + 120 p_2_7 + 100000 z_2_2 + 100000 z_2_3 + 100000 z_2_7 <= 300695.20098596654
 c4206: 120 p_2_1 + 120 p_2_2 + 120 p_2_3 + 120 p_2_7 + 100000 z_2_1 + 100000 z_2_2 + 100000 z_2_3 + 100000 z_2_7 <= 400689.82379152533
 c4207: 120 p_2_4 + 120 p_2_7 + 100000 z_2_4 + 100000 z_2_7 <= 201657.52874821229
 c4208: 120 p_2_1 + 120 p_2_4 + 120 p_2_7 + 100000 z_2_1 + 100000 z_2_4 + 100000 z_2_7 <= 301650.44399673707
 c4209: 120 p_2_2 + 120 p_2_4 + 120 p_2_7 + 100000 z_2_2 + 100000 z_2_4 + 100000 z_2_7 <= 301206.8915079881
 c4210: 120 p_2_1 + 120 p_2_2 + 120 p_2_4 + 120 p_2_7 + 100000 z_2_1 + 100000 z_2_2 + 100000 z_2_4 + 100000 z_2_7 <= 401199.8067565129
 c4211: 120 p_2_3 + 120 p_2_4 + 120 p_2_7 + 100000 z_2_3 + 100000 z_2_4 + 100000 z_2_7 <= 301049.85432626645
 c4212: 120 p_2_1 + 120 p_2_3 + 120 p_2_4 + 120 p_2_7 + 100000 z_2_1 + 100000 z_2_3 + 100000 z_2_4 + 100000 z_2_7 <= 401042.76957479125
 c4213: 120 p_2_2 + 120 p_2_3 + 120 p_2_4 + 120 p_2_7 + 100000 z_2_2 + 100000 z_2_3 + 100000 z_2_4 + 100000 z_2_7 <= 400694.15433652978
 c4214: 120 p_2_1 + 120 p_2_2 + 120 p_2_3 + 120 p_2_4 + 120 p_2_7 + 100000 z_2_1 + 100000 z_2_2 + 100000 z_2_3 + 100000 z_2_4 + 100000 z_2_7 <= 500687.06958505459
 c4215: 120 p_2_5 + 120 p_2_7 + 100000 z_2_5 + 100000 z_2_7 <= 201304.070837921
 c4216: 120 p_2_1 + 120 p_2_5 + 120 p_2_7 + 100000 z_2_1 + 100000 z_2_5 + 100000 z_2_7 <= 301293.1879962667
 c4217: 120 p_2_2 + 120 p_2_5 + 120 p_2_7 + 100000 z_2_2 + 100000 z_2_5 + 100000 z_2_7 <= 301214.53140117147
 c4218: 120 p_2_1 + 120 p_2_2 + 120 p_2_5 + 120 p_2_7 + 100000 z_2_1 + 100000 z_2_2 + 100000 z_2_5 + 100000 z_2_7 <= 401203.64855951717
 c4219: 120 p_2_3 + 120 p_2_5 + 120 p_2_7 + 100000 z_2_3 + 100000 z_2_5 + 100000 z_2_7 <= 300789.89717089024
 c4220: 120 p_2_1 + 120 p_2_3 + 120 p_2_5 + 120 p_2_7 + 100000 z_2_1 + 100000 z_2_3 + 100000 z_2_5 + 100000 z_2_7 <= 400784.51997644902
 c4221: 120 p_2_2 + 120 p_2_3 + 120 p_2_5 + 120 p_2_7 + 100000 z_2_2 + 100000 z_2_3 + 100000 z_2_5 + 100000 z_2_7 <= 400692.1551695143
 c4222: 120 p_2_1 + 120 p_2_2 + 120 p_2_3 + 120 p_2_5 + 120 p_2_7 + 100000 z_2_1 + 100000 z_2_2 + 100000 z_2_3 + 100000 z_2_5 + 100000 z_2_7 <= 500686.77797507308
 c4223: 120 p_2_4 + 120 p_2_5 + 120 p_2_7 + 100000 z_2_4 + 100000 z_2_5 + 100000 z_2_7 <= 301293.38512828544
 c4224: 120 p_2_1 + 120 p_2_4 + 120 p_2_5 + 120 p_2_7 + 100000 z_2_1 + 100000 z_2_4 + 100000 z_2_5 + 100000 z_2_7 <= 401286.30037681019
 c4225: 120 p_2_2 + 120 p_2_4 + 120 p_2_5 + 120 p_2_7 + 100000 z_2_2 + 100000 z_2_4 + 100000 z_2_5 + 100000 z_2_7 <= 401203.84569153585
 c4226: 120 p_2_1 + 120 p_2_2 + 120 p_2_4 + 120 p_2_5 + 120 p_2_7 + 100000 z_2_1 + 100000 z_2_2 + 100000 z_2_4 + 100000 z_2_5 + 100000 z_2_7 <= 501196.76094006066
 c4227: 120 p_2_3 + 120 p_2_4 + 120 p_2_5 + 120 p_2_7 + 100000 z_2_3 + 100000 z_2_4 + 100000 z_2_5 + 100000 z_2_7 <= 400788.85052145348
 c4228: 120 p_2_1 + 120 p_2_3 + 120 p_2_4 + 120 p_2_5 + 120 p_2_7 + 100000 z_2_1 + 100000 z_2_3 + 100000 z_2_4 + 100000 z_2_5 + 100000 z_2_7 <= 500781.76576997829
 c4229: 120 p_2_2 + 120 p_2_3 + 120 p_2_4 + 120 p_2_5 + 120 p_2_7 + 100000 z_2_2 + 100000 z_2_3 + 100000 z_2_4 + 100000 z_2_5 + 100000 z_2_7 <= 500691.10852007754
 c4230: 120 p_2_1 + 120 p_2_2 + 120 p_2_3 + 120 p_2_4 + 120 p_2_5 + 120 p_2_7 + 100000 z_2_1 + 100000 z_2_2 + 100000 z_2_3 + 100000 z_2_4 + 100000 z_2_5 + 100000 z_2_7 <= 600684.02376860229
 c4231: 120 p_2_6 + 120 p_2_7 + 100000 z_2_6 + 100000 z_2_7 <= 201219.01609453044
 c4232: 120 p_2_1 + 120 p_2_6 + 120 p_2_7 + 100000 z_2_1 + 100000 z_2_6 + 100000 z_2_7 <= 301212.49445719982
 c4233: 120 p_2_2 + 120 p_2_6 + 120 p_2_7 + 100000 z_2_2 + 100000 z_2_6 + 100000 z_2_7 <= 300855.08689871029
 c4234: 120 p_2_1 + 120 p_2_2 + 120 p_2_6 + 120 p_2_7 + 100000 z_2_1 + 100000 z_2_2 + 100000 z_2_6 + 100000 z_2_7 <= 400847.88554537727
 c4235: 120 p_2_3 + 120 p_2_6 + 120 p_2_7 + 100000 z_2_3 + 100000 z_2_6 + 100000 z_2_7 <= 301049.21256221848
 c4236: 120 p_2_1 + 120 p_2_3 + 120 p_2_6 + 120 p_2_7 + 100000 z_2_1 + 100000 z_2_3 + 100000 z_2_6 + 100000 z_2_7 <= 401043.83536777727
 c4237: 120 p_2_2 + 120 p_2_3 + 120 p_2_6 + 120 p_2_7 + 100000 z_2_2 + 100000 z_2_3 + 100000 z_2_6 + 100000 z_2_7 <= 400684.60365039593
 c4238: 120 p_2_1 + 120 p_2_2 + 120 p_2_3 + 120 p_2_6 + 120 p_2_7 + 100000 z_2_1 + 100000 z_2_2 + 100000 z_2_3 + 100000 z_2_6 + 100000 z_2_7 <= 500679.22645595478
 c4239: 120 p_2_4 + 120 p_2_6 + 120 p_2_7 + 100000 z_2_4 + 100000 z_2_6 + 100000 z_2_7 <= 301219.00307876221
 c4240: 120 p_2_1 + 120 p_2_4 + 120 p_2_6 + 120 p_2_7 + 100000 z_2_1 + 100000 z_2_4 + 100000 z_2_6 + 100000 z_2_7 <= 401211.91832728701
 c4241: 120 p_2_2 + 120 p_2_4 + 120 p_2_6 + 120 p_2_7 + 100000 z_2_2 + 100000 z_2_4 + 100000 z_2_6 + 100000 z_2_7 <= 400854.39416693966
 c4242: 120 p_2_1 + 120 p_2_2 + 120 p_2_4 + 120 p_2_6 + 120 p_2_7 + 100000 z_2_1 + 100000 z_2_2 + 100000 z_2_4 + 100000 z_2_6 + 100000 z_2_7 <= 500847.30941546446
 c4243: 120 p_2_3 + 120 p_2_4 + 120 p_2_6 + 120 p_2_7 + 100000 z_2_3 + 100000 z_2_4 + 100000 z_2_6 + 100000 z_2_7 <= 401048.16591278178
 c4244: 120 p_2_1 + 120 p_2_3 + 120 p_2_4 + 120 p_2_6 + 120 p_2_7 + 100000 z_2_1 + 100000 z_2_3 + 100000 z_2_4 + 100000 z_2_6 + 100000 z_2_7 <= 501041.08116130653
 c4245: 120 p_2_2 + 120 p_2_3 + 120 p_2_4 + 120 p_2_6 + 120 p_2_7 + 100000 z_2_2 + 100000 z_2_3 + 100000 z_2_4 + 100000 z_2_6 + 100000 z_2_7 <= 500683.55700095923
 c4246: 120 p_2_1 + 120 p_2_2 + 120 p_2_3 + 120 p_2_4 + 120 p_2_6 + 120 p_2_7 + 100000 z_2_1 + 100000 z_2_2 + 100000 z_2_3 + 100000 z_2_4 + 100000 z_2_6 + 100000 z_2_7 <= 600676.47224948404
 c4247: 120 p_2_5 + 120 p_2_6 + 120 p_2_7 + 100000 z_2_5 + 100000 z_2_6 + 100000 z_2_7 <= 300952.02846924617
 c4248: 120 p_2_1 + 120 p_2_5 + 120 p_2_6 + 120 p_2_7 + 100000 z_2_1 + 100000 z_2_5 + 100000 z_2_6 + 100000 z_2_7 <= 400945.50683191558
 c4249: 120 p_2_2 + 120 p_2_5 + 120 p_2_6 + 120 p_2_7 + 100000 z_2_2 + 100000 z_2_5 + 100000 z_2_6 + 100000 z_2_7 <= 400851.36136625562
 c4250: 120 p_2_1 + 120 p_2_2 + 120 p_2_5 + 120 p_2_6 + 120 p_2_7 + 100000 z_2_1 + 100000 z_2_2 + 100000 z_2_5 + 100000 z_2_6 + 100000 z_2_7 <= 500844.83972892503
 c4251: 120 p_2_3 + 120 p_2_5 + 120 p_2_6 + 120 p_2_7 + 100000 z_2_3 + 100000 z_2_5 + 100000 z_2_6 + 100000 z_2_7 <= 400782.22493693425
 c4252: 120 p_2_1 + 120 p_2_3 + 120 p_2_5 + 120 p_2_6 + 120 p_2_7 + 100000 z_2_1 + 100000 z_2_3 + 100000 z_2_5 + 100000 z_2_6 + 100000 z_2_7 <= 500776.84774249303
 c4253: 120 p_2_2 + 120 p_2_3 + 120 p_2_5 + 120 p_2_6 + 120 p_2_7 + 100000 z_2_2 + 100000 z_2_3 + 100000 z_2_5 + 100000 z_2_6 + 100000 z_2_7 <= 500681.55783394369
 c4254: 120 p_2_1 + 120 p_2_2 + 120 p_2_3 + 120 p_2_5 + 120 p_2_6 + 120 p_2_7 + 100000 z_2_1 + 100000 z_2_2 + 100000 z_2_3 + 100000 z_2_5 + 100000 z_2_6 + 100000 z_2_7 <= 600676.18063950248
 c4255: 120 p_2_4 + 120 p_2_5 + 120 p_2_6 + 120 p_2_7 + 100000 z_2_4 + 100000 z_2_5 + 100000 z_2_6 + 100000 z_2_7 <= 400952.01545347797
 c4256: 120 p_2_1 + 120 p_2_4 + 120 p_2_5 + 120 p_2_6 + 120 p_2_7 + 100000 z_2_1 + 100000 z_2_4 + 100000 z_2_5 + 100000 z_2_6 + 100000 z_2_7 <= 500944.93070200272
 c4257: 120 p_2_2 + 120 p_2_4 + 120 p_2_5 + 120 p_2_6 + 120 p_2_7 + 100000 z_2_2 + 100000 z_2_4 + 100000 z_2_5 + 100000 z_2_6 + 100000 z_2_7 <= 500851.34835048742
 c4258: 120 p_2_1 + 120 p_2_2 + 120 p_2_4 + 120 p_2_5 + 120 p_2_6 + 120 p_2_7 + 100000 z_2_1 + 100000 z_2_2 + 100000 z_2_4 + 100000 z_2_5 + 100000 z_2_6 + 100000 z_2_7 <= 600844.26359901216
 c4259: 120 p_2_3 + 120 p_2_4 + 120 p_2_5 + 120 p_2_6 + 120 p_2_7 + 100000 z_2_3 + 100000 z_2_4 + 100000 z_2_5 + 100000 z_2_6 + 100000 z_2_7 <= 500781.17828749749
 c4260: 120 p_2_1 + 120 p_2_3 + 120 p_2_4 + 120 p_2_5 + 120 p_2_6 + 120 p_2_7 + 100000 z_2_1 + 100000 z_2_3 + 100000 z_2_4 + 100000 z_2_5 + 100000 z_2_6 + 100000 z_2_7 <= 600774.09353602235
 c4261: 120 p_2_2 + 120 p_2_3 + 120 p_2_4 + 120 p_2_5 + 120 p_2_6 + 120 p_2_7 + 100000 z_2_2 + 100000 z_2_3 + 100000 z_2_4 + 100000 z_2_5 + 100000 z_2_6 + 100000 z_2_7 <= 600680.51118450693
 c4262: 120 p_2_1 + 120 p_2_2 + 120 p_2_3 + 120 p_2_4 + 120 p_2_5 + 120 p_2_6 + 120 p_2_7 + 100000 z_2_1 + 100000 z_2_2 + 100000 z_2_3 + 100000 z_2_4 + 100000 z_2_5 + 100000 z_2_6 + 100000 z_2_7 <= 700673.4264330318
 c4263: 120 p_2_8 + 100000 z_2_8 <= 101951.84865761652
 c4264: 120 p_2_1 + 120 p_2_8 + 100000 z_2_1 + 100000 z_2_8 <= 201252.48426566023
 c4265: 120 p_2_2 + 120 p_2_8 + 100000 z_2_2 + 100000 z_2_8 <= 201878.2037425423
 c4266: 120 p_2_1 + 120 p_2_2 + 120 p_2_8 + 100000 z_2_1 + 100000 z_2_2 + 100000 z_2_8 <= 301197.7656908363
 c4267: 120 p_2_3 + 120 p_2_8 + 100000 z_2_3 + 100000 z_2_8 <= 201433.83456597372
 c4268: 120 p_2_1 + 120 p_2_3 + 120 p_2_8 + 100000 z_2_1 + 100000 z_2_3 + 100000 z_2_8 <= 300781.10782987729
 c4269: 120 p_2_2 + 120 p_2_3 + 120 p_2_8 + 100000 z_2_2 + 100000 z_2_3 + 100000 z_2_8 <= 301360.1896508995
 c4270: 120 p_2_1 + 120 p_2_2 + 120 p_2_3 + 120 p_2_8 + 100000 z_2_1 + 100000 z_2_2 + 100000 z_2_3 + 100000 z_2_8 <= 400707.46291480312
 c4271: 120 p_2_4 + 120 p_2_8 + 100000 z_2_4 + 100000 z_2_8 <= 201489.48378822688
 c4272: 120 p_2_1 + 120 p_2_4 + 120 p_2_8 + 100000 z_2_1 + 100000 z_2_4 + 100000 z_2_8 <= 301245.59664620372
 c4273: 120 p_2_2 + 120 p_2_4 + 120 p_2_8 + 100000 z_2_2 + 100000 z_2_4 + 100000 z_2_8 <= 301427.86880723311
 c4274: 120 p_2_1 + 120 p_2_2 + 120 p_2_4 + 120 p_2_8 + 100000 z_2_1 + 100000 z_2_2 + 100000 z_2_4 + 100000 z_2_8 <= 401190.87807137979
 c4275: 120 p_2_3 + 120 p_2_4 + 120 p_2_8 + 100000 z_2_3 + 100000 z_2_4 + 100000 z_2_8 <= 301035.29899843258
 c4276: 120 p_2_1 + 120 p_2_3 + 120 p_2_4 + 120 p_2_8 + 100000 z_2_1 + 100000 z_2_3 + 100000 z_2_4 + 100000 z_2_8 <= 400778.35362340655
 c4277: 120 p_2_2 + 120 p_2_3 + 120 p_2_4 + 120 p_2_8 + 100000 z_2_2 + 100000 z_2_3 + 100000 z_2_4 + 100000 z_2_8 <= 400961.65408335836
 c4278: 120 p_2_1 + 120 p_2_2 + 120 p_2_3 + 120 p_2_4 + 120 p_2_8 + 100000 z_2_1 + 100000 z_2_2 + 100000 z_2_3 + 100000 z_2_4 + 100000 z_2_8 <= 500704.70870833239
 c4279: 120 p_2_5 + 120 p_2_8 + 100000 z_2_5 + 100000 z_2_8 <= 201945.21967982047
 c4280: 120 p_2_1 + 120 p_2_5 + 120 p_2_8 + 100000 z_2_1 + 100000 z_2_5 + 100000 z_2_8 <= 301251.53706049925
 c4281: 120 p_2_2 + 120 p_2_5 + 120 p_2_8 + 100000 z_2_2 + 100000 z_2_5 + 100000 z_2_8 <= 301875.15792609006
 c4282: 120 p_2_1 + 120 p_2_2 + 120 p_2_5 + 120 p_2_8 + 100000 z_2_1 + 100000 z_2_2 + 100000 z_2_5 + 100000 z_2_8 <= 401191.13671304029
 c4283: 120 p_2_3 + 120 p_2_5 + 120 p_2_8 + 100000 z_2_3 + 100000 z_2_5 + 100000 z_2_8 <= 301427.20558817766
 c4284: 120 p_2_1 + 120 p_2_3 + 120 p_2_5 + 120 p_2_8 + 100000 z_2_1 + 100000 z_2_3 + 100000 z_2_5 + 100000 z_2_8 <= 400774.47885208129
 c4285: 120 p_2_2 + 120 p_2_3 + 120 p_2_5 + 120 p_2_8 + 100000 z_2_2 + 100000 z_2_3 + 100000 z_2_5 + 100000 z_2_8 <= 401357.14383444726
 c4286: 120 p_2_1 + 120 p_2_2 + 120 p_2_3 + 120 p_2_5 + 120 p_2_8 + 100000 z_2_1 + 100000 z_2_2 + 100000 z_2_3 + 100000 z_2_5 + 100000 z_2_8 <= 500704.41709835088
 c4287: 120 p_2_4 + 120 p_2_5 + 120 p_2_8 + 100000 z_2_4 + 100000 z_2_5 + 100000 z_2_8 <= 301487.10733386816
 c4288: 120 p_2_1 + 120 p_2_4 + 120 p_2_5 + 120 p_2_8 + 100000 z_2_1 + 100000 z_2_4 + 100000 z_2_5 + 100000 z_2_8 <= 401244.64944104274
 c4289: 120 p_2_2 + 120 p_2_4 + 120 p_2_5 + 120 p_2_8 + 100000 z_2_2 + 100000 z_2_4 + 100000 z_2_5 + 100000 z_2_8 <= 401421.23982943711
 c4290: 120 p_2_1 + 120 p_2_2 + 120 p_2_4 + 120 p_2_5 + 120 p_2_8 + 100000 z_2_1 + 100000 z_2_2 + 100000 z_2_4 + 100000 z_2_5 + 100000 z_2_8 <= 501184.24909358378
 c4291: 120 p_2_3 + 120 p_2_4 + 120 p_2_5 + 120 p_2_8 + 100000 z_2_3 + 100000 z_2_4 + 100000 z_2_5 + 100000 z_2_8 <= 401028.67002063652
 c4292: 120 p_2_1 + 120 p_2_3 + 120 p_2_4 + 120 p_2_5 + 120 p_2_8 + 100000 z_2_1 + 100000 z_2_3 + 100000 z_2_4 + 100000 z_2_5 + 100000 z_2_8 <= 500771.72464561055
 c4293: 120 p_2_2 + 120 p_2_3 + 120 p_2_4 + 120 p_2_5 + 120 p_2_8 + 100000 z_2_2 + 100000 z_2_3 + 100000 z_2_4 + 100000 z_2_5 + 100000 z_2_8 <= 500958.60826690611
 c4294: 120 p_2_1 + 120 p_2_2 + 120 p_2_3 + 120 p_2_4 + 120 p_2_5 + 120 p_2_8 + 100000 z_2_1 + 100000 z_2_2 + 100000 z_2_3 + 100000 z_2_4 + 100000 z_2_5 + 100000 z_2_8 <= 600701.66289188014
 c4295: 120 p_2_6 + 120 p_2_8 + 100000 z_2_6 + 100000 z_2_8 <= 201610.68471524052
 c4296: 120 p_2_1 + 120 p_2_6 + 120 p_2_8 + 100000 z_2_1 + 100000 z_2_6 + 100000 z_2_8 <= 300938.49432638334
 c4297: 120 p_2_2 + 120 p_2_6 + 120 p_2_8 + 100000 z_2_2 + 100000 z_2_6 + 100000 z_2_8 <= 301537.03980016633
 c4298: 120 p_2_1 + 120 p_2_2 + 120 p_2_6 + 120 p_2_8 + 100000 z_2_1 + 100000 z_2_2 + 100000 z_2_6 + 100000 z_2_8 <= 400864.84941130911
 c4299: 120 p_2_3 + 120 p_2_6 + 120 p_2_8 + 100000 z_2_3 + 100000 z_2_6 + 100000 z_2_8 <= 301432.14615248906
 c4300: 120 p_2_1 + 120 p_2_3 + 120 p_2_6 + 120 p_2_8 + 100000 z_2_1 + 100000 z_2_3 + 100000 z_2_6 + 100000 z_2_8 <= 400769.83523696079
 c4301: 120 p_2_2 + 120 p_2_3 + 120 p_2_6 + 120 p_2_8 + 100000 z_2_2 + 100000 z_2_3 + 100000 z_2_6 + 100000 z_2_8 <= 401358.50123741484
 c4302: 120 p_2_1 + 120 p_2_2 + 120 p_2_3 + 120 p_2_6 + 120 p_2_8 + 100000 z_2_1 + 100000 z_2_2 + 100000 z_2_3 + 100000 z_2_6 + 100000 z_2_8 <= 500696.19032188656
 c4303: 120 p_2_4 + 120 p_2_6 + 120 p_2_8 + 100000 z_2_4 + 100000 z_2_6 + 100000 z_2_8 <= 301194.86357149651
 c4304: 120 p_2_1 + 120 p_2_4 + 120 p_2_6 + 120 p_2_8 + 100000 z_2_1 + 100000 z_2_4 + 100000 z_2_6 + 100000 z_2_8 <= 400937.91819647048
 c4305: 120 p_2_2 + 120 p_2_4 + 120 p_2_6 + 120 p_2_8 + 100000 z_2_2 + 100000 z_2_4 + 100000 z_2_6 + 100000 z_2_8 <= 401121.21865642228
 c4306: 120 p_2_1 + 120 p_2_2 + 120 p_2_4 + 120 p_2_6 + 120 p_2_8 + 100000 z_2_1 + 100000 z_2_2 + 100000 z_2_4 + 100000 z_2_6 + 100000 z_2_8 <= 500864.27328139625
 c4307: 120 p_2_3 + 120 p_2_4 + 120 p_2_6 + 120 p_2_8 + 100000 z_2_3 + 100000 z_2_4 + 100000 z_2_6 + 100000 z_2_8 <= 401024.02640551608
 c4308: 120 p_2_1 + 120 p_2_3 + 120 p_2_4 + 120 p_2_6 + 120 p_2_8 + 100000 z_2_1 + 100000 z_2_3 + 100000 z_2_4 + 100000 z_2_6 + 100000 z_2_8 <= 500767.08103049005
 c4309: 120 p_2_2 + 120 p_2_3 + 120 p_2_4 + 120 p_2_6 + 120 p_2_8 + 100000 z_2_2 + 100000 z_2_3 + 100000 z_2_4 + 100000 z_2_6 + 100000 z_2_8 <= 500950.38149044185
 c4310: 120 p_2_1 + 120 p_2_2 + 120 p_2_3 + 120 p_2_4 + 120 p_2_6 + 120 p_2_8 + 100000 z_2_1 + 100000 z_2_2 + 100000 z_2_3 + 100000 z_2_4 + 100000 z_2_6 + 100000 z_2_8 <= 600693.43611541588
 c4311: 120 p_2_5 + 120 p_2_6 + 120 p_2_8 + 100000 z_2_5 + 100000 z_2_6 + 100000 z_2_8 <= 301604.05573744449
 c4312: 120 p_2_1 + 120 p_2_5 + 120 p_2_6 + 120 p_2_8 + 100000 z_2_1 + 100000 z_2_5 + 100000 z_2_6 + 100000 z_2_8 <= 400931.86534858728
 c4313: 120 p_2_2 + 120 p_2_5 + 120 p_2_6 + 120 p_2_8 + 100000 z_2_2 + 100000 z_2_5 + 100000 z_2_6 + 100000 z_2_8 <= 401533.99398371408
 c4314: 120 p_2_1 + 120 p_2_2 + 120 p_2_5 + 120 p_2_6 + 120 p_2_8 + 100000 z_2_1 + 100000 z_2_2 + 100000 z_2_5 + 100000 z_2_6 + 100000 z_2_8 <= 500861.80359485687
 c4315: 120 p_2_3 + 120 p_2_5 + 120 p_2_6 + 120 p_2_8 + 100000 z_2_3 + 100000 z_2_5 + 100000 z_2_6 + 100000 z_2_8 <= 401425.517174693
 c4316: 120 p_2_1 + 120 p_2_3 + 120 p_2_5 + 120 p_2_6 + 120 p_2_8 + 100000 z_2_1 + 100000 z_2_3 + 100000 z_2_5 + 100000 z_2_6 + 100000 z_2_8 <= 500763.20625916473
 c4317: 120 p_2_2 + 120 p_2_3 + 120 p_2_5 + 120 p_2_6 + 120 p_2_8 + 100000 z_2_2 + 100000 z_2_3 + 100000 z_2_5 + 100000 z_2_6 + 100000 z_2_8 <= 501355.45542096259
 c4318: 120 p_2_1 + 120 p_2_2 + 120 p_2_3 + 120 p_2_5 + 120 p_2_6 + 120 p_2_8 + 100000 z_2_1 + 100000 z_2_2 + 100000 z_2_3 + 100000 z_2_5 + 100000 z_2_6 + 100000 z_2_8 <= 600693.14450543432
 c4319: 120 p_2_4 + 120 p_2_5 + 120 p_2_6 + 120 p_2_8 + 100000 z_2_4 + 100000 z_2_5 + 100000 z_2_6 + 100000 z_2_8 <= 401188.23459370044
 c4320: 120 p_2_1 + 120 p_2_4 + 120 p_2_5 + 120 p_2_6 + 120 p_2_8 + 100000 z_2_1 + 100000 z_2_4 + 100000 z_2_5 + 100000 z_2_6 + 100000 z_2_8 <= 500931.28921867447
 c4321: 120 p_2_2 + 120 p_2_4 + 120 p_2_5 + 120 p_2_6 + 120 p_2_8 + 100000 z_2_2 + 100000 z_2_4 + 100000 z_2_5 + 100000 z_2_6 + 100000 z_2_8 <= 501118.17283997004
 c4322: 120 p_2_1 + 120 p_2_2 + 120 p_2_4 + 120 p_2_5 + 120 p_2_6 + 120 p_2_8 + 100000 z_2_1 + 100000 z_2_2 + 100000 z_2_4 + 100000 z_2_5 + 100000 z_2_6 + 100000 z_2_8 <= 600861.22746494401
 c4323: 120 p_2_3 + 120 p_2_4 + 120 p_2_5 + 120 p_2_6 + 120 p_2_8 + 100000 z_2_3 + 100000 z_2_4 + 100000 z_2_5 + 100000 z_2_6 + 100000 z_2_8 <= 501017.39742772002
 c4324: 120 p_2_1 + 120 p_2_3 + 120 p_2_4 + 120 p_2_5 + 120 p_2_6 + 120 p_2_8 + 100000 z_2_1 + 100000 z_2_3 + 100000 z_2_4 + 100000 z_2_5 + 100000 z_2_6 + 100000 z_2_8 <= 600760.45205269405
 c4325: 120 p_2_2 + 120 p_2_3 + 120 p_2_4 + 120 p_2_5 + 120 p_2_6 + 120 p_2_8 + 100000 z_2_2 + 100000 z_2_3 + 100000 z_2_4 + 100000 z_2_5 + 100000 z_2_6 + 100000 z_2_8 <= 600947.33567398961
 c4326: 120 p_2_1 + 120 p_2_2 + 120 p_2_3 + 120 p_2_4 + 120 p_2_5 + 120 p_2_6 + 120 p_2_8 + 100000 z_2_1 + 100000 z_2_2 + 100000 z_2_3 + 100000 z_2_4 + 100000 z_2_5 + 100000 z_2_6 + 100000 z_2_8 <= 700690.39029896364
 c4327: 120 p_2_7 + 120 p_2_8 + 100000 z_2_7 + 100000 z_2_8 <= 201248.99693338963
 c4328: 120 p_2_1 + 120 p_2_7 + 120 p_2_8 + 100000 z_2_1 + 100000 z_2_7 + 100000 z_2_8 <= 301238.11409173533
 c4329: 120 p_2_2 + 120 p_2_7 + 120 p_2_8 + 100000 z_2_2 + 100000 z_2_7 + 100000 z_2_8 <= 301195.48128908325
 c4330: 120 p_2_1 + 120 p_2_2 + 120 p_2_7 + 120 p_2_8 + 100000 z_2_1 + 100000 z_2_2 + 100000 z_2_7 + 100000 z_2_8 <= 401184.59844742896
 c4331: 120 p_2_3 + 120 p_2_7 + 120 p_2_8 + 100000 z_2_3 + 100000 z_2_7 + 100000 z_2_8 <= 300768.75160638371
 c4332: 120 p_2_1 + 120 p_2_3 + 120 p_2_7 + 120 p_2_8 + 100000 z_2_1 + 100000 z_2_3 + 100000 z_2_7 + 100000 z_2_8 <= 400763.3744119425
 c4333: 120 p_2_2 + 120 p_2_3 + 120 p_2_7 + 120 p_2_8 + 100000 z_2_2 + 100000 z_2_3 + 100000 z_2_7 + 100000 z_2_8 <= 400695.10669130948
 c4334: 120 p_2_1 + 120 p_2_2 + 120 p_2_3 + 120 p_2_7 + 120 p_2_8 + 100000 z_2_1 + 100000 z_2_2 + 100000 z_2_3 + 100000 z_2_7 + 100000 z_2_8 <= 500689.72949686827
 c4335: 120 p_2_4 + 120 p_2_7 + 120 p_2_8 + 100000 z_2_4 + 100000 z_2_7 + 100000 z_2_8 <= 301238.31122375408
 c4336: 120 p_2_1 + 120 p_2_4 + 120 p_2_7 + 120 p_2_8 + 100000 z_2_1 + 100000 z_2_4 + 100000 z_2_7 + 100000 z_2_8 <= 401231.22647227882
 c4337: 120 p_2_2 + 120 p_2_4 + 120 p_2_7 + 120 p_2_8 + 100000 z_2_2 + 100000 z_2_4 + 100000 z_2_7 + 100000 z_2_8 <= 401184.7955794477
 c4338: 120 p_2_1 + 120 p_2_2 + 120 p_2_4 + 120 p_2_7 + 120 p_2_8 + 100000 z_2_1 + 100000 z_2_2 + 100000 z_2_4 + 100000 z_2_7 + 100000 z_2_8 <= 501177.71082797245
 c4339: 120 p_2_3 + 120 p_2_4 + 120 p_2_7 + 120 p_2_8 + 100000 z_2_3 + 100000 z_2_4 + 100000 z_2_7 + 100000 z_2_8 <= 400767.70495694695
 c4340: 120 p_2_1 + 120 p_2_3 + 120 p_2_4 + 120 p_2_7 + 120 p_2_8 + 100000 z_2_1 + 100000 z_2_3 + 100000 z_2_4 + 100000 z_2_7 + 100000 z_2_8 <= 500760.62020547176
 c4341: 120 p_2_2 + 120 p_2_3 + 120 p_2_4 + 120 p_2_7 + 120 p_2_8 + 100000 z_2_2 + 100000 z_2_3 + 100000 z_2_4 + 100000 z_2_7 + 100000 z_2_8 <= 500694.06004187273
 c4342: 120 p_2_1 + 120 p_2_2 + 120 p_2_3 + 120 p_2_4 + 120 p_2_7 + 120 p_2_8 + 100000 z_2_1 + 100000 z_2_2 + 100000 z_2_3 + 100000 z_2_4 + 100000 z_2_7 + 100000 z_2_8 <= 600686.97529039753
 c4343: 120 p_2_5 + 120 p_2_7 + 120 p_2_8 + 100000 z_2_5 + 100000 z_2_7 + 100000 z_2_8 <= 301248.23947338253
 c4344: 120 p_2_1 + 120 p_2_5 + 120 p_2_7 + 120 p_2_8 + 100000 z_2_1 + 100000 z_2_5 + 100000 z_2_7 + 100000 z_2_8 <= 401237.35663172824
 c4345: 120 p_2_2 + 120 p_2_5 + 120 p_2_7 + 120 p_2_8 + 100000 z_2_2 + 100000 z_2_5 + 100000 z_2_7 + 100000 z_2_8 <= 401188.85231128725
 c4346: 120 p_2_1 + 120 p_2_2 + 120 p_2_5 + 120 p_2_7 + 120 p_2_8 + 100000 z_2_1 + 100000 z_2_2 + 100000 z_2_5 + 100000 z_2_7 + 100000 z_2_8 <= 501177.96946963295
 c4347: 120 p_2_3 + 120 p_2_5 + 120 p_2_7 + 120 p_2_8 + 100000 z_2_3 + 100000 z_2_5 + 100000 z_2_7 + 100000 z_2_8 <= 400762.12262858765
 c4348: 120 p_2_1 + 120 p_2_3 + 120 p_2_5 + 120 p_2_7 + 120 p_2_8 + 100000 z_2_1 + 100000 z_2_3 + 100000 z_2_5 + 100000 z_2_7 + 100000 z_2_8 <= 500756.74543414643
 c4349: 120 p_2_2 + 120 p_2_3 + 120 p_2_5 + 120 p_2_7 + 120 p_2_8 + 100000 z_2_2 + 100000 z_2_3 + 100000 z_2_5 + 100000 z_2_7 + 100000 z_2_8 <= 500692.06087485724
 c4350: 120 p_2_1 + 120 p_2_2 + 120 p_2_3 + 120 p_2_5 + 120 p_2_7 + 120 p_2_8 + 100000 z_2_1 + 100000 z_2_2 + 100000 z_2_3 + 100000 z_2_5 + 100000 z_2_7 + 100000 z_2_8 <= 600686.68368041608
 c4351: 120 p_2_4 + 120 p_2_5 + 120 p_2_7 + 120 p_2_8 + 100000 z_2_4 + 100000 z_2_5 + 100000 z_2_7 + 100000 z_2_8 <= 401237.55376374698
 c4352: 120 p_2_1 + 120 p_2_4 + 120 p_2_5 + 120 p_2_7 + 120 p_2_8 + 100000 z_2_1 + 100000 z_2_4 + 100000 z_2_5 + 100000 z_2_7 + 100000 z_2_8 <= 501230.46901227173
 c4353: 120 p_2_2 + 120 p_2_4 + 120 p_2_5 + 120 p_2_7 + 120 p_2_8 + 100000 z_2_2 + 100000 z_2_4 + 100000 z_2_5 + 100000 z_2_7 + 100000 z_2_8 <= 501178.16660165164
 c4354: 120 p_2_1 + 120 p_2_2 + 120 p_2_4 + 120 p_2_5 + 120 p_2_7 + 120 p_2_8 + 100000 z_2_1 + 100000 z_2_2 + 100000 z_2_4 + 100000 z_2_5 + 100000 z_2_7 + 100000 z_2_8 <= 601171.08185017644
 c4355: 120 p_2_3 + 120 p_2_4 + 120 p_2_5 + 120 p_2_7 + 120 p_2_8 + 100000 z_2_3 + 100000 z_2_4 + 100000 z_2_5 + 100000 z_2_7 + 100000 z_2_8 <= 500761.07597915095
 c4356: 120 p_2_1 + 120 p_2_3 + 120 p_2_4 + 120 p_2_5 + 120 p_2_7 + 120 p_2_8 + 100000 z_2_1 + 100000 z_2_3 + 100000 z_2_4 + 100000 z_2_5 + 100000 z_2_7 + 100000 z_2_8 <= 600753.99122767569
 c4357: 120 p_2_2 + 120 p_2_3 + 120 p_2_4 + 120 p_2_5 + 120 p_2_7 + 120 p_2_8 + 100000 z_2_2 + 100000 z_2_3 + 100000 z_2_4 + 100000 z_2_5 + 100000 z_2_7 + 100000 z_2_8 <= 600691.01422542054
 c4358: 120 p_2_1 + 120 p_2_2 + 120 p_2_3 + 120 p_2_4 + 120 p_2_5 + 120 p_2_7 + 120 p_2_8 + 100000 z_2_1 + 100000 z_2_2 + 100000 z_2_3 + 100000 z_2_4 + 100000 z_2_5 + 100000 z_2_7 + 100000 z_2_8 <= 700683.92947394529
 c4359: 120 p_2_6 + 120 p_2_7 + 120 p_2_8 + 100000 z_2_6 + 100000 z_2_7 + 100000 z_2_8 <= 300927.28254577908
 c4360: 120 p_2_1 + 120 p_2_6 + 120 p_2_7 + 120 p_2_8 + 100000 z_2_1 + 100000 z_2_6 + 100000 z_2_7 + 100000 z_2_8 <= 400920.76090844849
 c4361: 120 p_2_2 + 120 p_2_6 + 120 p_2_7 + 120 p_2_8 + 100000 z_2_2 + 100000 z_2_6 + 100000 z_2_7 + 100000 z_2_8 <= 400854.31734670728
 c4362: 120 p_2_1 + 120 p_2_2 + 120 p_2_6 + 120 p_2_7 + 120 p_2_8 + 100000 z_2_1 + 100000 z_2_2 + 100000 z_2_6 + 100000 z_2_7 + 100000 z_2_8 <= 500847.11599337426
 c4363: 120 p_2_3 + 120 p_2_6 + 120 p_2_7 + 120 p_2_8 + 100000 z_2_3 + 100000 z_2_6 + 100000 z_2_7 + 100000 z_2_8 <= 400757.47901346715
 c4364: 120 p_2_1 + 120 p_2_3 + 120 p_2_6 + 120 p_2_7 + 120 p_2_8 + 100000 z_2_1 + 100000 z_2_3 + 100000 z_2_6 + 100000 z_2_7 + 100000 z_2_8 <= 500752.10181902599
 c4365: 120 p_2_2 + 120 p_2_3 + 120 p_2_6 + 120 p_2_7 + 120 p_2_8 + 100000 z_2_2 + 100000 z_2_3 + 100000 z_2_6 + 100000 z_2_7 + 100000 z_2_8 <= 500683.83409839292
 c4366: 120 p_2_1 + 120 p_2_2 + 120 p_2_3 + 120 p_2_6 + 120 p_2_7 + 120 p_2_8 + 100000 z_2_1 + 100000 z_2_2 + 100000 z_2_3 + 100000 z_2_6 + 100000 z_2_7 + 100000 z_2_8 <= 600678.45690395171
 c4367: 120 p_2_4 + 120 p_2_6 + 120 p_2_7 + 120 p_2_8 + 100000 z_2_4 + 100000 z_2_6 + 100000 z_2_7 + 100000 z_2_8 <= 400927.26953001088
 c4368: 120 p_2_1 + 120 p_2_4 + 120 p_2_6 + 120 p_2_7 + 120 p_2_8 + 100000 z_2_1 + 100000 z_2_4 + 100000 z_2_6 + 100000 z_2_7 + 100000 z_2_8 <= 500920.18477853568
 c4369: 120 p_2_2 + 120 p_2_4 + 120 p_2_6 + 120 p_2_7 + 120 p_2_8 + 100000 z_2_2 + 100000 z_2_4 + 100000 z_2_6 + 100000 z_2_7 + 100000 z_2_8 <= 500853.62461493665
 c4370: 120 p_2_1 + 120 p_2_2 + 120 p_2_4 + 120 p_2_6 + 120 p_2_7 + 120 p_2_8 + 100000 z_2_1 + 100000 z_2_2 + 100000 z_2_4 + 100000 z_2_6 + 100000 z_2_7 + 100000 z_2_8 <= 600846.5398634614
 c4371: 120 p_2_3 + 120 p_2_4 + 120 p_2_6 + 120 p_2_7 + 120 p_2_8 + 100000 z_2_3 + 100000 z_2_4 + 100000 z_2_6 + 100000 z_2_7 + 100000 z_2_8 <= 500756.43236403045
 c4372: 120 p_2_1 + 120 p_2_3 + 120 p_2_4 + 120 p_2_6 + 120 p_2_7 + 120 p_2_8 + 100000 z_2_1 + 100000 z_2_3 + 100000 z_2_4 + 100000 z_2_6 + 100000 z_2_7 + 100000 z_2_8 <= 600749.34761255526
 c4373: 120 p_2_2 + 120 p_2_3 + 120 p_2_4 + 120 p_2_6 + 120 p_2_7 + 120 p_2_8 + 100000 z_2_2 + 100000 z_2_3 + 100000 z_2_4 + 100000 z_2_6 + 100000 z_2_7 + 100000 z_2_8 <= 600682.78744895628
 c4374: 120 p_2_1 + 120 p_2_2 + 120 p_2_3 + 120 p_2_4 + 120 p_2_6 + 120 p_2_7 + 120 p_2_8 + 100000 z_2_1 + 100000 z_2_2 + 100000 z_2_3 + 100000 z_2_4 + 100000 z_2_6 + 100000 z_2_7 + 100000 z_2_8 <= 700675.70269748103
 c4375: 120 p_2_5 + 120 p_2_6 + 120 p_2_7 + 120 p_2_8 + 100000 z_2_5 + 100000 z_2_6 + 100000 z_2_7 + 100000 z_2_8 <= 400920.65356798307
 c4376: 120 p_2_1 + 120 p_2_5 + 120 p_2_6 + 120 p_2_7 + 120 p_2_8 + 100000 z_2_1 + 100000 z_2_5 + 100000 z_2_6 + 100000 z_2_7 + 100000 z_2_8 <= 500914.13193065242
 c4377: 120 p_2_2 + 120 p_2_5 + 120 p_2_6 + 120 p_2_7 + 120 p_2_8 + 100000 z_2_2 + 100000 z_2_5 + 100000 z_2_6 + 100000 z_2_7 + 100000 z_2_8 <= 500850.59181425266
 c4378: 120 p_2_1 + 120 p_2_2 + 120 p_2_5 + 120 p_2_6 + 120 p_2_7 + 120 p_2_8 + 100000 z_2_1 + 100000 z_2_2 + 100000 z_2_5 + 100000 z_2_6 + 100000 z_2_7 + 100000 z_2_8 <= 600844.07017692202
 c4379: 120 p_2_3 + 120 p_2_5 + 120 p_2_6 + 120 p_2_7 + 120 p_2_8 + 100000 z_2_3 + 100000 z_2_5 + 100000 z_2_6 + 100000 z_2_7 + 100000 z_2_8 <= 500750.85003567114
 c4380: 120 p_2_1 + 120 p_2_3 + 120 p_2_5 + 120 p_2_6 + 120 p_2_7 + 120 p_2_8 + 100000 z_2_1 + 100000 z_2_3 + 100000 z_2_5 + 100000 z_2_6 + 100000 z_2_7 + 100000 z_2_8 <= 600745.47284122987
 c4381: 120 p_2_2 + 120 p_2_3 + 120 p_2_5 + 120 p_2_6 + 120 p_2_7 + 120 p_2_8 + 100000 z_2_2 + 100000 z_2_3 + 100000 z_2_5 + 100000 z_2_6 + 100000 z_2_7 + 100000 z_2_8 <= 600680.78828194074
 c4382: 120 p_2_1 + 120 p_2_2 + 120 p_2_3 + 120 p_2_5 + 120 p_2_6 + 120 p_2_7 + 120 p_2_8 + 100000 z_2_1 + 100000 z_2_2 + 100000 z_2_3 + 100000 z_2_5 + 100000 z_2_6 + 100000 z_2_7 + 100000 z_2_8 <= 700675.41108749947
 c4383: 120 p_2_4 + 120 p_2_5 + 120 p_2_6 + 120 p_2_7 + 120 p_2_8 + 100000 z_2_4 + 100000 z_2_5 + 100000 z_2_6 + 100000 z_2_7 + 100000 z_2_8 <= 500920.64055221481
 c4384: 120 p_2_1 + 120 p_2_4 + 120 p_2_5 + 120 p_2_6 + 120 p_2_7 + 120 p_2_8 + 100000 z_2_1 + 100000 z_2_4 + 100000 z_2_5 + 100000 z_2_6 + 100000 z_2_7 + 100000 z_2_8 <= 600913.55580073968
 c4385: 120 p_2_2 + 120 p_2_4 + 120 p_2_5 + 120 p_2_6 + 120 p_2_7 + 120 p_2_8 + 100000 z_2_2 + 100000 z_2_4 + 100000 z_2_5 + 100000 z_2_6 + 100000 z_2_7 + 100000 z_2_8 <= 600850.57879848441
 c4386: 120 p_2_1 + 120 p_2_2 + 120 p_2_4 + 120 p_2_5 + 120 p_2_6 + 120 p_2_7 + 120 p_2_8 + 100000 z_2_1 + 100000 z_2_2 + 100000 z_2_4 + 100000 z_2_5 + 100000 z_2_6 + 100000 z_2_7 + 100000 z_2_8 <= 700843.49404700915
 c4387: 120 p_2_3 + 120 p_2_4 + 120 p_2_5 + 120 p_2_6 + 120 p_2_7 + 120 p_2_8 + 100000 z_2_3 + 100000 z_2_4 + 100000 z_2_5 + 100000 z_2_6 + 100000 z_2_7 + 100000 z_2_8 <= 600749.80338623445
 c4388: 120 p_2_1 + 120 p_2_3 + 120 p_2_4 + 120 p_2_5 + 120 p_2_6 + 120 p_2_7 + 120 p_2_8 + 100000 z_2_1 + 100000 z_2_3 + 100000 z_2_4 + 100000 z_2_5 + 100000 z_2_6 + 100000 z_2_7 + 100000 z_2_8 <= 700742.71863475919
 c4389: 120 p_2_2 + 120 p_2_3 + 120 p_2_4 + 120 p_2_5 + 120 p_2_6 + 120 p_2_7 + 120 p_2_8 + 100000 z_2_2 + 100000 z_2_3 + 100000 z_2_4 + 100000 z_2_5 + 100000 z_2_6 + 100000 z_2_7 + 100000 z_2_8 <= 700679.74163250392
 c4390: 120 p_2_1 + 120 p_2_2 + 120 p_2_3 + 120 p_2_4 + 120 p_2_5 + 120 p_2_6 + 120 p_2_7 + 120 p_2_8 + 100000 z_2_1 + 100000 z_2_2 + 100000 z_2_3 + 100000 z_2_4 + 100000 z_2_5 + 100000 z_2_6 + 100000 z_2_7 + 100000 z_2_8 <= 800672.65688102879
 c4391: 120 p_2_9 + 100000 z_2_9 <= 101917.88356615882
 c4392: 120 p_2_1 + 120 p_2_9 + 100000 z_2_1 + 100000 z_2_9 <= 201284.46281396586
 c4393: 120 p_2_2 + 120 p_2_9 + 100000 z_2_2 + 100000 z_2_9 <= 201506.46930946462
 c4394: 120 p_2_1 + 120 p_2_2 + 120 p_2_9 + 100000 z_2_1 + 100000 z_2_2 + 100000 z_2_9 <= 300873.04855727166
 c4395: 120 p_2_3 + 120 p_2_9 + 100000 z_2_3 + 100000 z_2_9 <= 201696.67790523914
 c4396: 120 p_2_1 + 120 p_2_3 + 120 p_2_9 + 100000 z_2_1 + 100000 z_2_3 + 100000 z_2_9 <= 301063.2571530462
 c4397: 120 p_2_2 + 120 p_2_3 + 120 p_2_9 + 100000 z_2_2 + 100000 z_2_3 + 100000 z_2_9 <= 301340.9779155025
 c4398: 120 p_2_1 + 120 p_2_2 + 120 p_2_3 + 120 p_2_9 + 100000 z_2_1 + 100000 z_2_2 + 100000 z_2_3 + 100000 z_2_9 <= 400707.55716330954
 c4399: 120 p_2_4 + 120 p_2_9 + 100000 z_2_4 + 100000 z_2_9 <= 201538.48132627868
 c4400: 120 p_2_1 + 120 p_2_4 + 120 p_2_9 + 100000 z_2_1 + 100000 z_2_4 + 100000 z_2_9 <= 301281.53595125268
 c4401: 120 p_2_2 + 120 p_2_4 + 120 p_2_9 + 100000 z_2_2 + 100000 z_2_4 + 100000 z_2_9 <= 301127.06706958445
 c4402: 120 p_2_1 + 120 p_2_2 + 120 p_2_4 + 120 p_2_9 + 100000 z_2_1 + 100000 z_2_2 + 100000 z_2_4 + 100000 z_2_9 <= 400870.12169455847
 c4403: 120 p_2_3 + 120 p_2_4 + 120 p_2_9 + 100000 z_2_3 + 100000 z_2_4 + 100000 z_2_9 <= 301317.27566535899
 c4404: 120 p_2_1 + 120 p_2_3 + 120 p_2_4 + 120 p_2_9 + 100000 z_2_1 + 100000 z_2_3 + 100000 z_2_4 + 100000 z_2_9 <= 401060.33029033296
 c4405: 120 p_2_2 + 120 p_2_3 + 120 p_2_4 + 120 p_2_9 + 100000 z_2_2 + 100000 z_2_3 + 100000 z_2_4 + 100000 z_2_9 <= 400961.57567562233
 c4406: 120 p_2_1 + 120 p_2_2 + 120 p_2_3 + 120 p_2_4 + 120 p_2_9 + 100000 z_2_1 + 100000 z_2_2 + 100000 z_2_3 + 100000 z_2_4 + 100000 z_2_9 <= 500704.63030059636
 c4407: 120 p_2_5 + 120 p_2_9 + 100000 z_2_5 + 100000 z_2_9 <= 201607.61564086896
 c4408: 120 p_2_1 + 120 p_2_5 + 120 p_2_9 + 100000 z_2_1 + 100000 z_2_5 + 100000 z_2_9 <= 300974.19488867599
 c4409: 120 p_2_2 + 120 p_2_5 + 120 p_2_9 + 100000 z_2_2 + 100000 z_2_5 + 100000 z_2_9 <= 301503.81845114048
 c4410: 120 p_2_1 + 120 p_2_2 + 120 p_2_5 + 120 p_2_9 + 100000 z_2_1 + 100000 z_2_2 + 100000 z_2_5 + 100000 z_2_9 <= 400870.39769894752
 c4411: 120 p_2_3 + 120 p_2_5 + 120 p_2_9 + 100000 z_2_3 + 100000 z_2_5 + 100000 z_2_9 <= 301435.6741004262
 c4412: 120 p_2_1 + 120 p_2_3 + 120 p_2_5 + 120 p_2_9 + 100000 z_2_1 + 100000 z_2_3 + 100000 z_2_5 + 100000 z_2_9 <= 400802.25334823324
 c4413: 120 p_2_2 + 120 p_2_3 + 120 p_2_5 + 120 p_2_9 + 100000 z_2_2 + 100000 z_2_3 + 100000 z_2_5 + 100000 z_2_9 <= 401337.93209905026
 c4414: 120 p_2_1 + 120 p_2_2 + 120 p_2_3 + 120 p_2_5 + 120 p_2_9 + 100000 z_2_1 + 100000 z_2_2 + 100000 z_2_3 + 100000 z_2_5 + 100000 z_2_9 <= 500704.5113468573
 c4415: 120 p_2_4 + 120 p_2_5 + 120 p_2_9 + 100000 z_2_4 + 100000 z_2_5 + 100000 z_2_9 <= 301228.21340098878
 c4416: 120 p_2_1 + 120 p_2_4 + 120 p_2_5 + 120 p_2_9 + 100000 z_2_1 + 100000 z_2_4 + 100000 z_2_5 + 100000 z_2_9 <= 400971.26802596281
 c4417: 120 p_2_2 + 120 p_2_4 + 120 p_2_5 + 120 p_2_9 + 100000 z_2_2 + 100000 z_2_4 + 100000 z_2_5 + 100000 z_2_9 <= 401124.41621126037
 c4418: 120 p_2_1 + 120 p_2_2 + 120 p_2_4 + 120 p_2_5 + 120 p_2_9 + 100000 z_2_1 + 100000 z_2_2 + 100000 z_2_4 + 100000 z_2_5 + 100000 z_2_9 <= 500867.47083623434
 c4419: 120 p_2_3 + 120 p_2_4 + 120 p_2_5 + 120 p_2_9 + 100000 z_2_3 + 100000 z_2_4 + 100000 z_2_5 + 100000 z_2_9 <= 401056.27186054602
 c4420: 120 p_2_1 + 120 p_2_3 + 120 p_2_4 + 120 p_2_5 + 120 p_2_9 + 100000 z_2_1 + 100000 z_2_3 + 100000 z_2_4 + 100000 z_2_5 + 100000 z_2_9 <= 500799.32648552005
 c4421: 120 p_2_2 + 120 p_2_3 + 120 p_2_4 + 120 p_2_5 + 120 p_2_9 + 100000 z_2_2 + 100000 z_2_3 + 100000 z_2_4 + 100000 z_2_5 + 100000 z_2_9 <= 500958.52985917008
 c4422: 120 p_2_1 + 120 p_2_2 + 120 p_2_3 + 120 p_2_4 + 120 p_2_5 + 120 p_2_9 + 100000 z_2_1 + 100000 z_2_2 + 100000 z_2_3 + 100000 z_2_4 + 100000 z_2_5 + 100000 z_2_9 <= 600701.58448414411
 c4423: 120 p_2_6 + 120 p_2_9 + 100000 z_2_6 + 100000 z_2_9 <= 201839.1523123818
 c4424: 120 p_2_1 + 120 p_2_6 + 120 p_2_9 + 100000 z_2_1 + 100000 z_2_6 + 100000 z_2_9 <= 301205.73156018887
 c4425: 120 p_2_2 + 120 p_2_6 + 120 p_2_9 + 100000 z_2_2 + 100000 z_2_6 + 100000 z_2_9 <= 301474.54340055928
 c4426: 120 p_2_1 + 120 p_2_2 + 120 p_2_6 + 120 p_2_9 + 100000 z_2_1 + 100000 z_2_2 + 100000 z_2_6 + 100000 z_2_9 <= 400841.12264836632
 c4427: 120 p_2_3 + 120 p_2_6 + 120 p_2_9 + 100000 z_2_3 + 100000 z_2_6 + 100000 z_2_9 <= 301694.98949175444
 c4428: 120 p_2_1 + 120 p_2_3 + 120 p_2_6 + 120 p_2_9 + 100000 z_2_1 + 100000 z_2_3 + 100000 z_2_6 + 100000 z_2_9 <= 401061.56873956148
 c4429: 120 p_2_2 + 120 p_2_3 + 120 p_2_6 + 120 p_2_9 + 100000 z_2_2 + 100000 z_2_3 + 100000 z_2_6 + 100000 z_2_9 <= 401330.38057993189
 c4430: 120 p_2_1 + 120 p_2_2 + 120 p_2_3 + 120 p_2_6 + 120 p_2_9 + 100000 z_2_1 + 100000 z_2_2 + 100000 z_2_3 + 100000 z_2_6 + 100000 z_2_9 <= 500696.95982773899
 c4431: 120 p_2_4 + 120 p_2_6 + 120 p_2_9 + 100000 z_2_4 + 100000 z_2_6 + 100000 z_2_9 <= 301459.75007250166
 c4432: 120 p_2_1 + 120 p_2_4 + 120 p_2_6 + 120 p_2_9 + 100000 z_2_1 + 100000 z_2_4 + 100000 z_2_6 + 100000 z_2_9 <= 401202.80469747563
 c4433: 120 p_2_2 + 120 p_2_4 + 120 p_2_6 + 120 p_2_9 + 100000 z_2_2 + 100000 z_2_4 + 100000 z_2_6 + 100000 z_2_9 <= 401095.14116067911
 c4434: 120 p_2_1 + 120 p_2_2 + 120 p_2_4 + 120 p_2_6 + 120 p_2_9 + 100000 z_2_1 + 100000 z_2_2 + 100000 z_2_4 + 100000 z_2_6 + 100000 z_2_9 <= 500838.19578565314
 c4435: 120 p_2_3 + 120 p_2_4 + 120 p_2_6 + 120 p_2_9 + 100000 z_2_3 + 100000 z_2_4 + 100000 z_2_6 + 100000 z_2_9 <= 401315.58725187433
 c4436: 120 p_2_1 + 120 p_2_3 + 120 p_2_4 + 120 p_2_6 + 120 p_2_9 + 100000 z_2_1 + 100000 z_2_3 + 100000 z_2_4 + 100000 z_2_6 + 100000 z_2_9 <= 501058.6418768483
 c4437: 120 p_2_2 + 120 p_2_3 + 120 p_2_4 + 120 p_2_6 + 120 p_2_9 + 100000 z_2_2 + 100000 z_2_3 + 100000 z_2_4 + 100000 z_2_6 + 100000 z_2_9 <= 500950.97834005178
 c4438: 120 p_2_1 + 120 p_2_2 + 120 p_2_3 + 120 p_2_4 + 120 p_2_6 + 120 p_2_9 + 100000 z_2_1 + 100000 z_2_2 + 100000 z_2_3 + 100000 z_2_4 + 100000 z_2_6 + 100000 z_2_9 <= 600694.03296502575
 c4439: 120 p_2_5 + 120 p_2_6 + 120 p_2_9 + 100000 z_2_5 + 100000 z_2_6 + 100000 z_2_9 <= 301572.16468709754
 c4440: 120 p_2_1 + 120 p_2_5 + 120 p_2_6 + 120 p_2_9 + 100000 z_2_1 + 100000 z_2_5 + 100000 z_2_6 + 100000 z_2_9 <= 400938.74393490457
 c4441: 120 p_2_2 + 120 p_2_5 + 120 p_2_6 + 120 p_2_9 + 100000 z_2_2 + 100000 z_2_5 + 100000 z_2_6 + 100000 z_2_9 <= 401471.49758410704
 c4442: 120 p_2_1 + 120 p_2_2 + 120 p_2_5 + 120 p_2_6 + 120 p_2_9 + 100000 z_2_1 + 100000 z_2_2 + 100000 z_2_5 + 100000 z_2_6 + 100000 z_2_9 <= 500838.07683191408
 c4443: 120 p_2_3 + 120 p_2_5 + 120 p_2_6 + 120 p_2_9 + 100000 z_2_3 + 100000 z_2_5 + 100000 z_2_6 + 100000 z_2_9 <= 401428.00186647021
 c4444: 120 p_2_1 + 120 p_2_3 + 120 p_2_5 + 120 p_2_6 + 120 p_2_9 + 100000 z_2_1 + 100000 z_2_3 + 100000 z_2_5 + 100000 z_2_6 + 100000 z_2_9 <= 500794.58111427724
 c4445: 120 p_2_2 + 120 p_2_3 + 120 p_2_5 + 120 p_2_6 + 120 p_2_9 + 100000 z_2_2 + 100000 z_2_3 + 100000 z_2_5 + 100000 z_2_6 + 100000 z_2_9 <= 501327.33476347965
 c4446: 120 p_2_1 + 120 p_2_2 + 120 p_2_3 + 120 p_2_5 + 120 p_2_6 + 120 p_2_9 + 100000 z_2_1 + 100000 z_2_2 + 100000 z_2_3 + 100000 z_2_5 + 100000 z_2_6 + 100000 z_2_9 <= 600693.91401128669
 c4447: 120 p_2_4 + 120 p_2_5 + 120 p_2_6 + 120 p_2_9 + 100000 z_2_4 + 100000 z_2_5 + 100000 z_2_6 + 100000 z_2_9 <= 401192.76244721742
 c4448: 120 p_2_1 + 120 p_2_4 + 120 p_2_5 + 120 p_2_6 + 120 p_2_9 + 100000 z_2_1 + 100000 z_2_4 + 100000 z_2_5 + 100000 z_2_6 + 100000 z_2_9 <= 500935.81707219139
 c4449: 120 p_2_2 + 120 p_2_4 + 120 p_2_5 + 120 p_2_6 + 120 p_2_9 + 100000 z_2_2 + 100000 z_2_4 + 100000 z_2_5 + 100000 z_2_6 + 100000 z_2_9 <= 501092.09534422687
 c4450: 120 p_2_1 + 120 p_2_2 + 120 p_2_4 + 120 p_2_5 + 120 p_2_6 + 120 p_2_9 + 100000 z_2_1 + 100000 z_2_2 + 100000 z_2_4 + 100000 z_2_5 + 100000 z_2_6 + 100000 z_2_9 <= 600835.14996920084
 c4451: 120 p_2_3 + 120 p_2_4 + 120 p_2_5 + 120 p_2_6 + 120 p_2_9 + 100000 z_2_3 + 100000 z_2_4 + 100000 z_2_5 + 100000 z_2_6 + 100000 z_2_9 <= 501048.59962659003
 c4452: 120 p_2_1 + 120 p_2_3 + 120 p_2_4 + 120 p_2_5 + 120 p_2_6 + 120 p_2_9 + 100000 z_2_1 + 100000 z_2_3 + 100000 z_2_4 + 100000 z_2_5 + 100000 z_2_6 + 100000 z_2_9 <= 600791.65425156406
 c4453: 120 p_2_2 + 120 p_2_3 + 120 p_2_4 + 120 p_2_5 + 120 p_2_6 + 120 p_2_9 + 100000 z_2_2 + 100000 z_2_3 + 100000 z_2_4 + 100000 z_2_5 + 100000 z_2_6 + 100000 z_2_9 <= 600947.93252359948
 c4454: 120 p_2_1 + 120 p_2_2 + 120 p_2_3 + 120 p_2_4 + 120 p_2_5 + 120 p_2_6 + 120 p_2_9 + 100000 z_2_1 + 100000 z_2_2 + 100000 z_2_3 + 100000 z_2_4 + 100000 z_2_5 + 100000 z_2_6 + 100000 z_2_9 <= 700690.98714857351
 c4455: 120 p_2_7 + 120 p_2_9 + 100000 z_2_7 + 100000 z_2_9 <= 201272.08582788589
 c4456: 120 p_2_1 + 120 p_2_7 + 120 p_2_9 + 100000 z_2_1 + 100000 z_2_7 + 100000 z_2_9 <= 301266.72939603101
 c4457: 120 p_2_2 + 120 p_2_7 + 120 p_2_9 + 100000 z_2_2 + 100000 z_2_7 + 100000 z_2_9 <= 300860.67157119169
 c4458: 120 p_2_1 + 120 p_2_2 + 120 p_2_7 + 120 p_2_9 + 100000 z_2_1 + 100000 z_2_2 + 100000 z_2_7 + 100000 z_2_9 <= 400855.3151393368
 c4459: 120 p_2_3 + 120 p_2_7 + 120 p_2_9 + 100000 z_2_3 + 100000 z_2_7 + 100000 z_2_9 <= 301050.88016696624
 c4460: 120 p_2_1 + 120 p_2_3 + 120 p_2_7 + 120 p_2_9 + 100000 z_2_1 + 100000 z_2_3 + 100000 z_2_7 + 100000 z_2_9 <= 401045.52373511135
 c4461: 120 p_2_2 + 120 p_2_3 + 120 p_2_7 + 120 p_2_9 + 100000 z_2_2 + 100000 z_2_3 + 100000 z_2_7 + 100000 z_2_9 <= 400695.18017722957
 c4462: 120 p_2_1 + 120 p_2_2 + 120 p_2_3 + 120 p_2_7 + 120 p_2_9 + 100000 z_2_1 + 100000 z_2_2 + 100000 z_2_3 + 100000 z_2_7 + 100000 z_2_9 <= 500689.82374537468
 c4463: 120 p_2_4 + 120 p_2_7 + 120 p_2_9 + 100000 z_2_4 + 100000 z_2_7 + 100000 z_2_9 <= 301270.88728479308
 c4464: 120 p_2_1 + 120 p_2_4 + 120 p_2_7 + 120 p_2_9 + 100000 z_2_1 + 100000 z_2_4 + 100000 z_2_7 + 100000 z_2_9 <= 401263.80253331782
 c4465: 120 p_2_2 + 120 p_2_4 + 120 p_2_7 + 120 p_2_9 + 100000 z_2_2 + 100000 z_2_4 + 100000 z_2_7 + 100000 z_2_9 <= 400859.47302809887
 c4466: 120 p_2_1 + 120 p_2_2 + 120 p_2_4 + 120 p_2_7 + 120 p_2_9 + 100000 z_2_1 + 100000 z_2_2 + 100000 z_2_4 + 100000 z_2_7 + 100000 z_2_9 <= 500852.38827662362
 c4467: 120 p_2_3 + 120 p_2_4 + 120 p_2_7 + 120 p_2_9 + 100000 z_2_3 + 100000 z_2_4 + 100000 z_2_7 + 100000 z_2_9 <= 401049.68162387336
 c4468: 120 p_2_1 + 120 p_2_3 + 120 p_2_4 + 120 p_2_7 + 120 p_2_9 + 100000 z_2_1 + 100000 z_2_3 + 100000 z_2_4 + 100000 z_2_7 + 100000 z_2_9 <= 501042.59687239816
 c4469: 120 p_2_2 + 120 p_2_3 + 120 p_2_4 + 120 p_2_7 + 120 p_2_9 + 100000 z_2_2 + 100000 z_2_3 + 100000 z_2_4 + 100000 z_2_7 + 100000 z_2_9 <= 500693.9816341367
 c4470: 120 p_2_1 + 120 p_2_2 + 120 p_2_3 + 120 p_2_4 + 120 p_2_7 + 120 p_2_9 + 100000 z_2_1 + 100000 z_2_2 + 100000 z_2_3 + 100000 z_2_4 + 100000 z_2_7 + 100000 z_2_9 <= 600686.8968826615
 c4471: 120 p_2_5 + 120 p_2_7 + 120 p_2_9 + 100000 z_2_5 + 100000 z_2_7 + 100000 z_2_9 <= 300961.81790259603
 c4472: 120 p_2_1 + 120 p_2_5 + 120 p_2_7 + 120 p_2_9 + 100000 z_2_1 + 100000 z_2_5 + 100000 z_2_7 + 100000 z_2_9 <= 400956.46147074114
 c4473: 120 p_2_2 + 120 p_2_5 + 120 p_2_7 + 120 p_2_9 + 100000 z_2_2 + 100000 z_2_5 + 100000 z_2_7 + 100000 z_2_9 <= 400858.02071286761
 c4474: 120 p_2_1 + 120 p_2_2 + 120 p_2_5 + 120 p_2_7 + 120 p_2_9 + 100000 z_2_1 + 100000 z_2_2 + 100000 z_2_5 + 100000 z_2_7 + 100000 z_2_9 <= 500852.66428101272
 c4475: 120 p_2_3 + 120 p_2_5 + 120 p_2_7 + 120 p_2_9 + 100000 z_2_3 + 100000 z_2_5 + 100000 z_2_7 + 100000 z_2_9 <= 400789.87636215327
 c4476: 120 p_2_1 + 120 p_2_3 + 120 p_2_5 + 120 p_2_7 + 120 p_2_9 + 100000 z_2_1 + 100000 z_2_3 + 100000 z_2_5 + 100000 z_2_7 + 100000 z_2_9 <= 500784.51993029838
 c4477: 120 p_2_2 + 120 p_2_3 + 120 p_2_5 + 120 p_2_7 + 120 p_2_9 + 100000 z_2_2 + 100000 z_2_3 + 100000 z_2_5 + 100000 z_2_7 + 100000 z_2_9 <= 500692.13436077733
 c4478: 120 p_2_1 + 120 p_2_2 + 120 p_2_3 + 120 p_2_5 + 120 p_2_7 + 120 p_2_9 + 100000 z_2_1 + 100000 z_2_2 + 100000 z_2_3 + 100000 z_2_5 + 100000 z_2_7 + 100000 z_2_9 <= 600686.77792892244
 c4479: 120 p_2_4 + 120 p_2_5 + 120 p_2_7 + 120 p_2_9 + 100000 z_2_4 + 100000 z_2_5 + 100000 z_2_7 + 100000 z_2_9 <= 400960.61935950321
 c4480: 120 p_2_1 + 120 p_2_4 + 120 p_2_5 + 120 p_2_7 + 120 p_2_9 + 100000 z_2_1 + 100000 z_2_4 + 100000 z_2_5 + 100000 z_2_7 + 100000 z_2_9 <= 500953.53460802796
 c4481: 120 p_2_2 + 120 p_2_4 + 120 p_2_5 + 120 p_2_7 + 120 p_2_9 + 100000 z_2_2 + 100000 z_2_4 + 100000 z_2_5 + 100000 z_2_7 + 100000 z_2_9 <= 500856.82216977474
 c4482: 120 p_2_1 + 120 p_2_2 + 120 p_2_4 + 120 p_2_5 + 120 p_2_7 + 120 p_2_9 + 100000 z_2_1 + 100000 z_2_2 + 100000 z_2_4 + 100000 z_2_5 + 100000 z_2_7 + 100000 z_2_9 <= 600849.73741829954
 c4483: 120 p_2_3 + 120 p_2_4 + 120 p_2_5 + 120 p_2_7 + 120 p_2_9 + 100000 z_2_3 + 100000 z_2_4 + 100000 z_2_5 + 100000 z_2_7 + 100000 z_2_9 <= 500788.67781906045
 c4484: 120 p_2_1 + 120 p_2_3 + 120 p_2_4 + 120 p_2_5 + 120 p_2_7 + 120 p_2_9 + 100000 z_2_1 + 100000 z_2_3 + 100000 z_2_4 + 100000 z_2_5 + 100000 z_2_7 + 100000 z_2_9 <= 600781.59306758526
 c4485: 120 p_2_2 + 120 p_2_3 + 120 p_2_4 + 120 p_2_5 + 120 p_2_7 + 120 p_2_9 + 100000 z_2_2 + 100000 z_2_3 + 100000 z_2_4 + 100000 z_2_5 + 100000 z_2_7 + 100000 z_2_9 <= 600690.93581768451
 c4486: 120 p_2_1 + 120 p_2_2 + 120 p_2_3 + 120 p_2_4 + 120 p_2_5 + 120 p_2_7 + 120 p_2_9 + 100000 z_2_1 + 100000 z_2_2 + 100000 z_2_3 + 100000 z_2_4 + 100000 z_2_5 + 100000 z_2_7 + 100000 z_2_9 <= 700683.85106620926
 c4487: 120 p_2_6 + 120 p_2_7 + 120 p_2_9 + 100000 z_2_6 + 100000 z_2_7 + 100000 z_2_9 <= 301193.3545741089
 c4488: 120 p_2_1 + 120 p_2_6 + 120 p_2_7 + 120 p_2_9 + 100000 z_2_1 + 100000 z_2_6 + 100000 z_2_7 + 100000 z_2_9 <= 401187.99814225401
 c4489: 120 p_2_2 + 120 p_2_6 + 120 p_2_7 + 120 p_2_9 + 100000 z_2_2 + 100000 z_2_6 + 100000 z_2_7 + 100000 z_2_9 <= 400828.74566228635
 c4490: 120 p_2_1 + 120 p_2_2 + 120 p_2_6 + 120 p_2_7 + 120 p_2_9 + 100000 z_2_1 + 100000 z_2_2 + 100000 z_2_6 + 100000 z_2_7 + 100000 z_2_9 <= 500823.38923043146
 c4491: 120 p_2_3 + 120 p_2_6 + 120 p_2_7 + 120 p_2_9 + 100000 z_2_3 + 100000 z_2_6 + 100000 z_2_7 + 100000 z_2_9 <= 401049.19175348157
 c4492: 120 p_2_1 + 120 p_2_3 + 120 p_2_6 + 120 p_2_7 + 120 p_2_9 + 100000 z_2_1 + 100000 z_2_3 + 100000 z_2_6 + 100000 z_2_7 + 100000 z_2_9 <= 501043.83532162668
 c4493: 120 p_2_2 + 120 p_2_3 + 120 p_2_6 + 120 p_2_7 + 120 p_2_9 + 100000 z_2_2 + 100000 z_2_3 + 100000 z_2_6 + 100000 z_2_7 + 100000 z_2_9 <= 500684.58284165902
 c4494: 120 p_2_1 + 120 p_2_2 + 120 p_2_3 + 120 p_2_6 + 120 p_2_7 + 120 p_2_9 + 100000 z_2_1 + 100000 z_2_2 + 100000 z_2_3 + 100000 z_2_6 + 100000 z_2_7 + 100000 z_2_9 <= 600679.22640980408
 c4495: 120 p_2_4 + 120 p_2_6 + 120 p_2_7 + 120 p_2_9 + 100000 z_2_4 + 100000 z_2_6 + 100000 z_2_7 + 100000 z_2_9 <= 401192.15603101603
 c4496: 120 p_2_1 + 120 p_2_4 + 120 p_2_6 + 120 p_2_7 + 120 p_2_9 + 100000 z_2_1 + 100000 z_2_4 + 100000 z_2_6 + 100000 z_2_7 + 100000 z_2_9 <= 501185.07127954083
 c4497: 120 p_2_2 + 120 p_2_4 + 120 p_2_6 + 120 p_2_7 + 120 p_2_9 + 100000 z_2_2 + 100000 z_2_4 + 100000 z_2_6 + 100000 z_2_7 + 100000 z_2_9 <= 500827.54711919348
 c4498: 120 p_2_1 + 120 p_2_2 + 120 p_2_4 + 120 p_2_6 + 120 p_2_7 + 120 p_2_9 + 100000 z_2_1 + 100000 z_2_2 + 100000 z_2_4 + 100000 z_2_6 + 100000 z_2_7 + 100000 z_2_9 <= 600820.46236771834
 c4499: 120 p_2_3 + 120 p_2_4 + 120 p_2_6 + 120 p_2_7 + 120 p_2_9 + 100000 z_2_3 + 100000 z_2_4 + 100000 z_2_6 + 100000 z_2_7 + 100000 z_2_9 <= 501047.9932103887
 c4500: 120 p_2_1 + 120 p_2_3 + 120 p_2_4 + 120 p_2_6 + 120 p_2_7 + 120 p_2_9 + 100000 z_2_1 + 100000 z_2_3 + 100000 z_2_4 + 100000 z_2_6 + 100000 z_2_7 + 100000 z_2_9 <= 601040.90845891344
 c4501: 120 p_2_2 + 120 p_2_3 + 120 p_2_4 + 120 p_2_6 + 120 p_2_7 + 120 p_2_9 + 100000 z_2_2 + 100000 z_2_3 + 100000 z_2_4 + 100000 z_2_6 + 100000 z_2_7 + 100000 z_2_9 <= 600683.38429856615
 c4502: 120 p_2_1 + 120 p_2_2 + 120 p_2_3 + 120 p_2_4 + 120 p_2_6 + 120 p_2_7 + 120 p_2_9 + 100000 z_2_1 + 100000 z_2_2 + 100000 z_2_3 + 100000 z_2_4 + 100000 z_2_6 + 100000 z_2_7 + 100000 z_2_9 <= 700676.29954709089
 c4503: 120 p_2_5 + 120 p_2_6 + 120 p_2_7 + 120 p_2_9 + 100000 z_2_5 + 100000 z_2_6 + 100000 z_2_7 + 100000 z_2_9 <= 400926.36694882461
 c4504: 120 p_2_1 + 120 p_2_5 + 120 p_2_6 + 120 p_2_7 + 120 p_2_9 + 100000 z_2_1 + 100000 z_2_5 + 100000 z_2_6 + 100000 z_2_7 + 100000 z_2_9 <= 500921.01051696978
 c4505: 120 p_2_2 + 120 p_2_5 + 120 p_2_6 + 120 p_2_7 + 120 p_2_9 + 100000 z_2_2 + 100000 z_2_5 + 100000 z_2_6 + 100000 z_2_7 + 100000 z_2_9 <= 500825.69984583411
 c4506: 120 p_2_1 + 120 p_2_2 + 120 p_2_5 + 120 p_2_6 + 120 p_2_7 + 120 p_2_9 + 100000 z_2_1 + 100000 z_2_2 + 100000 z_2_5 + 100000 z_2_6 + 100000 z_2_7 + 100000 z_2_9 <= 600820.34341397928
 c4507: 120 p_2_3 + 120 p_2_5 + 120 p_2_6 + 120 p_2_7 + 120 p_2_9 + 100000 z_2_3 + 100000 z_2_5 + 100000 z_2_6 + 100000 z_2_7 + 100000 z_2_9 <= 500782.20412819728
 c4508: 120 p_2_1 + 120 p_2_3 + 120 p_2_5 + 120 p_2_6 + 120 p_2_7 + 120 p_2_9 + 100000 z_2_1 + 100000 z_2_3 + 100000 z_2_5 + 100000 z_2_6 + 100000 z_2_7 + 100000 z_2_9 <= 600776.84769634239
 c4509: 120 p_2_2 + 120 p_2_3 + 120 p_2_5 + 120 p_2_6 + 120 p_2_7 + 120 p_2_9 + 100000 z_2_2 + 100000 z_2_3 + 100000 z_2_5 + 100000 z_2_6 + 100000 z_2_7 + 100000 z_2_9 <= 600681.53702520672
 c4510: 120 p_2_1 + 120 p_2_2 + 120 p_2_3 + 120 p_2_5 + 120 p_2_6 + 120 p_2_7 + 120 p_2_9 + 100000 z_2_1 + 100000 z_2_2 + 100000 z_2_3 + 100000 z_2_5 + 100000 z_2_6 + 100000 z_2_7 + 100000 z_2_9 <= 700676.18059335183
 c4511: 120 p_2_4 + 120 p_2_5 + 120 p_2_6 + 120 p_2_7 + 120 p_2_9 + 100000 z_2_4 + 100000 z_2_5 + 100000 z_2_6 + 100000 z_2_7 + 100000 z_2_9 <= 500925.16840573179
 c4512: 120 p_2_1 + 120 p_2_4 + 120 p_2_5 + 120 p_2_6 + 120 p_2_7 + 120 p_2_9 + 100000 z_2_1 + 100000 z_2_4 + 100000 z_2_5 + 100000 z_2_6 + 100000 z_2_7 + 100000 z_2_9 <= 600918.08365425654
 c4513: 120 p_2_2 + 120 p_2_4 + 120 p_2_5 + 120 p_2_6 + 120 p_2_7 + 120 p_2_9 + 100000 z_2_2 + 100000 z_2_4 + 100000 z_2_5 + 100000 z_2_6 + 100000 z_2_7 + 100000 z_2_9 <= 600824.50130274124
 c4514: 120 p_2_1 + 120 p_2_2 + 120 p_2_4 + 120 p_2_5 + 120 p_2_6 + 120 p_2_7 + 120 p_2_9 + 100000 z_2_1 + 100000 z_2_2 + 100000 z_2_4 + 100000 z_2_5 + 100000 z_2_6 + 100000 z_2_7 + 100000 z_2_9 <= 700817.41655126598
 c4515: 120 p_2_3 + 120 p_2_4 + 120 p_2_5 + 120 p_2_6 + 120 p_2_7 + 120 p_2_9 + 100000 z_2_3 + 100000 z_2_4 + 100000 z_2_5 + 100000 z_2_6 + 100000 z_2_7 + 100000 z_2_9 <= 600781.00558510446
 c4516: 120 p_2_1 + 120 p_2_3 + 120 p_2_4 + 120 p_2_5 + 120 p_2_6 + 120 p_2_7 + 120 p_2_9 + 100000 z_2_1 + 100000 z_2_3 + 100000 z_2_4 + 100000 z_2_5 + 100000 z_2_6 + 100000 z_2_7 + 100000 z_2_9 <= 700773.92083362921
 c4517: 120 p_2_2 + 120 p_2_3 + 120 p_2_4 + 120 p_2_5 + 120 p_2_6 + 120 p_2_7 + 120 p_2_9 + 100000 z_2_2 + 100000 z_2_3 + 100000 z_2_4 + 100000 z_2_5 + 100000 z_2_6 + 100000 z_2_7 + 100000 z_2_9 <= 700680.3384821139
 c4518: 120 p_2_1 + 120 p_2_2 + 120 p_2_3 + 120 p_2_4 + 120 p_2_5 + 120 p_2_6 + 120 p_2_7 + 120 p_2_9 + 100000 z_2_1 + 100000 z_2_2 + 100000 z_2_3 + 100000 z_2_4 + 100000 z_2_5 + 100000 z_2_6 + 100000 z_2_7 + 100000 z_2_9 <= 800673.25373063865
 c4519: 120 p_2_8 + 120 p_2_9 + 100000 z_2_8 + 100000 z_2_9 <= 201577.32453379335
 c4520: 120 p_2_1 + 120 p_2_8 + 120 p_2_9 + 100000 z_2_1 + 100000 z_2_8 + 100000 z_2_9 <= 300943.90378160035
 c4521: 120 p_2_2 + 120 p_2_8 + 120 p_2_9 + 100000 z_2_2 + 100000 z_2_8 + 100000 z_2_9 <= 301503.67961871909
 c4522: 120 p_2_1 + 120 p_2_2 + 120 p_2_8 + 120 p_2_9 + 100000 z_2_1 + 100000 z_2_2 + 100000 z_2_8 + 100000 z_2_9 <= 400870.25886652619
 c4523: 120 p_2_3 + 120 p_2_8 + 120 p_2_9 + 100000 z_2_3 + 100000 z_2_8 + 100000 z_2_9 <= 301414.52853591967
 c4524: 120 p_2_1 + 120 p_2_3 + 120 p_2_8 + 120 p_2_9 + 100000 z_2_1 + 100000 z_2_3 + 100000 z_2_8 + 100000 z_2_9 <= 400781.10778372671
 c4525: 120 p_2_2 + 120 p_2_3 + 120 p_2_8 + 120 p_2_9 + 100000 z_2_2 + 100000 z_2_3 + 100000 z_2_8 + 100000 z_2_9 <= 401340.88362084544
 c4526: 120 p_2_1 + 120 p_2_2 + 120 p_2_3 + 120 p_2_8 + 120 p_2_9 + 100000 z_2_1 + 100000 z_2_2 + 100000 z_2_3 + 100000 z_2_8 + 100000 z_2_9 <= 500707.46286865248
 c4527: 120 p_2_4 + 120 p_2_8 + 120 p_2_9 + 100000 z_2_4 + 100000 z_2_8 + 100000 z_2_9 <= 301197.9222939132
 c4528: 120 p_2_1 + 120 p_2_4 + 120 p_2_8 + 120 p_2_9 + 100000 z_2_1 + 100000 z_2_4 + 100000 z_2_8 + 100000 z_2_9 <= 400940.97691888717
 c4529: 120 p_2_2 + 120 p_2_4 + 120 p_2_8 + 120 p_2_9 + 100000 z_2_2 + 100000 z_2_4 + 100000 z_2_8 + 100000 z_2_9 <= 401124.27737883897
 c4530: 120 p_2_1 + 120 p_2_2 + 120 p_2_4 + 120 p_2_8 + 120 p_2_9 + 100000 z_2_1 + 100000 z_2_2 + 100000 z_2_4 + 100000 z_2_8 + 100000 z_2_9 <= 500867.33200381295
 c4531: 120 p_2_3 + 120 p_2_4 + 120 p_2_8 + 120 p_2_9 + 100000 z_2_3 + 100000 z_2_4 + 100000 z_2_8 + 100000 z_2_9 <= 401035.1262960395
 c4532: 120 p_2_1 + 120 p_2_3 + 120 p_2_4 + 120 p_2_8 + 120 p_2_9 + 100000 z_2_1 + 100000 z_2_3 + 100000 z_2_4 + 100000 z_2_8 + 100000 z_2_9 <= 500778.18092101353
 c4533: 120 p_2_2 + 120 p_2_3 + 120 p_2_4 + 120 p_2_8 + 120 p_2_9 + 100000 z_2_2 + 100000 z_2_3 + 100000 z_2_4 + 100000 z_2_8 + 100000 z_2_9 <= 500961.48138096527
 c4534: 120 p_2_1 + 120 p_2_2 + 120 p_2_3 + 120 p_2_4 + 120 p_2_8 + 120 p_2_9 + 100000 z_2_1 + 100000 z_2_2 + 100000 z_2_3 + 100000 z_2_4 + 100000 z_2_8 + 100000 z_2_9 <= 600704.53600593924
 c4535: 120 p_2_5 + 120 p_2_8 + 120 p_2_9 + 100000 z_2_5 + 100000 z_2_8 + 100000 z_2_9 <= 301570.69555599731
 c4536: 120 p_2_1 + 120 p_2_5 + 120 p_2_8 + 120 p_2_9 + 100000 z_2_1 + 100000 z_2_5 + 100000 z_2_8 + 100000 z_2_9 <= 400937.27480380435
 c4537: 120 p_2_2 + 120 p_2_5 + 120 p_2_8 + 120 p_2_9 + 100000 z_2_2 + 100000 z_2_5 + 100000 z_2_8 + 100000 z_2_9 <= 401500.63380226685
 c4538: 120 p_2_1 + 120 p_2_2 + 120 p_2_5 + 120 p_2_8 + 120 p_2_9 + 100000 z_2_1 + 100000 z_2_2 + 100000 z_2_5 + 100000 z_2_8 + 100000 z_2_9 <= 500867.21305007394
 c4539: 120 p_2_3 + 120 p_2_5 + 120 p_2_8 + 120 p_2_9 + 100000 z_2_3 + 100000 z_2_5 + 100000 z_2_8 + 100000 z_2_9 <= 401407.89955812361
 c4540: 120 p_2_1 + 120 p_2_3 + 120 p_2_5 + 120 p_2_8 + 120 p_2_9 + 100000 z_2_1 + 100000 z_2_3 + 100000 z_2_5 + 100000 z_2_8 + 100000 z_2_9 <= 500774.47880593064
 c4541: 120 p_2_2 + 120 p_2_3 + 120 p_2_5 + 120 p_2_8 + 120 p_2_9 + 100000 z_2_2 + 100000 z_2_3 + 100000 z_2_5 + 100000 z_2_8 + 100000 z_2_9 <= 501337.8378043932
 c4542: 120 p_2_1 + 120 p_2_2 + 120 p_2_3 + 120 p_2_5 + 120 p_2_8 + 120 p_2_9 + 100000 z_2_1 + 100000 z_2_2 + 100000 z_2_3 + 100000 z_2_5 + 100000 z_2_8 + 100000 z_2_9 <= 600704.41705220018
 c4543: 120 p_2_4 + 120 p_2_5 + 120 p_2_8 + 120 p_2_9 + 100000 z_2_4 + 100000 z_2_5 + 100000 z_2_8 + 100000 z_2_9 <= 401191.29331611714
 c4544: 120 p_2_1 + 120 p_2_4 + 120 p_2_5 + 120 p_2_8 + 120 p_2_9 + 100000 z_2_1 + 100000 z_2_4 + 100000 z_2_5 + 100000 z_2_8 + 100000 z_2_9 <= 500934.34794109117
 c4545: 120 p_2_2 + 120 p_2_4 + 120 p_2_5 + 120 p_2_8 + 120 p_2_9 + 100000 z_2_2 + 100000 z_2_4 + 100000 z_2_5 + 100000 z_2_8 + 100000 z_2_9 <= 501121.23156238673
 c4546: 120 p_2_1 + 120 p_2_2 + 120 p_2_4 + 120 p_2_5 + 120 p_2_8 + 120 p_2_9 + 100000 z_2_1 + 100000 z_2_2 + 100000 z_2_4 + 100000 z_2_5 + 100000 z_2_8 + 100000 z_2_9 <= 600864.28618736076
 c4547: 120 p_2_3 + 120 p_2_4 + 120 p_2_5 + 120 p_2_8 + 120 p_2_9 + 100000 z_2_3 + 100000 z_2_4 + 100000 z_2_5 + 100000 z_2_8 + 100000 z_2_9 <= 501028.49731824349
 c4548: 120 p_2_1 + 120 p_2_3 + 120 p_2_4 + 120 p_2_5 + 120 p_2_8 + 120 p_2_9 + 100000 z_2_1 + 100000 z_2_3 + 100000 z_2_4 + 100000 z_2_5 + 100000 z_2_8 + 100000 z_2_9 <= 600771.55194321752
 c4549: 120 p_2_2 + 120 p_2_3 + 120 p_2_4 + 120 p_2_5 + 120 p_2_8 + 120 p_2_9 + 100000 z_2_2 + 100000 z_2_3 + 100000 z_2_4 + 100000 z_2_5 + 100000 z_2_8 + 100000 z_2_9 <= 600958.43556451309
 c4550: 120 p_2_1 + 120 p_2_2 + 120 p_2_3 + 120 p_2_4 + 120 p_2_5 + 120 p_2_8 + 120 p_2_9 + 100000 z_2_1 + 100000 z_2_2 + 100000 z_2_3 + 100000 z_2_4 + 100000 z_2_5 + 100000 z_2_8 + 100000 z_2_9 <= 700701.490189487
 c4551: 120 p_2_6 + 120 p_2_8 + 120 p_2_9 + 100000 z_2_6 + 100000 z_2_8 + 100000 z_2_9 <= 301547.4187636305
 c4552: 120 p_2_1 + 120 p_2_6 + 120 p_2_8 + 120 p_2_9 + 100000 z_2_1 + 100000 z_2_6 + 100000 z_2_8 + 100000 z_2_9 <= 400913.99801143754
 c4553: 120 p_2_2 + 120 p_2_6 + 120 p_2_8 + 120 p_2_9 + 100000 z_2_2 + 100000 z_2_6 + 100000 z_2_8 + 100000 z_2_9 <= 401473.77384855627
 c4554: 120 p_2_1 + 120 p_2_2 + 120 p_2_6 + 120 p_2_8 + 120 p_2_9 + 100000 z_2_1 + 100000 z_2_2 + 100000 z_2_6 + 100000 z_2_8 + 100000 z_2_9 <= 500840.35309636331
 c4555: 120 p_2_3 + 120 p_2_6 + 120 p_2_8 + 120 p_2_9 + 100000 z_2_3 + 100000 z_2_6 + 100000 z_2_8 + 100000 z_2_9 <= 401403.25594300311
 c4556: 120 p_2_1 + 120 p_2_3 + 120 p_2_6 + 120 p_2_8 + 120 p_2_9 + 100000 z_2_1 + 100000 z_2_3 + 100000 z_2_6 + 100000 z_2_8 + 100000 z_2_9 <= 500769.83519081015
 c4557: 120 p_2_2 + 120 p_2_3 + 120 p_2_6 + 120 p_2_8 + 120 p_2_9 + 100000 z_2_2 + 100000 z_2_3 + 100000 z_2_6 + 100000 z_2_8 + 100000 z_2_9 <= 501329.61102792894
 c4558: 120 p_2_1 + 120 p_2_2 + 120 p_2_3 + 120 p_2_6 + 120 p_2_8 + 120 p_2_9 + 100000 z_2_1 + 100000 z_2_2 + 100000 z_2_3 + 100000 z_2_6 + 100000 z_2_8 + 100000 z_2_9 <= 600696.19027573592
 c4559: 120 p_2_4 + 120 p_2_6 + 120 p_2_8 + 120 p_2_9 + 100000 z_2_4 + 100000 z_2_6 + 100000 z_2_8 + 100000 z_2_9 <= 401168.01652375032
 c4560: 120 p_2_1 + 120 p_2_4 + 120 p_2_6 + 120 p_2_8 + 120 p_2_9 + 100000 z_2_1 + 100000 z_2_4 + 100000 z_2_6 + 100000 z_2_8 + 100000 z_2_9 <= 500911.0711487243
 c4561: 120 p_2_2 + 120 p_2_4 + 120 p_2_6 + 120 p_2_8 + 120 p_2_9 + 100000 z_2_2 + 100000 z_2_4 + 100000 z_2_6 + 100000 z_2_8 + 100000 z_2_9 <= 501094.3716086761
 c4562: 120 p_2_1 + 120 p_2_2 + 120 p_2_4 + 120 p_2_6 + 120 p_2_8 + 120 p_2_9 + 100000 z_2_1 + 100000 z_2_2 + 100000 z_2_4 + 100000 z_2_6 + 100000 z_2_8 + 100000 z_2_9 <= 600837.42623365007
 c4563: 120 p_2_3 + 120 p_2_4 + 120 p_2_6 + 120 p_2_8 + 120 p_2_9 + 100000 z_2_3 + 100000 z_2_4 + 100000 z_2_6 + 100000 z_2_8 + 100000 z_2_9 <= 501023.85370312299
 c4564: 120 p_2_1 + 120 p_2_3 + 120 p_2_4 + 120 p_2_6 + 120 p_2_8 + 120 p_2_9 + 100000 z_2_1 + 100000 z_2_3 + 100000 z_2_4 + 100000 z_2_6 + 100000 z_2_8 + 100000 z_2_9 <= 600766.90832809696
 c4565: 120 p_2_2 + 120 p_2_3 + 120 p_2_4 + 120 p_2_6 + 120 p_2_8 + 120 p_2_9 + 100000 z_2_2 + 100000 z_2_3 + 100000 z_2_4 + 100000 z_2_6 + 100000 z_2_8 + 100000 z_2_9 <= 600950.20878804871
 c4566: 120 p_2_1 + 120 p_2_2 + 120 p_2_3 + 120 p_2_4 + 120 p_2_6 + 120 p_2_8 + 120 p_2_9 + 100000 z_2_1 + 100000 z_2_2 + 100000 z_2_3 + 100000 z_2_4 + 100000 z_2_6 + 100000 z_2_8 + 100000 z_2_9 <= 700693.26341302274
 c4567: 120 p_2_5 + 120 p_2_6 + 120 p_2_8 + 120 p_2_9 + 100000 z_2_5 + 100000 z_2_6 + 100000 z_2_8 + 100000 z_2_9 <= 401540.78978583444
 c4568: 120 p_2_1 + 120 p_2_5 + 120 p_2_6 + 120 p_2_8 + 120 p_2_9 + 100000 z_2_1 + 100000 z_2_5 + 100000 z_2_6 + 100000 z_2_8 + 100000 z_2_9 <= 500907.36903364147
 c4569: 120 p_2_2 + 120 p_2_5 + 120 p_2_6 + 120 p_2_8 + 120 p_2_9 + 100000 z_2_2 + 100000 z_2_5 + 100000 z_2_6 + 100000 z_2_8 + 100000 z_2_9 <= 501470.72803210403
 c4570: 120 p_2_1 + 120 p_2_2 + 120 p_2_5 + 120 p_2_6 + 120 p_2_8 + 120 p_2_9 + 100000 z_2_1 + 100000 z_2_2 + 100000 z_2_5 + 100000 z_2_6 + 100000 z_2_8 + 100000 z_2_9 <= 600837.30727991101
 c4571: 120 p_2_3 + 120 p_2_5 + 120 p_2_6 + 120 p_2_8 + 120 p_2_9 + 100000 z_2_3 + 100000 z_2_5 + 100000 z_2_6 + 100000 z_2_8 + 100000 z_2_9 <= 501396.62696520711
 c4572: 120 p_2_1 + 120 p_2_3 + 120 p_2_5 + 120 p_2_6 + 120 p_2_8 + 120 p_2_9 + 100000 z_2_1 + 100000 z_2_3 + 100000 z_2_5 + 100000 z_2_6 + 100000 z_2_8 + 100000 z_2_9 <= 600763.20621301408
 c4573: 120 p_2_2 + 120 p_2_3 + 120 p_2_5 + 120 p_2_6 + 120 p_2_8 + 120 p_2_9 + 100000 z_2_2 + 100000 z_2_3 + 100000 z_2_5 + 100000 z_2_6 + 100000 z_2_8 + 100000 z_2_9 <= 601326.56521147664
 c4574: 120 p_2_1 + 120 p_2_2 + 120 p_2_3 + 120 p_2_5 + 120 p_2_6 + 120 p_2_8 + 120 p_2_9 + 100000 z_2_1 + 100000 z_2_2 + 100000 z_2_3 + 100000 z_2_5 + 100000 z_2_6 + 100000 z_2_8 + 100000 z_2_9 <= 700693.14445928368
 c4575: 120 p_2_4 + 120 p_2_5 + 120 p_2_6 + 120 p_2_8 + 120 p_2_9 + 100000 z_2_4 + 100000 z_2_5 + 100000 z_2_6 + 100000 z_2_8 + 100000 z_2_9 <= 501161.38754595426
 c4576: 120 p_2_1 + 120 p_2_4 + 120 p_2_5 + 120 p_2_6 + 120 p_2_8 + 120 p_2_9 + 100000 z_2_1 + 100000 z_2_4 + 100000 z_2_5 + 100000 z_2_6 + 100000 z_2_8 + 100000 z_2_9 <= 600904.44217092823
 c4577: 120 p_2_2 + 120 p_2_4 + 120 p_2_5 + 120 p_2_6 + 120 p_2_8 + 120 p_2_9 + 100000 z_2_2 + 100000 z_2_4 + 100000 z_2_5 + 100000 z_2_6 + 100000 z_2_8 + 100000 z_2_9 <= 601091.32579222391
 c4578: 120 p_2_1 + 120 p_2_2 + 120 p_2_4 + 120 p_2_5 + 120 p_2_6 + 120 p_2_8 + 120 p_2_9 + 100000 z_2_1 + 100000 z_2_2 + 100000 z_2_4 + 100000 z_2_5 + 100000 z_2_6 + 100000 z_2_8 + 100000 z_2_9 <= 700834.38041719783
 c4579: 120 p_2_3 + 120 p_2_4 + 120 p_2_5 + 120 p_2_6 + 120 p_2_8 + 120 p_2_9 + 100000 z_2_3 + 100000 z_2_4 + 100000 z_2_5 + 100000 z_2_6 + 100000 z_2_8 + 100000 z_2_9 <= 601017.22472532699
 c4580: 120 p_2_1 + 120 p_2_3 + 120 p_2_4 + 120 p_2_5 + 120 p_2_6 + 120 p_2_8 + 120 p_2_9 + 100000 z_2_1 + 100000 z_2_3 + 100000 z_2_4 + 100000 z_2_5 + 100000 z_2_6 + 100000 z_2_8 + 100000 z_2_9 <= 700760.2793503009
 c4581: 120 p_2_2 + 120 p_2_3 + 120 p_2_4 + 120 p_2_5 + 120 p_2_6 + 120 p_2_8 + 120 p_2_9 + 100000 z_2_2 + 100000 z_2_3 + 100000 z_2_4 + 100000 z_2_5 + 100000 z_2_6 + 100000 z_2_8 + 100000 z_2_9 <= 700947.16297159647
 c4582: 120 p_2_1 + 120 p_2_2 + 120 p_2_3 + 120 p_2_4 + 120 p_2_5 + 120 p_2_6 + 120 p_2_8 + 120 p_2_9 + 100000 z_2_1 + 100000 z_2_2 + 100000 z_2_3 + 100000 z_2_4 + 100000 z_2_5 + 100000 z_2_6 + 100000 z_2_8 + 100000 z_2_9 <= 800690.2175965705
 c4583: 120 p_2_7 + 120 p_2_8 + 120 p_2_9 + 100000 z_2_7 + 100000 z_2_8 + 100000 z_2_9 <= 300931.52679552045
 c4584: 120 p_2_1 + 120 p_2_7 + 120 p_2_8 + 120 p_2_9 + 100000 z_2_1 + 100000 z_2_7 + 100000 z_2_8 + 100000 z_2_9 <= 400926.17036366556
 c4585: 120 p_2_2 + 120 p_2_7 + 120 p_2_8 + 120 p_2_9 + 100000 z_2_2 + 100000 z_2_7 + 100000 z_2_8 + 100000 z_2_9 <= 400857.88188044622
 c4586: 120 p_2_1 + 120 p_2_2 + 120 p_2_7 + 120 p_2_8 + 120 p_2_9 + 100000 z_2_1 + 100000 z_2_2 + 100000 z_2_7 + 100000 z_2_8 + 100000 z_2_9 <= 500852.52544859133
 c4587: 120 p_2_3 + 120 p_2_7 + 120 p_2_8 + 120 p_2_9 + 100000 z_2_3 + 100000 z_2_7 + 100000 z_2_8 + 100000 z_2_9 <= 400768.73079764674
 c4588: 120 p_2_1 + 120 p_2_3 + 120 p_2_7 + 120 p_2_8 + 120 p_2_9 + 100000 z_2_1 + 100000 z_2_3 + 100000 z_2_7 + 100000 z_2_8 + 100000 z_2_9 <= 500763.37436579185
 c4589: 120 p_2_2 + 120 p_2_3 + 120 p_2_7 + 120 p_2_8 + 120 p_2_9 + 100000 z_2_2 + 100000 z_2_3 + 100000 z_2_7 + 100000 z_2_8 + 100000 z_2_9 <= 500695.08588257252
 c4590: 120 p_2_1 + 120 p_2_2 + 120 p_2_3 + 120 p_2_7 + 120 p_2_8 + 120 p_2_9 + 100000 z_2_1 + 100000 z_2_2 + 100000 z_2_3 + 100000 z_2_7 + 100000 z_2_8 + 100000 z_2_9 <= 600689.72945071768
 c4591: 120 p_2_4 + 120 p_2_7 + 120 p_2_8 + 120 p_2_9 + 100000 z_2_4 + 100000 z_2_7 + 100000 z_2_8 + 100000 z_2_9 <= 400930.32825242757
 c4592: 120 p_2_1 + 120 p_2_4 + 120 p_2_7 + 120 p_2_8 + 120 p_2_9 + 100000 z_2_1 + 100000 z_2_4 + 100000 z_2_7 + 100000 z_2_8 + 100000 z_2_9 <= 500923.24350095238
 c4593: 120 p_2_2 + 120 p_2_4 + 120 p_2_7 + 120 p_2_8 + 120 p_2_9 + 100000 z_2_2 + 100000 z_2_4 + 100000 z_2_7 + 100000 z_2_8 + 100000 z_2_9 <= 500856.68333735334
 c4594: 120 p_2_1 + 120 p_2_2 + 120 p_2_4 + 120 p_2_7 + 120 p_2_8 + 120 p_2_9 + 100000 z_2_1 + 100000 z_2_2 + 100000 z_2_4 + 100000 z_2_7 + 100000 z_2_8 + 100000 z_2_9 <= 600849.59858587815
 c4595: 120 p_2_3 + 120 p_2_4 + 120 p_2_7 + 120 p_2_8 + 120 p_2_9 + 100000 z_2_3 + 100000 z_2_4 + 100000 z_2_7 + 100000 z_2_8 + 100000 z_2_9 <= 500767.53225455387
 c4596: 120 p_2_1 + 120 p_2_3 + 120 p_2_4 + 120 p_2_7 + 120 p_2_8 + 120 p_2_9 + 100000 z_2_1 + 100000 z_2_3 + 100000 z_2_4 + 100000 z_2_7 + 100000 z_2_8 + 100000 z_2_9 <= 600760.44750307873
 c4597: 120 p_2_2 + 120 p_2_3 + 120 p_2_4 + 120 p_2_7 + 120 p_2_8 + 120 p_2_9 + 100000 z_2_2 + 100000 z_2_3 + 100000 z_2_4 + 100000 z_2_7 + 100000 z_2_8 + 100000 z_2_9 <= 600693.88733947964
 c4598: 120 p_2_1 + 120 p_2_2 + 120 p_2_3 + 120 p_2_4 + 120 p_2_7 + 120 p_2_8 + 120 p_2_9 + 100000 z_2_1 + 100000 z_2_2 + 100000 z_2_3 + 100000 z_2_4 + 100000 z_2_7 + 100000 z_2_8 + 100000 z_2_9 <= 700686.8025880045
 c4599: 120 p_2_5 + 120 p_2_7 + 120 p_2_8 + 120 p_2_9 + 100000 z_2_5 + 100000 z_2_7 + 100000 z_2_8 + 100000 z_2_9 <= 400924.89781772438
 c4600: 120 p_2_1 + 120 p_2_5 + 120 p_2_7 + 120 p_2_8 + 120 p_2_9 + 100000 z_2_1 + 100000 z_2_5 + 100000 z_2_7 + 100000 z_2_8 + 100000 z_2_9 <= 500919.5413858695
 c4601: 120 p_2_2 + 120 p_2_5 + 120 p_2_7 + 120 p_2_8 + 120 p_2_9 + 100000 z_2_2 + 100000 z_2_5 + 100000 z_2_7 + 100000 z_2_8 + 100000 z_2_9 <= 500854.83606399398
 c4602: 120 p_2_1 + 120 p_2_2 + 120 p_2_5 + 120 p_2_7 + 120 p_2_8 + 120 p_2_9 + 100000 z_2_1 + 100000 z_2_2 + 100000 z_2_5 + 100000 z_2_7 + 100000 z_2_8 + 100000 z_2_9 <= 600849.47963213909
 c4603: 120 p_2_3 + 120 p_2_5 + 120 p_2_7 + 120 p_2_8 + 120 p_2_9 + 100000 z_2_3 + 100000 z_2_5 + 100000 z_2_7 + 100000 z_2_8 + 100000 z_2_9 <= 500762.10181985068
 c4604: 120 p_2_1 + 120 p_2_3 + 120 p_2_5 + 120 p_2_7 + 120 p_2_8 + 120 p_2_9 + 100000 z_2_1 + 100000 z_2_3 + 100000 z_2_5 + 100000 z_2_7 + 100000 z_2_8 + 100000 z_2_9 <= 600756.74538799585
 c4605: 120 p_2_2 + 120 p_2_3 + 120 p_2_5 + 120 p_2_7 + 120 p_2_8 + 120 p_2_9 + 100000 z_2_2 + 100000 z_2_3 + 100000 z_2_5 + 100000 z_2_7 + 100000 z_2_8 + 100000 z_2_9 <= 600692.04006612033
 c4606: 120 p_2_1 + 120 p_2_2 + 120 p_2_3 + 120 p_2_5 + 120 p_2_7 + 120 p_2_8 + 120 p_2_9 + 100000 z_2_1 + 100000 z_2_2 + 100000 z_2_3 + 100000 z_2_5 + 100000 z_2_7 + 100000 z_2_8 + 100000 z_2_9 <= 700686.68363426544
 c4607: 120 p_2_4 + 120 p_2_5 + 120 p_2_7 + 120 p_2_8 + 120 p_2_9 + 100000 z_2_4 + 100000 z_2_5 + 100000 z_2_7 + 100000 z_2_8 + 100000 z_2_9 <= 500923.69927463151
 c4608: 120 p_2_1 + 120 p_2_4 + 120 p_2_5 + 120 p_2_7 + 120 p_2_8 + 120 p_2_9 + 100000 z_2_1 + 100000 z_2_4 + 100000 z_2_5 + 100000 z_2_7 + 100000 z_2_8 + 100000 z_2_9 <= 600916.61452315631
 c4609: 120 p_2_2 + 120 p_2_4 + 120 p_2_5 + 120 p_2_7 + 120 p_2_8 + 120 p_2_9 + 100000 z_2_2 + 100000 z_2_4 + 100000 z_2_5 + 100000 z_2_7 + 100000 z_2_8 + 100000 z_2_9 <= 600853.63752090116
 c4610: 120 p_2_1 + 120 p_2_2 + 120 p_2_4 + 120 p_2_5 + 120 p_2_7 + 120 p_2_8 + 120 p_2_9 + 100000 z_2_1 + 100000 z_2_2 + 100000 z_2_4 + 100000 z_2_5 + 100000 z_2_7 + 100000 z_2_8 + 100000 z_2_9 <= 700846.55276942591
 c4611: 120 p_2_3 + 120 p_2_4 + 120 p_2_5 + 120 p_2_7 + 120 p_2_8 + 120 p_2_9 + 100000 z_2_3 + 100000 z_2_4 + 100000 z_2_5 + 100000 z_2_7 + 100000 z_2_8 + 100000 z_2_9 <= 600760.9032767578
 c4612: 120 p_2_1 + 120 p_2_3 + 120 p_2_4 + 120 p_2_5 + 120 p_2_7 + 120 p_2_8 + 120 p_2_9 + 100000 z_2_1 + 100000 z_2_3 + 100000 z_2_4 + 100000 z_2_5 + 100000 z_2_7 + 100000 z_2_8 + 100000 z_2_9 <= 700753.81852528267
 c4613: 120 p_2_2 + 120 p_2_3 + 120 p_2_4 + 120 p_2_5 + 120 p_2_7 + 120 p_2_8 + 120 p_2_9 + 100000 z_2_2 + 100000 z_2_3 + 100000 z_2_4 + 100000 z_2_5 + 100000 z_2_7 + 100000 z_2_8 + 100000 z_2_9 <= 700690.8415230274
 c4614: 120 p_2_1 + 120 p_2_2 + 120 p_2_3 + 120 p_2_4 + 120 p_2_5 + 120 p_2_7 + 120 p_2_8 + 120 p_2_9 + 100000 z_2_1 + 100000 z_2_2 + 100000 z_2_3 + 100000 z_2_4 + 100000 z_2_5 + 100000 z_2_7 + 100000 z_2_8 + 100000 z_2_9 <= 800683.75677155226
 c4615: 120 p_2_6 + 120 p_2_7 + 120 p_2_8 + 120 p_2_9 + 100000 z_2_6 + 100000 z_2_7 + 100000 z_2_8 + 100000 z_2_9 <= 400901.62102535757
 c4616: 120 p_2_1 + 120 p_2_6 + 120 p_2_7 + 120 p_2_8 + 120 p_2_9 + 100000 z_2_1 + 100000 z_2_6 + 100000 z_2_7 + 100000 z_2_8 + 100000 z_2_9 <= 500896.26459350268
 c4617: 120 p_2_2 + 120 p_2_6 + 120 p_2_7 + 120 p_2_8 + 120 p_2_9 + 100000 z_2_2 + 100000 z_2_6 + 100000 z_2_7 + 100000 z_2_8 + 100000 z_2_9 <= 500827.97611028334
 c4618: 120 p_2_1 + 120 p_2_2 + 120 p_2_6 + 120 p_2_7 + 120 p_2_8 + 120 p_2_9 + 100000 z_2_1 + 100000 z_2_2 + 100000 z_2_6 + 100000 z_2_7 + 100000 z_2_8 + 100000 z_2_9 <= 600822.61967842851
 c4619: 120 p_2_3 + 120 p_2_6 + 120 p_2_7 + 120 p_2_8 + 120 p_2_9 + 100000 z_2_3 + 100000 z_2_6 + 100000 z_2_7 + 100000 z_2_8 + 100000 z_2_9 <= 500757.45820473024
 c4620: 120 p_2_1 + 120 p_2_3 + 120 p_2_6 + 120 p_2_7 + 120 p_2_8 + 120 p_2_9 + 100000 z_2_1 + 100000 z_2_3 + 100000 z_2_6 + 100000 z_2_7 + 100000 z_2_8 + 100000 z_2_9 <= 600752.10177287529
 c4621: 120 p_2_2 + 120 p_2_3 + 120 p_2_6 + 120 p_2_7 + 120 p_2_8 + 120 p_2_9 + 100000 z_2_2 + 100000 z_2_3 + 100000 z_2_6 + 100000 z_2_7 + 100000 z_2_8 + 100000 z_2_9 <= 600683.81328965595
 c4622: 120 p_2_1 + 120 p_2_2 + 120 p_2_3 + 120 p_2_6 + 120 p_2_7 + 120 p_2_8 + 120 p_2_9 + 100000 z_2_1 + 100000 z_2_2 + 100000 z_2_3 + 100000 z_2_6 + 100000 z_2_7 + 100000 z_2_8 + 100000 z_2_9 <= 700678.45685780118
 c4623: 120 p_2_4 + 120 p_2_6 + 120 p_2_7 + 120 p_2_8 + 120 p_2_9 + 100000 z_2_4 + 100000 z_2_6 + 100000 z_2_7 + 100000 z_2_8 + 100000 z_2_9 <= 500900.42248226469
 c4624: 120 p_2_1 + 120 p_2_4 + 120 p_2_6 + 120 p_2_7 + 120 p_2_8 + 120 p_2_9 + 100000 z_2_1 + 100000 z_2_4 + 100000 z_2_6 + 100000 z_2_7 + 100000 z_2_8 + 100000 z_2_9 <= 600893.33773078944
 c4625: 120 p_2_2 + 120 p_2_4 + 120 p_2_6 + 120 p_2_7 + 120 p_2_8 + 120 p_2_9 + 100000 z_2_2 + 100000 z_2_4 + 100000 z_2_6 + 100000 z_2_7 + 100000 z_2_8 + 100000 z_2_9 <= 600826.77756719047
 c4626: 120 p_2_1 + 120 p_2_2 + 120 p_2_4 + 120 p_2_6 + 120 p_2_7 + 120 p_2_8 + 120 p_2_9 + 100000 z_2_1 + 100000 z_2_2 + 100000 z_2_4 + 100000 z_2_6 + 100000 z_2_7 + 100000 z_2_8 + 100000 z_2_9 <= 700819.69281571533
 c4627: 120 p_2_3 + 120 p_2_4 + 120 p_2_6 + 120 p_2_7 + 120 p_2_8 + 120 p_2_9 + 100000 z_2_3 + 100000 z_2_4 + 100000 z_2_6 + 100000 z_2_7 + 100000 z_2_8 + 100000 z_2_9 <= 600756.25966163736
 c4628: 120 p_2_1 + 120 p_2_3 + 120 p_2_4 + 120 p_2_6 + 120 p_2_7 + 120 p_2_8 + 120 p_2_9 + 100000 z_2_1 + 100000 z_2_3 + 100000 z_2_4 + 100000 z_2_6 + 100000 z_2_7 + 100000 z_2_8 + 100000 z_2_9 <= 700749.17491016211
 c4629: 120 p_2_2 + 120 p_2_3 + 120 p_2_4 + 120 p_2_6 + 120 p_2_7 + 120 p_2_8 + 120 p_2_9 + 100000 z_2_2 + 100000 z_2_3 + 100000 z_2_4 + 100000 z_2_6 + 100000 z_2_7 + 100000 z_2_8 + 100000 z_2_9 <= 700682.61474656314
 c4630: 120 p_2_1 + 120 p_2_2 + 120 p_2_3 + 120 p_2_4 + 120 p_2_6 + 120 p_2_7 + 120 p_2_8 + 120 p_2_9 + 100000 z_2_1 + 100000 z_2_2 + 100000 z_2_3 + 100000 z_2_4 + 100000 z_2_6 + 100000 z_2_7 + 100000 z_2_8 + 100000 z_2_9 <= 800675.52999508788
 c4631: 120 p_2_5 + 120 p_2_6 + 120 p_2_7 + 120 p_2_8 + 120 p_2_9 + 100000 z_2_5 + 100000 z_2_6 + 100000 z_2_7 + 100000 z_2_8 + 100000 z_2_9 <= 500894.99204756151
 c4632: 120 p_2_1 + 120 p_2_5 + 120 p_2_6 + 120 p_2_7 + 120 p_2_8 + 120 p_2_9 + 100000 z_2_1 + 100000 z_2_5 + 100000 z_2_6 + 100000 z_2_7 + 100000 z_2_8 + 100000 z_2_9 <= 600889.63561570668
 c4633: 120 p_2_2 + 120 p_2_5 + 120 p_2_6 + 120 p_2_7 + 120 p_2_8 + 120 p_2_9 + 100000 z_2_2 + 100000 z_2_5 + 100000 z_2_6 + 100000 z_2_7 + 100000 z_2_8 + 100000 z_2_9 <= 600824.93029383104
 c4634: 120 p_2_1 + 120 p_2_2 + 120 p_2_5 + 120 p_2_6 + 120 p_2_7 + 120 p_2_8 + 120 p_2_9 + 100000 z_2_1 + 100000 z_2_2 + 100000 z_2_5 + 100000 z_2_6 + 100000 z_2_7 + 100000 z_2_8 + 100000 z_2_9 <= 700819.57386197627
 c4635: 120 p_2_3 + 120 p_2_5 + 120 p_2_6 + 120 p_2_7 + 120 p_2_8 + 120 p_2_9 + 100000 z_2_3 + 100000 z_2_5 + 100000 z_2_6 + 100000 z_2_7 + 100000 z_2_8 + 100000 z_2_9 <= 600750.82922693412
 c4636: 120 p_2_1 + 120 p_2_3 + 120 p_2_5 + 120 p_2_6 + 120 p_2_7 + 120 p_2_8 + 120 p_2_9 + 100000 z_2_1 + 100000 z_2_3 + 100000 z_2_5 + 100000 z_2_6 + 100000 z_2_7 + 100000 z_2_8 + 100000 z_2_9 <= 700745.47279507935
 c4637: 120 p_2_2 + 120 p_2_3 + 120 p_2_5 + 120 p_2_6 + 120 p_2_7 + 120 p_2_8 + 120 p_2_9 + 100000 z_2_2 + 100000 z_2_3 + 100000 z_2_5 + 100000 z_2_6 + 100000 z_2_7 + 100000 z_2_8 + 100000 z_2_9 <= 700680.76747320371
 c4638: 120 p_2_1 + 120 p_2_2 + 120 p_2_3 + 120 p_2_5 + 120 p_2_6 + 120 p_2_7 + 120 p_2_8 + 120 p_2_9 + 100000 z_2_1 + 100000 z_2_2 + 100000 z_2_3 + 100000 z_2_5 + 100000 z_2_6 + 100000 z_2_7 + 100000 z_2_8 + 100000 z_2_9 <= 800675.41104134882
 c4639: 120 p_2_4 + 120 p_2_5 + 120 p_2_6 + 120 p_2_7 + 120 p_2_8 + 120 p_2_9 + 100000 z_2_4 + 100000 z_2_5 + 100000 z_2_6 + 100000 z_2_7 + 100000 z_2_8 + 100000 z_2_9 <= 600893.79350446863
 c4640: 120 p_2_1 + 120 p_2_4 + 120 p_2_5 + 120 p_2_6 + 120 p_2_7 + 120 p_2_8 + 120 p_2_9 + 100000 z_2_1 + 100000 z_2_4 + 100000 z_2_5 + 100000 z_2_6 + 100000 z_2_7 + 100000 z_2_8 + 100000 z_2_9 <= 700886.70875299349
 c4641: 120 p_2_2 + 120 p_2_4 + 120 p_2_5 + 120 p_2_6 + 120 p_2_7 + 120 p_2_8 + 120 p_2_9 + 100000 z_2_2 + 100000 z_2_4 + 100000 z_2_5 + 100000 z_2_6 + 100000 z_2_7 + 100000 z_2_8 + 100000 z_2_9 <= 700823.73175073822
 c4642: 120 p_2_1 + 120 p_2_2 + 120 p_2_4 + 120 p_2_5 + 120 p_2_6 + 120 p_2_7 + 120 p_2_8 + 120 p_2_9 + 100000 z_2_1 + 100000 z_2_2 + 100000 z_2_4 + 100000 z_2_5 + 100000 z_2_6 + 100000 z_2_7 + 100000 z_2_8 + 100000 z_2_9 <= 800816.64699926309
 c4643: 120 p_2_3 + 120 p_2_4 + 120 p_2_5 + 120 p_2_6 + 120 p_2_7 + 120 p_2_8 + 120 p_2_9 + 100000 z_2_3 + 100000 z_2_4 + 100000 z_2_5 + 100000 z_2_6 + 100000 z_2_7 + 100000 z_2_8 + 100000 z_2_9 <= 700749.6306838413
 c4644: 120 p_2_1 + 120 p_2_3 + 120 p_2_4 + 120 p_2_5 + 120 p_2_6 + 120 p_2_7 + 120 p_2_8 + 120 p_2_9 + 100000 z_2_1 + 100000 z_2_3 + 100000 z_2_4 + 100000 z_2_5 + 100000 z_2_6 + 100000 z_2_7 + 100000 z_2_8 + 100000 z_2_9 <= 800742.54593236616
 c4645: 120 p_2_2 + 120 p_2_3 + 120 p_2_4 + 120 p_2_5 + 120 p_2_6 + 120 p_2_7 + 120 p_2_8 + 120 p_2_9 + 100000 z_2_2 + 100000 z_2_3 + 100000 z_2_4 + 100000 z_2_5 + 100000 z_2_6 + 100000 z_2_7 + 100000 z_2_8 + 100000 z_2_9 <= 800679.56893011089
 c4646: 120 p_2_1 + 120 p_2_2 + 120 p_2_3 + 120 p_2_4 + 120 p_2_5 + 120 p_2_6 + 120 p_2_7 + 120 p_2_8 + 120 p_2_9 + 100000 z_2_1 + 100000 z_2_2 + 100000 z_2_3 + 100000 z_2_4 + 100000 z_2_5 + 100000 z_2_6 + 100000 z_2_7 + 100000 z_2_8 + 100000 z_2_9 <= 900672.48417863564
 c4647: 120 p_2_10 + 100000 z_2_10 <= 101842.97725267388
 c4648: 120 p_2_1 + 120 p_2_10 + 100000 z_2_1 + 100000 z_2_10 <= 201657.73958328512
 c4649: 120 p_2_10 + 120 p_2_2 + 100000 z_2_10 + 100000 z_2_2 <= 201402.7644261675
 c4650: 120 p_2_1 + 120 p_2_10 + 120 p_2_2 + 100000 z_2_1 + 100000 z_2_10 + 100000 z_2_2 <= 301217.52675677871
 c4651: 120 p_2_10 + 120 p_2_3 + 100000 z_2_10 + 100000 z_2_3 <= 201199.98161672137
 c4652: 120 p_2_1 + 120 p_2_10 + 120 p_2_3 + 100000 z_2_1 + 100000 z_2_10 + 100000 z_2_3 <= 301045.93174835353
 c4653: 120 p_2_10 + 120 p_2_2 + 120 p_2_3 + 100000 z_2_10 + 100000 z_2_2 + 100000 z_2_3 <= 300862.74870064133
 c4654: 120 p_2_1 + 120 p_2_10 + 120 p_2_2 + 120 p_2_3 + 100000 z_2_1 + 100000 z_2_10 + 100000 z_2_2 + 100000 z_2_3 <= 400690.23175861686
 c4655: 120 p_2_10 + 120 p_2_4 + 100000 z_2_10 + 100000 z_2_4 <= 201791.92542630367
 c4656: 120 p_2_1 + 120 p_2_10 + 120 p_2_4 + 100000 z_2_1 + 100000 z_2_10 + 100000 z_2_4 <= 301650.85196382861
 c4657: 120 p_2_10 + 120 p_2_2 + 120 p_2_4 + 100000 z_2_10 + 100000 z_2_2 + 100000 z_2_4 <= 301351.71259979729
 c4658: 120 p_2_1 + 120 p_2_10 + 120 p_2_2 + 120 p_2_4 + 100000 z_2_1 + 100000 z_2_10 + 100000 z_2_2 + 100000 z_2_4 <= 401210.6391373222
 c4659: 120 p_2_10 + 120 p_2_3 + 120 p_2_4 + 100000 z_2_10 + 100000 z_2_3 + 100000 z_2_4 <= 301184.25100435782
 c4660: 120 p_2_1 + 120 p_2_10 + 120 p_2_3 + 120 p_2_4 + 100000 z_2_1 + 100000 z_2_10 + 100000 z_2_3 + 100000 z_2_4 <= 401043.17754188273
 c4661: 120 p_2_10 + 120 p_2_2 + 120 p_2_3 + 120 p_2_4 + 100000 z_2_10 + 100000 z_2_2 + 100000 z_2_3 + 100000 z_2_4 <= 400828.55101462116
 c4662: 120 p_2_1 + 120 p_2_10 + 120 p_2_2 + 120 p_2_3 + 120 p_2_4 + 100000 z_2_1 + 100000 z_2_10 + 100000 z_2_2 + 100000 z_2_3 + 100000 z_2_4 <= 500687.47755214613
 c4663: 120 p_2_10 + 120 p_2_5 + 100000 z_2_10 + 100000 z_2_5 <= 201488.25327167549
 c4664: 120 p_2_1 + 120 p_2_10 + 120 p_2_5 + 100000 z_2_1 + 100000 z_2_10 + 100000 z_2_5 <= 301303.01560228673
 c4665: 120 p_2_10 + 120 p_2_2 + 120 p_2_5 + 100000 z_2_10 + 100000 z_2_2 + 100000 z_2_5 <= 301399.71860971523
 c4666: 120 p_2_1 + 120 p_2_10 + 120 p_2_2 + 120 p_2_5 + 100000 z_2_1 + 100000 z_2_10 + 100000 z_2_2 + 100000 z_2_5 <= 401214.48094032647
 c4667: 120 p_2_10 + 120 p_2_3 + 120 p_2_5 + 100000 z_2_10 + 100000 z_2_3 + 100000 z_2_5 <= 300942.18235779682
 c4668: 120 p_2_1 + 120 p_2_10 + 120 p_2_3 + 120 p_2_5 + 100000 z_2_1 + 100000 z_2_10 + 100000 z_2_3 + 100000 z_2_5 <= 400784.92794354056
 c4669: 120 p_2_10 + 120 p_2_2 + 120 p_2_3 + 120 p_2_5 + 100000 z_2_10 + 100000 z_2_2 + 100000 z_2_3 + 100000 z_2_5 <= 400853.64769583661
 c4670: 120 p_2_1 + 120 p_2_10 + 120 p_2_2 + 120 p_2_3 + 120 p_2_5 + 100000 z_2_1 + 100000 z_2_10 + 100000 z_2_2 + 100000 z_2_3 + 100000 z_2_5 <= 500687.18594216462
 c4671: 120 p_2_10 + 120 p_2_4 + 120 p_2_5 + 100000 z_2_10 + 100000 z_2_4 + 100000 z_2_5 <= 301437.20144530525
 c4672: 120 p_2_1 + 120 p_2_10 + 120 p_2_4 + 120 p_2_5 + 100000 z_2_1 + 100000 z_2_10 + 100000 z_2_4 + 100000 z_2_5 <= 401296.12798283022
 c4673: 120 p_2_10 + 120 p_2_2 + 120 p_2_4 + 120 p_2_5 + 100000 z_2_10 + 100000 z_2_2 + 100000 z_2_4 + 100000 z_2_5 <= 401348.66678334499
 c4674: 120 p_2_1 + 120 p_2_10 + 120 p_2_2 + 120 p_2_4 + 120 p_2_5 + 100000 z_2_1 + 100000 z_2_10 + 100000 z_2_2 + 100000 z_2_4 + 100000 z_2_5 <= 501207.59332086996
 c4675: 120 p_2_10 + 120 p_2_3 + 120 p_2_4 + 120 p_2_5 + 100000 z_2_10 + 100000 z_2_3 + 100000 z_2_4 + 100000 z_2_5 <= 400923.24719954486
 c4676: 120 p_2_1 + 120 p_2_10 + 120 p_2_3 + 120 p_2_4 + 120 p_2_5 + 100000 z_2_1 + 100000 z_2_10 + 100000 z_2_3 + 100000 z_2_4 + 100000 z_2_5 <= 500782.17373706982
 c4677: 120 p_2_10 + 120 p_2_2 + 120 p_2_3 + 120 p_2_4 + 120 p_2_5 + 100000 z_2_10 + 100000 z_2_2 + 100000 z_2_3 + 100000 z_2_4 + 100000 z_2_5 <= 500825.50519816892
 c4678: 120 p_2_1 + 120 p_2_10 + 120 p_2_2 + 120 p_2_3 + 120 p_2_4 + 120 p_2_5 + 100000 z_2_1 + 100000 z_2_10 + 100000 z_2_2 + 100000 z_2_3 + 100000 z_2_4 + 100000 z_2_5 <= 600684.43173569383
 c4679: 120 p_2_10 + 120 p_2_6 + 100000 z_2_10 + 100000 z_2_6 <= 201374.97830859458
 c4680: 120 p_2_1 + 120 p_2_10 + 120 p_2_6 + 100000 z_2_1 + 100000 z_2_10 + 100000 z_2_6 <= 301212.90242429136
 c4681: 120 p_2_10 + 120 p_2_2 + 120 p_2_6 + 100000 z_2_10 + 100000 z_2_2 + 100000 z_2_6 <= 301040.27410725411
 c4682: 120 p_2_1 + 120 p_2_10 + 120 p_2_2 + 120 p_2_6 + 100000 z_2_1 + 100000 z_2_10 + 100000 z_2_2 + 100000 z_2_6 <= 400855.03643786535
 c4683: 120 p_2_10 + 120 p_2_3 + 120 p_2_6 + 100000 z_2_10 + 100000 z_2_3 + 100000 z_2_6 <= 301198.29320323671
 c4684: 120 p_2_1 + 120 p_2_10 + 120 p_2_3 + 120 p_2_6 + 100000 z_2_1 + 100000 z_2_10 + 100000 z_2_3 + 100000 z_2_6 <= 401044.24333486881
 c4685: 120 p_2_10 + 120 p_2_2 + 120 p_2_3 + 120 p_2_6 + 100000 z_2_10 + 100000 z_2_2 + 100000 z_2_3 + 100000 z_2_6 <= 400861.06028715667
 c4686: 120 p_2_1 + 120 p_2_10 + 120 p_2_2 + 120 p_2_3 + 120 p_2_6 + 100000 z_2_1 + 100000 z_2_10 + 100000 z_2_2 + 100000 z_2_3 + 100000 z_2_6 <= 500679.63442304631
 c4687: 120 p_2_10 + 120 p_2_4 + 120 p_2_6 + 100000 z_2_10 + 100000 z_2_4 + 100000 z_2_6 <= 301353.39975685359
 c4688: 120 p_2_1 + 120 p_2_10 + 120 p_2_4 + 120 p_2_6 + 100000 z_2_1 + 100000 z_2_10 + 100000 z_2_4 + 100000 z_2_6 <= 401212.32629437849
 c4689: 120 p_2_10 + 120 p_2_2 + 120 p_2_4 + 120 p_2_6 + 100000 z_2_10 + 100000 z_2_2 + 100000 z_2_4 + 100000 z_2_6 <= 400989.22228088387
 c4690: 120 p_2_1 + 120 p_2_10 + 120 p_2_2 + 120 p_2_4 + 120 p_2_6 + 100000 z_2_1 + 100000 z_2_10 + 100000 z_2_2 + 100000 z_2_4 + 100000 z_2_6 <= 500848.14881840884
 c4691: 120 p_2_10 + 120 p_2_3 + 120 p_2_4 + 120 p_2_6 + 100000 z_2_10 + 100000 z_2_3 + 100000 z_2_4 + 100000 z_2_6 <= 401182.5625908731
 c4692: 120 p_2_1 + 120 p_2_10 + 120 p_2_3 + 120 p_2_4 + 120 p_2_6 + 100000 z_2_1 + 100000 z_2_10 + 100000 z_2_3 + 100000 z_2_4 + 100000 z_2_6 <= 501041.48912839807
 c4693: 120 p_2_10 + 120 p_2_2 + 120 p_2_3 + 120 p_2_4 + 120 p_2_6 + 100000 z_2_10 + 100000 z_2_2 + 100000 z_2_3 + 100000 z_2_4 + 100000 z_2_6 <= 500817.95367905061
 c4694: 120 p_2_1 + 120 p_2_10 + 120 p_2_2 + 120 p_2_3 + 120 p_2_4 + 120 p_2_6 + 100000 z_2_1 + 100000 z_2_10 + 100000 z_2_2 + 100000 z_2_3 + 100000 z_2_4 + 100000 z_2_6 <= 600676.88021657558
 c4695: 120 p_2_10 + 120 p_2_5 + 120 p_2_6 + 100000 z_2_10 + 100000 z_2_5 + 100000 z_2_6 <= 301122.63286602421
 c4696: 120 p_2_1 + 120 p_2_10 + 120 p_2_5 + 120 p_2_6 + 100000 z_2_1 + 100000 z_2_10 + 100000 z_2_5 + 100000 z_2_6 <= 400945.91479900712
 c4697: 120 p_2_10 + 120 p_2_2 + 120 p_2_5 + 120 p_2_6 + 100000 z_2_10 + 100000 z_2_2 + 100000 z_2_5 + 100000 z_2_6 <= 401034.09820406395
 c4698: 120 p_2_1 + 120 p_2_10 + 120 p_2_2 + 120 p_2_5 + 120 p_2_6 + 100000 z_2_1 + 100000 z_2_10 + 100000 z_2_2 + 100000 z_2_5 + 100000 z_2_6 <= 500848.86053467519
 c4699: 120 p_2_10 + 120 p_2_3 + 120 p_2_5 + 120 p_2_6 + 100000 z_2_10 + 100000 z_2_3 + 100000 z_2_5 + 100000 z_2_6 <= 400940.49394431215
 c4700: 120 p_2_1 + 120 p_2_10 + 120 p_2_3 + 120 p_2_5 + 120 p_2_6 + 100000 z_2_1 + 100000 z_2_10 + 100000 z_2_3 + 100000 z_2_5 + 100000 z_2_6 <= 500777.25570958457
 c4701: 120 p_2_10 + 120 p_2_2 + 120 p_2_3 + 120 p_2_5 + 120 p_2_6 + 100000 z_2_10 + 100000 z_2_2 + 100000 z_2_3 + 100000 z_2_5 + 100000 z_2_6 <= 500851.95928235189
 c4702: 120 p_2_1 + 120 p_2_10 + 120 p_2_2 + 120 p_2_3 + 120 p_2_5 + 120 p_2_6 + 100000 z_2_1 + 100000 z_2_10 + 100000 z_2_2 + 100000 z_2_3 + 100000 z_2_5 + 100000 z_2_6 <= 600676.58860659401
 c4703: 120 p_2_10 + 120 p_2_4 + 120 p_2_5 + 120 p_2_6 + 100000 z_2_10 + 100000 z_2_4 + 100000 z_2_5 + 100000 z_2_6 <= 401086.41213156929
 c4704: 120 p_2_1 + 120 p_2_10 + 120 p_2_4 + 120 p_2_5 + 120 p_2_6 + 100000 z_2_1 + 100000 z_2_10 + 100000 z_2_4 + 100000 z_2_5 + 100000 z_2_6 <= 500945.33866909426
 c4705: 120 p_2_10 + 120 p_2_2 + 120 p_2_4 + 120 p_2_5 + 120 p_2_6 + 100000 z_2_10 + 100000 z_2_2 + 100000 z_2_4 + 100000 z_2_5 + 100000 z_2_6 <= 500985.74502857879
 c4706: 120 p_2_1 + 120 p_2_10 + 120 p_2_2 + 120 p_2_4 + 120 p_2_5 + 120 p_2_6 + 100000 z_2_1 + 100000 z_2_10 + 100000 z_2_2 + 100000 z_2_4 + 100000 z_2_5 + 100000 z_2_6 <= 600844.6715661037
 c4707: 120 p_2_10 + 120 p_2_3 + 120 p_2_4 + 120 p_2_5 + 120 p_2_6 + 100000 z_2_10 + 100000 z_2_3 + 100000 z_2_4 + 100000 z_2_5 + 100000 z_2_6 <= 500915.57496558886
 c4708: 120 p_2_1 + 120 p_2_10 + 120 p_2_3 + 120 p_2_4 + 120 p_2_5 + 120 p_2_6 + 100000 z_2_1 + 100000 z_2_10 + 100000 z_2_3 + 100000 z_2_4 + 100000 z_2_5 + 100000 z_2_6 <= 600774.50150311377
 c4709: 120 p_2_10 + 120 p_2_2 + 120 p_2_3 + 120 p_2_4 + 120 p_2_5 + 120 p_2_6 + 100000 z_2_10 + 100000 z_2_2 + 100000 z_2_3 + 100000 z_2_4 + 100000 z_2_5 + 100000 z_2_6 <= 600814.90786259831
 c4710: 120 p_2_1 + 120 p_2_10 + 120 p_2_2 + 120 p_2_3 + 120 p_2_4 + 120 p_2_5 + 120 p_2_6 + 100000 z_2_1 + 100000 z_2_10 + 100000 z_2_2 + 100000 z_2_3 + 100000 z_2_4 + 100000 z_2_5 + 100000 z_2_6 <= 700673.83440012333
 c4711: 120 p_2_10 + 120 p_2_7 + 100000 z_2_10 + 100000 z_2_7 <= 201657.40909180601
 c4712: 120 p_2_1 + 120 p_2_10 + 120 p_2_7 + 100000 z_2_1 + 100000 z_2_10 + 100000 z_2_7 <= 301646.52625015174
 c4713: 120 p_2_10 + 120 p_2_2 + 120 p_2_7 + 100000 z_2_10 + 100000 z_2_2 + 100000 z_2_7 <= 301217.19626529963
 c4714: 120 p_2_1 + 120 p_2_10 + 120 p_2_2 + 120 p_2_7 + 100000 z_2_1 + 100000 z_2_10 + 100000 z_2_2 + 100000 z_2_7 <= 401206.31342364533
 c4715: 120 p_2_10 + 120 p_2_3 + 120 p_2_7 + 100000 z_2_10 + 100000 z_2_3 + 100000 z_2_7 <= 301040.09560966131
 c4716: 120 p_2_1 + 120 p_2_10 + 120 p_2_3 + 120 p_2_7 + 100000 z_2_1 + 100000 z_2_10 + 100000 z_2_3 + 100000 z_2_7 <= 401034.71841522009
 c4717: 120 p_2_10 + 120 p_2_2 + 120 p_2_3 + 120 p_2_7 + 100000 z_2_10 + 100000 z_2_2 + 100000 z_2_3 + 100000 z_2_7 <= 400684.39561992465
 c4718: 120 p_2_1 + 120 p_2_10 + 120 p_2_2 + 120 p_2_3 + 120 p_2_7 + 100000 z_2_1 + 100000 z_2_10 + 100000 z_2_2 + 100000 z_2_3 + 100000 z_2_7 <= 500679.01842548343
 c4719: 120 p_2_10 + 120 p_2_4 + 120 p_2_7 + 100000 z_2_10 + 100000 z_2_4 + 100000 z_2_7 <= 301646.72338217043
 c4720: 120 p_2_1 + 120 p_2_10 + 120 p_2_4 + 120 p_2_7 + 100000 z_2_1 + 100000 z_2_10 + 100000 z_2_4 + 100000 z_2_7 <= 401639.63863069523
 c4721: 120 p_2_10 + 120 p_2_2 + 120 p_2_4 + 120 p_2_7 + 100000 z_2_10 + 100000 z_2_2 + 100000 z_2_4 + 100000 z_2_7 <= 401206.51055566402
 c4722: 120 p_2_1 + 120 p_2_10 + 120 p_2_2 + 120 p_2_4 + 120 p_2_7 + 100000 z_2_1 + 100000 z_2_10 + 100000 z_2_2 + 100000 z_2_4 + 100000 z_2_7 <= 501199.42580418882
 c4723: 120 p_2_10 + 120 p_2_3 + 120 p_2_4 + 120 p_2_7 + 100000 z_2_10 + 100000 z_2_3 + 100000 z_2_4 + 100000 z_2_7 <= 401039.04896022461
 c4724: 120 p_2_1 + 120 p_2_10 + 120 p_2_3 + 120 p_2_4 + 120 p_2_7 + 100000 z_2_1 + 100000 z_2_10 + 100000 z_2_3 + 100000 z_2_4 + 100000 z_2_7 <= 501031.96420874936
 c4725: 120 p_2_10 + 120 p_2_2 + 120 p_2_3 + 120 p_2_4 + 120 p_2_7 + 100000 z_2_10 + 100000 z_2_2 + 100000 z_2_3 + 100000 z_2_4 + 100000 z_2_7 <= 500683.34897048795
 c4726: 120 p_2_1 + 120 p_2_10 + 120 p_2_2 + 120 p_2_3 + 120 p_2_4 + 120 p_2_7 + 100000 z_2_1 + 100000 z_2_10 + 100000 z_2_2 + 100000 z_2_3 + 100000 z_2_4 + 100000 z_2_7 <= 600676.26421901269
 c4727: 120 p_2_10 + 120 p_2_5 + 120 p_2_7 + 100000 z_2_10 + 100000 z_2_5 + 100000 z_2_7 <= 301302.68511080765
 c4728: 120 p_2_1 + 120 p_2_10 + 120 p_2_5 + 120 p_2_7 + 100000 z_2_1 + 100000 z_2_10 + 100000 z_2_5 + 100000 z_2_7 <= 401291.80226915336
 c4729: 120 p_2_10 + 120 p_2_2 + 120 p_2_5 + 120 p_2_7 + 100000 z_2_10 + 100000 z_2_2 + 100000 z_2_5 + 100000 z_2_7 <= 401214.15044884739
 c4730: 120 p_2_1 + 120 p_2_10 + 120 p_2_2 + 120 p_2_5 + 120 p_2_7 + 100000 z_2_1 + 100000 z_2_10 + 100000 z_2_2 + 100000 z_2_5 + 100000 z_2_7 <= 501203.26760719309
 c4731: 120 p_2_10 + 120 p_2_3 + 120 p_2_5 + 120 p_2_7 + 100000 z_2_10 + 100000 z_2_3 + 100000 z_2_5 + 100000 z_2_7 <= 400779.09180484834
 c4732: 120 p_2_1 + 120 p_2_10 + 120 p_2_3 + 120 p_2_5 + 120 p_2_7 + 100000 z_2_1 + 100000 z_2_10 + 100000 z_2_3 + 100000 z_2_5 + 100000 z_2_7 <= 500773.71461040719
 c4733: 120 p_2_10 + 120 p_2_2 + 120 p_2_3 + 120 p_2_5 + 120 p_2_7 + 100000 z_2_10 + 100000 z_2_2 + 100000 z_2_3 + 100000 z_2_5 + 100000 z_2_7 <= 500681.3498034724
 c4734: 120 p_2_1 + 120 p_2_10 + 120 p_2_2 + 120 p_2_3 + 120 p_2_5 + 120 p_2_7 + 100000 z_2_1 + 100000 z_2_10 + 100000 z_2_2 + 100000 z_2_3 + 100000 z_2_5 + 100000 z_2_7 <= 600675.97260903125
 c4735: 120 p_2_10 + 120 p_2_4 + 120 p_2_5 + 120 p_2_7 + 100000 z_2_10 + 100000 z_2_4 + 100000 z_2_5 + 100000 z_2_7 <= 401291.99940117204
 c4736: 120 p_2_1 + 120 p_2_10 + 120 p_2_4 + 120 p_2_5 + 120 p_2_7 + 100000 z_2_1 + 100000 z_2_10 + 100000 z_2_4 + 100000 z_2_5 + 100000 z_2_7 <= 501284.91464969685
 c4737: 120 p_2_10 + 120 p_2_2 + 120 p_2_4 + 120 p_2_5 + 120 p_2_7 + 100000 z_2_10 + 100000 z_2_2 + 100000 z_2_4 + 100000 z_2_5 + 100000 z_2_7 <= 501203.46473921178
 c4738: 120 p_2_1 + 120 p_2_10 + 120 p_2_2 + 120 p_2_4 + 120 p_2_5 + 120 p_2_7 + 100000 z_2_1 + 100000 z_2_10 + 100000 z_2_2 + 100000 z_2_4 + 100000 z_2_5 + 100000 z_2_7 <= 601196.37998773658
 c4739: 120 p_2_10 + 120 p_2_3 + 120 p_2_4 + 120 p_2_5 + 120 p_2_7 + 100000 z_2_10 + 100000 z_2_3 + 100000 z_2_4 + 100000 z_2_5 + 100000 z_2_7 <= 500778.04515541164
 c4740: 120 p_2_1 + 120 p_2_10 + 120 p_2_3 + 120 p_2_4 + 120 p_2_5 + 120 p_2_7 + 100000 z_2_1 + 100000 z_2_10 + 100000 z_2_3 + 100000 z_2_4 + 100000 z_2_5 + 100000 z_2_7 <= 600770.96040393645
 c4741: 120 p_2_10 + 120 p_2_2 + 120 p_2_3 + 120 p_2_4 + 120 p_2_5 + 120 p_2_7 + 100000 z_2_10 + 100000 z_2_2 + 100000 z_2_3 + 100000 z_2_4 + 100000 z_2_5 + 100000 z_2_7 <= 600680.3031540357
 c4742: 120 p_2_1 + 120 p_2_10 + 120 p_2_2 + 120 p_2_3 + 120 p_2_4 + 120 p_2_5 + 120 p_2_7 + 100000 z_2_1 + 100000 z_2_10 + 100000 z_2_2 + 100000 z_2_3 + 100000 z_2_4 + 100000 z_2_5 + 100000 z_2_7 <= 700673.21840256045
 c4743: 120 p_2_10 + 120 p_2_6 + 120 p_2_7 + 100000 z_2_10 + 100000 z_2_6 + 100000 z_2_7 <= 301208.21072848857
 c4744: 120 p_2_1 + 120 p_2_10 + 120 p_2_6 + 120 p_2_7 + 100000 z_2_1 + 100000 z_2_10 + 100000 z_2_6 + 100000 z_2_7 <= 401201.68909115798
 c4745: 120 p_2_10 + 120 p_2_2 + 120 p_2_6 + 120 p_2_7 + 100000 z_2_10 + 100000 z_2_2 + 100000 z_2_6 + 100000 z_2_7 <= 400854.70594638621
 c4746: 120 p_2_1 + 120 p_2_10 + 120 p_2_2 + 120 p_2_6 + 120 p_2_7 + 100000 z_2_1 + 100000 z_2_10 + 100000 z_2_2 + 100000 z_2_6 + 100000 z_2_7 <= 500843.82310473191
 c4747: 120 p_2_10 + 120 p_2_3 + 120 p_2_6 + 120 p_2_7 + 100000 z_2_10 + 100000 z_2_3 + 100000 z_2_6 + 100000 z_2_7 <= 401038.40719617665
 c4748: 120 p_2_1 + 120 p_2_10 + 120 p_2_3 + 120 p_2_6 + 120 p_2_7 + 100000 z_2_1 + 100000 z_2_10 + 100000 z_2_3 + 100000 z_2_6 + 100000 z_2_7 <= 501033.03000173543
 c4749: 120 p_2_10 + 120 p_2_2 + 120 p_2_3 + 120 p_2_6 + 120 p_2_7 + 100000 z_2_10 + 100000 z_2_2 + 100000 z_2_3 + 100000 z_2_6 + 100000 z_2_7 <= 500675.49212628877
 c4750: 120 p_2_1 + 120 p_2_10 + 120 p_2_2 + 120 p_2_3 + 120 p_2_6 + 120 p_2_7 + 100000 z_2_1 + 100000 z_2_10 + 100000 z_2_2 + 100000 z_2_3 + 100000 z_2_6 + 100000 z_2_7 <= 600668.42108991288
 c4751: 120 p_2_10 + 120 p_2_4 + 120 p_2_6 + 120 p_2_7 + 100000 z_2_10 + 100000 z_2_4 + 100000 z_2_6 + 100000 z_2_7 <= 401208.19771272037
 c4752: 120 p_2_1 + 120 p_2_10 + 120 p_2_4 + 120 p_2_6 + 120 p_2_7 + 100000 z_2_1 + 100000 z_2_10 + 100000 z_2_4 + 100000 z_2_6 + 100000 z_2_7 <= 501201.11296124512
 c4753: 120 p_2_10 + 120 p_2_2 + 120 p_2_4 + 120 p_2_6 + 120 p_2_7 + 100000 z_2_10 + 100000 z_2_2 + 100000 z_2_4 + 100000 z_2_6 + 100000 z_2_7 <= 500844.02023675066
 c4754: 120 p_2_1 + 120 p_2_10 + 120 p_2_2 + 120 p_2_4 + 120 p_2_6 + 120 p_2_7 + 100000 z_2_1 + 100000 z_2_10 + 100000 z_2_2 + 100000 z_2_4 + 100000 z_2_6 + 100000 z_2_7 <= 600836.93548527546
 c4755: 120 p_2_10 + 120 p_2_3 + 120 p_2_4 + 120 p_2_6 + 120 p_2_7 + 100000 z_2_10 + 100000 z_2_3 + 100000 z_2_4 + 100000 z_2_6 + 100000 z_2_7 <= 501037.36054673989
 c4756: 120 p_2_1 + 120 p_2_10 + 120 p_2_3 + 120 p_2_4 + 120 p_2_6 + 120 p_2_7 + 100000 z_2_1 + 100000 z_2_10 + 100000 z_2_3 + 100000 z_2_4 + 100000 z_2_6 + 100000 z_2_7 <= 601030.27579526464
 c4757: 120 p_2_10 + 120 p_2_2 + 120 p_2_3 + 120 p_2_4 + 120 p_2_6 + 120 p_2_7 + 100000 z_2_10 + 100000 z_2_2 + 100000 z_2_3 + 100000 z_2_4 + 100000 z_2_6 + 100000 z_2_7 <= 600672.75163491734
 c4758: 120 p_2_1 + 120 p_2_10 + 120 p_2_2 + 120 p_2_3 + 120 p_2_4 + 120 p_2_6 + 120 p_2_7 + 100000 z_2_1 + 100000 z_2_10 + 100000 z_2_2 + 100000 z_2_3 + 100000 z_2_4 + 100000 z_2_6 + 100000 z_2_7 <= 700665.6668834422
 c4759: 120 p_2_10 + 120 p_2_5 + 120 p_2_6 + 120 p_2_7 + 100000 z_2_10 + 100000 z_2_5 + 100000 z_2_6 + 100000 z_2_7 <= 400941.22310320428
 c4760: 120 p_2_1 + 120 p_2_10 + 120 p_2_5 + 120 p_2_6 + 120 p_2_7 + 100000 z_2_1 + 100000 z_2_10 + 100000 z_2_5 + 100000 z_2_6 + 100000 z_2_7 <= 500934.70146587369
 c4761: 120 p_2_10 + 120 p_2_2 + 120 p_2_5 + 120 p_2_6 + 120 p_2_7 + 100000 z_2_10 + 100000 z_2_2 + 100000 z_2_5 + 100000 z_2_6 + 100000 z_2_7 <= 500848.53004319605
 c4762: 120 p_2_1 + 120 p_2_10 + 120 p_2_2 + 120 p_2_5 + 120 p_2_6 + 120 p_2_7 + 100000 z_2_1 + 100000 z_2_10 + 100000 z_2_2 + 100000 z_2_5 + 100000 z_2_6 + 100000 z_2_7 <= 600837.64720154181
 c4763: 120 p_2_10 + 120 p_2_3 + 120 p_2_5 + 120 p_2_6 + 120 p_2_7 + 100000 z_2_10 + 100000 z_2_3 + 100000 z_2_5 + 100000 z_2_6 + 100000 z_2_7 <= 500771.41957089235
 c4764: 120 p_2_1 + 120 p_2_10 + 120 p_2_3 + 120 p_2_5 + 120 p_2_6 + 120 p_2_7 + 100000 z_2_1 + 100000 z_2_10 + 100000 z_2_3 + 100000 z_2_5 + 100000 z_2_6 + 100000 z_2_7 <= 600766.04237645119
 c4765: 120 p_2_10 + 120 p_2_2 + 120 p_2_3 + 120 p_2_5 + 120 p_2_6 + 120 p_2_7 + 100000 z_2_10 + 100000 z_2_2 + 100000 z_2_3 + 100000 z_2_5 + 100000 z_2_6 + 100000 z_2_7 <= 600670.7524679018
 c4766: 120 p_2_1 + 120 p_2_10 + 120 p_2_2 + 120 p_2_3 + 120 p_2_5 + 120 p_2_6 + 120 p_2_7 + 100000 z_2_1 + 100000 z_2_10 + 100000 z_2_2 + 100000 z_2_3 + 100000 z_2_5 + 100000 z_2_6 + 100000 z_2_7 <= 700665.37527346064
 c4767: 120 p_2_10 + 120 p_2_4 + 120 p_2_5 + 120 p_2_6 + 120 p_2_7 + 100000 z_2_10 + 100000 z_2_4 + 100000 z_2_5 + 100000 z_2_6 + 100000 z_2_7 <= 500941.21008743608
 c4768: 120 p_2_1 + 120 p_2_10 + 120 p_2_4 + 120 p_2_5 + 120 p_2_6 + 120 p_2_7 + 100000 z_2_1 + 100000 z_2_10 + 100000 z_2_4 + 100000 z_2_5 + 100000 z_2_6 + 100000 z_2_7 <= 600934.12533596088
 c4769: 120 p_2_10 + 120 p_2_2 + 120 p_2_4 + 120 p_2_5 + 120 p_2_6 + 120 p_2_7 + 100000 z_2_10 + 100000 z_2_2 + 100000 z_2_4 + 100000 z_2_5 + 100000 z_2_6 + 100000 z_2_7 <= 600840.54298444558
 c4770: 120 p_2_1 + 120 p_2_10 + 120 p_2_2 + 120 p_2_4 + 120 p_2_5 + 120 p_2_6 + 120 p_2_7 + 100000 z_2_1 + 100000 z_2_10 + 100000 z_2_2 + 100000 z_2_4 + 100000 z_2_5 + 100000 z_2_6 + 100000 z_2_7 <= 700833.45823297033
 c4771: 120 p_2_10 + 120 p_2_3 + 120 p_2_4 + 120 p_2_5 + 120 p_2_6 + 120 p_2_7 + 100000 z_2_10 + 100000 z_2_3 + 100000 z_2_4 + 100000 z_2_5 + 100000 z_2_6 + 100000 z_2_7 <= 600770.37292145565
 c4772: 120 p_2_1 + 120 p_2_10 + 120 p_2_3 + 120 p_2_4 + 120 p_2_5 + 120 p_2_6 + 120 p_2_7 + 100000 z_2_1 + 100000 z_2_10 + 100000 z_2_3 + 100000 z_2_4 + 100000 z_2_5 + 100000 z_2_6 + 100000 z_2_7 <= 700763.2881699804
 c4773: 120 p_2_10 + 120 p_2_2 + 120 p_2_3 + 120 p_2_4 + 120 p_2_5 + 120 p_2_6 + 120 p_2_7 + 100000 z_2_10 + 100000 z_2_2 + 100000 z_2_3 + 100000 z_2_4 + 100000 z_2_5 + 100000 z_2_6 + 100000 z_2_7 <= 700669.7058184651
 c4774: 120 p_2_1 + 120 p_2_10 + 120 p_2_2 + 120 p_2_3 + 120 p_2_4 + 120 p_2_5 + 120 p_2_6 + 120 p_2_7 + 100000 z_2_1 + 100000 z_2_10 + 100000 z_2_2 + 100000 z_2_3 + 100000 z_2_4 + 100000 z_2_5 + 100000 z_2_6 + 100000 z_2_7 <= 800662.62106698996
 c4775: 120 p_2_10 + 120 p_2_8 + 100000 z_2_10 + 100000 z_2_8 <= 201432.96188910143
 c4776: 120 p_2_1 + 120 p_2_10 + 120 p_2_8 + 100000 z_2_1 + 100000 z_2_10 + 100000 z_2_8 <= 301247.72421971266
 c4777: 120 p_2_10 + 120 p_2_2 + 120 p_2_8 + 100000 z_2_10 + 100000 z_2_2 + 100000 z_2_8 <= 301380.66849762708
 c4778: 120 p_2_1 + 120 p_2_10 + 120 p_2_2 + 120 p_2_8 + 100000 z_2_1 + 100000 z_2_10 + 100000 z_2_2 + 100000 z_2_8 <= 401195.43082823831
 c4779: 120 p_2_10 + 120 p_2_3 + 120 p_2_8 + 100000 z_2_10 + 100000 z_2_3 + 100000 z_2_8 <= 300917.83224740188
 c4780: 120 p_2_1 + 120 p_2_10 + 120 p_2_3 + 120 p_2_8 + 100000 z_2_1 + 100000 z_2_10 + 100000 z_2_3 + 100000 z_2_8 <= 400763.78237903403
 c4781: 120 p_2_10 + 120 p_2_2 + 120 p_2_3 + 120 p_2_8 + 100000 z_2_10 + 100000 z_2_2 + 100000 z_2_3 + 100000 z_2_8 <= 400862.65440598427
 c4782: 120 p_2_1 + 120 p_2_10 + 120 p_2_2 + 120 p_2_3 + 120 p_2_8 + 100000 z_2_1 + 100000 z_2_10 + 100000 z_2_2 + 100000 z_2_3 + 100000 z_2_8 <= 500690.13746395981
 c4783: 120 p_2_10 + 120 p_2_4 + 120 p_2_8 + 100000 z_2_10 + 100000 z_2_4 + 100000 z_2_8 <= 301381.91006273119
 c4784: 120 p_2_1 + 120 p_2_10 + 120 p_2_4 + 120 p_2_8 + 100000 z_2_1 + 100000 z_2_10 + 100000 z_2_4 + 100000 z_2_8 <= 401240.83660025615
 c4785: 120 p_2_10 + 120 p_2_2 + 120 p_2_4 + 120 p_2_8 + 100000 z_2_10 + 100000 z_2_2 + 100000 z_2_4 + 100000 z_2_8 <= 401329.61667125684
 c4786: 120 p_2_1 + 120 p_2_10 + 120 p_2_2 + 120 p_2_4 + 120 p_2_8 + 100000 z_2_1 + 100000 z_2_10 + 100000 z_2_2 + 100000 z_2_4 + 100000 z_2_8 <= 501188.5432087818
 c4787: 120 p_2_10 + 120 p_2_3 + 120 p_2_4 + 120 p_2_8 + 100000 z_2_10 + 100000 z_2_3 + 100000 z_2_4 + 100000 z_2_8 <= 400902.10163503833
 c4788: 120 p_2_1 + 120 p_2_10 + 120 p_2_3 + 120 p_2_4 + 120 p_2_8 + 100000 z_2_1 + 100000 z_2_10 + 100000 z_2_3 + 100000 z_2_4 + 100000 z_2_8 <= 500761.0281725633
 c4789: 120 p_2_10 + 120 p_2_2 + 120 p_2_3 + 120 p_2_4 + 120 p_2_8 + 100000 z_2_10 + 100000 z_2_2 + 100000 z_2_3 + 100000 z_2_4 + 100000 z_2_8 <= 500828.4567199641
 c4790: 120 p_2_1 + 120 p_2_10 + 120 p_2_2 + 120 p_2_3 + 120 p_2_4 + 120 p_2_8 + 100000 z_2_1 + 100000 z_2_10 + 100000 z_2_2 + 100000 z_2_3 + 100000 z_2_4 + 100000 z_2_8 <= 600687.38325748907
 c4791: 120 p_2_10 + 120 p_2_5 + 120 p_2_8 + 100000 z_2_10 + 100000 z_2_5 + 100000 z_2_8 <= 301432.42190713703
 c4792: 120 p_2_1 + 120 p_2_10 + 120 p_2_5 + 120 p_2_8 + 100000 z_2_1 + 100000 z_2_10 + 100000 z_2_5 + 100000 z_2_8 <= 401247.18423774827
 c4793: 120 p_2_10 + 120 p_2_2 + 120 p_2_5 + 120 p_2_8 + 100000 z_2_10 + 100000 z_2_2 + 100000 z_2_5 + 100000 z_2_8 <= 401374.03951983101
 c4794: 120 p_2_1 + 120 p_2_10 + 120 p_2_2 + 120 p_2_5 + 120 p_2_8 + 100000 z_2_1 + 100000 z_2_10 + 100000 z_2_2 + 100000 z_2_5 + 100000 z_2_8 <= 501188.80185044225
 c4795: 120 p_2_10 + 120 p_2_3 + 120 p_2_5 + 120 p_2_8 + 100000 z_2_10 + 100000 z_2_3 + 100000 z_2_5 + 100000 z_2_8 <= 400914.40781549428
 c4796: 120 p_2_1 + 120 p_2_10 + 120 p_2_3 + 120 p_2_5 + 120 p_2_8 + 100000 z_2_1 + 100000 z_2_10 + 100000 z_2_3 + 100000 z_2_5 + 100000 z_2_8 <= 500757.15340123797
 c4797: 120 p_2_10 + 120 p_2_2 + 120 p_2_3 + 120 p_2_5 + 120 p_2_8 + 100000 z_2_10 + 100000 z_2_2 + 100000 z_2_3 + 100000 z_2_5 + 100000 z_2_8 <= 500844.34606176382
 c4798: 120 p_2_1 + 120 p_2_10 + 120 p_2_2 + 120 p_2_3 + 120 p_2_5 + 120 p_2_8 + 100000 z_2_1 + 100000 z_2_10 + 100000 z_2_2 + 100000 z_2_3 + 100000 z_2_5 + 100000 z_2_8 <= 600687.09164750751
 c4799: 120 p_2_10 + 120 p_2_4 + 120 p_2_5 + 120 p_2_8 + 100000 z_2_10 + 100000 z_2_4 + 100000 z_2_5 + 100000 z_2_8 <= 401381.37008076685
 c4800: 120 p_2_1 + 120 p_2_10 + 120 p_2_4 + 120 p_2_5 + 120 p_2_8 + 100000 z_2_1 + 100000 z_2_10 + 100000 z_2_4 + 100000 z_2_5 + 100000 z_2_8 <= 501240.29661829176
 c4801: 120 p_2_10 + 120 p_2_2 + 120 p_2_4 + 120 p_2_5 + 120 p_2_8 + 100000 z_2_10 + 100000 z_2_2 + 100000 z_2_4 + 100000 z_2_5 + 100000 z_2_8 <= 501322.98769346077
 c4802: 120 p_2_1 + 120 p_2_10 + 120 p_2_2 + 120 p_2_4 + 120 p_2_5 + 120 p_2_8 + 100000 z_2_1 + 100000 z_2_10 + 100000 z_2_2 + 100000 z_2_4 + 100000 z_2_5 + 100000 z_2_8 <= 601181.9142309858
 c4803: 120 p_2_10 + 120 p_2_3 + 120 p_2_4 + 120 p_2_5 + 120 p_2_8 + 100000 z_2_10 + 100000 z_2_3 + 100000 z_2_4 + 100000 z_2_5 + 100000 z_2_8 <= 500895.47265724227
 c4804: 120 p_2_1 + 120 p_2_10 + 120 p_2_3 + 120 p_2_4 + 120 p_2_5 + 120 p_2_8 + 100000 z_2_1 + 100000 z_2_10 + 100000 z_2_3 + 100000 z_2_4 + 100000 z_2_5 + 100000 z_2_8 <= 600754.39919476723
 c4805: 120 p_2_10 + 120 p_2_2 + 120 p_2_3 + 120 p_2_4 + 120 p_2_5 + 120 p_2_8 + 100000 z_2_10 + 100000 z_2_2 + 100000 z_2_3 + 100000 z_2_4 + 100000 z_2_5 + 100000 z_2_8 <= 600825.41090351192
 c4806: 120 p_2_1 + 120 p_2_10 + 120 p_2_2 + 120 p_2_3 + 120 p_2_4 + 120 p_2_5 + 120 p_2_8 + 100000 z_2_1 + 100000 z_2_10 + 100000 z_2_2 + 100000 z_2_3 + 100000 z_2_4 + 100000 z_2_5 + 100000 z_2_8 <= 700684.33744103683
 c4807: 120 p_2_10 + 120 p_2_6 + 120 p_2_8 + 100000 z_2_10 + 100000 z_2_6 + 100000 z_2_8 <= 301091.79794672545
 c4808: 120 p_2_1 + 120 p_2_10 + 120 p_2_6 + 120 p_2_8 + 100000 z_2_1 + 100000 z_2_10 + 100000 z_2_6 + 100000 z_2_8 <= 400921.16887554002
 c4809: 120 p_2_10 + 120 p_2_2 + 120 p_2_6 + 120 p_2_8 + 100000 z_2_10 + 100000 z_2_2 + 100000 z_2_6 + 100000 z_2_8 <= 401039.5045552511
 c4810: 120 p_2_1 + 120 p_2_10 + 120 p_2_2 + 120 p_2_6 + 120 p_2_8 + 100000 z_2_1 + 100000 z_2_10 + 100000 z_2_2 + 100000 z_2_6 + 100000 z_2_8 <= 500854.26688586234
 c4811: 120 p_2_10 + 120 p_2_3 + 120 p_2_6 + 120 p_2_8 + 100000 z_2_10 + 100000 z_2_3 + 100000 z_2_6 + 100000 z_2_8 <= 400913.25938397396
 c4812: 120 p_2_1 + 120 p_2_10 + 120 p_2_3 + 120 p_2_6 + 120 p_2_8 + 100000 z_2_1 + 100000 z_2_10 + 100000 z_2_3 + 100000 z_2_6 + 100000 z_2_8 <= 500752.50978611747
 c4813: 120 p_2_10 + 120 p_2_2 + 120 p_2_3 + 120 p_2_6 + 120 p_2_8 + 100000 z_2_10 + 100000 z_2_2 + 100000 z_2_3 + 100000 z_2_6 + 100000 z_2_8 <= 500860.96599249961
 c4814: 120 p_2_1 + 120 p_2_10 + 120 p_2_2 + 120 p_2_3 + 120 p_2_6 + 120 p_2_8 + 100000 z_2_1 + 100000 z_2_10 + 100000 z_2_2 + 100000 z_2_3 + 100000 z_2_6 + 100000 z_2_8 <= 600678.86487104325
 c4815: 120 p_2_10 + 120 p_2_4 + 120 p_2_6 + 120 p_2_8 + 100000 z_2_10 + 100000 z_2_4 + 100000 z_2_6 + 100000 z_2_8 <= 401061.66620810225
 c4816: 120 p_2_1 + 120 p_2_10 + 120 p_2_4 + 120 p_2_6 + 120 p_2_8 + 100000 z_2_1 + 100000 z_2_10 + 100000 z_2_4 + 100000 z_2_6 + 100000 z_2_8 <= 500920.59274562722
 c4817: 120 p_2_10 + 120 p_2_2 + 120 p_2_4 + 120 p_2_6 + 120 p_2_8 + 100000 z_2_10 + 100000 z_2_2 + 100000 z_2_4 + 100000 z_2_6 + 100000 z_2_8 <= 500988.45272888086
 c4818: 120 p_2_1 + 120 p_2_10 + 120 p_2_2 + 120 p_2_4 + 120 p_2_6 + 120 p_2_8 + 100000 z_2_1 + 100000 z_2_10 + 100000 z_2_2 + 100000 z_2_4 + 100000 z_2_6 + 100000 z_2_8 <= 600847.37926640583
 c4819: 120 p_2_10 + 120 p_2_3 + 120 p_2_4 + 120 p_2_6 + 120 p_2_8 + 100000 z_2_10 + 100000 z_2_3 + 100000 z_2_4 + 100000 z_2_6 + 100000 z_2_8 <= 500890.82904212177
 c4820: 120 p_2_1 + 120 p_2_10 + 120 p_2_3 + 120 p_2_4 + 120 p_2_6 + 120 p_2_8 + 100000 z_2_1 + 100000 z_2_10 + 100000 z_2_3 + 100000 z_2_4 + 100000 z_2_6 + 100000 z_2_8 <= 600749.75557964679
 c4821: 120 p_2_10 + 120 p_2_2 + 120 p_2_3 + 120 p_2_4 + 120 p_2_6 + 120 p_2_8 + 100000 z_2_10 + 100000 z_2_2 + 100000 z_2_3 + 100000 z_2_4 + 100000 z_2_6 + 100000 z_2_8 <= 600817.18412704754
 c4822: 120 p_2_1 + 120 p_2_10 + 120 p_2_2 + 120 p_2_3 + 120 p_2_4 + 120 p_2_6 + 120 p_2_8 + 100000 z_2_1 + 100000 z_2_10 + 100000 z_2_2 + 100000 z_2_3 + 100000 z_2_4 + 100000 z_2_6 + 100000 z_2_8 <= 700676.11066457257
 c4823: 120 p_2_10 + 120 p_2_5 + 120 p_2_6 + 120 p_2_8 + 100000 z_2_10 + 100000 z_2_5 + 100000 z_2_6 + 100000 z_2_8 <= 401091.25796476105
 c4824: 120 p_2_1 + 120 p_2_10 + 120 p_2_5 + 120 p_2_6 + 120 p_2_8 + 100000 z_2_1 + 100000 z_2_10 + 100000 z_2_5 + 100000 z_2_6 + 100000 z_2_8 <= 500914.53989774396
 c4825: 120 p_2_10 + 120 p_2_2 + 120 p_2_5 + 120 p_2_6 + 120 p_2_8 + 100000 z_2_10 + 100000 z_2_2 + 100000 z_2_5 + 100000 z_2_6 + 100000 z_2_8 <= 501021.19621103065
 c4826: 120 p_2_1 + 120 p_2_10 + 120 p_2_2 + 120 p_2_5 + 120 p_2_6 + 120 p_2_8 + 100000 z_2_1 + 100000 z_2_10 + 100000 z_2_2 + 100000 z_2_5 + 100000 z_2_6 + 100000 z_2_8 <= 600844.47814401356
 c4827: 120 p_2_10 + 120 p_2_3 + 120 p_2_5 + 120 p_2_6 + 120 p_2_8 + 100000 z_2_10 + 100000 z_2_3 + 100000 z_2_5 + 100000 z_2_6 + 100000 z_2_8 <= 500912.71940200956
 c4828: 120 p_2_1 + 120 p_2_10 + 120 p_2_3 + 120 p_2_5 + 120 p_2_6 + 120 p_2_8 + 100000 z_2_1 + 100000 z_2_10 + 100000 z_2_3 + 100000 z_2_5 + 100000 z_2_6 + 100000 z_2_8 <= 600745.88080832141
 c4829: 120 p_2_10 + 120 p_2_2 + 120 p_2_3 + 120 p_2_5 + 120 p_2_6 + 120 p_2_8 + 100000 z_2_10 + 100000 z_2_2 + 100000 z_2_3 + 100000 z_2_5 + 100000 z_2_6 + 100000 z_2_8 <= 600842.65764827922
 c4830: 120 p_2_1 + 120 p_2_10 + 120 p_2_2 + 120 p_2_3 + 120 p_2_5 + 120 p_2_6 + 120 p_2_8 + 100000 z_2_1 + 100000 z_2_10 + 100000 z_2_2 + 100000 z_2_3 + 100000 z_2_5 + 100000 z_2_6 + 100000 z_2_8 <= 700675.819054591
 c4831: 120 p_2_10 + 120 p_2_4 + 120 p_2_5 + 120 p_2_6 + 120 p_2_8 + 100000 z_2_10 + 100000 z_2_4 + 100000 z_2_5 + 100000 z_2_6 + 100000 z_2_8 <= 501055.03723030619
 c4832: 120 p_2_1 + 120 p_2_10 + 120 p_2_4 + 120 p_2_5 + 120 p_2_6 + 120 p_2_8 + 100000 z_2_1 + 100000 z_2_10 + 100000 z_2_4 + 100000 z_2_5 + 100000 z_2_6 + 100000 z_2_8 <= 600913.9637678311
 c4833: 120 p_2_10 + 120 p_2_2 + 120 p_2_4 + 120 p_2_5 + 120 p_2_6 + 120 p_2_8 + 100000 z_2_10 + 100000 z_2_2 + 100000 z_2_4 + 100000 z_2_5 + 100000 z_2_6 + 100000 z_2_8 <= 600984.97547657578
 c4834: 120 p_2_1 + 120 p_2_10 + 120 p_2_2 + 120 p_2_4 + 120 p_2_5 + 120 p_2_6 + 120 p_2_8 + 100000 z_2_1 + 100000 z_2_10 + 100000 z_2_2 + 100000 z_2_4 + 100000 z_2_5 + 100000 z_2_6 + 100000 z_2_8 <= 700843.90201410069
 c4835: 120 p_2_10 + 120 p_2_3 + 120 p_2_4 + 120 p_2_5 + 120 p_2_6 + 120 p_2_8 + 100000 z_2_10 + 100000 z_2_3 + 100000 z_2_4 + 100000 z_2_5 + 100000 z_2_6 + 100000 z_2_8 <= 600884.20006432571
 c4836: 120 p_2_1 + 120 p_2_10 + 120 p_2_3 + 120 p_2_4 + 120 p_2_5 + 120 p_2_6 + 120 p_2_8 + 100000 z_2_1 + 100000 z_2_10 + 100000 z_2_3 + 100000 z_2_4 + 100000 z_2_5 + 100000 z_2_6 + 100000 z_2_8 <= 700743.12660185073
 c4837: 120 p_2_10 + 120 p_2_2 + 120 p_2_3 + 120 p_2_4 + 120 p_2_5 + 120 p_2_6 + 120 p_2_8 + 100000 z_2_10 + 100000 z_2_2 + 100000 z_2_3 + 100000 z_2_4 + 100000 z_2_5 + 100000 z_2_6 + 100000 z_2_8 <= 700814.1383105953
 c4838: 120 p_2_1 + 120 p_2_10 + 120 p_2_2 + 120 p_2_3 + 120 p_2_4 + 120 p_2_5 + 120 p_2_6 + 120 p_2_8 + 100000 z_2_1 + 100000 z_2_10 + 100000 z_2_2 + 100000 z_2_3 + 100000 z_2_4 + 100000 z_2_5 + 100000 z_2_6 + 100000 z_2_8 <= 800673.06484812032
 c4839: 120 p_2_10 + 120 p_2_7 + 120 p_2_8 + 100000 z_2_10 + 100000 z_2_7 + 100000 z_2_8 <= 301247.39372823358
 c4840: 120 p_2_1 + 120 p_2_10 + 120 p_2_7 + 120 p_2_8 + 100000 z_2_1 + 100000 z_2_10 + 100000 z_2_7 + 100000 z_2_8 <= 401236.51088657929
 c4841: 120 p_2_10 + 120 p_2_2 + 120 p_2_7 + 120 p_2_8 + 100000 z_2_10 + 100000 z_2_2 + 100000 z_2_7 + 100000 z_2_8 <= 401195.10033675918
 c4842: 120 p_2_1 + 120 p_2_10 + 120 p_2_2 + 120 p_2_7 + 120 p_2_8 + 100000 z_2_1 + 100000 z_2_10 + 100000 z_2_2 + 100000 z_2_7 + 100000 z_2_8 <= 501184.21749510488
 c4843: 120 p_2_10 + 120 p_2_3 + 120 p_2_7 + 120 p_2_8 + 100000 z_2_10 + 100000 z_2_3 + 100000 z_2_7 + 100000 z_2_8 <= 400757.94624034181
 c4844: 120 p_2_1 + 120 p_2_10 + 120 p_2_3 + 120 p_2_7 + 120 p_2_8 + 100000 z_2_1 + 100000 z_2_10 + 100000 z_2_3 + 100000 z_2_7 + 100000 z_2_8 <= 500752.5690459006
 c4845: 120 p_2_10 + 120 p_2_2 + 120 p_2_3 + 120 p_2_7 + 120 p_2_8 + 100000 z_2_10 + 100000 z_2_2 + 100000 z_2_3 + 100000 z_2_7 + 100000 z_2_8 <= 500684.30132526759
 c4846: 120 p_2_1 + 120 p_2_10 + 120 p_2_2 + 120 p_2_3 + 120 p_2_7 + 120 p_2_8 + 100000 z_2_1 + 100000 z_2_10 + 100000 z_2_2 + 100000 z_2_3 + 100000 z_2_7 + 100000 z_2_8 <= 600678.92413082637
 c4847: 120 p_2_10 + 120 p_2_4 + 120 p_2_7 + 120 p_2_8 + 100000 z_2_10 + 100000 z_2_4 + 100000 z_2_7 + 100000 z_2_8 <= 401236.70801859797
 c4848: 120 p_2_1 + 120 p_2_10 + 120 p_2_4 + 120 p_2_7 + 120 p_2_8 + 100000 z_2_1 + 100000 z_2_10 + 100000 z_2_4 + 100000 z_2_7 + 100000 z_2_8 <= 501229.62326712278
 c4849: 120 p_2_10 + 120 p_2_2 + 120 p_2_4 + 120 p_2_7 + 120 p_2_8 + 100000 z_2_10 + 100000 z_2_2 + 100000 z_2_4 + 100000 z_2_7 + 100000 z_2_8 <= 501184.41462712362
 c4850: 120 p_2_1 + 120 p_2_10 + 120 p_2_2 + 120 p_2_4 + 120 p_2_7 + 120 p_2_8 + 100000 z_2_1 + 100000 z_2_10 + 100000 z_2_2 + 100000 z_2_4 + 100000 z_2_7 + 100000 z_2_8 <= 601177.32987564837
 c4851: 120 p_2_10 + 120 p_2_3 + 120 p_2_4 + 120 p_2_7 + 120 p_2_8 + 100000 z_2_10 + 100000 z_2_3 + 100000 z_2_4 + 100000 z_2_7 + 100000 z_2_8 <= 500756.89959090512
 c4852: 120 p_2_1 + 120 p_2_10 + 120 p_2_3 + 120 p_2_4 + 120 p_2_7 + 120 p_2_8 + 100000 z_2_1 + 100000 z_2_10 + 100000 z_2_3 + 100000 z_2_4 + 100000 z_2_7 + 100000 z_2_8 <= 600749.81483942992
 c4853: 120 p_2_10 + 120 p_2_2 + 120 p_2_3 + 120 p_2_4 + 120 p_2_7 + 120 p_2_8 + 100000 z_2_10 + 100000 z_2_2 + 100000 z_2_3 + 100000 z_2_4 + 100000 z_2_7 + 100000 z_2_8 <= 600683.25467583083
 c4854: 120 p_2_1 + 120 p_2_10 + 120 p_2_2 + 120 p_2_3 + 120 p_2_4 + 120 p_2_7 + 120 p_2_8 + 100000 z_2_1 + 100000 z_2_10 + 100000 z_2_2 + 100000 z_2_3 + 100000 z_2_4 + 100000 z_2_7 + 100000 z_2_8 <= 700676.16992435569
 c4855: 120 p_2_10 + 120 p_2_5 + 120 p_2_7 + 120 p_2_8 + 100000 z_2_10 + 100000 z_2_5 + 100000 z_2_7 + 100000 z_2_8 <= 401246.85374626919
 c4856: 120 p_2_1 + 120 p_2_10 + 120 p_2_5 + 120 p_2_7 + 120 p_2_8 + 100000 z_2_1 + 100000 z_2_10 + 100000 z_2_5 + 100000 z_2_7 + 100000 z_2_8 <= 501235.97090461489
 c4857: 120 p_2_10 + 120 p_2_2 + 120 p_2_5 + 120 p_2_7 + 120 p_2_8 + 100000 z_2_10 + 100000 z_2_2 + 100000 z_2_5 + 100000 z_2_7 + 100000 z_2_8 <= 501188.47135896317
 c4858: 120 p_2_1 + 120 p_2_10 + 120 p_2_2 + 120 p_2_5 + 120 p_2_7 + 120 p_2_8 + 100000 z_2_1 + 100000 z_2_10 + 100000 z_2_2 + 100000 z_2_5 + 100000 z_2_7 + 100000 z_2_8 <= 601177.58851730882
 c4859: 120 p_2_10 + 120 p_2_3 + 120 p_2_5 + 120 p_2_7 + 120 p_2_8 + 100000 z_2_10 + 100000 z_2_3 + 100000 z_2_5 + 100000 z_2_7 + 100000 z_2_8 <= 500751.31726254581
 c4860: 120 p_2_1 + 120 p_2_10 + 120 p_2_3 + 120 p_2_5 + 120 p_2_7 + 120 p_2_8 + 100000 z_2_1 + 100000 z_2_10 + 100000 z_2_3 + 100000 z_2_5 + 100000 z_2_7 + 100000 z_2_8 <= 600745.94006810454
 c4861: 120 p_2_10 + 120 p_2_2 + 120 p_2_3 + 120 p_2_5 + 120 p_2_7 + 120 p_2_8 + 100000 z_2_10 + 100000 z_2_2 + 100000 z_2_3 + 100000 z_2_5 + 100000 z_2_7 + 100000 z_2_8 <= 600681.2555088154
 c4862: 120 p_2_1 + 120 p_2_10 + 120 p_2_2 + 120 p_2_3 + 120 p_2_5 + 120 p_2_7 + 120 p_2_8 + 100000 z_2_1 + 100000 z_2_10 + 100000 z_2_2 + 100000 z_2_3 + 100000 z_2_5 + 100000 z_2_7 + 100000 z_2_8 <= 700675.87831437413
 c4863: 120 p_2_10 + 120 p_2_4 + 120 p_2_5 + 120 p_2_7 + 120 p_2_8 + 100000 z_2_10 + 100000 z_2_4 + 100000 z_2_5 + 100000 z_2_7 + 100000 z_2_8 <= 501236.16803663364
 c4864: 120 p_2_1 + 120 p_2_10 + 120 p_2_4 + 120 p_2_5 + 120 p_2_7 + 120 p_2_8 + 100000 z_2_1 + 100000 z_2_10 + 100000 z_2_4 + 100000 z_2_5 + 100000 z_2_7 + 100000 z_2_8 <= 601229.08328515838
 c4865: 120 p_2_10 + 120 p_2_2 + 120 p_2_4 + 120 p_2_5 + 120 p_2_7 + 120 p_2_8 + 100000 z_2_10 + 100000 z_2_2 + 100000 z_2_4 + 100000 z_2_5 + 100000 z_2_7 + 100000 z_2_8 <= 601177.78564932756
 c4866: 120 p_2_1 + 120 p_2_10 + 120 p_2_2 + 120 p_2_4 + 120 p_2_5 + 120 p_2_7 + 120 p_2_8 + 100000 z_2_1 + 100000 z_2_10 + 100000 z_2_2 + 100000 z_2_4 + 100000 z_2_5 + 100000 z_2_7 + 100000 z_2_8 <= 701170.70089785231
 c4867: 120 p_2_10 + 120 p_2_3 + 120 p_2_4 + 120 p_2_5 + 120 p_2_7 + 120 p_2_8 + 100000 z_2_10 + 100000 z_2_3 + 100000 z_2_4 + 100000 z_2_5 + 100000 z_2_7 + 100000 z_2_8 <= 600750.27061310911
 c4868: 120 p_2_1 + 120 p_2_10 + 120 p_2_3 + 120 p_2_4 + 120 p_2_5 + 120 p_2_7 + 120 p_2_8 + 100000 z_2_1 + 100000 z_2_10 + 100000 z_2_3 + 100000 z_2_4 + 100000 z_2_5 + 100000 z_2_7 + 100000 z_2_8 <= 700743.18586163386
 c4869: 120 p_2_10 + 120 p_2_2 + 120 p_2_3 + 120 p_2_4 + 120 p_2_5 + 120 p_2_7 + 120 p_2_8 + 100000 z_2_10 + 100000 z_2_2 + 100000 z_2_3 + 100000 z_2_4 + 100000 z_2_5 + 100000 z_2_7 + 100000 z_2_8 <= 700680.20885937859
 c4870: 120 p_2_1 + 120 p_2_10 + 120 p_2_2 + 120 p_2_3 + 120 p_2_4 + 120 p_2_5 + 120 p_2_7 + 120 p_2_8 + 100000 z_2_1 + 100000 z_2_10 + 100000 z_2_2 + 100000 z_2_3 + 100000 z_2_4 + 100000 z_2_5 + 100000 z_2_7 + 100000 z_2_8 <= 800673.12410790345
 c4871: 120 p_2_10 + 120 p_2_6 + 120 p_2_7 + 120 p_2_8 + 100000 z_2_10 + 100000 z_2_6 + 100000 z_2_7 + 100000 z_2_8 <= 400916.47717973724
 c4872: 120 p_2_1 + 120 p_2_10 + 120 p_2_6 + 120 p_2_7 + 120 p_2_8 + 100000 z_2_1 + 100000 z_2_10 + 100000 z_2_6 + 100000 z_2_7 + 100000 z_2_8 <= 500909.95554240665
 c4873: 120 p_2_10 + 120 p_2_2 + 120 p_2_6 + 120 p_2_7 + 120 p_2_8 + 100000 z_2_10 + 100000 z_2_2 + 100000 z_2_6 + 100000 z_2_7 + 100000 z_2_8 <= 500853.9363943832
 c4874: 120 p_2_1 + 120 p_2_10 + 120 p_2_2 + 120 p_2_6 + 120 p_2_7 + 120 p_2_8 + 100000 z_2_1 + 100000 z_2_10 + 100000 z_2_2 + 100000 z_2_6 + 100000 z_2_7 + 100000 z_2_8 <= 600843.05355272896
 c4875: 120 p_2_10 + 120 p_2_3 + 120 p_2_6 + 120 p_2_7 + 120 p_2_8 + 100000 z_2_10 + 100000 z_2_3 + 100000 z_2_6 + 100000 z_2_7 + 100000 z_2_8 <= 500746.67364742531
 c4876: 120 p_2_1 + 120 p_2_10 + 120 p_2_3 + 120 p_2_6 + 120 p_2_7 + 120 p_2_8 + 100000 z_2_1 + 100000 z_2_10 + 100000 z_2_3 + 100000 z_2_6 + 100000 z_2_7 + 100000 z_2_8 <= 600741.2964529841
 c4877: 120 p_2_10 + 120 p_2_2 + 120 p_2_3 + 120 p_2_6 + 120 p_2_7 + 120 p_2_8 + 100000 z_2_10 + 100000 z_2_2 + 100000 z_2_3 + 100000 z_2_6 + 100000 z_2_7 + 100000 z_2_8 <= 600675.39783163171
 c4878: 120 p_2_1 + 120 p_2_10 + 120 p_2_2 + 120 p_2_3 + 120 p_2_6 + 120 p_2_7 + 120 p_2_8 + 100000 z_2_1 + 100000 z_2_10 + 100000 z_2_2 + 100000 z_2_3 + 100000 z_2_6 + 100000 z_2_7 + 100000 z_2_8 <= 700667.65153790987
 c4879: 120 p_2_10 + 120 p_2_4 + 120 p_2_6 + 120 p_2_7 + 120 p_2_8 + 100000 z_2_10 + 100000 z_2_4 + 100000 z_2_6 + 100000 z_2_7 + 100000 z_2_8 <= 500916.46416396904
 c4880: 120 p_2_1 + 120 p_2_10 + 120 p_2_4 + 120 p_2_6 + 120 p_2_7 + 120 p_2_8 + 100000 z_2_1 + 100000 z_2_10 + 100000 z_2_4 + 100000 z_2_6 + 100000 z_2_7 + 100000 z_2_8 <= 600909.37941249378
 c4881: 120 p_2_10 + 120 p_2_2 + 120 p_2_4 + 120 p_2_6 + 120 p_2_7 + 120 p_2_8 + 100000 z_2_10 + 100000 z_2_2 + 100000 z_2_4 + 100000 z_2_6 + 100000 z_2_7 + 100000 z_2_8 <= 600843.25068474771
 c4882: 120 p_2_1 + 120 p_2_10 + 120 p_2_2 + 120 p_2_4 + 120 p_2_6 + 120 p_2_7 + 120 p_2_8 + 100000 z_2_1 + 100000 z_2_10 + 100000 z_2_2 + 100000 z_2_4 + 100000 z_2_6 + 100000 z_2_7 + 100000 z_2_8 <= 700836.16593327245
 c4883: 120 p_2_10 + 120 p_2_3 + 120 p_2_4 + 120 p_2_6 + 120 p_2_7 + 120 p_2_8 + 100000 z_2_10 + 100000 z_2_3 + 100000 z_2_4 + 100000 z_2_6 + 100000 z_2_7 + 100000 z_2_8 <= 600745.62699798855
 c4884: 120 p_2_1 + 120 p_2_10 + 120 p_2_3 + 120 p_2_4 + 120 p_2_6 + 120 p_2_7 + 120 p_2_8 + 100000 z_2_1 + 100000 z_2_10 + 100000 z_2_3 + 100000 z_2_4 + 100000 z_2_6 + 100000 z_2_7 + 100000 z_2_8 <= 700738.5422465133
 c4885: 120 p_2_10 + 120 p_2_2 + 120 p_2_3 + 120 p_2_4 + 120 p_2_6 + 120 p_2_7 + 120 p_2_8 + 100000 z_2_10 + 100000 z_2_2 + 100000 z_2_3 + 100000 z_2_4 + 100000 z_2_6 + 100000 z_2_7 + 100000 z_2_8 <= 700671.98208291433
 c4886: 120 p_2_1 + 120 p_2_10 + 120 p_2_2 + 120 p_2_3 + 120 p_2_4 + 120 p_2_6 + 120 p_2_7 + 120 p_2_8 + 100000 z_2_1 + 100000 z_2_10 + 100000 z_2_2 + 100000 z_2_3 + 100000 z_2_4 + 100000 z_2_6 + 100000 z_2_7 + 100000 z_2_8 <= 800664.89733143919
 c4887: 120 p_2_10 + 120 p_2_5 + 120 p_2_6 + 120 p_2_7 + 120 p_2_8 + 100000 z_2_10 + 100000 z_2_5 + 100000 z_2_6 + 100000 z_2_7 + 100000 z_2_8 <= 500909.84820194117
 c4888: 120 p_2_1 + 120 p_2_10 + 120 p_2_5 + 120 p_2_6 + 120 p_2_7 + 120 p_2_8 + 100000 z_2_1 + 100000 z_2_10 + 100000 z_2_5 + 100000 z_2_6 + 100000 z_2_7 + 100000 z_2_8 <= 600903.32656461059
 c4889: 120 p_2_10 + 120 p_2_2 + 120 p_2_5 + 120 p_2_6 + 120 p_2_7 + 120 p_2_8 + 100000 z_2_10 + 100000 z_2_2 + 100000 z_2_5 + 100000 z_2_6 + 100000 z_2_7 + 100000 z_2_8 <= 600839.78644821083
 c4890: 120 p_2_1 + 120 p_2_10 + 120 p_2_2 + 120 p_2_5 + 120 p_2_6 + 120 p_2_7 + 120 p_2_8 + 100000 z_2_1 + 100000 z_2_10 + 100000 z_2_2 + 100000 z_2_5 + 100000 z_2_6 + 100000 z_2_7 + 100000 z_2_8 <= 700833.26481088018
 c4891: 120 p_2_10 + 120 p_2_3 + 120 p_2_5 + 120 p_2_6 + 120 p_2_7 + 120 p_2_8 + 100000 z_2_10 + 100000 z_2_3 + 100000 z_2_5 + 100000 z_2_6 + 100000 z_2_7 + 100000 z_2_8 <= 600740.04466962931
 c4892: 120 p_2_1 + 120 p_2_10 + 120 p_2_3 + 120 p_2_5 + 120 p_2_6 + 120 p_2_7 + 120 p_2_8 + 100000 z_2_1 + 100000 z_2_10 + 100000 z_2_3 + 100000 z_2_5 + 100000 z_2_6 + 100000 z_2_7 + 100000 z_2_8 <= 700734.66747518803
 c4893: 120 p_2_10 + 120 p_2_2 + 120 p_2_3 + 120 p_2_5 + 120 p_2_6 + 120 p_2_7 + 120 p_2_8 + 100000 z_2_10 + 100000 z_2_2 + 100000 z_2_3 + 100000 z_2_5 + 100000 z_2_6 + 100000 z_2_7 + 100000 z_2_8 <= 700669.98291589878
 c4894: 120 p_2_1 + 120 p_2_10 + 120 p_2_2 + 120 p_2_3 + 120 p_2_5 + 120 p_2_6 + 120 p_2_7 + 120 p_2_8 + 100000 z_2_1 + 100000 z_2_10 + 100000 z_2_2 + 100000 z_2_3 + 100000 z_2_5 + 100000 z_2_6 + 100000 z_2_7 + 100000 z_2_8 <= 800664.60572145763
 c4895: 120 p_2_10 + 120 p_2_4 + 120 p_2_5 + 120 p_2_6 + 120 p_2_7 + 120 p_2_8 + 100000 z_2_10 + 100000 z_2_4 + 100000 z_2_5 + 100000 z_2_6 + 100000 z_2_7 + 100000 z_2_8 <= 600909.83518617298
 c4896: 120 p_2_1 + 120 p_2_10 + 120 p_2_4 + 120 p_2_5 + 120 p_2_6 + 120 p_2_7 + 120 p_2_8 + 100000 z_2_1 + 100000 z_2_10 + 100000 z_2_4 + 100000 z_2_5 + 100000 z_2_6 + 100000 z_2_7 + 100000 z_2_8 <= 700902.75043469772
 c4897: 120 p_2_10 + 120 p_2_2 + 120 p_2_4 + 120 p_2_5 + 120 p_2_6 + 120 p_2_7 + 120 p_2_8 + 100000 z_2_10 + 100000 z_2_2 + 100000 z_2_4 + 100000 z_2_5 + 100000 z_2_6 + 100000 z_2_7 + 100000 z_2_8 <= 700839.77343244257
 c4898: 120 p_2_1 + 120 p_2_10 + 120 p_2_2 + 120 p_2_4 + 120 p_2_5 + 120 p_2_6 + 120 p_2_7 + 120 p_2_8 + 100000 z_2_1 + 100000 z_2_10 + 100000 z_2_2 + 100000 z_2_4 + 100000 z_2_5 + 100000 z_2_6 + 100000 z_2_7 + 100000 z_2_8 <= 800832.68868096732
 c4899: 120 p_2_10 + 120 p_2_3 + 120 p_2_4 + 120 p_2_5 + 120 p_2_6 + 120 p_2_7 + 120 p_2_8 + 100000 z_2_10 + 100000 z_2_3 + 100000 z_2_4 + 100000 z_2_5 + 100000 z_2_6 + 100000 z_2_7 + 100000 z_2_8 <= 700738.99802019249
 c4900: 120 p_2_1 + 120 p_2_10 + 120 p_2_3 + 120 p_2_4 + 120 p_2_5 + 120 p_2_6 + 120 p_2_7 + 120 p_2_8 + 100000 z_2_1 + 100000 z_2_10 + 100000 z_2_3 + 100000 z_2_4 + 100000 z_2_5 + 100000 z_2_6 + 100000 z_2_7 + 100000 z_2_8 <= 800731.91326871736
 c4901: 120 p_2_10 + 120 p_2_2 + 120 p_2_3 + 120 p_2_4 + 120 p_2_5 + 120 p_2_6 + 120 p_2_7 + 120 p_2_8 + 100000 z_2_10 + 100000 z_2_2 + 100000 z_2_3 + 100000 z_2_4 + 100000 z_2_5 + 100000 z_2_6 + 100000 z_2_7 + 100000 z_2_8 <= 800668.93626646209
 c4902: 120 p_2_1 + 120 p_2_10 + 120 p_2_2 + 120 p_2_3 + 120 p_2_4 + 120 p_2_5 + 120 p_2_6 + 120 p_2_7 + 120 p_2_8 + 100000 z_2_1 + 100000 z_2_10 + 100000 z_2_2 + 100000 z_2_3 + 100000 z_2_4 + 100000 z_2_5 + 100000 z_2_6 + 100000 z_2_7 + 100000 z_2_8 <= 900661.85151498695
 c4903: 120 p_2_10 + 120 p_2_9 + 100000 z_2_10 + 100000 z_2_9 <= 201419.65923040506
 c4904: 120 p_2_1 + 120 p_2_10 + 120 p_2_9 + 100000 z_2_1 + 100000 z_2_10 + 100000 z_2_9 <= 301267.13736312254
 c4905: 120 p_2_10 + 120 p_2_2 + 120 p_2_9 + 100000 z_2_10 + 100000 z_2_2 + 100000 z_2_9 <= 301008.93406454939
 c4906: 120 p_2_1 + 120 p_2_10 + 120 p_2_2 + 120 p_2_9 + 100000 z_2_1 + 100000 z_2_10 + 100000 z_2_2 + 100000 z_2_9 <= 400855.72310642834
 c4907: 120 p_2_10 + 120 p_2_3 + 120 p_2_9 + 100000 z_2_10 + 100000 z_2_3 + 100000 z_2_9 <= 301198.4535694854
 c4908: 120 p_2_1 + 120 p_2_10 + 120 p_2_3 + 120 p_2_9 + 100000 z_2_1 + 100000 z_2_10 + 100000 z_2_3 + 100000 z_2_9 <= 401045.93170220288
 c4909: 120 p_2_10 + 120 p_2_2 + 120 p_2_3 + 120 p_2_9 + 100000 z_2_10 + 100000 z_2_2 + 100000 z_2_3 + 100000 z_2_9 <= 400843.44267058728
 c4910: 120 p_2_1 + 120 p_2_10 + 120 p_2_2 + 120 p_2_3 + 120 p_2_9 + 100000 z_2_1 + 100000 z_2_10 + 100000 z_2_2 + 100000 z_2_3 + 100000 z_2_9 <= 500690.23171246622
 c4911: 120 p_2_10 + 120 p_2_4 + 120 p_2_9 + 100000 z_2_10 + 100000 z_2_4 + 100000 z_2_9 <= 301405.28396288439
 c4912: 120 p_2_1 + 120 p_2_10 + 120 p_2_4 + 120 p_2_9 + 100000 z_2_1 + 100000 z_2_10 + 100000 z_2_4 + 100000 z_2_9 <= 401264.21050040936
 c4913: 120 p_2_10 + 120 p_2_2 + 120 p_2_4 + 120 p_2_9 + 100000 z_2_10 + 100000 z_2_2 + 100000 z_2_4 + 100000 z_2_9 <= 400993.86970619019
 c4914: 120 p_2_1 + 120 p_2_10 + 120 p_2_2 + 120 p_2_4 + 120 p_2_9 + 100000 z_2_1 + 100000 z_2_10 + 100000 z_2_2 + 100000 z_2_4 + 100000 z_2_9 <= 500852.79624371516
 c4915: 120 p_2_10 + 120 p_2_3 + 120 p_2_4 + 120 p_2_9 + 100000 z_2_10 + 100000 z_2_3 + 100000 z_2_4 + 100000 z_2_9 <= 401184.07830196474
 c4916: 120 p_2_1 + 120 p_2_10 + 120 p_2_3 + 120 p_2_4 + 120 p_2_9 + 100000 z_2_1 + 100000 z_2_10 + 100000 z_2_3 + 100000 z_2_4 + 100000 z_2_9 <= 501043.0048394897
 c4917: 120 p_2_10 + 120 p_2_2 + 120 p_2_3 + 120 p_2_4 + 120 p_2_9 + 100000 z_2_10 + 100000 z_2_2 + 100000 z_2_3 + 100000 z_2_4 + 100000 z_2_9 <= 500828.37831222807
 c4918: 120 p_2_1 + 120 p_2_10 + 120 p_2_2 + 120 p_2_3 + 120 p_2_4 + 120 p_2_9 + 100000 z_2_1 + 100000 z_2_10 + 100000 z_2_2 + 100000 z_2_3 + 100000 z_2_4 + 100000 z_2_9 <= 600687.30484975304
 c4919: 120 p_2_10 + 120 p_2_5 + 120 p_2_9 + 100000 z_2_10 + 100000 z_2_5 + 100000 z_2_9 <= 301109.39130511519
 c4920: 120 p_2_1 + 120 p_2_10 + 120 p_2_5 + 120 p_2_9 + 100000 z_2_1 + 100000 z_2_10 + 100000 z_2_5 + 100000 z_2_9 <= 400956.86943783268
 c4921: 120 p_2_10 + 120 p_2_2 + 120 p_2_5 + 120 p_2_9 + 100000 z_2_10 + 100000 z_2_2 + 100000 z_2_5 + 100000 z_2_9 <= 401006.28320622526
 c4922: 120 p_2_1 + 120 p_2_10 + 120 p_2_2 + 120 p_2_5 + 120 p_2_9 + 100000 z_2_1 + 100000 z_2_10 + 100000 z_2_2 + 100000 z_2_5 + 100000 z_2_9 <= 500853.07224810426
 c4923: 120 p_2_10 + 120 p_2_3 + 120 p_2_5 + 120 p_2_9 + 100000 z_2_10 + 100000 z_2_3 + 100000 z_2_5 + 100000 z_2_9 <= 400937.44976467243
 c4924: 120 p_2_1 + 120 p_2_10 + 120 p_2_3 + 120 p_2_5 + 120 p_2_9 + 100000 z_2_1 + 100000 z_2_10 + 100000 z_2_3 + 100000 z_2_5 + 100000 z_2_9 <= 500784.92789738992
 c4925: 120 p_2_10 + 120 p_2_2 + 120 p_2_3 + 120 p_2_5 + 120 p_2_9 + 100000 z_2_10 + 100000 z_2_2 + 100000 z_2_3 + 100000 z_2_5 + 100000 z_2_9 <= 500839.70776329649
 c4926: 120 p_2_1 + 120 p_2_10 + 120 p_2_2 + 120 p_2_3 + 120 p_2_5 + 120 p_2_9 + 100000 z_2_1 + 100000 z_2_10 + 100000 z_2_2 + 100000 z_2_3 + 100000 z_2_5 + 100000 z_2_9 <= 600687.18589601398
 c4927: 120 p_2_10 + 120 p_2_4 + 120 p_2_5 + 120 p_2_9 + 100000 z_2_10 + 100000 z_2_4 + 100000 z_2_5 + 100000 z_2_9 <= 401095.01603759453
 c4928: 120 p_2_1 + 120 p_2_10 + 120 p_2_4 + 120 p_2_5 + 120 p_2_9 + 100000 z_2_1 + 100000 z_2_10 + 100000 z_2_4 + 100000 z_2_5 + 100000 z_2_9 <= 500953.94257511949
 c4929: 120 p_2_10 + 120 p_2_2 + 120 p_2_4 + 120 p_2_5 + 120 p_2_9 + 100000 z_2_10 + 100000 z_2_2 + 100000 z_2_4 + 100000 z_2_5 + 100000 z_2_9 <= 500991.21884786611
 c4930: 120 p_2_1 + 120 p_2_10 + 120 p_2_2 + 120 p_2_4 + 120 p_2_5 + 120 p_2_9 + 100000 z_2_1 + 100000 z_2_10 + 100000 z_2_2 + 100000 z_2_4 + 100000 z_2_5 + 100000 z_2_9 <= 600850.14538539108
 c4931: 120 p_2_10 + 120 p_2_3 + 120 p_2_4 + 120 p_2_5 + 120 p_2_9 + 100000 z_2_10 + 100000 z_2_3 + 100000 z_2_4 + 100000 z_2_5 + 100000 z_2_9 <= 500923.07449715177
 c4932: 120 p_2_1 + 120 p_2_10 + 120 p_2_3 + 120 p_2_4 + 120 p_2_5 + 120 p_2_9 + 100000 z_2_1 + 100000 z_2_10 + 100000 z_2_3 + 100000 z_2_4 + 100000 z_2_5 + 100000 z_2_9 <= 600782.0010346768
 c4933: 120 p_2_10 + 120 p_2_2 + 120 p_2_3 + 120 p_2_4 + 120 p_2_5 + 120 p_2_9 + 100000 z_2_10 + 100000 z_2_2 + 100000 z_2_3 + 100000 z_2_4 + 100000 z_2_5 + 100000 z_2_9 <= 600825.33249577577
 c4934: 120 p_2_1 + 120 p_2_10 + 120 p_2_2 + 120 p_2_3 + 120 p_2_4 + 120 p_2_5 + 120 p_2_9 + 100000 z_2_1 + 100000 z_2_10 + 100000 z_2_2 + 100000 z_2_3 + 100000 z_2_4 + 100000 z_2_5 + 100000 z_2_9 <= 700684.2590333008
 c4935: 120 p_2_10 + 120 p_2_6 + 120 p_2_9 + 100000 z_2_10 + 100000 z_2_6 + 100000 z_2_9 <= 301340.92797662807
 c4936: 120 p_2_1 + 120 p_2_10 + 120 p_2_6 + 120 p_2_9 + 100000 z_2_1 + 100000 z_2_10 + 100000 z_2_6 + 100000 z_2_9 <= 401188.40610934555
 c4937: 120 p_2_10 + 120 p_2_2 + 120 p_2_6 + 120 p_2_9 + 100000 z_2_10 + 100000 z_2_2 + 100000 z_2_6 + 100000 z_2_9 <= 400977.00815564406
 c4938: 120 p_2_1 + 120 p_2_10 + 120 p_2_2 + 120 p_2_6 + 120 p_2_9 + 100000 z_2_1 + 100000 z_2_10 + 100000 z_2_2 + 100000 z_2_6 + 100000 z_2_9 <= 500823.797197523
 c4939: 120 p_2_10 + 120 p_2_3 + 120 p_2_6 + 120 p_2_9 + 100000 z_2_10 + 100000 z_2_3 + 100000 z_2_6 + 100000 z_2_9 <= 401196.76515600074
 c4940: 120 p_2_1 + 120 p_2_10 + 120 p_2_3 + 120 p_2_6 + 120 p_2_9 + 100000 z_2_1 + 100000 z_2_10 + 100000 z_2_3 + 100000 z_2_6 + 100000 z_2_9 <= 501044.24328871822
 c4941: 120 p_2_10 + 120 p_2_2 + 120 p_2_3 + 120 p_2_6 + 120 p_2_9 + 100000 z_2_10 + 100000 z_2_2 + 100000 z_2_3 + 100000 z_2_6 + 100000 z_2_9 <= 500832.84533501667
 c4942: 120 p_2_1 + 120 p_2_10 + 120 p_2_2 + 120 p_2_3 + 120 p_2_6 + 120 p_2_9 + 100000 z_2_1 + 100000 z_2_10 + 100000 z_2_2 + 100000 z_2_3 + 100000 z_2_6 + 100000 z_2_9 <= 600679.63437689561
 c4943: 120 p_2_10 + 120 p_2_4 + 120 p_2_6 + 120 p_2_9 + 100000 z_2_10 + 100000 z_2_4 + 100000 z_2_6 + 100000 z_2_9 <= 401326.5527091074
 c4944: 120 p_2_1 + 120 p_2_10 + 120 p_2_4 + 120 p_2_6 + 120 p_2_9 + 100000 z_2_1 + 100000 z_2_10 + 100000 z_2_4 + 100000 z_2_6 + 100000 z_2_9 <= 501185.47924663237
 c4945: 120 p_2_10 + 120 p_2_2 + 120 p_2_4 + 120 p_2_6 + 120 p_2_9 + 100000 z_2_10 + 100000 z_2_2 + 100000 z_2_4 + 100000 z_2_6 + 100000 z_2_9 <= 500961.94379728485
 c4946: 120 p_2_1 + 120 p_2_10 + 120 p_2_2 + 120 p_2_4 + 120 p_2_6 + 120 p_2_9 + 100000 z_2_1 + 100000 z_2_10 + 100000 z_2_2 + 100000 z_2_4 + 100000 z_2_6 + 100000 z_2_9 <= 600820.87033480976
 c4947: 120 p_2_10 + 120 p_2_3 + 120 p_2_4 + 120 p_2_6 + 120 p_2_9 + 100000 z_2_10 + 100000 z_2_3 + 100000 z_2_4 + 100000 z_2_6 + 100000 z_2_9 <= 501182.38988848007
 c4948: 120 p_2_1 + 120 p_2_10 + 120 p_2_3 + 120 p_2_4 + 120 p_2_6 + 120 p_2_9 + 100000 z_2_1 + 100000 z_2_10 + 100000 z_2_3 + 100000 z_2_4 + 100000 z_2_6 + 100000 z_2_9 <= 601041.31642600498
 c4949: 120 p_2_10 + 120 p_2_2 + 120 p_2_3 + 120 p_2_4 + 120 p_2_6 + 120 p_2_9 + 100000 z_2_10 + 100000 z_2_2 + 100000 z_2_3 + 100000 z_2_4 + 100000 z_2_6 + 100000 z_2_9 <= 600817.78097665752
 c4950: 120 p_2_1 + 120 p_2_10 + 120 p_2_2 + 120 p_2_3 + 120 p_2_4 + 120 p_2_6 + 120 p_2_9 + 100000 z_2_1 + 100000 z_2_10 + 100000 z_2_2 + 100000 z_2_3 + 100000 z_2_4 + 100000 z_2_6 + 100000 z_2_9 <= 700676.70751418243
 c4951: 120 p_2_10 + 120 p_2_5 + 120 p_2_6 + 120 p_2_9 + 100000 z_2_10 + 100000 z_2_5 + 100000 z_2_6 + 100000 z_2_9 <= 401073.94035134377
 c4952: 120 p_2_1 + 120 p_2_10 + 120 p_2_5 + 120 p_2_6 + 120 p_2_9 + 100000 z_2_1 + 100000 z_2_10 + 100000 z_2_5 + 100000 z_2_6 + 100000 z_2_9 <= 500921.41848406132
 c4953: 120 p_2_10 + 120 p_2_2 + 120 p_2_5 + 120 p_2_6 + 120 p_2_9 + 100000 z_2_10 + 100000 z_2_2 + 100000 z_2_5 + 100000 z_2_6 + 100000 z_2_9 <= 500973.27324835327
 c4954: 120 p_2_1 + 120 p_2_10 + 120 p_2_2 + 120 p_2_5 + 120 p_2_6 + 120 p_2_9 + 100000 z_2_1 + 100000 z_2_10 + 100000 z_2_2 + 100000 z_2_5 + 100000 z_2_6 + 100000 z_2_9 <= 600820.75138107082
 c4955: 120 p_2_10 + 120 p_2_3 + 120 p_2_5 + 120 p_2_6 + 120 p_2_9 + 100000 z_2_10 + 100000 z_2_3 + 100000 z_2_5 + 100000 z_2_6 + 100000 z_2_9 <= 500929.77753071644
 c4956: 120 p_2_1 + 120 p_2_10 + 120 p_2_3 + 120 p_2_5 + 120 p_2_6 + 120 p_2_9 + 100000 z_2_1 + 100000 z_2_10 + 100000 z_2_3 + 100000 z_2_5 + 100000 z_2_6 + 100000 z_2_9 <= 600777.25566343393
 c4957: 120 p_2_10 + 120 p_2_2 + 120 p_2_3 + 120 p_2_5 + 120 p_2_6 + 120 p_2_9 + 100000 z_2_10 + 100000 z_2_2 + 100000 z_2_3 + 100000 z_2_5 + 100000 z_2_6 + 100000 z_2_9 <= 600829.11042772594
 c4958: 120 p_2_1 + 120 p_2_10 + 120 p_2_2 + 120 p_2_3 + 120 p_2_5 + 120 p_2_6 + 120 p_2_9 + 100000 z_2_1 + 100000 z_2_10 + 100000 z_2_2 + 100000 z_2_3 + 100000 z_2_5 + 100000 z_2_6 + 100000 z_2_9 <= 700676.58856044337
 c4959: 120 p_2_10 + 120 p_2_4 + 120 p_2_5 + 120 p_2_6 + 120 p_2_9 + 100000 z_2_10 + 100000 z_2_4 + 100000 z_2_5 + 100000 z_2_6 + 100000 z_2_9 <= 501059.56508382311
 c4960: 120 p_2_1 + 120 p_2_10 + 120 p_2_4 + 120 p_2_5 + 120 p_2_6 + 120 p_2_9 + 100000 z_2_1 + 100000 z_2_10 + 100000 z_2_4 + 100000 z_2_5 + 100000 z_2_6 + 100000 z_2_9 <= 600918.49162134808
 c4961: 120 p_2_10 + 120 p_2_2 + 120 p_2_4 + 120 p_2_5 + 120 p_2_6 + 120 p_2_9 + 100000 z_2_10 + 100000 z_2_2 + 100000 z_2_4 + 100000 z_2_5 + 100000 z_2_6 + 100000 z_2_9 <= 600958.89798083261
 c4962: 120 p_2_1 + 120 p_2_10 + 120 p_2_2 + 120 p_2_4 + 120 p_2_5 + 120 p_2_6 + 120 p_2_9 + 100000 z_2_1 + 100000 z_2_10 + 100000 z_2_2 + 100000 z_2_4 + 100000 z_2_5 + 100000 z_2_6 + 100000 z_2_9 <= 700817.82451835752
 c4963: 120 p_2_10 + 120 p_2_3 + 120 p_2_4 + 120 p_2_5 + 120 p_2_6 + 120 p_2_9 + 100000 z_2_10 + 100000 z_2_3 + 100000 z_2_4 + 100000 z_2_5 + 100000 z_2_6 + 100000 z_2_9 <= 600915.40226319584
 c4964: 120 p_2_1 + 120 p_2_10 + 120 p_2_3 + 120 p_2_4 + 120 p_2_5 + 120 p_2_6 + 120 p_2_9 + 100000 z_2_1 + 100000 z_2_10 + 100000 z_2_3 + 100000 z_2_4 + 100000 z_2_5 + 100000 z_2_6 + 100000 z_2_9 <= 700774.32880072074
 c4965: 120 p_2_10 + 120 p_2_2 + 120 p_2_3 + 120 p_2_4 + 120 p_2_5 + 120 p_2_6 + 120 p_2_9 + 100000 z_2_10 + 100000 z_2_2 + 100000 z_2_3 + 100000 z_2_4 + 100000 z_2_5 + 100000 z_2_6 + 100000 z_2_9 <= 700814.73516020528
 c4966: 120 p_2_1 + 120 p_2_10 + 120 p_2_2 + 120 p_2_3 + 120 p_2_4 + 120 p_2_5 + 120 p_2_6 + 120 p_2_9 + 100000 z_2_1 + 100000 z_2_10 + 100000 z_2_2 + 100000 z_2_3 + 100000 z_2_4 + 100000 z_2_5 + 100000 z_2_6 + 100000 z_2_9 <= 800673.66169773019
 c4967: 120 p_2_10 + 120 p_2_7 + 120 p_2_9 + 100000 z_2_10 + 100000 z_2_7 + 100000 z_2_9 <= 301261.28046184406
 c4968: 120 p_2_1 + 120 p_2_10 + 120 p_2_7 + 120 p_2_9 + 100000 z_2_1 + 100000 z_2_10 + 100000 z_2_7 + 100000 z_2_9 <= 401255.92402998917
 c4969: 120 p_2_10 + 120 p_2_2 + 120 p_2_7 + 120 p_2_9 + 100000 z_2_10 + 100000 z_2_2 + 100000 z_2_7 + 100000 z_2_9 <= 400849.86620514985
 c4970: 120 p_2_1 + 120 p_2_10 + 120 p_2_2 + 120 p_2_7 + 120 p_2_9 + 100000 z_2_1 + 100000 z_2_10 + 100000 z_2_2 + 100000 z_2_7 + 100000 z_2_9 <= 500844.50977329497
 c4971: 120 p_2_10 + 120 p_2_3 + 120 p_2_7 + 120 p_2_9 + 100000 z_2_10 + 100000 z_2_3 + 100000 z_2_7 + 100000 z_2_9 <= 401040.07480092434
 c4972: 120 p_2_1 + 120 p_2_10 + 120 p_2_3 + 120 p_2_7 + 120 p_2_9 + 100000 z_2_1 + 100000 z_2_10 + 100000 z_2_3 + 100000 z_2_7 + 100000 z_2_9 <= 501034.71836906951
 c4973: 120 p_2_10 + 120 p_2_2 + 120 p_2_3 + 120 p_2_7 + 120 p_2_9 + 100000 z_2_10 + 100000 z_2_2 + 100000 z_2_3 + 100000 z_2_7 + 100000 z_2_9 <= 500684.37481118774
 c4974: 120 p_2_1 + 120 p_2_10 + 120 p_2_2 + 120 p_2_3 + 120 p_2_7 + 120 p_2_9 + 100000 z_2_1 + 100000 z_2_10 + 100000 z_2_2 + 100000 z_2_3 + 100000 z_2_7 + 100000 z_2_9 <= 600679.01837933285
 c4975: 120 p_2_10 + 120 p_2_4 + 120 p_2_7 + 120 p_2_9 + 100000 z_2_10 + 100000 z_2_4 + 100000 z_2_7 + 100000 z_2_9 <= 401260.08191875118
 c4976: 120 p_2_1 + 120 p_2_10 + 120 p_2_4 + 120 p_2_7 + 120 p_2_9 + 100000 z_2_1 + 100000 z_2_10 + 100000 z_2_4 + 100000 z_2_7 + 100000 z_2_9 <= 501252.99716727599
 c4977: 120 p_2_10 + 120 p_2_2 + 120 p_2_4 + 120 p_2_7 + 120 p_2_9 + 100000 z_2_10 + 100000 z_2_2 + 100000 z_2_4 + 100000 z_2_7 + 100000 z_2_9 <= 500848.66766205698
 c4978: 120 p_2_1 + 120 p_2_10 + 120 p_2_2 + 120 p_2_4 + 120 p_2_7 + 120 p_2_9 + 100000 z_2_1 + 100000 z_2_10 + 100000 z_2_2 + 100000 z_2_4 + 100000 z_2_7 + 100000 z_2_9 <= 600841.58291058172
 c4979: 120 p_2_10 + 120 p_2_3 + 120 p_2_4 + 120 p_2_7 + 120 p_2_9 + 100000 z_2_10 + 100000 z_2_3 + 100000 z_2_4 + 100000 z_2_7 + 100000 z_2_9 <= 501038.87625783152
 c4980: 120 p_2_1 + 120 p_2_10 + 120 p_2_3 + 120 p_2_4 + 120 p_2_7 + 120 p_2_9 + 100000 z_2_1 + 100000 z_2_10 + 100000 z_2_3 + 100000 z_2_4 + 100000 z_2_7 + 100000 z_2_9 <= 601031.79150635633
 c4981: 120 p_2_10 + 120 p_2_2 + 120 p_2_3 + 120 p_2_4 + 120 p_2_7 + 120 p_2_9 + 100000 z_2_10 + 100000 z_2_2 + 100000 z_2_3 + 100000 z_2_4 + 100000 z_2_7 + 100000 z_2_9 <= 600683.1762680948
 c4982: 120 p_2_1 + 120 p_2_10 + 120 p_2_2 + 120 p_2_3 + 120 p_2_4 + 120 p_2_7 + 120 p_2_9 + 100000 z_2_1 + 100000 z_2_10 + 100000 z_2_2 + 100000 z_2_3 + 100000 z_2_4 + 100000 z_2_7 + 100000 z_2_9 <= 700676.09151661966
 c4983: 120 p_2_10 + 120 p_2_5 + 120 p_2_7 + 120 p_2_9 + 100000 z_2_10 + 100000 z_2_5 + 100000 z_2_7 + 100000 z_2_9 <= 400951.01253655419
 c4984: 120 p_2_1 + 120 p_2_10 + 120 p_2_5 + 120 p_2_7 + 120 p_2_9 + 100000 z_2_1 + 100000 z_2_10 + 100000 z_2_5 + 100000 z_2_7 + 100000 z_2_9 <= 500945.6561046993
 c4985: 120 p_2_10 + 120 p_2_2 + 120 p_2_5 + 120 p_2_7 + 120 p_2_9 + 100000 z_2_10 + 100000 z_2_2 + 100000 z_2_5 + 100000 z_2_7 + 100000 z_2_9 <= 500847.21534682572
 c4986: 120 p_2_1 + 120 p_2_10 + 120 p_2_2 + 120 p_2_5 + 120 p_2_7 + 120 p_2_9 + 100000 z_2_1 + 100000 z_2_10 + 100000 z_2_2 + 100000 z_2_5 + 100000 z_2_7 + 100000 z_2_9 <= 600841.85891497089
 c4987: 120 p_2_10 + 120 p_2_3 + 120 p_2_5 + 120 p_2_7 + 120 p_2_9 + 100000 z_2_10 + 100000 z_2_3 + 100000 z_2_5 + 100000 z_2_7 + 100000 z_2_9 <= 500779.07099611143
 c4988: 120 p_2_1 + 120 p_2_10 + 120 p_2_3 + 120 p_2_5 + 120 p_2_7 + 120 p_2_9 + 100000 z_2_1 + 100000 z_2_10 + 100000 z_2_3 + 100000 z_2_5 + 100000 z_2_7 + 100000 z_2_9 <= 600773.71456425649
 c4989: 120 p_2_10 + 120 p_2_2 + 120 p_2_3 + 120 p_2_5 + 120 p_2_7 + 120 p_2_9 + 100000 z_2_10 + 100000 z_2_2 + 100000 z_2_3 + 100000 z_2_5 + 100000 z_2_7 + 100000 z_2_9 <= 600681.32899473549
 c4990: 120 p_2_1 + 120 p_2_10 + 120 p_2_2 + 120 p_2_3 + 120 p_2_5 + 120 p_2_7 + 120 p_2_9 + 100000 z_2_1 + 100000 z_2_10 + 100000 z_2_2 + 100000 z_2_3 + 100000 z_2_5 + 100000 z_2_7 + 100000 z_2_9 <= 700675.9725628806
 c4991: 120 p_2_10 + 120 p_2_4 + 120 p_2_5 + 120 p_2_7 + 120 p_2_9 + 100000 z_2_10 + 100000 z_2_4 + 100000 z_2_5 + 100000 z_2_7 + 100000 z_2_9 <= 500949.81399346131
 c4992: 120 p_2_1 + 120 p_2_10 + 120 p_2_4 + 120 p_2_5 + 120 p_2_7 + 120 p_2_9 + 100000 z_2_1 + 100000 z_2_10 + 100000 z_2_4 + 100000 z_2_5 + 100000 z_2_7 + 100000 z_2_9 <= 600942.72924198606
 c4993: 120 p_2_10 + 120 p_2_2 + 120 p_2_4 + 120 p_2_5 + 120 p_2_7 + 120 p_2_9 + 100000 z_2_10 + 100000 z_2_2 + 100000 z_2_4 + 100000 z_2_5 + 100000 z_2_7 + 100000 z_2_9 <= 600846.01680373284
 c4994: 120 p_2_1 + 120 p_2_10 + 120 p_2_2 + 120 p_2_4 + 120 p_2_5 + 120 p_2_7 + 120 p_2_9 + 100000 z_2_1 + 100000 z_2_10 + 100000 z_2_2 + 100000 z_2_4 + 100000 z_2_5 + 100000 z_2_7 + 100000 z_2_9 <= 700838.9320522577
 c4995: 120 p_2_10 + 120 p_2_3 + 120 p_2_4 + 120 p_2_5 + 120 p_2_7 + 120 p_2_9 + 100000 z_2_10 + 100000 z_2_3 + 100000 z_2_4 + 100000 z_2_5 + 100000 z_2_7 + 100000 z_2_9 <= 600777.87245301856
 c4996: 120 p_2_1 + 120 p_2_10 + 120 p_2_3 + 120 p_2_4 + 120 p_2_5 + 120 p_2_7 + 120 p_2_9 + 100000 z_2_1 + 100000 z_2_10 + 100000 z_2_3 + 100000 z_2_4 + 100000 z_2_5 + 100000 z_2_7 + 100000 z_2_9 <= 700770.7877015433
 c4997: 120 p_2_10 + 120 p_2_2 + 120 p_2_3 + 120 p_2_4 + 120 p_2_5 + 120 p_2_7 + 120 p_2_9 + 100000 z_2_10 + 100000 z_2_2 + 100000 z_2_3 + 100000 z_2_4 + 100000 z_2_5 + 100000 z_2_7 + 100000 z_2_9 <= 700680.13045164256
 c4998: 120 p_2_1 + 120 p_2_10 + 120 p_2_2 + 120 p_2_3 + 120 p_2_4 + 120 p_2_5 + 120 p_2_7 + 120 p_2_9 + 100000 z_2_1 + 100000 z_2_10 + 100000 z_2_2 + 100000 z_2_3 + 100000 z_2_4 + 100000 z_2_5 + 100000 z_2_7 + 100000 z_2_9 <= 800673.04570016742
 c4999: 120 p_2_10 + 120 p_2_6 + 120 p_2_7 + 120 p_2_9 + 100000 z_2_10 + 100000 z_2_6 + 100000 z_2_7 + 100000 z_2_9 <= 401182.54920806701
 c5000: 120 p_2_1 + 120 p_2_10 + 120 p_2_6 + 120 p_2_7 + 120 p_2_9 + 100000 z_2_1 + 100000 z_2_10 + 100000 z_2_6 + 100000 z_2_7 + 100000 z_2_9 <= 501177.19277621218
 c5001: 120 p_2_10 + 120 p_2_2 + 120 p_2_6 + 120 p_2_7 + 120 p_2_9 + 100000 z_2_10 + 100000 z_2_2 + 100000 z_2_6 + 100000 z_2_7 + 100000 z_2_9 <= 500817.94029624452
 c5002: 120 p_2_1 + 120 p_2_10 + 120 p_2_2 + 120 p_2_6 + 120 p_2_7 + 120 p_2_9 + 100000 z_2_1 + 100000 z_2_10 + 100000 z_2_2 + 100000 z_2_6 + 100000 z_2_7 + 100000 z_2_9 <= 600812.58386438957
 c5003: 120 p_2_10 + 120 p_2_3 + 120 p_2_6 + 120 p_2_7 + 120 p_2_9 + 100000 z_2_10 + 100000 z_2_3 + 100000 z_2_6 + 100000 z_2_7 + 100000 z_2_9 <= 501038.38638743968
 c5004: 120 p_2_1 + 120 p_2_10 + 120 p_2_3 + 120 p_2_6 + 120 p_2_7 + 120 p_2_9 + 100000 z_2_1 + 100000 z_2_10 + 100000 z_2_3 + 100000 z_2_6 + 100000 z_2_7 + 100000 z_2_9 <= 601033.02995558479
 c5005: 120 p_2_10 + 120 p_2_2 + 120 p_2_3 + 120 p_2_6 + 120 p_2_7 + 120 p_2_9 + 100000 z_2_10 + 100000 z_2_2 + 100000 z_2_3 + 100000 z_2_6 + 100000 z_2_7 + 100000 z_2_9 <= 600673.77747561713
 c5006: 120 p_2_1 + 120 p_2_10 + 120 p_2_2 + 120 p_2_3 + 120 p_2_6 + 120 p_2_7 + 120 p_2_9 + 100000 z_2_1 + 100000 z_2_10 + 100000 z_2_2 + 100000 z_2_3 + 100000 z_2_6 + 100000 z_2_7 + 100000 z_2_9 <= 700668.42104376224
 c5007: 120 p_2_10 + 120 p_2_4 + 120 p_2_6 + 120 p_2_7 + 120 p_2_9 + 100000 z_2_10 + 100000 z_2_4 + 100000 z_2_6 + 100000 z_2_7 + 100000 z_2_9 <= 501181.35066497419
 c5008: 120 p_2_1 + 120 p_2_10 + 120 p_2_4 + 120 p_2_6 + 120 p_2_7 + 120 p_2_9 + 100000 z_2_1 + 100000 z_2_10 + 100000 z_2_4 + 100000 z_2_6 + 100000 z_2_7 + 100000 z_2_9 <= 601174.26591349894
 c5009: 120 p_2_10 + 120 p_2_2 + 120 p_2_4 + 120 p_2_6 + 120 p_2_7 + 120 p_2_9 + 100000 z_2_10 + 100000 z_2_2 + 100000 z_2_4 + 100000 z_2_6 + 100000 z_2_7 + 100000 z_2_9 <= 600816.74175315164
 c5010: 120 p_2_1 + 120 p_2_10 + 120 p_2_2 + 120 p_2_4 + 120 p_2_6 + 120 p_2_7 + 120 p_2_9 + 100000 z_2_1 + 100000 z_2_10 + 100000 z_2_2 + 100000 z_2_4 + 100000 z_2_6 + 100000 z_2_7 + 100000 z_2_9 <= 700809.65700167639
 c5011: 120 p_2_10 + 120 p_2_3 + 120 p_2_4 + 120 p_2_6 + 120 p_2_7 + 120 p_2_9 + 100000 z_2_10 + 100000 z_2_3 + 100000 z_2_4 + 100000 z_2_6 + 100000 z_2_7 + 100000 z_2_9 <= 601037.18784434686
 c5012: 120 p_2_1 + 120 p_2_10 + 120 p_2_3 + 120 p_2_4 + 120 p_2_6 + 120 p_2_7 + 120 p_2_9 + 100000 z_2_1 + 100000 z_2_10 + 100000 z_2_3 + 100000 z_2_4 + 100000 z_2_6 + 100000 z_2_7 + 100000 z_2_9 <= 701030.10309287161
 c5013: 120 p_2_10 + 120 p_2_2 + 120 p_2_3 + 120 p_2_4 + 120 p_2_6 + 120 p_2_7 + 120 p_2_9 + 100000 z_2_10 + 100000 z_2_2 + 100000 z_2_3 + 100000 z_2_4 + 100000 z_2_6 + 100000 z_2_7 + 100000 z_2_9 <= 700672.57893252431
 c5014: 120 p_2_1 + 120 p_2_10 + 120 p_2_2 + 120 p_2_3 + 120 p_2_4 + 120 p_2_6 + 120 p_2_7 + 120 p_2_9 + 100000 z_2_1 + 100000 z_2_10 + 100000 z_2_2 + 100000 z_2_3 + 100000 z_2_4 + 100000 z_2_6 + 100000 z_2_7 + 100000 z_2_9 <= 800665.49418104906
 c5015: 120 p_2_10 + 120 p_2_5 + 120 p_2_6 + 120 p_2_7 + 120 p_2_9 + 100000 z_2_10 + 100000 z_2_5 + 100000 z_2_6 + 100000 z_2_7 + 100000 z_2_9 <= 500915.56158278277
 c5016: 120 p_2_1 + 120 p_2_10 + 120 p_2_5 + 120 p_2_6 + 120 p_2_7 + 120 p_2_9 + 100000 z_2_1 + 100000 z_2_10 + 100000 z_2_5 + 100000 z_2_6 + 100000 z_2_7 + 100000 z_2_9 <= 600910.20515092788
 c5017: 120 p_2_10 + 120 p_2_2 + 120 p_2_5 + 120 p_2_6 + 120 p_2_7 + 120 p_2_9 + 100000 z_2_10 + 100000 z_2_2 + 100000 z_2_5 + 100000 z_2_6 + 100000 z_2_7 + 100000 z_2_9 <= 600814.89447979222
 c5018: 120 p_2_1 + 120 p_2_10 + 120 p_2_2 + 120 p_2_5 + 120 p_2_6 + 120 p_2_7 + 120 p_2_9 + 100000 z_2_1 + 100000 z_2_10 + 100000 z_2_2 + 100000 z_2_5 + 100000 z_2_6 + 100000 z_2_7 + 100000 z_2_9 <= 700809.53804793733
 c5019: 120 p_2_10 + 120 p_2_3 + 120 p_2_5 + 120 p_2_6 + 120 p_2_7 + 120 p_2_9 + 100000 z_2_10 + 100000 z_2_3 + 100000 z_2_5 + 100000 z_2_6 + 100000 z_2_7 + 100000 z_2_9 <= 600771.39876215544
 c5020: 120 p_2_1 + 120 p_2_10 + 120 p_2_3 + 120 p_2_5 + 120 p_2_6 + 120 p_2_7 + 120 p_2_9 + 100000 z_2_1 + 100000 z_2_10 + 100000 z_2_3 + 100000 z_2_5 + 100000 z_2_6 + 100000 z_2_7 + 100000 z_2_9 <= 700766.04233030055
 c5021: 120 p_2_10 + 120 p_2_2 + 120 p_2_3 + 120 p_2_5 + 120 p_2_6 + 120 p_2_7 + 120 p_2_9 + 100000 z_2_10 + 100000 z_2_2 + 100000 z_2_3 + 100000 z_2_5 + 100000 z_2_6 + 100000 z_2_7 + 100000 z_2_9 <= 700670.73165916489
 c5022: 120 p_2_1 + 120 p_2_10 + 120 p_2_2 + 120 p_2_3 + 120 p_2_5 + 120 p_2_6 + 120 p_2_7 + 120 p_2_9 + 100000 z_2_1 + 100000 z_2_10 + 100000 z_2_2 + 100000 z_2_3 + 100000 z_2_5 + 100000 z_2_6 + 100000 z_2_7 + 100000 z_2_9 <= 800665.37522731
 c5023: 120 p_2_10 + 120 p_2_4 + 120 p_2_5 + 120 p_2_6 + 120 p_2_7 + 120 p_2_9 + 100000 z_2_10 + 100000 z_2_4 + 100000 z_2_5 + 100000 z_2_6 + 100000 z_2_7 + 100000 z_2_9 <= 600914.36303968995
 c5024: 120 p_2_1 + 120 p_2_10 + 120 p_2_4 + 120 p_2_5 + 120 p_2_6 + 120 p_2_7 + 120 p_2_9 + 100000 z_2_1 + 100000 z_2_10 + 100000 z_2_4 + 100000 z_2_5 + 100000 z_2_6 + 100000 z_2_7 + 100000 z_2_9 <= 700907.2782882147
 c5025: 120 p_2_10 + 120 p_2_2 + 120 p_2_4 + 120 p_2_5 + 120 p_2_6 + 120 p_2_7 + 120 p_2_9 + 100000 z_2_10 + 100000 z_2_2 + 100000 z_2_4 + 100000 z_2_5 + 100000 z_2_6 + 100000 z_2_7 + 100000 z_2_9 <= 700813.6959366994
 c5026: 120 p_2_1 + 120 p_2_10 + 120 p_2_2 + 120 p_2_4 + 120 p_2_5 + 120 p_2_6 + 120 p_2_7 + 120 p_2_9 + 100000 z_2_1 + 100000 z_2_10 + 100000 z_2_2 + 100000 z_2_4 + 100000 z_2_5 + 100000 z_2_6 + 100000 z_2_7 + 100000 z_2_9 <= 800806.61118522414
 c5027: 120 p_2_10 + 120 p_2_3 + 120 p_2_4 + 120 p_2_5 + 120 p_2_6 + 120 p_2_7 + 120 p_2_9 + 100000 z_2_10 + 100000 z_2_3 + 100000 z_2_4 + 100000 z_2_5 + 100000 z_2_6 + 100000 z_2_7 + 100000 z_2_9 <= 700770.20021906262
 c5028: 120 p_2_1 + 120 p_2_10 + 120 p_2_3 + 120 p_2_4 + 120 p_2_5 + 120 p_2_6 + 120 p_2_7 + 120 p_2_9 + 100000 z_2_1 + 100000 z_2_10 + 100000 z_2_3 + 100000 z_2_4 + 100000 z_2_5 + 100000 z_2_6 + 100000 z_2_7 + 100000 z_2_9 <= 800763.11546758737
 c5029: 120 p_2_10 + 120 p_2_2 + 120 p_2_3 + 120 p_2_4 + 120 p_2_5 + 120 p_2_6 + 120 p_2_7 + 120 p_2_9 + 100000 z_2_10 + 100000 z_2_2 + 100000 z_2_3 + 100000 z_2_4 + 100000 z_2_5 + 100000 z_2_6 + 100000 z_2_7 + 100000 z_2_9 <= 800669.53311607207
 c5030: 120 p_2_1 + 120 p_2_10 + 120 p_2_2 + 120 p_2_3 + 120 p_2_4 + 120 p_2_5 + 120 p_2_6 + 120 p_2_7 + 120 p_2_9 + 100000 z_2_1 + 100000 z_2_10 + 100000 z_2_2 + 100000 z_2_3 + 100000 z_2_4 + 100000 z_2_5 + 100000 z_2_6 + 100000 z_2_7 + 100000 z_2_9 <= 900662.44836459681
 c5031: 120 p_2_10 + 120 p_2_8 + 120 p_2_9 + 100000 z_2_10 + 100000 z_2_8 + 100000 z_2_9 <= 301079.10019803961
 c5032: 120 p_2_1 + 120 p_2_10 + 120 p_2_8 + 120 p_2_9 + 100000 z_2_1 + 100000 z_2_10 + 100000 z_2_8 + 100000 z_2_9 <= 400926.5783307571
 c5033: 120 p_2_10 + 120 p_2_2 + 120 p_2_8 + 120 p_2_9 + 100000 z_2_10 + 100000 z_2_2 + 100000 z_2_8 + 100000 z_2_9 <= 401006.14437380387
 c5034: 120 p_2_1 + 120 p_2_10 + 120 p_2_2 + 120 p_2_8 + 120 p_2_9 + 100000 z_2_1 + 100000 z_2_10 + 100000 z_2_2 + 100000 z_2_8 + 100000 z_2_9 <= 500852.93341568287
 c5035: 120 p_2_10 + 120 p_2_3 + 120 p_2_8 + 120 p_2_9 + 100000 z_2_10 + 100000 z_2_3 + 100000 z_2_8 + 100000 z_2_9 <= 400916.30420016591
 c5036: 120 p_2_1 + 120 p_2_10 + 120 p_2_3 + 120 p_2_8 + 120 p_2_9 + 100000 z_2_1 + 100000 z_2_10 + 100000 z_2_3 + 100000 z_2_8 + 100000 z_2_9 <= 500763.78233288339
 c5037: 120 p_2_10 + 120 p_2_2 + 120 p_2_3 + 120 p_2_8 + 120 p_2_9 + 100000 z_2_10 + 100000 z_2_2 + 100000 z_2_3 + 100000 z_2_8 + 100000 z_2_9 <= 500843.34837593022
 c5038: 120 p_2_1 + 120 p_2_10 + 120 p_2_2 + 120 p_2_3 + 120 p_2_8 + 120 p_2_9 + 100000 z_2_1 + 100000 z_2_10 + 100000 z_2_2 + 100000 z_2_3 + 100000 z_2_8 + 100000 z_2_9 <= 600690.13741780922
 c5039: 120 p_2_10 + 120 p_2_4 + 120 p_2_8 + 120 p_2_9 + 100000 z_2_10 + 100000 z_2_4 + 100000 z_2_8 + 100000 z_2_9 <= 401064.72493051895
 c5040: 120 p_2_1 + 120 p_2_10 + 120 p_2_4 + 120 p_2_8 + 120 p_2_9 + 100000 z_2_1 + 100000 z_2_10 + 100000 z_2_4 + 100000 z_2_8 + 100000 z_2_9 <= 500923.65146804386
 c5041: 120 p_2_10 + 120 p_2_2 + 120 p_2_4 + 120 p_2_8 + 120 p_2_9 + 100000 z_2_10 + 100000 z_2_2 + 100000 z_2_4 + 100000 z_2_8 + 100000 z_2_9 <= 500991.08001544472
 c5042: 120 p_2_1 + 120 p_2_10 + 120 p_2_2 + 120 p_2_4 + 120 p_2_8 + 120 p_2_9 + 100000 z_2_1 + 100000 z_2_10 + 100000 z_2_2 + 100000 z_2_4 + 100000 z_2_8 + 100000 z_2_9 <= 600850.00655296969
 c5043: 120 p_2_10 + 120 p_2_3 + 120 p_2_4 + 120 p_2_8 + 120 p_2_9 + 100000 z_2_10 + 100000 z_2_3 + 100000 z_2_4 + 100000 z_2_8 + 100000 z_2_9 <= 500901.92893264524
 c5044: 120 p_2_1 + 120 p_2_10 + 120 p_2_3 + 120 p_2_4 + 120 p_2_8 + 120 p_2_9 + 100000 z_2_1 + 100000 z_2_10 + 100000 z_2_3 + 100000 z_2_4 + 100000 z_2_8 + 100000 z_2_9 <= 600760.85547017015
 c5045: 120 p_2_10 + 120 p_2_2 + 120 p_2_3 + 120 p_2_4 + 120 p_2_8 + 120 p_2_9 + 100000 z_2_10 + 100000 z_2_2 + 100000 z_2_3 + 100000 z_2_4 + 100000 z_2_8 + 100000 z_2_9 <= 600828.28401757102
 c5046: 120 p_2_1 + 120 p_2_10 + 120 p_2_2 + 120 p_2_3 + 120 p_2_4 + 120 p_2_8 + 120 p_2_9 + 100000 z_2_1 + 100000 z_2_10 + 100000 z_2_2 + 100000 z_2_3 + 100000 z_2_4 + 100000 z_2_8 + 100000 z_2_9 <= 700687.21055509604
 c5047: 120 p_2_10 + 120 p_2_5 + 120 p_2_8 + 120 p_2_9 + 100000 z_2_10 + 100000 z_2_5 + 100000 z_2_8 + 100000 z_2_9 <= 401072.47122024355
 c5048: 120 p_2_1 + 120 p_2_10 + 120 p_2_5 + 120 p_2_8 + 120 p_2_9 + 100000 z_2_1 + 100000 z_2_10 + 100000 z_2_5 + 100000 z_2_8 + 100000 z_2_9 <= 500919.94935296103
 c5049: 120 p_2_10 + 120 p_2_2 + 120 p_2_5 + 120 p_2_8 + 120 p_2_9 + 100000 z_2_10 + 100000 z_2_2 + 100000 z_2_5 + 100000 z_2_8 + 100000 z_2_9 <= 501002.40946651314
 c5050: 120 p_2_1 + 120 p_2_10 + 120 p_2_2 + 120 p_2_5 + 120 p_2_8 + 120 p_2_9 + 100000 z_2_1 + 100000 z_2_10 + 100000 z_2_2 + 100000 z_2_5 + 100000 z_2_8 + 100000 z_2_9 <= 600849.88759923063
 c5051: 120 p_2_10 + 120 p_2_3 + 120 p_2_5 + 120 p_2_8 + 120 p_2_9 + 100000 z_2_10 + 100000 z_2_3 + 100000 z_2_5 + 100000 z_2_8 + 100000 z_2_9 <= 500909.67522236984
 c5052: 120 p_2_1 + 120 p_2_10 + 120 p_2_3 + 120 p_2_5 + 120 p_2_8 + 120 p_2_9 + 100000 z_2_1 + 100000 z_2_10 + 100000 z_2_3 + 100000 z_2_5 + 100000 z_2_8 + 100000 z_2_9 <= 600757.15335508739
 c5053: 120 p_2_10 + 120 p_2_2 + 120 p_2_3 + 120 p_2_5 + 120 p_2_8 + 120 p_2_9 + 100000 z_2_10 + 100000 z_2_2 + 100000 z_2_3 + 100000 z_2_5 + 100000 z_2_8 + 100000 z_2_9 <= 600839.61346863944
 c5054: 120 p_2_1 + 120 p_2_10 + 120 p_2_2 + 120 p_2_3 + 120 p_2_5 + 120 p_2_8 + 120 p_2_9 + 100000 z_2_1 + 100000 z_2_10 + 100000 z_2_2 + 100000 z_2_3 + 100000 z_2_5 + 100000 z_2_8 + 100000 z_2_9 <= 700687.09160135698
 c5055: 120 p_2_10 + 120 p_2_4 + 120 p_2_5 + 120 p_2_8 + 120 p_2_9 + 100000 z_2_10 + 100000 z_2_4 + 100000 z_2_5 + 100000 z_2_8 + 100000 z_2_9 <= 501058.09595272288
 c5056: 120 p_2_1 + 120 p_2_10 + 120 p_2_4 + 120 p_2_5 + 120 p_2_8 + 120 p_2_9 + 100000 z_2_1 + 100000 z_2_10 + 100000 z_2_4 + 100000 z_2_5 + 100000 z_2_8 + 100000 z_2_9 <= 600917.02249024785
 c5057: 120 p_2_10 + 120 p_2_2 + 120 p_2_4 + 120 p_2_5 + 120 p_2_8 + 120 p_2_9 + 100000 z_2_10 + 100000 z_2_2 + 100000 z_2_4 + 100000 z_2_5 + 100000 z_2_8 + 100000 z_2_9 <= 600988.03419899242
 c5058: 120 p_2_1 + 120 p_2_10 + 120 p_2_2 + 120 p_2_4 + 120 p_2_5 + 120 p_2_8 + 120 p_2_9 + 100000 z_2_1 + 100000 z_2_10 + 100000 z_2_2 + 100000 z_2_4 + 100000 z_2_5 + 100000 z_2_8 + 100000 z_2_9 <= 700846.96073651745
 c5059: 120 p_2_10 + 120 p_2_3 + 120 p_2_4 + 120 p_2_5 + 120 p_2_8 + 120 p_2_9 + 100000 z_2_10 + 100000 z_2_3 + 100000 z_2_4 + 100000 z_2_5 + 100000 z_2_8 + 100000 z_2_9 <= 600895.29995484918
 c5060: 120 p_2_1 + 120 p_2_10 + 120 p_2_3 + 120 p_2_4 + 120 p_2_5 + 120 p_2_8 + 120 p_2_9 + 100000 z_2_1 + 100000 z_2_10 + 100000 z_2_3 + 100000 z_2_4 + 100000 z_2_5 + 100000 z_2_8 + 100000 z_2_9 <= 700754.2264923742
 c5061: 120 p_2_10 + 120 p_2_2 + 120 p_2_3 + 120 p_2_4 + 120 p_2_5 + 120 p_2_8 + 120 p_2_9 + 100000 z_2_10 + 100000 z_2_2 + 100000 z_2_3 + 100000 z_2_4 + 100000 z_2_5 + 100000 z_2_8 + 100000 z_2_9 <= 700825.23820111877
 c5062: 120 p_2_1 + 120 p_2_10 + 120 p_2_2 + 120 p_2_3 + 120 p_2_4 + 120 p_2_5 + 120 p_2_8 + 120 p_2_9 + 100000 z_2_1 + 100000 z_2_10 + 100000 z_2_2 + 100000 z_2_3 + 100000 z_2_4 + 100000 z_2_5 + 100000 z_2_8 + 100000 z_2_9 <= 800684.1647386438
 c5063: 120 p_2_10 + 120 p_2_6 + 120 p_2_8 + 120 p_2_9 + 100000 z_2_10 + 100000 z_2_6 + 100000 z_2_8 + 100000 z_2_9 <= 401049.19442787673
 c5064: 120 p_2_1 + 120 p_2_10 + 120 p_2_6 + 120 p_2_8 + 120 p_2_9 + 100000 z_2_1 + 100000 z_2_10 + 100000 z_2_6 + 100000 z_2_8 + 100000 z_2_9 <= 500896.67256059422
 c5065: 120 p_2_10 + 120 p_2_2 + 120 p_2_6 + 120 p_2_8 + 120 p_2_9 + 100000 z_2_10 + 100000 z_2_2 + 100000 z_2_6 + 100000 z_2_8 + 100000 z_2_9 <= 500976.23860364105
 c5066: 120 p_2_1 + 120 p_2_10 + 120 p_2_2 + 120 p_2_6 + 120 p_2_8 + 120 p_2_9 + 100000 z_2_1 + 100000 z_2_10 + 100000 z_2_2 + 100000 z_2_6 + 100000 z_2_8 + 100000 z_2_9 <= 600823.02764552005
 c5067: 120 p_2_10 + 120 p_2_3 + 120 p_2_6 + 120 p_2_8 + 120 p_2_9 + 100000 z_2_10 + 100000 z_2_3 + 100000 z_2_6 + 100000 z_2_8 + 100000 z_2_9 <= 500905.0316072494
 c5068: 120 p_2_1 + 120 p_2_10 + 120 p_2_3 + 120 p_2_6 + 120 p_2_8 + 120 p_2_9 + 100000 z_2_1 + 100000 z_2_10 + 100000 z_2_3 + 100000 z_2_6 + 100000 z_2_8 + 100000 z_2_9 <= 600752.50973996683
 c5069: 120 p_2_10 + 120 p_2_2 + 120 p_2_3 + 120 p_2_6 + 120 p_2_8 + 120 p_2_9 + 100000 z_2_10 + 100000 z_2_2 + 100000 z_2_3 + 100000 z_2_6 + 100000 z_2_8 + 100000 z_2_9 <= 600832.07578301372
 c5070: 120 p_2_1 + 120 p_2_10 + 120 p_2_2 + 120 p_2_3 + 120 p_2_6 + 120 p_2_8 + 120 p_2_9 + 100000 z_2_1 + 100000 z_2_10 + 100000 z_2_2 + 100000 z_2_3 + 100000 z_2_6 + 100000 z_2_8 + 100000 z_2_9 <= 700678.8648248926
 c5071: 120 p_2_10 + 120 p_2_4 + 120 p_2_6 + 120 p_2_8 + 120 p_2_9 + 100000 z_2_10 + 100000 z_2_4 + 100000 z_2_6 + 100000 z_2_8 + 100000 z_2_9 <= 501034.81916035607
 c5072: 120 p_2_1 + 120 p_2_10 + 120 p_2_4 + 120 p_2_6 + 120 p_2_8 + 120 p_2_9 + 100000 z_2_1 + 100000 z_2_10 + 100000 z_2_4 + 100000 z_2_6 + 100000 z_2_8 + 100000 z_2_9 <= 600893.74569788098
 c5073: 120 p_2_10 + 120 p_2_2 + 120 p_2_4 + 120 p_2_6 + 120 p_2_8 + 120 p_2_9 + 100000 z_2_10 + 100000 z_2_2 + 100000 z_2_4 + 100000 z_2_6 + 100000 z_2_8 + 100000 z_2_9 <= 600961.17424528184
 c5074: 120 p_2_1 + 120 p_2_10 + 120 p_2_2 + 120 p_2_4 + 120 p_2_6 + 120 p_2_8 + 120 p_2_9 + 100000 z_2_1 + 100000 z_2_10 + 100000 z_2_2 + 100000 z_2_4 + 100000 z_2_6 + 100000 z_2_8 + 100000 z_2_9 <= 700820.10078280675
 c5075: 120 p_2_10 + 120 p_2_3 + 120 p_2_4 + 120 p_2_6 + 120 p_2_8 + 120 p_2_9 + 100000 z_2_10 + 100000 z_2_3 + 100000 z_2_4 + 100000 z_2_6 + 100000 z_2_8 + 100000 z_2_9 <= 600890.65633972874
 c5076: 120 p_2_1 + 120 p_2_10 + 120 p_2_3 + 120 p_2_4 + 120 p_2_6 + 120 p_2_8 + 120 p_2_9 + 100000 z_2_1 + 100000 z_2_10 + 100000 z_2_3 + 100000 z_2_4 + 100000 z_2_6 + 100000 z_2_8 + 100000 z_2_9 <= 700749.58287725365
 c5077: 120 p_2_10 + 120 p_2_2 + 120 p_2_3 + 120 p_2_4 + 120 p_2_6 + 120 p_2_8 + 120 p_2_9 + 100000 z_2_10 + 100000 z_2_2 + 100000 z_2_3 + 100000 z_2_4 + 100000 z_2_6 + 100000 z_2_8 + 100000 z_2_9 <= 700817.01142465451
 c5078: 120 p_2_1 + 120 p_2_10 + 120 p_2_2 + 120 p_2_3 + 120 p_2_4 + 120 p_2_6 + 120 p_2_8 + 120 p_2_9 + 100000 z_2_1 + 100000 z_2_10 + 100000 z_2_2 + 100000 z_2_3 + 100000 z_2_4 + 100000 z_2_6 + 100000 z_2_8 + 100000 z_2_9 <= 800675.93796217942
 c5079: 120 p_2_10 + 120 p_2_5 + 120 p_2_6 + 120 p_2_8 + 120 p_2_9 + 100000 z_2_10 + 100000 z_2_5 + 100000 z_2_6 + 100000 z_2_8 + 100000 z_2_9 <= 501042.56545008067
 c5080: 120 p_2_1 + 120 p_2_10 + 120 p_2_5 + 120 p_2_6 + 120 p_2_8 + 120 p_2_9 + 100000 z_2_1 + 100000 z_2_10 + 100000 z_2_5 + 100000 z_2_6 + 100000 z_2_8 + 100000 z_2_9 <= 600890.04358279821
 c5081: 120 p_2_10 + 120 p_2_2 + 120 p_2_5 + 120 p_2_6 + 120 p_2_8 + 120 p_2_9 + 100000 z_2_10 + 100000 z_2_2 + 100000 z_2_5 + 100000 z_2_6 + 100000 z_2_8 + 100000 z_2_9 <= 600972.50369635026
 c5082: 120 p_2_1 + 120 p_2_10 + 120 p_2_2 + 120 p_2_5 + 120 p_2_6 + 120 p_2_8 + 120 p_2_9 + 100000 z_2_1 + 100000 z_2_10 + 100000 z_2_2 + 100000 z_2_5 + 100000 z_2_6 + 100000 z_2_8 + 100000 z_2_9 <= 700819.98182906781
 c5083: 120 p_2_10 + 120 p_2_3 + 120 p_2_5 + 120 p_2_6 + 120 p_2_8 + 120 p_2_9 + 100000 z_2_10 + 100000 z_2_3 + 100000 z_2_5 + 100000 z_2_6 + 100000 z_2_8 + 100000 z_2_9 <= 600898.40262945334
 c5084: 120 p_2_1 + 120 p_2_10 + 120 p_2_3 + 120 p_2_5 + 120 p_2_6 + 120 p_2_8 + 120 p_2_9 + 100000 z_2_1 + 100000 z_2_10 + 100000 z_2_3 + 100000 z_2_5 + 100000 z_2_6 + 100000 z_2_8 + 100000 z_2_9 <= 700745.88076217088
 c5085: 120 p_2_10 + 120 p_2_2 + 120 p_2_3 + 120 p_2_5 + 120 p_2_6 + 120 p_2_8 + 120 p_2_9 + 100000 z_2_10 + 100000 z_2_2 + 100000 z_2_3 + 100000 z_2_5 + 100000 z_2_6 + 100000 z_2_8 + 100000 z_2_9 <= 700828.34087572293
 c5086: 120 p_2_1 + 120 p_2_10 + 120 p_2_2 + 120 p_2_3 + 120 p_2_5 + 120 p_2_6 + 120 p_2_8 + 120 p_2_9 + 100000 z_2_1 + 100000 z_2_10 + 100000 z_2_2 + 100000 z_2_3 + 100000 z_2_5 + 100000 z_2_6 + 100000 z_2_8 + 100000 z_2_9 <= 800675.81900844036
 c5087: 120 p_2_10 + 120 p_2_4 + 120 p_2_5 + 120 p_2_6 + 120 p_2_8 + 120 p_2_9 + 100000 z_2_10 + 100000 z_2_4 + 100000 z_2_5 + 100000 z_2_6 + 100000 z_2_8 + 100000 z_2_9 <= 601028.19018256001
 c5088: 120 p_2_1 + 120 p_2_10 + 120 p_2_4 + 120 p_2_5 + 120 p_2_6 + 120 p_2_8 + 120 p_2_9 + 100000 z_2_1 + 100000 z_2_10 + 100000 z_2_4 + 100000 z_2_5 + 100000 z_2_6 + 100000 z_2_8 + 100000 z_2_9 <= 700887.11672008503
 c5089: 120 p_2_10 + 120 p_2_2 + 120 p_2_4 + 120 p_2_5 + 120 p_2_6 + 120 p_2_8 + 120 p_2_9 + 100000 z_2_10 + 100000 z_2_2 + 100000 z_2_4 + 100000 z_2_5 + 100000 z_2_6 + 100000 z_2_8 + 100000 z_2_9 <= 700958.1284288296
 c5090: 120 p_2_1 + 120 p_2_10 + 120 p_2_2 + 120 p_2_4 + 120 p_2_5 + 120 p_2_6 + 120 p_2_8 + 120 p_2_9 + 100000 z_2_1 + 100000 z_2_10 + 100000 z_2_2 + 100000 z_2_4 + 100000 z_2_5 + 100000 z_2_6 + 100000 z_2_8 + 100000 z_2_9 <= 800817.05496635451
 c5091: 120 p_2_10 + 120 p_2_3 + 120 p_2_4 + 120 p_2_5 + 120 p_2_6 + 120 p_2_8 + 120 p_2_9 + 100000 z_2_10 + 100000 z_2_3 + 100000 z_2_4 + 100000 z_2_5 + 100000 z_2_6 + 100000 z_2_8 + 100000 z_2_9 <= 700884.02736193268
 c5092: 120 p_2_1 + 120 p_2_10 + 120 p_2_3 + 120 p_2_4 + 120 p_2_5 + 120 p_2_6 + 120 p_2_8 + 120 p_2_9 + 100000 z_2_1 + 100000 z_2_10 + 100000 z_2_3 + 100000 z_2_4 + 100000 z_2_5 + 100000 z_2_6 + 100000 z_2_8 + 100000 z_2_9 <= 800742.95389945759
 c5093: 120 p_2_10 + 120 p_2_2 + 120 p_2_3 + 120 p_2_4 + 120 p_2_5 + 120 p_2_6 + 120 p_2_8 + 120 p_2_9 + 100000 z_2_10 + 100000 z_2_2 + 100000 z_2_3 + 100000 z_2_4 + 100000 z_2_5 + 100000 z_2_6 + 100000 z_2_8 + 100000 z_2_9 <= 800813.96560820227
 c5094: 120 p_2_1 + 120 p_2_10 + 120 p_2_2 + 120 p_2_3 + 120 p_2_4 + 120 p_2_5 + 120 p_2_6 + 120 p_2_8 + 120 p_2_9 + 100000 z_2_1 + 100000 z_2_10 + 100000 z_2_2 + 100000 z_2_3 + 100000 z_2_4 + 100000 z_2_5 + 100000 z_2_6 + 100000 z_2_8 + 100000 z_2_9 <= 900672.89214572718
 c5095: 120 p_2_10 + 120 p_2_7 + 120 p_2_8 + 120 p_2_9 + 100000 z_2_10 + 100000 z_2_7 + 100000 z_2_8 + 100000 z_2_9 <= 400920.72142947855
 c5096: 120 p_2_1 + 120 p_2_10 + 120 p_2_7 + 120 p_2_8 + 120 p_2_9 + 100000 z_2_1 + 100000 z_2_10 + 100000 z_2_7 + 100000 z_2_8 + 100000 z_2_9 <= 500915.36499762366
 c5097: 120 p_2_10 + 120 p_2_2 + 120 p_2_7 + 120 p_2_8 + 120 p_2_9 + 100000 z_2_10 + 100000 z_2_2 + 100000 z_2_7 + 100000 z_2_8 + 100000 z_2_9 <= 500847.07651440433
 c5098: 120 p_2_1 + 120 p_2_10 + 120 p_2_2 + 120 p_2_7 + 120 p_2_8 + 120 p_2_9 + 100000 z_2_1 + 100000 z_2_10 + 100000 z_2_2 + 100000 z_2_7 + 100000 z_2_8 + 100000 z_2_9 <= 600841.72008254949
 c5099: 120 p_2_10 + 120 p_2_3 + 120 p_2_7 + 120 p_2_8 + 120 p_2_9 + 100000 z_2_10 + 100000 z_2_3 + 100000 z_2_7 + 100000 z_2_8 + 100000 z_2_9 <= 500757.9254316049
 c5100: 120 p_2_1 + 120 p_2_10 + 120 p_2_3 + 120 p_2_7 + 120 p_2_8 + 120 p_2_9 + 100000 z_2_1 + 100000 z_2_10 + 100000 z_2_3 + 100000 z_2_7 + 100000 z_2_8 + 100000 z_2_9 <= 600752.56899974996
 c5101: 120 p_2_10 + 120 p_2_2 + 120 p_2_3 + 120 p_2_7 + 120 p_2_8 + 120 p_2_9 + 100000 z_2_10 + 100000 z_2_2 + 100000 z_2_3 + 100000 z_2_7 + 100000 z_2_8 + 100000 z_2_9 <= 600684.28051653062
 c5102: 120 p_2_1 + 120 p_2_10 + 120 p_2_2 + 120 p_2_3 + 120 p_2_7 + 120 p_2_8 + 120 p_2_9 + 100000 z_2_1 + 100000 z_2_10 + 100000 z_2_2 + 100000 z_2_3 + 100000 z_2_7 + 100000 z_2_8 + 100000 z_2_9 <= 700678.92408467573
 c5103: 120 p_2_10 + 120 p_2_4 + 120 p_2_7 + 120 p_2_8 + 120 p_2_9 + 100000 z_2_10 + 100000 z_2_4 + 100000 z_2_7 + 100000 z_2_8 + 100000 z_2_9 <= 500919.52288638568
 c5104: 120 p_2_1 + 120 p_2_10 + 120 p_2_4 + 120 p_2_7 + 120 p_2_8 + 120 p_2_9 + 100000 z_2_1 + 100000 z_2_10 + 100000 z_2_4 + 100000 z_2_7 + 100000 z_2_8 + 100000 z_2_9 <= 600912.43813491054
 c5105: 120 p_2_10 + 120 p_2_2 + 120 p_2_4 + 120 p_2_7 + 120 p_2_8 + 120 p_2_9 + 100000 z_2_10 + 100000 z_2_2 + 100000 z_2_4 + 100000 z_2_7 + 100000 z_2_8 + 100000 z_2_9 <= 600845.87797131145
 c5106: 120 p_2_1 + 120 p_2_10 + 120 p_2_2 + 120 p_2_4 + 120 p_2_7 + 120 p_2_8 + 120 p_2_9 + 100000 z_2_1 + 100000 z_2_10 + 100000 z_2_2 + 100000 z_2_4 + 100000 z_2_7 + 100000 z_2_8 + 100000 z_2_9 <= 700838.79321983631
 c5107: 120 p_2_10 + 120 p_2_3 + 120 p_2_4 + 120 p_2_7 + 120 p_2_8 + 120 p_2_9 + 100000 z_2_10 + 100000 z_2_3 + 100000 z_2_4 + 100000 z_2_7 + 100000 z_2_8 + 100000 z_2_9 <= 600756.72688851203
 c5108: 120 p_2_1 + 120 p_2_10 + 120 p_2_3 + 120 p_2_4 + 120 p_2_7 + 120 p_2_8 + 120 p_2_9 + 100000 z_2_1 + 100000 z_2_10 + 100000 z_2_3 + 100000 z_2_4 + 100000 z_2_7 + 100000 z_2_8 + 100000 z_2_9 <= 700749.64213703678
 c5109: 120 p_2_10 + 120 p_2_2 + 120 p_2_3 + 120 p_2_4 + 120 p_2_7 + 120 p_2_8 + 120 p_2_9 + 100000 z_2_10 + 100000 z_2_2 + 100000 z_2_3 + 100000 z_2_4 + 100000 z_2_7 + 100000 z_2_8 + 100000 z_2_9 <= 700683.0819734378
 c5110: 120 p_2_1 + 120 p_2_10 + 120 p_2_2 + 120 p_2_3 + 120 p_2_4 + 120 p_2_7 + 120 p_2_8 + 120 p_2_9 + 100000 z_2_1 + 100000 z_2_10 + 100000 z_2_2 + 100000 z_2_3 + 100000 z_2_4 + 100000 z_2_7 + 100000 z_2_8 + 100000 z_2_9 <= 800675.99722196255
 c5111: 120 p_2_10 + 120 p_2_5 + 120 p_2_7 + 120 p_2_8 + 120 p_2_9 + 100000 z_2_10 + 100000 z_2_5 + 100000 z_2_7 + 100000 z_2_8 + 100000 z_2_9 <= 500914.09245168249
 c5112: 120 p_2_1 + 120 p_2_10 + 120 p_2_5 + 120 p_2_7 + 120 p_2_8 + 120 p_2_9 + 100000 z_2_1 + 100000 z_2_10 + 100000 z_2_5 + 100000 z_2_7 + 100000 z_2_8 + 100000 z_2_9 <= 600908.73601982766
 c5113: 120 p_2_10 + 120 p_2_2 + 120 p_2_5 + 120 p_2_7 + 120 p_2_8 + 120 p_2_9 + 100000 z_2_10 + 100000 z_2_2 + 100000 z_2_5 + 100000 z_2_7 + 100000 z_2_8 + 100000 z_2_9 <= 600844.03069795214
 c5114: 120 p_2_1 + 120 p_2_10 + 120 p_2_2 + 120 p_2_5 + 120 p_2_7 + 120 p_2_8 + 120 p_2_9 + 100000 z_2_1 + 100000 z_2_10 + 100000 z_2_2 + 100000 z_2_5 + 100000 z_2_7 + 100000 z_2_8 + 100000 z_2_9 <= 700838.67426609725
 c5115: 120 p_2_10 + 120 p_2_3 + 120 p_2_5 + 120 p_2_7 + 120 p_2_8 + 120 p_2_9 + 100000 z_2_10 + 100000 z_2_3 + 100000 z_2_5 + 100000 z_2_7 + 100000 z_2_8 + 100000 z_2_9 <= 600751.29645380878
 c5116: 120 p_2_1 + 120 p_2_10 + 120 p_2_3 + 120 p_2_5 + 120 p_2_7 + 120 p_2_8 + 120 p_2_9 + 100000 z_2_1 + 100000 z_2_10 + 100000 z_2_3 + 100000 z_2_5 + 100000 z_2_7 + 100000 z_2_8 + 100000 z_2_9 <= 700745.94002195401
 c5117: 120 p_2_10 + 120 p_2_2 + 120 p_2_3 + 120 p_2_5 + 120 p_2_7 + 120 p_2_8 + 120 p_2_9 + 100000 z_2_10 + 100000 z_2_2 + 100000 z_2_3 + 100000 z_2_5 + 100000 z_2_7 + 100000 z_2_8 + 100000 z_2_9 <= 700681.23470007838
 c5118: 120 p_2_1 + 120 p_2_10 + 120 p_2_2 + 120 p_2_3 + 120 p_2_5 + 120 p_2_7 + 120 p_2_8 + 120 p_2_9 + 100000 z_2_1 + 100000 z_2_10 + 100000 z_2_2 + 100000 z_2_3 + 100000 z_2_5 + 100000 z_2_7 + 100000 z_2_8 + 100000 z_2_9 <= 800675.87826822349
 c5119: 120 p_2_10 + 120 p_2_4 + 120 p_2_5 + 120 p_2_7 + 120 p_2_8 + 120 p_2_9 + 100000 z_2_10 + 100000 z_2_4 + 100000 z_2_5 + 100000 z_2_7 + 100000 z_2_8 + 100000 z_2_9 <= 600912.89390858961
 c5120: 120 p_2_1 + 120 p_2_10 + 120 p_2_4 + 120 p_2_5 + 120 p_2_7 + 120 p_2_8 + 120 p_2_9 + 100000 z_2_1 + 100000 z_2_10 + 100000 z_2_4 + 100000 z_2_5 + 100000 z_2_7 + 100000 z_2_8 + 100000 z_2_9 <= 700905.80915711448
 c5121: 120 p_2_10 + 120 p_2_2 + 120 p_2_4 + 120 p_2_5 + 120 p_2_7 + 120 p_2_8 + 120 p_2_9 + 100000 z_2_10 + 100000 z_2_2 + 100000 z_2_4 + 100000 z_2_5 + 100000 z_2_7 + 100000 z_2_8 + 100000 z_2_9 <= 700842.83215485921
 c5122: 120 p_2_1 + 120 p_2_10 + 120 p_2_2 + 120 p_2_4 + 120 p_2_5 + 120 p_2_7 + 120 p_2_8 + 120 p_2_9 + 100000 z_2_1 + 100000 z_2_10 + 100000 z_2_2 + 100000 z_2_4 + 100000 z_2_5 + 100000 z_2_7 + 100000 z_2_8 + 100000 z_2_9 <= 800835.74740338407
 c5123: 120 p_2_10 + 120 p_2_3 + 120 p_2_4 + 120 p_2_5 + 120 p_2_7 + 120 p_2_8 + 120 p_2_9 + 100000 z_2_10 + 100000 z_2_3 + 100000 z_2_4 + 100000 z_2_5 + 100000 z_2_7 + 100000 z_2_8 + 100000 z_2_9 <= 700750.09791071597
 c5124: 120 p_2_1 + 120 p_2_10 + 120 p_2_3 + 120 p_2_4 + 120 p_2_5 + 120 p_2_7 + 120 p_2_8 + 120 p_2_9 + 100000 z_2_1 + 100000 z_2_10 + 100000 z_2_3 + 100000 z_2_4 + 100000 z_2_5 + 100000 z_2_7 + 100000 z_2_8 + 100000 z_2_9 <= 800743.01315924071
 c5125: 120 p_2_10 + 120 p_2_2 + 120 p_2_3 + 120 p_2_4 + 120 p_2_5 + 120 p_2_7 + 120 p_2_8 + 120 p_2_9 + 100000 z_2_10 + 100000 z_2_2 + 100000 z_2_3 + 100000 z_2_4 + 100000 z_2_5 + 100000 z_2_7 + 100000 z_2_8 + 100000 z_2_9 <= 800680.03615698556
 c5126: 120 p_2_1 + 120 p_2_10 + 120 p_2_2 + 120 p_2_3 + 120 p_2_4 + 120 p_2_5 + 120 p_2_7 + 120 p_2_8 + 120 p_2_9 + 100000 z_2_1 + 100000 z_2_10 + 100000 z_2_2 + 100000 z_2_3 + 100000 z_2_4 + 100000 z_2_5 + 100000 z_2_7 + 100000 z_2_8 + 100000 z_2_9 <= 900672.95140551031
 c5127: 120 p_2_10 + 120 p_2_6 + 120 p_2_7 + 120 p_2_8 + 120 p_2_9 + 100000 z_2_10 + 100000 z_2_6 + 100000 z_2_7 + 100000 z_2_8 + 100000 z_2_9 <= 500890.81565931567
 c5128: 120 p_2_1 + 120 p_2_10 + 120 p_2_6 + 120 p_2_7 + 120 p_2_8 + 120 p_2_9 + 100000 z_2_1 + 100000 z_2_10 + 100000 z_2_6 + 100000 z_2_7 + 100000 z_2_8 + 100000 z_2_9 <= 600885.45922746079
 c5129: 120 p_2_10 + 120 p_2_2 + 120 p_2_6 + 120 p_2_7 + 120 p_2_8 + 120 p_2_9 + 100000 z_2_10 + 100000 z_2_2 + 100000 z_2_6 + 100000 z_2_7 + 100000 z_2_8 + 100000 z_2_9 <= 600817.17074424145
 c5130: 120 p_2_1 + 120 p_2_10 + 120 p_2_2 + 120 p_2_6 + 120 p_2_7 + 120 p_2_8 + 120 p_2_9 + 100000 z_2_1 + 100000 z_2_10 + 100000 z_2_2 + 100000 z_2_6 + 100000 z_2_7 + 100000 z_2_8 + 100000 z_2_9 <= 700811.81431238656
 c5131: 120 p_2_10 + 120 p_2_3 + 120 p_2_6 + 120 p_2_7 + 120 p_2_8 + 120 p_2_9 + 100000 z_2_10 + 100000 z_2_3 + 100000 z_2_6 + 100000 z_2_7 + 100000 z_2_8 + 100000 z_2_9 <= 600746.65283868834
 c5132: 120 p_2_1 + 120 p_2_10 + 120 p_2_3 + 120 p_2_6 + 120 p_2_7 + 120 p_2_8 + 120 p_2_9 + 100000 z_2_1 + 100000 z_2_10 + 100000 z_2_3 + 100000 z_2_6 + 100000 z_2_7 + 100000 z_2_8 + 100000 z_2_9 <= 700741.29640683345
 c5133: 120 p_2_10 + 120 p_2_2 + 120 p_2_3 + 120 p_2_6 + 120 p_2_7 + 120 p_2_8 + 120 p_2_9 + 100000 z_2_10 + 100000 z_2_2 + 100000 z_2_3 + 100000 z_2_6 + 100000 z_2_7 + 100000 z_2_8 + 100000 z_2_9 <= 700673.00792361412
 c5134: 120 p_2_1 + 120 p_2_10 + 120 p_2_2 + 120 p_2_3 + 120 p_2_6 + 120 p_2_7 + 120 p_2_8 + 120 p_2_9 + 100000 z_2_1 + 100000 z_2_10 + 100000 z_2_2 + 100000 z_2_3 + 100000 z_2_6 + 100000 z_2_7 + 100000 z_2_8 + 100000 z_2_9 <= 800667.65149175923
 c5135: 120 p_2_10 + 120 p_2_4 + 120 p_2_6 + 120 p_2_7 + 120 p_2_8 + 120 p_2_9 + 100000 z_2_10 + 100000 z_2_4 + 100000 z_2_6 + 100000 z_2_7 + 100000 z_2_8 + 100000 z_2_9 <= 600889.61711622286
 c5136: 120 p_2_1 + 120 p_2_10 + 120 p_2_4 + 120 p_2_6 + 120 p_2_7 + 120 p_2_8 + 120 p_2_9 + 100000 z_2_1 + 100000 z_2_10 + 100000 z_2_4 + 100000 z_2_6 + 100000 z_2_7 + 100000 z_2_8 + 100000 z_2_9 <= 700882.5323647476
 c5137: 120 p_2_10 + 120 p_2_2 + 120 p_2_4 + 120 p_2_6 + 120 p_2_7 + 120 p_2_8 + 120 p_2_9 + 100000 z_2_10 + 100000 z_2_2 + 100000 z_2_4 + 100000 z_2_6 + 100000 z_2_7 + 100000 z_2_8 + 100000 z_2_9 <= 700815.97220114863
 c5138: 120 p_2_1 + 120 p_2_10 + 120 p_2_2 + 120 p_2_4 + 120 p_2_6 + 120 p_2_7 + 120 p_2_8 + 120 p_2_9 + 100000 z_2_1 + 100000 z_2_10 + 100000 z_2_2 + 100000 z_2_4 + 100000 z_2_6 + 100000 z_2_7 + 100000 z_2_8 + 100000 z_2_9 <= 800808.88744967338
 c5139: 120 p_2_10 + 120 p_2_3 + 120 p_2_4 + 120 p_2_6 + 120 p_2_7 + 120 p_2_8 + 120 p_2_9 + 100000 z_2_10 + 100000 z_2_3 + 100000 z_2_4 + 100000 z_2_6 + 100000 z_2_7 + 100000 z_2_8 + 100000 z_2_9 <= 700745.45429559553
 c5140: 120 p_2_1 + 120 p_2_10 + 120 p_2_3 + 120 p_2_4 + 120 p_2_6 + 120 p_2_7 + 120 p_2_8 + 120 p_2_9 + 100000 z_2_1 + 100000 z_2_10 + 100000 z_2_3 + 100000 z_2_4 + 100000 z_2_6 + 100000 z_2_7 + 100000 z_2_8 + 100000 z_2_9 <= 800738.36954412027
 c5141: 120 p_2_10 + 120 p_2_2 + 120 p_2_3 + 120 p_2_4 + 120 p_2_6 + 120 p_2_7 + 120 p_2_8 + 120 p_2_9 + 100000 z_2_10 + 100000 z_2_2 + 100000 z_2_3 + 100000 z_2_4 + 100000 z_2_6 + 100000 z_2_7 + 100000 z_2_8 + 100000 z_2_9 <= 800671.8093805213
 c5142: 120 p_2_1 + 120 p_2_10 + 120 p_2_2 + 120 p_2_3 + 120 p_2_4 + 120 p_2_6 + 120 p_2_7 + 120 p_2_8 + 120 p_2_9 + 100000 z_2_1 + 100000 z_2_10 + 100000 z_2_2 + 100000 z_2_3 + 100000 z_2_4 + 100000 z_2_6 + 100000 z_2_7 + 100000 z_2_8 + 100000 z_2_9 <= 900664.72462904605
 c5143: 120 p_2_10 + 120 p_2_5 + 120 p_2_6 + 120 p_2_7 + 120 p_2_8 + 120 p_2_9 + 100000 z_2_10 + 100000 z_2_5 + 100000 z_2_6 + 100000 z_2_7 + 100000 z_2_8 + 100000 z_2_9 <= 600884.18668151961
 c5144: 120 p_2_1 + 120 p_2_10 + 120 p_2_5 + 120 p_2_6 + 120 p_2_7 + 120 p_2_8 + 120 p_2_9 + 100000 z_2_1 + 100000 z_2_10 + 100000 z_2_5 + 100000 z_2_6 + 100000 z_2_7 + 100000 z_2_8 + 100000 z_2_9 <= 700878.83024966484
 c5145: 120 p_2_10 + 120 p_2_2 + 120 p_2_5 + 120 p_2_6 + 120 p_2_7 + 120 p_2_8 + 120 p_2_9 + 100000 z_2_10 + 100000 z_2_2 + 100000 z_2_5 + 100000 z_2_6 + 100000 z_2_7 + 100000 z_2_8 + 100000 z_2_9 <= 700814.12492778921
 c5146: 120 p_2_1 + 120 p_2_10 + 120 p_2_2 + 120 p_2_5 + 120 p_2_6 + 120 p_2_7 + 120 p_2_8 + 120 p_2_9 + 100000 z_2_1 + 100000 z_2_10 + 100000 z_2_2 + 100000 z_2_5 + 100000 z_2_6 + 100000 z_2_7 + 100000 z_2_8 + 100000 z_2_9 <= 800808.76849593432
 c5147: 120 p_2_10 + 120 p_2_3 + 120 p_2_5 + 120 p_2_6 + 120 p_2_7 + 120 p_2_8 + 120 p_2_9 + 100000 z_2_10 + 100000 z_2_3 + 100000 z_2_5 + 100000 z_2_6 + 100000 z_2_7 + 100000 z_2_8 + 100000 z_2_9 <= 700740.02386089228
 c5148: 120 p_2_1 + 120 p_2_10 + 120 p_2_3 + 120 p_2_5 + 120 p_2_6 + 120 p_2_7 + 120 p_2_8 + 120 p_2_9 + 100000 z_2_1 + 100000 z_2_10 + 100000 z_2_3 + 100000 z_2_5 + 100000 z_2_6 + 100000 z_2_7 + 100000 z_2_8 + 100000 z_2_9 <= 800734.66742903739
 c5149: 120 p_2_10 + 120 p_2_2 + 120 p_2_3 + 120 p_2_5 + 120 p_2_6 + 120 p_2_7 + 120 p_2_8 + 120 p_2_9 + 100000 z_2_10 + 100000 z_2_2 + 100000 z_2_3 + 100000 z_2_5 + 100000 z_2_6 + 100000 z_2_7 + 100000 z_2_8 + 100000 z_2_9 <= 800669.96210716187
 c5150: 120 p_2_1 + 120 p_2_10 + 120 p_2_2 + 120 p_2_3 + 120 p_2_5 + 120 p_2_6 + 120 p_2_7 + 120 p_2_8 + 120 p_2_9 + 100000 z_2_1 + 100000 z_2_10 + 100000 z_2_2 + 100000 z_2_3 + 100000 z_2_5 + 100000 z_2_6 + 100000 z_2_7 + 100000 z_2_8 + 100000 z_2_9 <= 900664.60567530699
 c5151: 120 p_2_10 + 120 p_2_4 + 120 p_2_5 + 120 p_2_6 + 120 p_2_7 + 120 p_2_8 + 120 p_2_9 + 100000 z_2_10 + 100000 z_2_4 + 100000 z_2_5 + 100000 z_2_6 + 100000 z_2_7 + 100000 z_2_8 + 100000 z_2_9 <= 700882.98813842679
 c5152: 120 p_2_1 + 120 p_2_10 + 120 p_2_4 + 120 p_2_5 + 120 p_2_6 + 120 p_2_7 + 120 p_2_8 + 120 p_2_9 + 100000 z_2_1 + 100000 z_2_10 + 100000 z_2_4 + 100000 z_2_5 + 100000 z_2_6 + 100000 z_2_7 + 100000 z_2_8 + 100000 z_2_9 <= 800875.90338695154
 c5153: 120 p_2_10 + 120 p_2_2 + 120 p_2_4 + 120 p_2_5 + 120 p_2_6 + 120 p_2_7 + 120 p_2_8 + 120 p_2_9 + 100000 z_2_10 + 100000 z_2_2 + 100000 z_2_4 + 100000 z_2_5 + 100000 z_2_6 + 100000 z_2_7 + 100000 z_2_8 + 100000 z_2_9 <= 800812.92638469639
 c5154: 120 p_2_1 + 120 p_2_10 + 120 p_2_2 + 120 p_2_4 + 120 p_2_5 + 120 p_2_6 + 120 p_2_7 + 120 p_2_8 + 120 p_2_9 + 100000 z_2_1 + 100000 z_2_10 + 100000 z_2_2 + 100000 z_2_4 + 100000 z_2_5 + 100000 z_2_6 + 100000 z_2_7 + 100000 z_2_8 + 100000 z_2_9 <= 900805.84163322113
 c5155: 120 p_2_10 + 120 p_2_3 + 120 p_2_4 + 120 p_2_5 + 120 p_2_6 + 120 p_2_7 + 120 p_2_8 + 120 p_2_9 + 100000 z_2_10 + 100000 z_2_3 + 100000 z_2_4 + 100000 z_2_5 + 100000 z_2_6 + 100000 z_2_7 + 100000 z_2_8 + 100000 z_2_9 <= 800738.82531779946
 c5156: 120 p_2_1 + 120 p_2_10 + 120 p_2_3 + 120 p_2_4 + 120 p_2_5 + 120 p_2_6 + 120 p_2_7 + 120 p_2_8 + 120 p_2_9 + 100000 z_2_1 + 100000 z_2_10 + 100000 z_2_3 + 100000 z_2_4 + 100000 z_2_5 + 100000 z_2_6 + 100000 z_2_7 + 100000 z_2_8 + 100000 z_2_9 <= 900731.74056632421
 c5157: 120 p_2_10 + 120 p_2_2 + 120 p_2_3 + 120 p_2_4 + 120 p_2_5 + 120 p_2_6 + 120 p_2_7 + 120 p_2_8 + 120 p_2_9 + 100000 z_2_10 + 100000 z_2_2 + 100000 z_2_3 + 100000 z_2_4 + 100000 z_2_5 + 100000 z_2_6 + 100000 z_2_7 + 100000 z_2_8 + 100000 z_2_9 <= 900668.76356406906
 c5158: 120 p_2_1 + 120 p_2_10 + 120 p_2_2 + 120 p_2_3 + 120 p_2_4 + 120 p_2_5 + 120 p_2_6 + 120 p_2_7 + 120 p_2_8 + 120 p_2_9 + 100000 z_2_1 + 100000 z_2_10 + 100000 z_2_2 + 100000 z_2_3 + 100000 z_2_4 + 100000 z_2_5 + 100000 z_2_6 + 100000 z_2_7 + 100000 z_2_8 + 100000 z_2_9 <= 1000661.6788125938
 c5159: 120 p_0_1 + 120 p_0_2 + 7780.1383806232634 z_0_1 + 7780.1383806232634 z_0_2 <= 16780.138380623262
 c5160: 120 p_0_1 + 120 p_0_3 + 7456.742800803203 z_0_1 + 7456.742800803203 z_0_3 <= 15976.742800803204
 c5161: 120 p_0_1 + 120 p_0_4 + 4931.8225853280801 z_0_1 + 4931.8225853280801 z_0_4 <= 11531.82258532808
 c5162: 120 p_0_1 + 120 p_0_5 + 6852.63157496232 z_0_1 + 6852.63157496232 z_0_5 <= 15012.631574962321
 c5163: 120 p_0_1 + 120 p_0_6 + 4649.7721248653506 z_0_1 + 4649.7721248653506 z_0_6 <= 10529.772124865351
 c5164: 120 p_0_1 + 120 p_0_7 + 4942.6683838064146 z_0_1 + 4942.6683838064146 z_0_7 <= 11542.668383806415
 c5165: 120 p_0_1 + 120 p_0_8 + 4747.5157343397723 z_0_1 + 4747.5157343397723 z_0_8 <= 10747.515734339771
 c5166: 120 p_0_1 + 120 p_0_9 + 4715.5371860341374 z_0_1 + 4715.5371860341374 z_0_9 <= 10715.537186034137
 c5167: 120 p_0_1 + 120 p_0_10 + 4222.2604167148847 z_0_1 + 4222.2604167148847 z_0_10 <= 10102.260416714886
 c5168: 120 p_0_2 + 120 p_0_3 + 10159.716054443448 z_0_2 + 10159.716054443448 z_0_3 <= 21679.716054443448
 c5169: 120 p_0_2 + 120 p_0_4 + 8150.0352642264406 z_0_2 + 8150.0352642264406 z_0_4 <= 17750.035264226441
 c5170: 120 p_0_2 + 120 p_0_5 + 9262.746145369525 z_0_2 + 9262.746145369525 z_0_5 <= 20422.746145369525
 c5171: 120 p_0_2 + 120 p_0_6 + 7342.1906478306701 z_0_2 + 7342.1906478306701 z_0_6 <= 16222.19064783067
 c5172: 120 p_0_2 + 120 p_0_7 + 8382.4227823763122 z_0_2 + 8382.4227823763122 z_0_7 <= 17982.422782376314
 c5173: 120 p_0_2 + 120 p_0_8 + 7121.796257457705 z_0_2 + 7121.796257457705 z_0_8 <= 16121.796257457705
 c5174: 120 p_0_2 + 120 p_0_9 + 7493.5306905353846 z_0_2 + 7493.5306905353846 z_0_9 <= 16493.530690535383
 c5175: 120 p_0_10 + 120 p_0_2 + 7477.2355738325077 z_0_10 + 7477.2355738325077 z_0_2 <= 16357.235573832508
 c5176: 120 p_0_3 + 120 p_0_4 + 7802.551632247938 z_0_3 + 7802.551632247938 z_0_4 <= 16922.551632247938
 c5177: 120 p_0_3 + 120 p_0_5 + 9225.0198695197396 z_0_3 + 9225.0198695197396 z_0_5 <= 19905.01986951974
 c5178: 120 p_0_3 + 120 p_0_6 + 6685.7044781914774 z_0_3 + 6685.7044781914774 z_0_6 <= 15085.704478191477
 c5179: 120 p_0_3 + 120 p_0_7 + 8069.0990242968364 z_0_3 + 8069.0990242968364 z_0_7 <= 17189.099024296836
 c5180: 120 p_0_3 + 120 p_0_8 + 7086.1654340262812 z_0_3 + 7086.1654340262812 z_0_8 <= 15606.165434026281
 c5181: 120 p_0_3 + 120 p_0_9 + 6823.3220947608652 z_0_3 + 6823.3220947608652 z_0_9 <= 15343.322094760866
 c5182: 120 p_0_10 + 120 p_0_3 + 7200.0183832786324 z_0_10 + 7200.0183832786324 z_0_3 <= 15600.018383278632
 c5183: 120 p_0_4 + 120 p_0_5 + 7217.0613015934132 z_0_4 + 7217.0613015934132 z_0_5 <= 15977.061301593414
 c5184: 120 p_0_4 + 120 p_0_6 + 4993.4028797521742 z_0_4 + 4993.4028797521742 z_0_6 <= 11473.402879752175
 c5185: 120 p_0_4 + 120 p_0_7 + 5542.4712517876933 z_0_4 + 5542.4712517876933 z_0_7 <= 12742.471251787694
 c5186: 120 p_0_4 + 120 p_0_8 + 5110.5162117731234 z_0_4 + 5110.5162117731234 z_0_8 <= 11710.516211773123
 c5187: 120 p_0_4 + 120 p_0_9 + 5061.518673721328 z_0_4 + 5061.518673721328 z_0_9 <= 11661.518673721328
 c5188: 120 p_0_10 + 120 p_0_4 + 4688.0745736963418 z_0_10 + 4688.0745736963418 z_0_4 <= 11168.074573696342
 c5189: 120 p_0_5 + 120 p_0_6 + 6404.569361292386 z_0_5 + 6404.569361292386 z_0_6 <= 14444.569361292386
 c5190: 120 p_0_5 + 120 p_0_7 + 7455.9291620789991 z_0_5 + 7455.9291620789991 z_0_7 <= 16215.929162078999
 c5191: 120 p_0_5 + 120 p_0_8 + 6214.7803201795296 z_0_5 + 6214.7803201795296 z_0_8 <= 14374.780320179529
 c5192: 120 p_0_5 + 120 p_0_9 + 6552.3843591310451 z_0_5 + 6552.3843591310451 z_0_9 <= 14712.384359131045
 c5193: 120 p_0_10 + 120 p_0_5 + 6551.7467283244923 z_0_10 + 6551.7467283244923 z_0_5 <= 14591.746728324491
 c5194: 120 p_0_6 + 120 p_0_7 + 5260.9839054695731 z_0_6 + 5260.9839054695731 z_0_7 <= 11740.983905469573
 c5195: 120 p_0_6 + 120 p_0_8 + 4269.315284759462 z_0_6 + 4269.315284759462 z_0_8 <= 10149.315284759461
 c5196: 120 p_0_6 + 120 p_0_9 + 4040.847687618193 z_0_6 + 4040.847687618193 z_0_9 <= 9920.847687618194
 c5197: 120 p_0_10 + 120 p_0_6 + 4385.0216914054199 z_0_10 + 4385.0216914054199 z_0_6 <= 10145.02169140542
 c5198: 120 p_0_7 + 120 p_0_8 + 5351.0030666103685 z_0_7 + 5351.0030666103685 z_0_8 <= 11951.003066610368
 c5199: 120 p_0_7 + 120 p_0_9 + 5327.9141721140913 z_0_7 + 5327.9141721140913 z_0_9 <= 11927.914172114091
 c5200: 120 p_0_10 + 120 p_0_7 + 4822.5909081939826 z_0_10 + 4822.5909081939826 z_0_7 <= 11302.590908193983
 c5201: 120 p_0_8 + 120 p_0_9 + 4422.6754662066633 z_0_8 + 4422.6754662066633 z_0_9 <= 10422.675466206663
 c5202: 120 p_0_10 + 120 p_0_8 + 4447.0381108985657 z_0_10 + 4447.0381108985657 z_0_8 <= 10327.038110898566
 c5203: 120 p_0_10 + 120 p_0_9 + 4460.34076959493 z_0_10 + 4460.34076959493 z_0_9 <= 10340.34076959493
 c5204: 120 p_0_1 + 120 p_0_2 + 120 p_0_3 + 11412.442790539848 z_0_1 + 11412.442790539848 z_0_2 + 11412.442790539848 z_0_3 <= 34944.885581079696
 c5205: 120 p_0_1 + 120 p_0_2 + 120 p_0_4 + 8987.0260000797571 z_0_1 + 8987.0260000797571 z_0_2 + 8987.0260000797571 z_0_4 <= 28174.052000159514
 c5206: 120 p_0_1 + 120 p_0_2 + 120 p_0_5 + 10543.184197075509 z_0_1 + 10543.184197075509 z_0_2 + 10543.184197075509 z_0_5 <= 32846.368394151017
 c5207: 120 p_0_1 + 120 p_0_2 + 120 p_0_6 + 8614.3810366878897 z_0_1 + 8614.3810366878897 z_0_2 + 8614.3810366878897 z_0_6 <= 26708.762073375779
 c5208: 120 p_0_1 + 120 p_0_2 + 120 p_0_7 + 8993.3056240306105 z_0_1 + 8993.3056240306105 z_0_2 + 8993.3056240306105 z_0_7 <= 28186.611248061221
 c5209: 120 p_0_1 + 120 p_0_2 + 120 p_0_8 + 8402.2343091636903 z_0_1 + 8402.2343091636903 z_0_2 + 8402.2343091636903 z_0_8 <= 26404.468618327381
 c5210: 120 p_0_1 + 120 p_0_2 + 120 p_0_9 + 8726.9514427283466 z_0_1 + 8726.9514427283466 z_0_2 + 8726.9514427283466 z_0_9 <= 27053.902885456693
 c5211: 120 p_0_1 + 120 p_0_10 + 120 p_0_2 + 8262.4732432212804 z_0_1 + 8262.4732432212804 z_0_10 + 8262.4732432212804 z_0_2 <= 26004.946486442561
 c5212: 120 p_0_1 + 120 p_0_3 + 120 p_0_4 + 8659.4970072739416 z_0_1 + 8659.4970072739416 z_0_3 + 8659.4970072739416 z_0_4 <= 27038.994014547883
 c5213: 120 p_0_1 + 120 p_0_3 + 120 p_0_5 + 10477.746605616139 z_0_1 + 10477.746605616139 z_0_3 + 10477.746605616139 z_0_5 <= 32235.493211232279
 c5214: 120 p_0_1 + 120 p_0_3 + 120 p_0_6 + 7938.4312142878753 z_0_1 + 7938.4312142878753 z_0_3 + 7938.4312142878753 z_0_6 <= 24876.862428575747
 c5215: 120 p_0_1 + 120 p_0_3 + 120 p_0_7 + 8674.4762187380329 z_0_1 + 8674.4762187380329 z_0_3 + 8674.4762187380329 z_0_7 <= 27068.952437476066
 c5216: 120 p_0_1 + 120 p_0_3 + 120 p_0_8 + 8338.8921701226791 z_0_1 + 8338.8921701226791 z_0_3 + 8338.8921701226791 z_0_8 <= 25797.784340245358
 c5217: 120 p_0_1 + 120 p_0_3 + 120 p_0_9 + 8056.7428469538263 z_0_1 + 8056.7428469538263 z_0_3 + 8056.7428469538263 z_0_9 <= 25233.485693907653
 c5218: 120 p_0_1 + 120 p_0_10 + 120 p_0_3 + 7954.0682516465013 z_0_1 + 7954.0682516465013 z_0_10 + 7954.0682516465013 z_0_3 <= 24908.136503293001
 c5219: 120 p_0_1 + 120 p_0_4 + 120 p_0_5 + 8059.5191944188136 z_0_1 + 8059.5191944188136 z_0_4 + 8059.5191944188136 z_0_5 <= 25479.038388837627
 c5220: 120 p_0_1 + 120 p_0_4 + 120 p_0_6 + 5850.3482547781787 z_0_1 + 5850.3482547781787 z_0_4 + 5850.3482547781787 z_0_6 <= 18780.696509556357
 c5221: 120 p_0_1 + 120 p_0_4 + 120 p_0_7 + 6149.5560032629091 z_0_1 + 6149.5560032629091 z_0_4 + 6149.5560032629091 z_0_7 <= 20099.112006525822
 c5222: 120 p_0_1 + 120 p_0_4 + 120 p_0_8 + 5954.4033537962669 z_0_1 + 5954.4033537962669 z_0_4 + 5954.4033537962669 z_0_8 <= 19108.806707592532
 c5223: 120 p_0_1 + 120 p_0_4 + 120 p_0_9 + 5918.4640487473316 z_0_1 + 5918.4640487473316 z_0_4 + 5918.4640487473316 z_0_9 <= 19036.928097494667
 c5224: 120 p_0_1 + 120 p_0_10 + 120 p_0_4 + 5429.1480361713784 z_0_1 + 5429.1480361713784 z_0_10 + 5429.1480361713784 z_0_4 <= 17938.296072342757
 c5225: 120 p_0_1 + 120 p_0_5 + 120 p_0_6 + 7676.7597501496066 z_0_1 + 7676.7597501496066 z_0_5 + 7676.7597501496066 z_0_6 <= 23993.519500299215
 c5226: 120 p_0_1 + 120 p_0_5 + 120 p_0_7 + 8066.8120037332974 z_0_1 + 8066.8120037332974 z_0_5 + 8066.8120037332974 z_0_7 <= 25493.624007466591
 c5227: 120 p_0_1 + 120 p_0_5 + 120 p_0_8 + 7508.4629395007723 z_0_1 + 7508.4629395007723 z_0_5 + 7508.4629395007723 z_0_8 <= 23776.925879001545
 c5228: 120 p_0_1 + 120 p_0_5 + 120 p_0_9 + 7785.8051113240053 z_0_1 + 7785.8051113240053 z_0_5 + 7785.8051113240053 z_0_9 <= 24331.610222648007
 c5229: 120 p_0_1 + 120 p_0_10 + 120 p_0_5 + 7336.9843977132659 z_0_1 + 7336.9843977132659 z_0_10 + 7336.9843977132659 z_0_5 <= 23313.968795426532
 c5230: 120 p_0_1 + 120 p_0_6 + 120 p_0_7 + 5867.5055428001797 z_0_1 + 5867.5055428001797 z_0_6 + 5867.5055428001797 z_0_7 <= 18815.011085600359
 c5231: 120 p_0_1 + 120 p_0_6 + 120 p_0_8 + 5541.5056736166825 z_0_1 + 5541.5056736166825 z_0_6 + 5541.5056736166825 z_0_8 <= 17563.011347233369
 c5232: 120 p_0_1 + 120 p_0_6 + 120 p_0_9 + 5274.2684398111542 z_0_1 + 5274.2684398111542 z_0_6 + 5274.2684398111542 z_0_9 <= 17028.536879622308
 c5233: 120 p_0_1 + 120 p_0_10 + 120 p_0_6 + 5147.0975757086489 z_0_1 + 5147.0975757086489 z_0_10 + 5147.0975757086489 z_0_6 <= 16654.195151417298
 c5234: 120 p_0_1 + 120 p_0_7 + 120 p_0_8 + 5961.8859082646668 z_0_1 + 5961.8859082646668 z_0_7 + 5961.8859082646668 z_0_8 <= 19123.771816529334
 c5235: 120 p_0_1 + 120 p_0_7 + 120 p_0_9 + 5933.2706039689665 z_0_1 + 5933.2706039689665 z_0_7 + 5933.2706039689665 z_0_9 <= 19066.541207937935
 c5236: 120 p_0_1 + 120 p_0_10 + 120 p_0_7 + 5433.47374984828 z_0_1 + 5433.47374984828 z_0_10 + 5433.47374984828 z_0_7 <= 17946.947499696562
 c5237: 120 p_0_1 + 120 p_0_8 + 120 p_0_9 + 5656.0962183996244 z_0_1 + 5656.0962183996244 z_0_8 + 5656.0962183996244 z_0_9 <= 17912.192436799251
 c5238: 120 p_0_1 + 120 p_0_10 + 120 p_0_8 + 5232.2757802873393 z_0_1 + 5232.2757802873393 z_0_10 + 5232.2757802873393 z_0_8 <= 16944.55156057468
 c5239: 120 p_0_1 + 120 p_0_10 + 120 p_0_9 + 5212.8626368774367 z_0_1 + 5212.8626368774367 z_0_10 + 5212.8626368774367 z_0_9 <= 16905.725273754873
 c5240: 120 p_0_2 + 120 p_0_3 + 120 p_0_4 + 11758.251621984582 z_0_2 + 11758.251621984582 z_0_3 + 11758.251621984582 z_0_4 <= 36236.503243969157
 c5241: 120 p_0_2 + 120 p_0_3 + 120 p_0_5 + 12922.761870895692 z_0_2 + 12922.761870895692 z_0_3 + 12922.761870895692 z_0_5 <= 40125.523741791381
 c5242: 120 p_0_2 + 120 p_0_3 + 120 p_0_6 + 10641.404467928121 z_0_2 + 10641.404467928121 z_0_3 + 10641.404467928121 z_0_6 <= 33282.808935856243
 c5243: 120 p_0_2 + 120 p_0_3 + 120 p_0_7 + 12024.79901403348 z_0_2 + 12024.79901403348 z_0_3 + 12024.79901403348 z_0_7 <= 36769.598028066961
 c5244: 120 p_0_2 + 120 p_0_3 + 120 p_0_8 + 10759.810349100497 z_0_2 + 10759.810349100497 z_0_3 + 10759.810349100497 z_0_8 <= 33639.620698200997
 c5245: 120 p_0_2 + 120 p_0_3 + 120 p_0_9 + 10779.022084497508 z_0_2 + 10779.022084497508 z_0_3 + 10779.022084497508 z_0_9 <= 33678.044168995017
 c5246: 120 p_0_10 + 120 p_0_2 + 120 p_0_3 + 11137.251299358675 z_0_10 + 11137.251299358675 z_0_2 + 11137.251299358675 z_0_3 <= 34274.50259871735
 c5247: 120 p_0_2 + 120 p_0_4 + 120 p_0_5 + 10913.081080678685 z_0_2 + 10913.081080678685 z_0_4 + 10913.081080678685 z_0_5 <= 34186.162161357373
 c5248: 120 p_0_2 + 120 p_0_4 + 120 p_0_6 + 8958.0117915747142 z_0_2 + 8958.0117915747142 z_0_4 + 8958.0117915747142 z_0_6 <= 27996.023583149428
 c5249: 120 p_0_2 + 120 p_0_4 + 120 p_0_7 + 9593.1084920118883 z_0_2 + 9593.1084920118883 z_0_4 + 9593.1084920118883 z_0_7 <= 29986.216984023777
 c5250: 120 p_0_2 + 120 p_0_4 + 120 p_0_8 + 8772.1311927668648 z_0_2 + 8772.1311927668648 z_0_4 + 8772.1311927668648 z_0_8 <= 27744.26238553373
 c5251: 120 p_0_2 + 120 p_0_4 + 120 p_0_9 + 9072.9329304155362 z_0_2 + 9072.9329304155362 z_0_4 + 9072.9329304155362 z_0_9 <= 28345.865860831072
 c5252: 120 p_0_10 + 120 p_0_2 + 120 p_0_4 + 8728.2874002027384 z_0_10 + 8728.2874002027384 z_0_2 + 8728.2874002027384 z_0_4 <= 27536.574800405477
 c5253: 120 p_0_2 + 120 p_0_5 + 120 p_0_6 + 10105.236464282914 z_0_2 + 10105.236464282914 z_0_5 + 10105.236464282914 z_0_6 <= 31850.472928565832
 c5254: 120 p_0_2 + 120 p_0_5 + 120 p_0_7 + 11145.468598828556 z_0_2 + 11145.468598828556 z_0_5 + 11145.468598828556 z_0_7 <= 34650.937197657113
 c5255: 120 p_0_2 + 120 p_0_5 + 120 p_0_8 + 9884.8420739099492 z_0_2 + 9884.8420739099492 z_0_5 + 9884.8420739099492 z_0_8 <= 31529.684147819898
 c5256: 120 p_0_2 + 120 p_0_5 + 120 p_0_9 + 10256.181548859491 z_0_2 + 10256.181548859491 z_0_5 + 10256.181548859491 z_0_9 <= 32272.363097718982
 c5257: 120 p_0_10 + 120 p_0_2 + 120 p_0_5 + 10240.281390284752 z_0_10 + 10240.281390284752 z_0_2 + 10240.281390284752 z_0_5 <= 32120.562780569504
 c5258: 120 p_0_2 + 120 p_0_6 + 120 p_0_7 + 9224.9131012897014 z_0_2 + 9224.9131012897014 z_0_6 + 9224.9131012897014 z_0_7 <= 28529.826202579403
 c5259: 120 p_0_2 + 120 p_0_6 + 120 p_0_8 + 7942.9601998336775 z_0_2 + 7942.9601998336775 z_0_6 + 7942.9601998336775 z_0_8 <= 25365.920399667357
 c5260: 120 p_0_2 + 120 p_0_6 + 120 p_0_9 + 8005.4565994407321 z_0_2 + 8005.4565994407321 z_0_6 + 8005.4565994407321 z_0_9 <= 25490.913198881466
 c5261: 120 p_0_10 + 120 p_0_2 + 120 p_0_6 + 8319.725892745897 z_0_10 + 8319.725892745897 z_0_2 + 8319.725892745897 z_0_6 <= 25999.451785491794
 c5262: 120 p_0_2 + 120 p_0_7 + 120 p_0_8 + 9004.5187109167382 z_0_2 + 9004.5187109167382 z_0_7 + 9004.5187109167382 z_0_8 <= 28209.037421833476
 c5263: 120 p_0_2 + 120 p_0_7 + 120 p_0_9 + 9339.3284288082996 z_0_2 + 9339.3284288082996 z_0_7 + 9339.3284288082996 z_0_9 <= 28878.656857616596
 c5264: 120 p_0_10 + 120 p_0_2 + 120 p_0_7 + 8862.8037347003792 z_0_10 + 8862.8037347003792 z_0_2 + 8862.8037347003792 z_0_7 <= 27805.607469400762
 c5265: 120 p_0_2 + 120 p_0_8 + 120 p_0_9 + 8096.3203812808788 z_0_2 + 8096.3203812808788 z_0_8 + 8096.3203812808788 z_0_9 <= 25792.640762561758
 c5266: 120 p_0_10 + 120 p_0_2 + 120 p_0_8 + 8099.3315023729338 z_0_10 + 8099.3315023729338 z_0_2 + 8099.3315023729338 z_0_8 <= 25678.663004745868
 c5267: 120 p_0_10 + 120 p_0_2 + 120 p_0_9 + 8471.0659354506133 z_0_10 + 8471.0659354506133 z_0_2 + 8471.0659354506133 z_0_9 <= 26422.131870901227
 c5268: 120 p_0_3 + 120 p_0_4 + 120 p_0_5 + 10823.555437060873 z_0_3 + 10823.555437060873 z_0_4 + 10823.555437060873 z_0_5 <= 33527.110874121747
 c5269: 120 p_0_3 + 120 p_0_4 + 120 p_0_6 + 8284.2400457326112 z_0_3 + 8284.2400457326112 z_0_4 + 8284.2400457326112 z_0_6 <= 26168.480091465222
 c5270: 120 p_0_3 + 120 p_0_4 + 120 p_0_7 + 9270.1456737335538 z_0_3 + 9270.1456737335538 z_0_4 + 9270.1456737335538 z_0_7 <= 28860.291347467108
 c5271: 120 p_0_3 + 120 p_0_4 + 120 p_0_8 + 8684.7010015674132 z_0_3 + 8684.7010015674132 z_0_4 + 8684.7010015674132 z_0_8 <= 27089.402003134826
 c5272: 120 p_0_3 + 120 p_0_4 + 120 p_0_9 + 8402.724334641016 z_0_3 + 8402.724334641016 z_0_4 + 8402.724334641016 z_0_9 <= 26525.448669282032
 c5273: 120 p_0_10 + 120 p_0_3 + 120 p_0_4 + 8415.7489956422032 z_0_10 + 8415.7489956422032 z_0_3 + 8415.7489956422032 z_0_4 <= 26431.497991284406
 c5274: 120 p_0_3 + 120 p_0_5 + 120 p_0_6 + 9706.7082830044128 z_0_3 + 9706.7082830044128 z_0_5 + 9706.7082830044128 z_0_6 <= 30573.416566008826
 c5275: 120 p_0_3 + 120 p_0_5 + 120 p_0_7 + 11090.102829109772 z_0_3 + 11090.102829109772 z_0_5 + 11090.102829109772 z_0_7 <= 34060.205658219536
 c5276: 120 p_0_3 + 120 p_0_5 + 120 p_0_8 + 9852.7944118223204 z_0_3 + 9852.7944118223204 z_0_5 + 9852.7944118223204 z_0_8 <= 30985.588823644641
 c5277: 120 p_0_3 + 120 p_0_5 + 120 p_0_9 + 9844.3258995738015 z_0_3 + 9844.3258995738015 z_0_5 + 9844.3258995738015 z_0_9 <= 30968.651799147607
 c5278: 120 p_0_10 + 120 p_0_3 + 120 p_0_5 + 10217.817642203156 z_0_10 + 10217.817642203156 z_0_3 + 10217.817642203156 z_0_5 <= 31595.635284406315
 c5279: 120 p_0_3 + 120 p_0_6 + 120 p_0_7 + 8550.7874377815097 z_0_3 + 8550.7874377815097 z_0_6 + 8550.7874377815097 z_0_7 <= 26701.574875563019
 c5280: 120 p_0_3 + 120 p_0_6 + 120 p_0_8 + 7567.8538475109535 z_0_3 + 7567.8538475109535 z_0_6 + 7567.8538475109535 z_0_8 <= 24135.707695021909
 c5281: 120 p_0_3 + 120 p_0_6 + 120 p_0_9 + 7305.0105082455375 z_0_3 + 7305.0105082455375 z_0_6 + 7305.0105082455375 z_0_9 <= 23610.021016491075
 c5282: 120 p_0_10 + 120 p_0_3 + 120 p_0_6 + 7681.7067967633047 z_0_10 + 7681.7067967633047 z_0_3 + 7681.7067967633047 z_0_6 <= 24243.413593526609
 c5283: 120 p_0_3 + 120 p_0_7 + 120 p_0_8 + 8951.2483936163117 z_0_3 + 8951.2483936163117 z_0_7 + 8951.2483936163117 z_0_8 <= 27622.496787232623
 c5284: 120 p_0_3 + 120 p_0_7 + 120 p_0_9 + 8669.1198330337793 z_0_3 + 8669.1198330337793 z_0_7 + 8669.1198330337793 z_0_9 <= 27058.239666067559
 c5285: 120 p_0_10 + 120 p_0_3 + 120 p_0_7 + 8559.904390338701 z_0_10 + 8559.904390338701 z_0_3 + 8559.904390338701 z_0_7 <= 26719.808780677406
 c5286: 120 p_0_3 + 120 p_0_8 + 120 p_0_9 + 7705.4714640803413 z_0_3 + 7705.4714640803413 z_0_8 + 7705.4714640803413 z_0_9 <= 24530.942928160679
 c5287: 120 p_0_10 + 120 p_0_3 + 120 p_0_8 + 8082.1677525981095 z_0_10 + 8082.1677525981095 z_0_3 + 8082.1677525981095 z_0_8 <= 25164.335505196217
 c5288: 120 p_0_10 + 120 p_0_3 + 120 p_0_9 + 7801.5464305146188 z_0_10 + 7801.5464305146188 z_0_3 + 7801.5464305146188 z_0_9 <= 24603.092861029236
 c5289: 120 p_0_4 + 120 p_0_5 + 120 p_0_6 + 8020.3905050364301 z_0_4 + 8020.3905050364301 z_0_5 + 8020.3905050364301 z_0_6 <= 25280.78101007286
 c5290: 120 p_0_4 + 120 p_0_5 + 120 p_0_7 + 8666.6148717145752 z_0_4 + 8666.6148717145752 z_0_5 + 8666.6148717145752 z_0_7 <= 27293.229743429147
 c5291: 120 p_0_4 + 120 p_0_5 + 120 p_0_8 + 7872.8926661318656 z_0_4 + 7872.8926661318656 z_0_5 + 7872.8926661318656 z_0_8 <= 25105.785332263731
 c5292: 120 p_0_4 + 120 p_0_5 + 120 p_0_9 + 8131.7865990111959 z_0_4 + 8131.7865990111959 z_0_5 + 8131.7865990111959 z_0_9 <= 25623.57319802239
 c5293: 120 p_0_10 + 120 p_0_4 + 120 p_0_5 + 7802.798554694723 z_0_10 + 7802.798554694723 z_0_4 + 7802.798554694723 z_0_5 <= 24845.597109389444
 c5294: 120 p_0_4 + 120 p_0_6 + 120 p_0_7 + 6460.996921237791 z_0_4 + 6460.996921237791 z_0_6 + 6460.996921237791 z_0_7 <= 20601.993842475582
 c5295: 120 p_0_4 + 120 p_0_6 + 120 p_0_8 + 5885.1364285035061 z_0_4 + 5885.1364285035061 z_0_6 + 5885.1364285035061 z_0_8 <= 18850.272857007014
 c5296: 120 p_0_4 + 120 p_0_6 + 120 p_0_9 + 5620.2499274983438 z_0_4 + 5620.2499274983438 z_0_6 + 5620.2499274983438 z_0_9 <= 18320.499854996691
 c5297: 120 p_0_10 + 120 p_0_4 + 120 p_0_6 + 5606.6002431464403 z_0_10 + 5606.6002431464403 z_0_4 + 5606.6002431464403 z_0_6 <= 18173.200486292881
 c5298: 120 p_0_4 + 120 p_0_7 + 120 p_0_8 + 6561.6887762459446 z_0_4 + 6561.6887762459446 z_0_7 + 6561.6887762459446 z_0_8 <= 20923.377552491889
 c5299: 120 p_0_4 + 120 p_0_7 + 120 p_0_9 + 6529.1127152069448 z_0_4 + 6529.1127152069448 z_0_7 + 6529.1127152069448 z_0_9 <= 20858.225430413888
 c5300: 120 p_0_10 + 120 p_0_4 + 120 p_0_7 + 6033.2766178295587 z_0_10 + 6033.2766178295587 z_0_4 + 6033.2766178295587 z_0_7 <= 19746.553235659121
 c5301: 120 p_0_4 + 120 p_0_8 + 120 p_0_9 + 6002.0777060868149 z_0_4 + 6002.0777060868149 z_0_8 + 6002.0777060868149 z_0_9 <= 19204.155412173634
 c5302: 120 p_0_10 + 120 p_0_4 + 120 p_0_8 + 5698.0899372687963 z_0_10 + 5698.0899372687963 z_0_4 + 5698.0899372687963 z_0_8 <= 18476.179874537593
 c5303: 120 p_0_10 + 120 p_0_4 + 120 p_0_9 + 5674.7160371155933 z_0_10 + 5674.7160371155933 z_0_4 + 5674.7160371155933 z_0_9 <= 18429.43207423119
 c5304: 120 p_0_5 + 120 p_0_6 + 120 p_0_7 + 8287.9715307538299 z_0_5 + 8287.9715307538299 z_0_6 + 8287.9715307538299 z_0_7 <= 25815.943061507664
 c5305: 120 p_0_5 + 120 p_0_6 + 120 p_0_8 + 7035.9442625555012 z_0_5 + 7035.9442625555012 z_0_6 + 7035.9442625555012 z_0_8 <= 22711.888525111
 c5306: 120 p_0_5 + 120 p_0_6 + 120 p_0_9 + 7067.835312902449 z_0_5 + 7067.835312902449 z_0_6 + 7067.835312902449 z_0_9 <= 22775.670625804902
 c5307: 120 p_0_10 + 120 p_0_5 + 120 p_0_6 + 7397.3671339758012 z_0_10 + 7397.3671339758012 z_0_5 + 7397.3671339758012 z_0_6 <= 23314.734267951604
 c5308: 120 p_0_5 + 120 p_0_7 + 120 p_0_8 + 8111.7605266174523 z_0_5 + 8111.7605266174523 z_0_7 + 8111.7605266174523 z_0_8 <= 25583.521053234908
 c5309: 120 p_0_5 + 120 p_0_7 + 120 p_0_9 + 8398.1820974039601 z_0_5 + 8398.1820974039601 z_0_7 + 8398.1820974039601 z_0_9 <= 26156.364194807924
 c5310: 120 p_0_10 + 120 p_0_5 + 120 p_0_7 + 7937.3148891923629 z_0_10 + 7937.3148891923629 z_0_5 + 7937.3148891923629 z_0_7 <= 25114.629778384726
 c5311: 120 p_0_5 + 120 p_0_8 + 120 p_0_9 + 7189.3044440027033 z_0_5 + 7189.3044440027033 z_0_8 + 7189.3044440027033 z_0_9 <= 23138.608888005405
 c5312: 120 p_0_10 + 120 p_0_5 + 120 p_0_8 + 7207.5780928629447 z_0_10 + 7207.5780928629447 z_0_5 + 7207.5780928629447 z_0_8 <= 23055.156185725886
 c5313: 120 p_0_10 + 120 p_0_5 + 120 p_0_9 + 7530.6086948847988 z_0_10 + 7530.6086948847988 z_0_5 + 7530.6086948847988 z_0_9 <= 23701.217389769598
 c5314: 120 p_0_6 + 120 p_0_7 + 120 p_0_8 + 6152.717454220905 z_0_6 + 6152.717454220905 z_0_7 + 6152.717454220905 z_0_8 <= 19385.43490844181
 c5315: 120 p_0_6 + 120 p_0_7 + 120 p_0_9 + 5886.6454258911081 z_0_6 + 5886.6454258911081 z_0_7 + 5886.6454258911081 z_0_9 <= 18853.290851782218
 c5316: 120 p_0_10 + 120 p_0_6 + 120 p_0_7 + 5751.7892715114385 z_0_10 + 5751.7892715114385 z_0_6 + 5751.7892715114385 z_0_7 <= 18463.578543022875
 c5317: 120 p_0_6 + 120 p_0_8 + 120 p_0_9 + 4932.581236369524 z_0_6 + 4932.581236369524 z_0_8 + 4932.581236369524 z_0_9 <= 16345.162472739048
 c5318: 120 p_0_10 + 120 p_0_6 + 120 p_0_8 + 5268.2020532745382 z_0_10 + 5268.2020532745382 z_0_6 + 5268.2020532745382 z_0_8 <= 16896.404106549078
 c5319: 120 p_0_10 + 120 p_0_6 + 120 p_0_9 + 5019.0720233719467 z_0_10 + 5019.0720233719467 z_0_6 + 5019.0720233719467 z_0_9 <= 16398.144046743892
 c5320: 120 p_0_7 + 120 p_0_8 + 120 p_0_9 + 6268.4732044795783 z_0_7 + 6268.4732044795783 z_0_8 + 6268.4732044795783 z_0_9 <= 19736.946408959157
 c5321: 120 p_0_10 + 120 p_0_7 + 120 p_0_8 + 5832.6062717664372 z_0_10 + 5832.6062717664372 z_0_7 + 5832.6062717664372 z_0_8 <= 18745.212543532871
 c5322: 120 p_0_10 + 120 p_0_7 + 120 p_0_9 + 5818.7195381559568 z_0_10 + 5818.7195381559568 z_0_7 + 5818.7195381559568 z_0_9 <= 18717.439076311912
 c5323: 120 p_0_10 + 120 p_0_8 + 120 p_0_9 + 5400.8998019604169 z_0_10 + 5400.8998019604169 z_0_8 + 5400.8998019604169 z_0_9 <= 17281.799603920834
 c5324: 120 p_1_1 + 120 p_1_2 + 7780.1383806232634 z_1_1 + 7780.1383806232634 z_1_2 <= 16780.138380623262
 c5325: 120 p_1_1 + 120 p_1_3 + 7456.742800803203 z_1_1 + 7456.742800803203 z_1_3 <= 15976.742800803204
 c5326: 120 p_1_1 + 120 p_1_4 + 4931.8225853280801 z_1_1 + 4931.8225853280801 z_1_4 <= 11531.82258532808
 c5327: 120 p_1_1 + 120 p_1_5 + 6852.63157496232 z_1_1 + 6852.63157496232 z_1_5 <= 15012.631574962321
 c5328: 120 p_1_1 + 120 p_1_6 + 4649.7721248653506 z_1_1 + 4649.7721248653506 z_1_6 <= 10529.772124865351
 c5329: 120 p_1_1 + 120 p_1_7 + 4942.6683838064146 z_1_1 + 4942.6683838064146 z_1_7 <= 11542.668383806415
 c5330: 120 p_1_1 + 120 p_1_8 + 4747.5157343397723 z_1_1 + 4747.5157343397723 z_1_8 <= 10747.515734339771
 c5331: 120 p_1_1 + 120 p_1_9 + 4715.5371860341374 z_1_1 + 4715.5371860341374 z_1_9 <= 10715.537186034137
 c5332: 120 p_1_1 + 120 p_1_10 + 4222.2604167148847 z_1_1 + 4222.2604167148847 z_1_10 <= 10102.260416714886
 c5333: 120 p_1_2 + 120 p_1_3 + 10159.716054443448 z_1_2 + 10159.716054443448 z_1_3 <= 21679.716054443448
 c5334: 120 p_1_2 + 120 p_1_4 + 8150.0352642264406 z_1_2 + 8150.0352642264406 z_1_4 <= 17750.035264226441
 c5335: 120 p_1_2 + 120 p_1_5 + 9262.746145369525 z_1_2 + 9262.746145369525 z_1_5 <= 20422.746145369525
 c5336: 120 p_1_2 + 120 p_1_6 + 7342.1906478306701 z_1_2 + 7342.1906478306701 z_1_6 <= 16222.19064783067
 c5337: 120 p_1_2 + 120 p_1_7 + 8382.4227823763122 z_1_2 + 8382.4227823763122 z_1_7 <= 17982.422782376314
 c5338: 120 p_1_2 + 120 p_1_8 + 7121.796257457705 z_1_2 + 7121.796257457705 z_1_8 <= 16121.796257457705
 c5339: 120 p_1_2 + 120 p_1_9 + 7493.5306905353846 z_1_2 + 7493.5306905353846 z_1_9 <= 16493.530690535383
 c5340: 120 p_1_10 + 120 p_1_2 + 7477.2355738325077 z_1_10 + 7477.2355738325077 z_1_2 <= 16357.235573832508
 c5341: 120 p_1_3 + 120 p_1_4 + 7802.551632247938 z_1_3 + 7802.551632247938 z_1_4 <= 16922.551632247938
 c5342: 120 p_1_3 + 120 p_1_5 + 9225.0198695197396 z_1_3 + 9225.0198695197396 z_1_5 <= 19905.01986951974
 c5343: 120 p_1_3 + 120 p_1_6 + 6685.7044781914774 z_1_3 + 6685.7044781914774 z_1_6 <= 15085.704478191477
 c5344: 120 p_1_3 + 120 p_1_7 + 8069.0990242968364 z_1_3 + 8069.0990242968364 z_1_7 <= 17189.099024296836
 c5345: 120 p_1_3 + 120 p_1_8 + 7086.1654340262812 z_1_3 + 7086.1654340262812 z_1_8 <= 15606.165434026281
 c5346: 120 p_1_3 + 120 p_1_9 + 6823.3220947608652 z_1_3 + 6823.3220947608652 z_1_9 <= 15343.322094760866
 c5347: 120 p_1_10 + 120 p_1_3 + 7200.0183832786324 z_1_10 + 7200.0183832786324 z_1_3 <= 15600.018383278632
 c5348: 120 p_1_4 + 120 p_1_5 + 7217.0613015934132 z_1_4 + 7217.0613015934132 z_1_5 <= 15977.061301593414
 c5349: 120 p_1_4 + 120 p_1_6 + 4993.4028797521742 z_1_4 + 4993.4028797521742 z_1_6 <= 11473.402879752175
 c5350: 120 p_1_4 + 120 p_1_7 + 5542.4712517876933 z_1_4 + 5542.4712517876933 z_1_7 <= 12742.471251787694
 c5351: 120 p_1_4 + 120 p_1_8 + 5110.5162117731234 z_1_4 + 5110.5162117731234 z_1_8 <= 11710.516211773123
 c5352: 120 p_1_4 + 120 p_1_9 + 5061.518673721328 z_1_4 + 5061.518673721328 z_1_9 <= 11661.518673721328
 c5353: 120 p_1_10 + 120 p_1_4 + 4688.0745736963418 z_1_10 + 4688.0745736963418 z_1_4 <= 11168.074573696342
 c5354: 120 p_1_5 + 120 p_1_6 + 6404.569361292386 z_1_5 + 6404.569361292386 z_1_6 <= 14444.569361292386
 c5355: 120 p_1_5 + 120 p_1_7 + 7455.9291620789991 z_1_5 + 7455.9291620789991 z_1_7 <= 16215.929162078999
 c5356: 120 p_1_5 + 120 p_1_8 + 6214.7803201795296 z_1_5 + 6214.7803201795296 z_1_8 <= 14374.780320179529
 c5357: 120 p_1_5 + 120 p_1_9 + 6552.3843591310451 z_1_5 + 6552.3843591310451 z_1_9 <= 14712.384359131045
 c5358: 120 p_1_10 + 120 p_1_5 + 6551.7467283244923 z_1_10 + 6551.7467283244923 z_1_5 <= 14591.746728324491
 c5359: 120 p_1_6 + 120 p_1_7 + 5260.9839054695731 z_1_6 + 5260.9839054695731 z_1_7 <= 11740.983905469573
 c5360: 120 p_1_6 + 120 p_1_8 + 4269.315284759462 z_1_6 + 4269.315284759462 z_1_8 <= 10149.315284759461
 c5361: 120 p_1_6 + 120 p_1_9 + 4040.847687618193 z_1_6 + 4040.847687618193 z_1_9 <= 9920.847687618194
 c5362: 120 p_1_10 + 120 p_1_6 + 4385.0216914054199 z_1_10 + 4385.0216914054199 z_1_6 <= 10145.02169140542
 c5363: 120 p_1_7 + 120 p_1_8 + 5351.0030666103685 z_1_7 + 5351.0030666103685 z_1_8 <= 11951.003066610368
 c5364: 120 p_1_7 + 120 p_1_9 + 5327.9141721140913 z_1_7 + 5327.9141721140913 z_1_9 <= 11927.914172114091
 c5365: 120 p_1_10 + 120 p_1_7 + 4822.5909081939826 z_1_10 + 4822.5909081939826 z_1_7 <= 11302.590908193983
 c5366: 120 p_1_8 + 120 p_1_9 + 4422.6754662066633 z_1_8 + 4422.6754662066633 z_1_9 <= 10422.675466206663
 c5367: 120 p_1_10 + 120 p_1_8 + 4447.0381108985657 z_1_10 + 4447.0381108985657 z_1_8 <= 10327.038110898566
 c5368: 120 p_1_10 + 120 p_1_9 + 4460.34076959493 z_1_10 + 4460.34076959493 z_1_9 <= 10340.34076959493
 c5369: 120 p_1_1 + 120 p_1_2 + 120 p_1_3 + 11412.442790539848 z_1_1 + 11412.442790539848 z_1_2 + 11412.442790539848 z_1_3 <= 34944.885581079696
 c5370: 120 p_1_1 + 120 p_1_2 + 120 p_1_4 + 8987.0260000797571 z_1_1 + 8987.0260000797571 z_1_2 + 8987.0260000797571 z_1_4 <= 28174.052000159514
 c5371: 120 p_1_1 + 120 p_1_2 + 120 p_1_5 + 10543.184197075509 z_1_1 + 10543.184197075509 z_1_2 + 10543.184197075509 z_1_5 <= 32846.368394151017
 c5372: 120 p_1_1 + 120 p_1_2 + 120 p_1_6 + 8614.3810366878897 z_1_1 + 8614.3810366878897 z_1_2 + 8614.3810366878897 z_1_6 <= 26708.762073375779
 c5373: 120 p_1_1 + 120 p_1_2 + 120 p_1_7 + 8993.3056240306105 z_1_1 + 8993.3056240306105 z_1_2 + 8993.3056240306105 z_1_7 <= 28186.611248061221
 c5374: 120 p_1_1 + 120 p_1_2 + 120 p_1_8 + 8402.2343091636903 z_1_1 + 8402.2343091636903 z_1_2 + 8402.2343091636903 z_1_8 <= 26404.468618327381
 c5375: 120 p_1_1 + 120 p_1_2 + 120 p_1_9 + 8726.9514427283466 z_1_1 + 8726.9514427283466 z_1_2 + 8726.9514427283466 z_1_9 <= 27053.902885456693
 c5376: 120 p_1_1 + 120 p_1_10 + 120 p_1_2 + 8262.4732432212804 z_1_1 + 8262.4732432212804 z_1_10 + 8262.4732432212804 z_1_2 <= 26004.946486442561
 c5377: 120 p_1_1 + 120 p_1_3 + 120 p_1_4 + 8659.4970072739416 z_1_1 + 8659.4970072739416 z_1_3 + 8659.4970072739416 z_1_4 <= 27038.994014547883
 c5378: 120 p_1_1 + 120 p_1_3 + 120 p_1_5 + 10477.746605616139 z_1_1 + 10477.746605616139 z_1_3 + 10477.746605616139 z_1_5 <= 32235.493211232279
 c5379: 120 p_1_1 + 120 p_1_3 + 120 p_1_6 + 7938.4312142878753 z_1_1 + 7938.4312142878753 z_1_3 + 7938.4312142878753 z_1_6 <= 24876.862428575747
 c5380: 120 p_1_1 + 120 p_1_3 + 120 p_1_7 + 8674.4762187380329 z_1_1 + 8674.4762187380329 z_1_3 + 8674.4762187380329 z_1_7 <= 27068.952437476066
 c5381: 120 p_1_1 + 120 p_1_3 + 120 p_1_8 + 8338.8921701226791 z_1_1 + 8338.8921701226791 z_1_3 + 8338.8921701226791 z_1_8 <= 25797.784340245358
 c5382: 120 p_1_1 + 120 p_1_3 + 120 p_1_9 + 8056.7428469538263 z_1_1 + 8056.7428469538263 z_1_3 + 8056.7428469538263 z_1_9 <= 25233.485693907653
 c5383: 120 p_1_1 + 120 p_1_10 + 120 p_1_3 + 7954.0682516465013 z_1_1 + 7954.0682516465013 z_1_10 + 7954.0682516465013 z_1_3 <= 24908.136503293001
 c5384: 120 p_1_1 + 120 p_1_4 + 120 p_1_5 + 8059.5191944188136 z_1_1 + 8059.5191944188136 z_1_4 + 8059.5191944188136 z_1_5 <= 25479.038388837627
 c5385: 120 p_1_1 + 120 p_1_4 + 120 p_1_6 + 5850.3482547781787 z_1_1 + 5850.3482547781787 z_1_4 + 5850.3482547781787 z_1_6 <= 18780.696509556357
 c5386: 120 p_1_1 + 120 p_1_4 + 120 p_1_7 + 6149.5560032629091 z_1_1 + 6149.5560032629091 z_1_4 + 6149.5560032629091 z_1_7 <= 20099.112006525822
 c5387: 120 p_1_1 + 120 p_1_4 + 120 p_1_8 + 5954.4033537962669 z_1_1 + 5954.4033537962669 z_1_4 + 5954.4033537962669 z_1_8 <= 19108.806707592532
 c5388: 120 p_1_1 + 120 p_1_4 + 120 p_1_9 + 5918.4640487473316 z_1_1 + 5918.4640487473316 z_1_4 + 5918.4640487473316 z_1_9 <= 19036.928097494667
 c5389: 120 p_1_1 + 120 p_1_10 + 120 p_1_4 + 5429.1480361713784 z_1_1 + 5429.1480361713784 z_1_10 + 5429.1480361713784 z_1_4 <= 17938.296072342757
 c5390: 120 p_1_1 + 120 p_1_5 + 120 p_1_6 + 7676.7597501496066 z_1_1 + 7676.7597501496066 z_1_5 + 7676.7597501496066 z_1_6 <= 23993.519500299215
 c5391: 120 p_1_1 + 120 p_1_5 + 120 p_1_7 + 8066.8120037332974 z_1_1 + 8066.8120037332974 z_1_5 + 8066.8120037332974 z_1_7 <= 25493.624007466591
 c5392: 120 p_1_1 + 120 p_1_5 + 120 p_1_8 + 7508.4629395007723 z_1_1 + 7508.4629395007723 z_1_5 + 7508.4629395007723 z_1_8 <= 23776.925879001545
 c5393: 120 p_1_1 + 120 p_1_5 + 120 p_1_9 + 7785.8051113240053 z_1_1 + 7785.8051113240053 z_1_5 + 7785.8051113240053 z_1_9 <= 24331.610222648007
 c5394: 120 p_1_1 + 120 p_1_10 + 120 p_1_5 + 7336.9843977132659 z_1_1 + 7336.9843977132659 z_1_10 + 7336.9843977132659 z_1_5 <= 23313.968795426532
 c5395: 120 p_1_1 + 120 p_1_6 + 120 p_1_7 + 5867.5055428001797 z_1_1 + 5867.5055428001797 z_1_6 + 5867.5055428001797 z_1_7 <= 18815.011085600359
 c5396: 120 p_1_1 + 120 p_1_6 + 120 p_1_8 + 5541.5056736166825 z_1_1 + 5541.5056736166825 z_1_6 + 5541.5056736166825 z_1_8 <= 17563.011347233369
 c5397: 120 p_1_1 + 120 p_1_6 + 120 p_1_9 + 5274.2684398111542 z_1_1 + 5274.2684398111542 z_1_6 + 5274.2684398111542 z_1_9 <= 17028.536879622308
 c5398: 120 p_1_1 + 120 p_1_10 + 120 p_1_6 + 5147.0975757086489 z_1_1 + 5147.0975757086489 z_1_10 + 5147.0975757086489 z_1_6 <= 16654.195151417298
 c5399: 120 p_1_1 + 120 p_1_7 + 120 p_1_8 + 5961.8859082646668 z_1_1 + 5961.8859082646668 z_1_7 + 5961.8859082646668 z_1_8 <= 19123.771816529334
 c5400: 120 p_1_1 + 120 p_1_7 + 120 p_1_9 + 5933.2706039689665 z_1_1 + 5933.2706039689665 z_1_7 + 5933.2706039689665 z_1_9 <= 19066.541207937935
 c5401: 120 p_1_1 + 120 p_1_10 + 120 p_1_7 + 5433.47374984828 z_1_1 + 5433.47374984828 z_1_10 + 5433.47374984828 z_1_7 <= 17946.947499696562
 c5402: 120 p_1_1 + 120 p_1_8 + 120 p_1_9 + 5656.0962183996244 z_1_1 + 5656.0962183996244 z_1_8 + 5656.0962183996244 z_1_9 <= 17912.192436799251
 c5403: 120 p_1_1 + 120 p_1_10 + 120 p_1_8 + 5232.2757802873393 z_1_1 + 5232.2757802873393 z_1_10 + 5232.2757802873393 z_1_8 <= 16944.55156057468
 c5404: 120 p_1_1 + 120 p_1_10 + 120 p_1_9 + 5212.8626368774367 z_1_1 + 5212.8626368774367 z_1_10 + 5212.8626368774367 z_1_9 <= 16905.725273754873
 c5405: 120 p_1_2 + 120 p_1_3 + 120 p_1_4 + 11758.251621984582 z_1_2 + 11758.251621984582 z_1_3 + 11758.251621984582 z_1_4 <= 36236.503243969157
 c5406: 120 p_1_2 + 120 p_1_3 + 120 p_1_5 + 12922.761870895692 z_1_2 + 12922.761870895692 z_1_3 + 12922.761870895692 z_1_5 <= 40125.523741791381
 c5407: 120 p_1_2 + 120 p_1_3 + 120 p_1_6 + 10641.404467928121 z_1_2 + 10641.404467928121 z_1_3 + 10641.404467928121 z_1_6 <= 33282.808935856243
 c5408: 120 p_1_2 + 120 p_1_3 + 120 p_1_7 + 12024.79901403348 z_1_2 + 12024.79901403348 z_1_3 + 12024.79901403348 z_1_7 <= 36769.598028066961
 c5409: 120 p_1_2 + 120 p_1_3 + 120 p_1_8 + 10759.810349100497 z_1_2 + 10759.810349100497 z_1_3 + 10759.810349100497 z_1_8 <= 33639.620698200997
 c5410: 120 p_1_2 + 120 p_1_3 + 120 p_1_9 + 10779.022084497508 z_1_2 + 10779.022084497508 z_1_3 + 10779.022084497508 z_1_9 <= 33678.044168995017
 c5411: 120 p_1_10 + 120 p_1_2 + 120 p_1_3 + 11137.251299358675 z_1_10 + 11137.251299358675 z_1_2 + 11137.251299358675 z_1_3 <= 34274.50259871735
 c5412: 120 p_1_2 + 120 p_1_4 + 120 p_1_5 + 10913.081080678685 z_1_2 + 10913.081080678685 z_1_4 + 10913.081080678685 z_1_5 <= 34186.162161357373
 c5413: 120 p_1_2 + 120 p_1_4 + 120 p_1_6 + 8958.0117915747142 z_1_2 + 8958.0117915747142 z_1_4 + 8958.0117915747142 z_1_6 <= 27996.023583149428
 c5414: 120 p_1_2 + 120 p_1_4 + 120 p_1_7 + 9593.1084920118883 z_1_2 + 9593.1084920118883 z_1_4 + 9593.1084920118883 z_1_7 <= 29986.216984023777
 c5415: 120 p_1_2 + 120 p_1_4 + 120 p_1_8 + 8772.1311927668648 z_1_2 + 8772.1311927668648 z_1_4 + 8772.1311927668648 z_1_8 <= 27744.26238553373
 c5416: 120 p_1_2 + 120 p_1_4 + 120 p_1_9 + 9072.9329304155362 z_1_2 + 9072.9329304155362 z_1_4 + 9072.9329304155362 z_1_9 <= 28345.865860831072
 c5417: 120 p_1_10 + 120 p_1_2 + 120 p_1_4 + 8728.2874002027384 z_1_10 + 8728.2874002027384 z_1_2 + 8728.2874002027384 z_1_4 <= 27536.574800405477
 c5418: 120 p_1_2 + 120 p_1_5 + 120 p_1_6 + 10105.236464282914 z_1_2 + 10105.236464282914 z_1_5 + 10105.236464282914 z_1_6 <= 31850.472928565832
 c5419: 120 p_1_2 + 120 p_1_5 + 120 p_1_7 + 11145.468598828556 z_1_2 + 11145.468598828556 z_1_5 + 11145.468598828556 z_1_7 <= 34650.937197657113
 c5420: 120 p_1_2 + 120 p_1_5 + 120 p_1_8 + 9884.8420739099492 z_1_2 + 9884.8420739099492 z_1_5 + 9884.8420739099492 z_1_8 <= 31529.684147819898
 c5421: 120 p_1_2 + 120 p_1_5 + 120 p_1_9 + 10256.181548859491 z_1_2 + 10256.181548859491 z_1_5 + 10256.181548859491 z_1_9 <= 32272.363097718982
 c5422: 120 p_1_10 + 120 p_1_2 + 120 p_1_5 + 10240.281390284752 z_1_10 + 10240.281390284752 z_1_2 + 10240.281390284752 z_1_5 <= 32120.562780569504
 c5423: 120 p_1_2 + 120 p_1_6 + 120 p_1_7 + 9224.9131012897014 z_1_2 + 9224.9131012897014 z_1_6 + 9224.9131012897014 z_1_7 <= 28529.826202579403
 c5424: 120 p_1_2 + 120 p_1_6 + 120 p_1_8 + 7942.9601998336775 z_1_2 + 7942.9601998336775 z_1_6 + 7942.9601998336775 z_1_8 <= 25365.920399667357
 c5425: 120 p_1_2 + 120 p_1_6 + 120 p_1_9 + 8005.4565994407321 z_1_2 + 8005.4565994407321 z_1_6 + 8005.4565994407321 z_1_9 <= 25490.913198881466
 c5426: 120 p_1_10 + 120 p_1_2 + 120 p_1_6 + 8319.725892745897 z_1_10 + 8319.725892745897 z_1_2 + 8319.725892745897 z_1_6 <= 25999.451785491794
 c5427: 120 p_1_2 + 120 p_1_7 + 120 p_1_8 + 9004.5187109167382 z_1_2 + 9004.5187109167382 z_1_7 + 9004.5187109167382 z_1_8 <= 28209.037421833476
 c5428: 120 p_1_2 + 120 p_1_7 + 120 p_1_9 + 9339.3284288082996 z_1_2 + 9339.3284288082996 z_1_7 + 9339.3284288082996 z_1_9 <= 28878.656857616596
 c5429: 120 p_1_10 + 120 p_1_2 + 120 p_1_7 + 8862.8037347003792 z_1_10 + 8862.8037347003792 z_1_2 + 8862.8037347003792 z_1_7 <= 27805.607469400762
 c5430: 120 p_1_2 + 120 p_1_8 + 120 p_1_9 + 8096.3203812808788 z_1_2 + 8096.3203812808788 z_1_8 + 8096.3203812808788 z_1_9 <= 25792.640762561758
 c5431: 120 p_1_10 + 120 p_1_2 + 120 p_1_8 + 8099.3315023729338 z_1_10 + 8099.3315023729338 z_1_2 + 8099.3315023729338 z_1_8 <= 25678.663004745868
 c5432: 120 p_1_10 + 120 p_1_2 + 120 p_1_9 + 8471.0659354506133 z_1_10 + 8471.0659354506133 z_1_2 + 8471.0659354506133 z_1_9 <= 26422.131870901227
 c5433: 120 p_1_3 + 120 p_1_4 + 120 p_1_5 + 10823.555437060873 z_1_3 + 10823.555437060873 z_1_4 + 10823.555437060873 z_1_5 <= 33527.110874121747
 c5434: 120 p_1_3 + 120 p_1_4 + 120 p_1_6 + 8284.2400457326112 z_1_3 + 8284.2400457326112 z_1_4 + 8284.2400457326112 z_1_6 <= 26168.480091465222
 c5435: 120 p_1_3 + 120 p_1_4 + 120 p_1_7 + 9270.1456737335538 z_1_3 + 9270.1456737335538 z_1_4 + 9270.1456737335538 z_1_7 <= 28860.291347467108
 c5436: 120 p_1_3 + 120 p_1_4 + 120 p_1_8 + 8684.7010015674132 z_1_3 + 8684.7010015674132 z_1_4 + 8684.7010015674132 z_1_8 <= 27089.402003134826
 c5437: 120 p_1_3 + 120 p_1_4 + 120 p_1_9 + 8402.724334641016 z_1_3 + 8402.724334641016 z_1_4 + 8402.724334641016 z_1_9 <= 26525.448669282032
 c5438: 120 p_1_10 + 120 p_1_3 + 120 p_1_4 + 8415.7489956422032 z_1_10 + 8415.7489956422032 z_1_3 + 8415.7489956422032 z_1_4 <= 26431.497991284406
 c5439: 120 p_1_3 + 120 p_1_5 + 120 p_1_6 + 9706.7082830044128 z_1_3 + 9706.7082830044128 z_1_5 + 9706.7082830044128 z_1_6 <= 30573.416566008826
 c5440: 120 p_1_3 + 120 p_1_5 + 120 p_1_7 + 11090.102829109772 z_1_3 + 11090.102829109772 z_1_5 + 11090.102829109772 z_1_7 <= 34060.205658219536
 c5441: 120 p_1_3 + 120 p_1_5 + 120 p_1_8 + 9852.7944118223204 z_1_3 + 9852.7944118223204 z_1_5 + 9852.7944118223204 z_1_8 <= 30985.588823644641
 c5442: 120 p_1_3 + 120 p_1_5 + 120 p_1_9 + 9844.3258995738015 z_1_3 + 9844.3258995738015 z_1_5 + 9844.3258995738015 z_1_9 <= 30968.651799147607
 c5443: 120 p_1_10 + 120 p_1_3 + 120 p_1_5 + 10217.817642203156 z_1_10 + 10217.817642203156 z_1_3 + 10217.817642203156 z_1_5 <= 31595.635284406315
 c5444: 120 p_1_3 + 120 p_1_6 + 120 p_1_7 + 8550.7874377815097 z_1_3 + 8550.7874377815097 z_1_6 + 8550.7874377815097 z_1_7 <= 26701.574875563019
 c5445: 120 p_1_3 + 120 p_1_6 + 120 p_1_8 + 7567.8538475109535 z_1_3 + 7567.8538475109535 z_1_6 + 7567.8538475109535 z_1_8 <= 24135.707695021909
 c5446: 120 p_1_3 + 120 p_1_6 + 120 p_1_9 + 7305.0105082455375 z_1_3 + 7305.0105082455375 z_1_6 + 7305.0105082455375 z_1_9 <= 23610.021016491075
 c5447: 120 p_1_10 + 120 p_1_3 + 120 p_1_6 + 7681.7067967633047 z_1_10 + 7681.7067967633047 z_1_3 + 7681.7067967633047 z_1_6 <= 24243.413593526609
 c5448: 120 p_1_3 + 120 p_1_7 + 120 p_1_8 + 8951.2483936163117 z_1_3 + 8951.2483936163117 z_1_7 + 8951.2483936163117 z_1_8 <= 27622.496787232623
 c5449: 120 p_1_3 + 120 p_1_7 + 120 p_1_9 + 8669.1198330337793 z_1_3 + 8669.1198330337793 z_1_7 + 8669.1198330337793 z_1_9 <= 27058.239666067559
 c5450: 120 p_1_10 + 120 p_1_3 + 120 p_1_7 + 8559.904390338701 z_1_10 + 8559.904390338701 z_1_3 + 8559.904390338701 z_1_7 <= 26719.808780677406
 c5451: 120 p_1_3 + 120 p_1_8 + 120 p_1_9 + 7705.4714640803413 z_1_3 + 7705.4714640803413 z_1_8 + 7705.4714640803413 z_1_9 <= 24530.942928160679
 c5452: 120 p_1_10 + 120 p_1_3 + 120 p_1_8 + 8082.1677525981095 z_1_10 + 8082.1677525981095 z_1_3 + 8082.1677525981095 z_1_8 <= 25164.335505196217
 c5453: 120 p_1_10 + 120 p_1_3 + 120 p_1_9 + 7801.5464305146188 z_1_10 + 7801.5464305146188 z_1_3 + 7801.5464305146188 z_1_9 <= 24603.092861029236
 c5454: 120 p_1_4 + 120 p_1_5 + 120 p_1_6 + 8020.3905050364301 z_1_4 + 8020.3905050364301 z_1_5 + 8020.3905050364301 z_1_6 <= 25280.78101007286
 c5455: 120 p_1_4 + 120 p_1_5 + 120 p_1_7 + 8666.6148717145752 z_1_4 + 8666.6148717145752 z_1_5 + 8666.6148717145752 z_1_7 <= 27293.229743429147
 c5456: 120 p_1_4 + 120 p_1_5 + 120 p_1_8 + 7872.8926661318656 z_1_4 + 7872.8926661318656 z_1_5 + 7872.8926661318656 z_1_8 <= 25105.785332263731
 c5457: 120 p_1_4 + 120 p_1_5 + 120 p_1_9 + 8131.7865990111959 z_1_4 + 8131.7865990111959 z_1_5 + 8131.7865990111959 z_1_9 <= 25623.57319802239
 c5458: 120 p_1_10 + 120 p_1_4 + 120 p_1_5 + 7802.798554694723 z_1_10 + 7802.798554694723 z_1_4 + 7802.798554694723 z_1_5 <= 24845.597109389444
 c5459: 120 p_1_4 + 120 p_1_6 + 120 p_1_7 + 6460.996921237791 z_1_4 + 6460.996921237791 z_1_6 + 6460.996921237791 z_1_7 <= 20601.993842475582
 c5460: 120 p_1_4 + 120 p_1_6 + 120 p_1_8 + 5885.1364285035061 z_1_4 + 5885.1364285035061 z_1_6 + 5885.1364285035061 z_1_8 <= 18850.272857007014
 c5461: 120 p_1_4 + 120 p_1_6 + 120 p_1_9 + 5620.2499274983438 z_1_4 + 5620.2499274983438 z_1_6 + 5620.2499274983438 z_1_9 <= 18320.499854996691
 c5462: 120 p_1_10 + 120 p_1_4 + 120 p_1_6 + 5606.6002431464403 z_1_10 + 5606.6002431464403 z_1_4 + 5606.6002431464403 z_1_6 <= 18173.200486292881
 c5463: 120 p_1_4 + 120 p_1_7 + 120 p_1_8 + 6561.6887762459446 z_1_4 + 6561.6887762459446 z_1_7 + 6561.6887762459446 z_1_8 <= 20923.377552491889
 c5464: 120 p_1_4 + 120 p_1_7 + 120 p_1_9 + 6529.1127152069448 z_1_4 + 6529.1127152069448 z_1_7 + 6529.1127152069448 z_1_9 <= 20858.225430413888
 c5465: 120 p_1_10 + 120 p_1_4 + 120 p_1_7 + 6033.2766178295587 z_1_10 + 6033.2766178295587 z_1_4 + 6033.2766178295587 z_1_7 <= 19746.553235659121
 c5466: 120 p_1_4 + 120 p_1_8 + 120 p_1_9 + 6002.0777060868149 z_1_4 + 6002.0777060868149 z_1_8 + 6002.0777060868149 z_1_9 <= 19204.155412173634
 c5467: 120 p_1_10 + 120 p_1_4 + 120 p_1_8 + 5698.0899372687963 z_1_10 + 5698.0899372687963 z_1_4 + 5698.0899372687963 z_1_8 <= 18476.179874537593
 c5468: 120 p_1_10 + 120 p_1_4 + 120 p_1_9 + 5674.7160371155933 z_1_10 + 5674.7160371155933 z_1_4 + 5674.7160371155933 z_1_9 <= 18429.43207423119
 c5469: 120 p_1_5 + 120 p_1_6 + 120 p_1_7 + 8287.9715307538299 z_1_5 + 8287.9715307538299 z_1_6 + 8287.9715307538299 z_1_7 <= 25815.943061507664
 c5470: 120 p_1_5 + 120 p_1_6 + 120 p_1_8 + 7035.9442625555012 z_1_5 + 7035.9442625555012 z_1_6 + 7035.9442625555012 z_1_8 <= 22711.888525111
 c5471: 120 p_1_5 + 120 p_1_6 + 120 p_1_9 + 7067.835312902449 z_1_5 + 7067.835312902449 z_1_6 + 7067.835312902449 z_1_9 <= 22775.670625804902
 c5472: 120 p_1_10 + 120 p_1_5 + 120 p_1_6 + 7397.3671339758012 z_1_10 + 7397.3671339758012 z_1_5 + 7397.3671339758012 z_1_6 <= 23314.734267951604
 c5473: 120 p_1_5 + 120 p_1_7 + 120 p_1_8 + 8111.7605266174523 z_1_5 + 8111.7605266174523 z_1_7 + 8111.7605266174523 z_1_8 <= 25583.521053234908
 c5474: 120 p_1_5 + 120 p_1_7 + 120 p_1_9 + 8398.1820974039601 z_1_5 + 8398.1820974039601 z_1_7 + 8398.1820974039601 z_1_9 <= 26156.364194807924
 c5475: 120 p_1_10 + 120 p_1_5 + 120 p_1_7 + 7937.3148891923629 z_1_10 + 7937.3148891923629 z_1_5 + 7937.3148891923629 z_1_7 <= 25114.629778384726
 c5476: 120 p_1_5 + 120 p_1_8 + 120 p_1_9 + 7189.3044440027033 z_1_5 + 7189.3044440027033 z_1_8 + 7189.3044440027033 z_1_9 <= 23138.608888005405
 c5477: 120 p_1_10 + 120 p_1_5 + 120 p_1_8 + 7207.5780928629447 z_1_10 + 7207.5780928629447 z_1_5 + 7207.5780928629447 z_1_8 <= 23055.156185725886
 c5478: 120 p_1_10 + 120 p_1_5 + 120 p_1_9 + 7530.6086948847988 z_1_10 + 7530.6086948847988 z_1_5 + 7530.6086948847988 z_1_9 <= 23701.217389769598
 c5479: 120 p_1_6 + 120 p_1_7 + 120 p_1_8 + 6152.717454220905 z_1_6 + 6152.717454220905 z_1_7 + 6152.717454220905 z_1_8 <= 19385.43490844181
 c5480: 120 p_1_6 + 120 p_1_7 + 120 p_1_9 + 5886.6454258911081 z_1_6 + 5886.6454258911081 z_1_7 + 5886.6454258911081 z_1_9 <= 18853.290851782218
 c5481: 120 p_1_10 + 120 p_1_6 + 120 p_1_7 + 5751.7892715114385 z_1_10 + 5751.7892715114385 z_1_6 + 5751.7892715114385 z_1_7 <= 18463.578543022875
 c5482: 120 p_1_6 + 120 p_1_8 + 120 p_1_9 + 4932.581236369524 z_1_6 + 4932.581236369524 z_1_8 + 4932.581236369524 z_1_9 <= 16345.162472739048
 c5483: 120 p_1_10 + 120 p_1_6 + 120 p_1_8 + 5268.2020532745382 z_1_10 + 5268.2020532745382 z_1_6 + 5268.2020532745382 z_1_8 <= 16896.404106549078
 c5484: 120 p_1_10 + 120 p_1_6 + 120 p_1_9 + 5019.0720233719467 z_1_10 + 5019.0720233719467 z_1_6 + 5019.0720233719467 z_1_9 <= 16398.144046743892
 c5485: 120 p_1_7 + 120 p_1_8 + 120 p_1_9 + 6268.4732044795783 z_1_7 + 6268.4732044795783 z_1_8 + 6268.4732044795783 z_1_9 <= 19736.946408959157
 c5486: 120 p_1_10 + 120 p_1_7 + 120 p_1_8 + 5832.6062717664372 z_1_10 + 5832.6062717664372 z_1_7 + 5832.6062717664372 z_1_8 <= 18745.212543532871
 c5487: 120 p_1_10 + 120 p_1_7 + 120 p_1_9 + 5818.7195381559568 z_1_10 + 5818.7195381559568 z_1_7 + 5818.7195381559568 z_1_9 <= 18717.439076311912
 c5488: 120 p_1_10 + 120 p_1_8 + 120 p_1_9 + 5400.8998019604169 z_1_10 + 5400.8998019604169 z_1_8 + 5400.8998019604169 z_1_9 <= 17281.799603920834
 c5489: 120 p_2_1 + 120 p_2_2 + 7780.1383806232634 z_2_1 + 7780.1383806232634 z_2_2 <= 16780.138380623262
 c5490: 120 p_2_1 + 120 p_2_3 + 7456.742800803203 z_2_1 + 7456.742800803203 z_2_3 <= 15976.742800803204
 c5491: 120 p_2_1 + 120 p_2_4 + 4931.8225853280801 z_2_1 + 4931.8225853280801 z_2_4 <= 11531.82258532808
 c5492: 120 p_2_1 + 120 p_2_5 + 6852.63157496232 z_2_1 + 6852.63157496232 z_2_5 <= 15012.631574962321
 c5493: 120 p_2_1 + 120 p_2_6 + 4649.7721248653506 z_2_1 + 4649.7721248653506 z_2_6 <= 10529.772124865351
 c5494: 120 p_2_1 + 120 p_2_7 + 4942.6683838064146 z_2_1 + 4942.6683838064146 z_2_7 <= 11542.668383806415
 c5495: 120 p_2_1 + 120 p_2_8 + 4747.5157343397723 z_2_1 + 4747.5157343397723 z_2_8 <= 10747.515734339771
 c5496: 120 p_2_1 + 120 p_2_9 + 4715.5371860341374 z_2_1 + 4715.5371860341374 z_2_9 <= 10715.537186034137
 c5497: 120 p_2_1 + 120 p_2_10 + 4222.2604167148847 z_2_1 + 4222.2604167148847 z_2_10 <= 10102.260416714886
 c5498: 120 p_2_2 + 120 p_2_3 + 10159.716054443448 z_2_2 + 10159.716054443448 z_2_3 <= 21679.716054443448
 c5499: 120 p_2_2 + 120 p_2_4 + 8150.0352642264406 z_2_2 + 8150.0352642264406 z_2_4 <= 17750.035264226441
 c5500: 120 p_2_2 + 120 p_2_5 + 9262.746145369525 z_2_2 + 9262.746145369525 z_2_5 <= 20422.746145369525
 c5501: 120 p_2_2 + 120 p_2_6 + 7342.1906478306701 z_2_2 + 7342.1906478306701 z_2_6 <= 16222.19064783067
 c5502: 120 p_2_2 + 120 p_2_7 + 8382.4227823763122 z_2_2 + 8382.4227823763122 z_2_7 <= 17982.422782376314
 c5503: 120 p_2_2 + 120 p_2_8 + 7121.796257457705 z_2_2 + 7121.796257457705 z_2_8 <= 16121.796257457705
 c5504: 120 p_2_2 + 120 p_2_9 + 7493.5306905353846 z_2_2 + 7493.5306905353846 z_2_9 <= 16493.530690535383
 c5505: 120 p_2_10 + 120 p_2_2 + 7477.2355738325077 z_2_10 + 7477.2355738325077 z_2_2 <= 16357.235573832508
 c5506: 120 p_2_3 + 120 p_2_4 + 7802.551632247938 z_2_3 + 7802.551632247938 z_2_4 <= 16922.551632247938
 c5507: 120 p_2_3 + 120 p_2_5 + 9225.0198695197396 z_2_3 + 9225.0198695197396 z_2_5 <= 19905.01986951974
 c5508: 120 p_2_3 + 120 p_2_6 + 6685.7044781914774 z_2_3 + 6685.7044781914774 z_2_6 <= 15085.704478191477
 c5509: 120 p_2_3 + 120 p_2_7 + 8069.0990242968364 z_2_3 + 8069.0990242968364 z_2_7 <= 17189.099024296836
 c5510: 120 p_2_3 + 120 p_2_8 + 7086.1654340262812 z_2_3 + 7086.1654340262812 z_2_8 <= 15606.165434026281
 c5511: 120 p_2_3 + 120 p_2_9 + 6823.3220947608652 z_2_3 + 6823.3220947608652 z_2_9 <= 15343.322094760866
 c5512: 120 p_2_10 + 120 p_2_3 + 7200.0183832786324 z_2_10 + 7200.0183832786324 z_2_3 <= 15600.018383278632
 c5513: 120 p_2_4 + 120 p_2_5 + 7217.0613015934132 z_2_4 + 7217.0613015934132 z_2_5 <= 15977.061301593414
 c5514: 120 p_2_4 + 120 p_2_6 + 4993.4028797521742 z_2_4 + 4993.4028797521742 z_2_6 <= 11473.402879752175
 c5515: 120 p_2_4 + 120 p_2_7 + 5542.4712517876933 z_2_4 + 5542.4712517876933 z_2_7 <= 12742.471251787694
 c5516: 120 p_2_4 + 120 p_2_8 + 5110.5162117731234 z_2_4 + 5110.5162117731234 z_2_8 <= 11710.516211773123
 c5517: 120 p_2_4 + 120 p_2_9 + 5061.518673721328 z_2_4 + 5061.518673721328 z_2_9 <= 11661.518673721328
 c5518: 120 p_2_10 + 120 p_2_4 + 4688.0745736963418 z_2_10 + 4688.0745736963418 z_2_4 <= 11168.074573696342
 c5519: 120 p_2_5 + 120 p_2_6 + 6404.569361292386 z_2_5 + 6404.569361292386 z_2_6 <= 14444.569361292386
 c5520: 120 p_2_5 + 120 p_2_7 + 7455.9291620789991 z_2_5 + 7455.9291620789991 z_2_7 <= 16215.929162078999
 c5521: 120 p_2_5 + 120 p_2_8 + 6214.7803201795296 z_2_5 + 6214.7803201795296 z_2_8 <= 14374.780320179529
 c5522: 120 p_2_5 + 120 p_2_9 + 6552.3843591310451 z_2_5 + 6552.3843591310451 z_2_9 <= 14712.384359131045
 c5523: 120 p_2_10 + 120 p_2_5 + 6551.7467283244923 z_2_10 + 6551.7467283244923 z_2_5 <= 14591.746728324491
 c5524: 120 p_2_6 + 120 p_2_7 + 5260.9839054695731 z_2_6 + 5260.9839054695731 z_2_7 <= 11740.983905469573
 c5525: 120 p_2_6 + 120 p_2_8 + 4269.315284759462 z_2_6 + 4269.315284759462 z_2_8 <= 10149.315284759461
 c5526: 120 p_2_6 + 120 p_2_9 + 4040.847687618193 z_2_6 + 4040.847687618193 z_2_9 <= 9920.847687618194
 c5527: 120 p_2_10 + 120 p_2_6 + 4385.0216914054199 z_2_10 + 4385.0216914054199 z_2_6 <= 10145.02169140542
 c5528: 120 p_2_7 + 120 p_2_8 + 5351.0030666103685 z_2_7 + 5351.0030666103685 z_2_8 <= 11951.003066610368
 c5529: 120 p_2_7 + 120 p_2_9 + 5327.9141721140913 z_2_7 + 5327.9141721140913 z_2_9 <= 11927.914172114091
 c5530: 120 p_2_10 + 120 p_2_7 + 4822.5909081939826 z_2_10 + 4822.5909081939826 z_2_7 <= 11302.590908193983
 c5531: 120 p_2_8 + 120 p_2_9 + 4422.6754662066633 z_2_8 + 4422.6754662066633 z_2_9 <= 10422.675466206663
 c5532: 120 p_2_10 + 120 p_2_8 + 4447.0381108985657 z_2_10 + 4447.0381108985657 z_2_8 <= 10327.038110898566
 c5533: 120 p_2_10 + 120 p_2_9 + 4460.34076959493 z_2_10 + 4460.34076959493 z_2_9 <= 10340.34076959493
 c5534: 120 p_2_1 + 120 p_2_2 + 120 p_2_3 + 11412.442790539848 z_2_1 + 11412.442790539848 z_2_2 + 11412.442790539848 z_2_3 <= 34944.885581079696
 c5535: 120 p_2_1 + 120 p_2_2 + 120 p_2_4 + 8987.0260000797571 z_2_1 + 8987.0260000797571 z_2_2 + 8987.0260000797571 z_2_4 <= 28174.052000159514
 c5536: 120 p_2_1 + 120 p_2_2 + 120 p_2_5 + 10543.184197075509 z_2_1 + 10543.184197075509 z_2_2 + 10543.184197075509 z_2_5 <= 32846.368394151017
 c5537: 120 p_2_1 + 120 p_2_2 + 120 p_2_6 + 8614.3810366878897 z_2_1 + 8614.3810366878897 z_2_2 + 8614.3810366878897 z_2_6 <= 26708.762073375779
 c5538: 120 p_2_1 + 120 p_2_2 + 120 p_2_7 + 8993.3056240306105 z_2_1 + 8993.3056240306105 z_2_2 + 8993.3056240306105 z_2_7 <= 28186.611248061221
 c5539: 120 p_2_1 + 120 p_2_2 + 120 p_2_8 + 8402.2343091636903 z_2_1 + 8402.2343091636903 z_2_2 + 8402.2343091636903 z_2_8 <= 26404.468618327381
 c5540: 120 p_2_1 + 120 p_2_2 + 120 p_2_9 + 8726.9514427283466 z_2_1 + 8726.9514427283466 z_2_2 + 8726.9514427283466 z_2_9 <= 27053.902885456693
 c5541: 120 p_2_1 + 120 p_2_10 + 120 p_2_2 + 8262.4732432212804 z_2_1 + 8262.4732432212804 z_2_10 + 8262.4732432212804 z_2_2 <= 26004.946486442561
 c5542: 120 p_2_1 + 120 p_2_3 + 120 p_2_4 + 8659.4970072739416 z_2_1 + 8659.4970072739416 z_2_3 + 8659.4970072739416 z_2_4 <= 27038.994014547883
 c5543: 120 p_2_1 + 120 p_2_3 + 120 p_2_5 + 10477.746605616139 z_2_1 + 10477.746605616139 z_2_3 + 10477.746605616139 z_2_5 <= 32235.493211232279
 c5544: 120 p_2_1 + 120 p_2_3 + 120 p_2_6 + 7938.4312142878753 z_2_1 + 7938.4312142878753 z_2_3 + 7938.4312142878753 z_2_6 <= 24876.862428575747
 c5545: 120 p_2_1 + 120 p_2_3 + 120 p_2_7 + 8674.4762187380329 z_2_1 + 8674.4762187380329 z_2_3 + 8674.4762187380329 z_2_7 <= 27068.952437476066
 c5546: 120 p_2_1 + 120 p_2_3 + 120 p_2_8 + 8338.8921701226791 z_2_1 + 8338.8921701226791 z_2_3 + 8338.8921701226791 z_2_8 <= 25797.784340245358
 c5547: 120 p_2_1 + 120 p_2_3 + 120 p_2_9 + 8056.7428469538263 z_2_1 + 8056.7428469538263 z_2_3 + 8056.7428469538263 z_2_9 <= 25233.485693907653
 c5548: 120 p_2_1 + 120 p_2_10 + 120 p_2_3 + 7954.0682516465013 z_2_1 + 7954.0682516465013 z_2_10 + 7954.0682516465013 z_2_3 <= 24908.136503293001
 c5549: 120 p_2_1 + 120 p_2_4 + 120 p_2_5 + 8059.5191944188136 z_2_1 + 8059.5191944188136 z_2_4 + 8059.5191944188136 z_2_5 <= 25479.038388837627
 c5550: 120 p_2_1 + 120 p_2_4 + 120 p_2_6 + 5850.3482547781787 z_2_1 + 5850.3482547781787 z_2_4 + 5850.3482547781787 z_2_6 <= 18780.696509556357
 c5551: 120 p_2_1 + 120 p_2_4 + 120 p_2_7 + 6149.5560032629091 z_2_1 + 6149.5560032629091 z_2_4 + 6149.5560032629091 z_2_7 <= 20099.112006525822
 c5552: 120 p_2_1 + 120 p_2_4 + 120 p_2_8 + 5954.4033537962669 z_2_1 + 5954.4033537962669 z_2_4 + 5954.4033537962669 z_2_8 <= 19108.806707592532
 c5553: 120 p_2_1 + 120 p_2_4 + 120 p_2_9 + 5918.4640487473316 z_2_1 + 5918.4640487473316 z_2_4 + 5918.4640487473316 z_2_9 <= 19036.928097494667
 c5554: 120 p_2_1 + 120 p_2_10 + 120 p_2_4 + 5429.1480361713784 z_2_1 + 5429.1480361713784 z_2_10 + 5429.1480361713784 z_2_4 <= 17938.296072342757
 c5555: 120 p_2_1 + 120 p_2_5 + 120 p_2_6 + 7676.7597501496066 z_2_1 + 7676.7597501496066 z_2_5 + 7676.7597501496066 z_2_6 <= 23993.519500299215
 c5556: 120 p_2_1 + 120 p_2_5 + 120 p_2_7 + 8066.8120037332974 z_2_1 + 8066.8120037332974 z_2_5 + 8066.8120037332974 z_2_7 <= 25493.624007466591
 c5557: 120 p_2_1 + 120 p_2_5 + 120 p_2_8 + 7508.4629395007723 z_2_1 + 7508.4629395007723 z_2_5 + 7508.4629395007723 z_2_8 <= 23776.925879001545
 c5558: 120 p_2_1 + 120 p_2_5 + 120 p_2_9 + 7785.8051113240053 z_2_1 + 7785.8051113240053 z_2_5 + 7785.8051113240053 z_2_9 <= 24331.610222648007
 c5559: 120 p_2_1 + 120 p_2_10 + 120 p_2_5 + 7336.9843977132659 z_2_1 + 7336.9843977132659 z_2_10 + 7336.9843977132659 z_2_5 <= 23313.968795426532
 c5560: 120 p_2_1 + 120 p_2_6 + 120 p_2_7 + 5867.5055428001797 z_2_1 + 5867.5055428001797 z_2_6 + 5867.5055428001797 z_2_7 <= 18815.011085600359
 c5561: 120 p_2_1 + 120 p_2_6 + 120 p_2_8 + 5541.5056736166825 z_2_1 + 5541.5056736166825 z_2_6 + 5541.5056736166825 z_2_8 <= 17563.011347233369
 c5562: 120 p_2_1 + 120 p_2_6 + 120 p_2_9 + 5274.2684398111542 z_2_1 + 5274.2684398111542 z_2_6 + 5274.2684398111542 z_2_9 <= 17028.536879622308
 c5563: 120 p_2_1 + 120 p_2_10 + 120 p_2_6 + 5147.0975757086489 z_2_1 + 5147.0975757086489 z_2_10 + 5147.0975757086489 z_2_6 <= 16654.195151417298
 c5564: 120 p_2_1 + 120 p_2_7 + 120 p_2_8 + 5961.8859082646668 z_2_1 + 5961.8859082646668 z_2_7 + 5961.8859082646668 z_2_8 <= 19123.771816529334
 c5565: 120 p_2_1 + 120 p_2_7 + 120 p_2_9 + 5933.2706039689665 z_2_1 + 5933.2706039689665 z_2_7 + 5933.2706039689665 z_2_9 <= 19066.541207937935
 c5566: 120 p_2_1 + 120 p_2_10 + 120 p_2_7 + 5433.47374984828 z_2_1 + 5433.47374984828 z_2_10 + 5433.47374984828 z_2_7 <= 17946.947499696562
 c5567: 120 p_2_1 + 120 p_2_8 + 120 p_2_9 + 5656.0962183996244 z_2_1 + 5656.0962183996244 z_2_8 + 5656.0962183996244 z_2_9 <= 17912.192436799251
 c5568: 120 p_2_1 + 120 p_2_10 + 120 p_2_8 + 5232.2757802873393 z_2_1 + 5232.2757802873393 z_2_10 + 5232.2757802873393 z_2_8 <= 16944.55156057468
 c5569: 120 p_2_1 + 120 p_2_10 + 120 p_2_9 + 5212.8626368774367 z_2_1 + 5212.8626368774367 z_2_10 + 5212.8626368774367 z_2_9 <= 16905.725273754873
 c5570: 120 p_2_2 + 120 p_2_3 + 120 p_2_4 + 11758.251621984582 z_2_2 + 11758.251621984582 z_2_3 + 11758.251621984582 z_2_4 <= 36236.503243969157
 c5571: 120 p_2_2 + 120 p_2_3 + 120 p_2_5 + 12922.761870895692 z_2_2 + 12922.761870895692 z_2_3 + 12922.761870895692 z_2_5 <= 40125.523741791381
 c5572: 120 p_2_2 + 120 p_2_3 + 120 p_2_6 + 10641.404467928121 z_2_2 + 10641.404467928121 z_2_3 + 10641.404467928121 z_2_6 <= 33282.808935856243
 c5573: 120 p_2_2 + 120 p_2_3 + 120 p_2_7 + 12024.79901403348 z_2_2 + 12024.79901403348 z_2_3 + 12024.79901403348 z_2_7 <= 36769.598028066961
 c5574: 120 p_2_2 + 120 p_2_3 + 120 p_2_8 + 10759.810349100497 z_2_2 + 10759.810349100497 z_2_3 + 10759.810349100497 z_2_8 <= 33639.620698200997
 c5575: 120 p_2_2 + 120 p_2_3 + 120 p_2_9 + 10779.022084497508 z_2_2 + 10779.022084497508 z_2_3 + 10779.022084497508 z_2_9 <= 33678.044168995017
 c5576: 120 p_2_10 + 120 p_2_2 + 120 p_2_3 + 11137.251299358675 z_2_10 + 11137.251299358675 z_2_2 + 11137.251299358675 z_2_3 <= 34274.50259871735
 c5577: 120 p_2_2 + 120 p_2_4 + 120 p_2_5 + 10913.081080678685 z_2_2 + 10913.081080678685 z_2_4 + 10913.081080678685 z_2_5 <= 34186.162161357373
 c5578: 120 p_2_2 + 120 p_2_4 + 120 p_2_6 + 8958.0117915747142 z_2_2 + 8958.0117915747142 z_2_4 + 8958.0117915747142 z_2_6 <= 27996.023583149428
 c5579: 120 p_2_2 + 120 p_2_4 + 120 p_2_7 + 9593.1084920118883 z_2_2 + 9593.1084920118883 z_2_4 + 9593.1084920118883 z_2_7 <= 29986.216984023777
 c5580: 120 p_2_2 + 120 p_2_4 + 120 p_2_8 + 8772.1311927668648 z_2_2 + 8772.1311927668648 z_2_4 + 8772.1311927668648 z_2_8 <= 27744.26238553373
 c5581: 120 p_2_2 + 120 p_2_4 + 120 p_2_9 + 9072.9329304155362 z_2_2 + 9072.9329304155362 z_2_4 + 9072.9329304155362 z_2_9 <= 28345.865860831072
 c5582: 120 p_2_10 + 120 p_2_2 + 120 p_2_4 + 8728.2874002027384 z_2_10 + 8728.2874002027384 z_2_2 + 8728.2874002027384 z_2_4 <= 27536.574800405477
 c5583: 120 p_2_2 + 120 p_2_5 + 120 p_2_6 + 10105.236464282914 z_2_2 + 10105.236464282914 z_2_5 + 10105.236464282914 z_2_6 <= 31850.472928565832
 c5584: 120 p_2_2 + 120 p_2_5 + 120 p_2_7 + 11145.468598828556 z_2_2 + 11145.468598828556 z_2_5 + 11145.468598828556 z_2_7 <= 34650.937197657113
 c5585: 120 p_2_2 + 120 p_2_5 + 120 p_2_8 + 9884.8420739099492 z_2_2 + 9884.8420739099492 z_2_5 + 9884.8420739099492 z_2_8 <= 31529.684147819898
 c5586: 120 p_2_2 + 120 p_2_5 + 120 p_2_9 + 10256.181548859491 z_2_2 + 10256.181548859491 z_2_5 + 10256.181548859491 z_2_9 <= 32272.363097718982
 c5587: 120 p_2_10 + 120 p_2_2 + 120 p_2_5 + 10240.281390284752 z_2_10 + 10240.281390284752 z_2_2 + 10240.281390284752 z_2_5 <= 32120.562780569504
 c5588: 120 p_2_2 + 120 p_2_6 + 120 p_2_7 + 9224.9131012897014 z_2_2 + 9224.9131012897014 z_2_6 + 9224.9131012897014 z_2_7 <= 28529.826202579403
 c5589: 120 p_2_2 + 120 p_2_6 + 120 p_2_8 + 7942.9601998336775 z_2_2 + 7942.9601998336775 z_2_6 + 7942.9601998336775 z_2_8 <= 25365.920399667357
 c5590: 120 p_2_2 + 120 p_2_6 + 120 p_2_9 + 8005.4565994407321 z_2_2 + 8005.4565994407321 z_2_6 + 8005.4565994407321 z_2_9 <= 25490.913198881466
 c5591: 120 p_2_10 + 120 p_2_2 + 120 p_2_6 + 8319.725892745897 z_2_10 + 8319.725892745897 z_2_2 + 8319.725892745897 z_2_6 <= 25999.451785491794
 c5592: 120 p_2_2 + 120 p_2_7 + 120 p_2_8 + 9004.5187109167382 z_2_2 + 9004.5187109167382 z_2_7 + 9004.5187109167382 z_2_8 <= 28209.037421833476
 c5593: 120 p_2_2 + 120 p_2_7 + 120 p_2_9 + 9339.3284288082996 z_2_2 + 9339.3284288082996 z_2_7 + 9339.3284288082996 z_2_9 <= 28878.656857616596
 c5594: 120 p_2_10 + 120 p_2_2 + 120 p_2_7 + 8862.8037347003792 z_2_10 + 8862.8037347003792 z_2_2 + 8862.8037347003792 z_2_7 <= 27805.607469400762
 c5595: 120 p_2_2 + 120 p_2_8 + 120 p_2_9 + 8096.3203812808788 z_2_2 + 8096.3203812808788 z_2_8 + 8096.3203812808788 z_2_9 <= 25792.640762561758
 c5596: 120 p_2_10 + 120 p_2_2 + 120 p_2_8 + 8099.3315023729338 z_2_10 + 8099.3315023729338 z_2_2 + 8099.3315023729338 z_2_8 <= 25678.663004745868
 c5597: 120 p_2_10 + 120 p_2_2 + 120 p_2_9 + 8471.0659354506133 z_2_10 + 8471.0659354506133 z_2_2 + 8471.0659354506133 z_2_9 <= 26422.131870901227
 c5598: 120 p_2_3 + 120 p_2_4 + 120 p_2_5 + 10823.555437060873 z_2_3 + 10823.555437060873 z_2_4 + 10823.555437060873 z_2_5 <= 33527.110874121747
 c5599: 120 p_2_3 + 120 p_2_4 + 120 p_2_6 + 8284.2400457326112 z_2_3 + 8284.2400457326112 z_2_4 + 8284.2400457326112 z_2_6 <= 26168.480091465222
 c5600: 120 p_2_3 + 120 p_2_4 + 120 p_2_7 + 9270.1456737335538 z_2_3 + 9270.1456737335538 z_2_4 + 9270.1456737335538 z_2_7 <= 28860.291347467108
 c5601: 120 p_2_3 + 120 p_2_4 + 120 p_2_8 + 8684.7010015674132 z_2_3 + 8684.7010015674132 z_2_4 + 8684.7010015674132 z_2_8 <= 27089.402003134826
 c5602: 120 p_2_3 + 120 p_2_4 + 120 p_2_9 + 8402.724334641016 z_2_3 + 8402.724334641016 z_2_4 + 8402.724334641016 z_2_9 <= 26525.448669282032
 c5603: 120 p_2_10 + 120 p_2_3 + 120 p_2_4 + 8415.7489956422032 z_2_10 + 8415.7489956422032 z_2_3 + 8415.7489956422032 z_2_4 <= 26431.497991284406
 c5604: 120 p_2_3 + 120 p_2_5 + 120 p_2_6 + 9706.7082830044128 z_2_3 + 9706.7082830044128 z_2_5 + 9706.7082830044128 z_2_6 <= 30573.416566008826
 c5605: 120 p_2_3 + 120 p_2_5 + 120 p_2_7 + 11090.102829109772 z_2_3 + 11090.102829109772 z_2_5 + 11090.102829109772 z_2_7 <= 34060.205658219536
 c5606: 120 p_2_3 + 120 p_2_5 + 120 p_2_8 + 9852.7944118223204 z_2_3 + 9852.7944118223204 z_2_5 + 9852.7944118223204 z_2_8 <= 30985.588823644641
 c5607: 120 p_2_3 + 120 p_2_5 + 120 p_2_9 + 9844.3258995738015 z_2_3 + 9844.3258995738015 z_2_5 + 9844.3258995738015 z_2_9 <= 30968.651799147607
 c5608: 120 p_2_10 + 120 p_2_3 + 120 p_2_5 + 10217.817642203156 z_2_10 + 10217.817642203156 z_2_3 + 10217.817642203156 z_2_5 <= 31595.635284406315
 c5609: 120 p_2_3 + 120 p_2_6 + 120 p_2_7 + 8550.7874377815097 z_2_3 + 8550.7874377815097 z_2_6 + 8550.7874377815097 z_2_7 <= 26701.574875563019
 c5610: 120 p_2_3 + 120 p_2_6 + 120 p_2_8 + 7567.8538475109535 z_2_3 + 7567.8538475109535 z_2_6 + 7567.8538475109535 z_2_8 <= 24135.707695021909
 c5611: 120 p_2_3 + 120 p_2_6 + 120 p_2_9 + 7305.0105082455375 z_2_3 + 7305.0105082455375 z_2_6 + 7305.0105082455375 z_2_9 <= 23610.021016491075
 c5612: 120 p_2_10 + 120 p_2_3 + 120 p_2_6 + 7681.7067967633047 z_2_10 + 7681.7067967633047 z_2_3 + 7681.7067967633047 z_2_6 <= 24243.413593526609
 c5613: 120 p_2_3 + 120 p_2_7 + 120 p_2_8 + 8951.2483936163117 z_2_3 + 8951.2483936163117 z_2_7 + 8951.2483936163117 z_2_8 <= 27622.496787232623
 c5614: 120 p_2_3 + 120 p_2_7 + 120 p_2_9 + 8669.1198330337793 z_2_3 + 8669.1198330337793 z_2_7 + 8669.1198330337793 z_2_9 <= 27058.239666067559
 c5615: 120 p_2_10 + 120 p_2_3 + 120 p_2_7 + 8559.904390338701 z_2_10 + 8559.904390338701 z_2_3 + 8559.904390338701 z_2_7 <= 26719.808780677406
 c5616: 120 p_2_3 + 120 p_2_8 + 120 p_2_9 + 7705.4714640803413 z_2_3 + 7705.4714640803413 z_2_8 + 7705.4714640803413 z_2_9 <= 24530.942928160679
 c5617: 120 p_2_10 + 120 p_2_3 + 120 p_2_8 + 8082.1677525981095 z_2_10 + 8082.1677525981095 z_2_3 + 8082.1677525981095 z_2_8 <= 25164.335505196217
 c5618: 120 p_2_10 + 120 p_2_3 + 120 p_2_9 + 7801.5464305146188 z_2_10 + 7801.5464305146188 z_2_3 + 7801.5464305146188 z_2_9 <= 24603.092861029236
 c5619: 120 p_2_4 + 120 p_2_5 + 120 p_2_6 + 8020.3905050364301 z_2_4 + 8020.3905050364301 z_2_5 + 8020.3905050364301 z_2_6 <= 25280.78101007286
 c5620: 120 p_2_4 + 120 p_2_5 + 120 p_2_7 + 8666.6148717145752 z_2_4 + 8666.6148717145752 z_2_5 + 8666.6148717145752 z_2_7 <= 27293.229743429147
 c5621: 120 p_2_4 + 120 p_2_5 + 120 p_2_8 + 7872.8926661318656 z_2_4 + 7872.8926661318656 z_2_5 + 7872.8926661318656 z_2_8 <= 25105.785332263731
 c5622: 120 p_2_4 + 120 p_2_5 + 120 p_2_9 + 8131.7865990111959 z_2_4 + 8131.7865990111959 z_2_5 + 8131.7865990111959 z_2_9 <= 25623.57319802239
 c5623: 120 p_2_10 + 120 p_2_4 + 120 p_2_5 + 7802.798554694723 z_2_10 + 7802.798554694723 z_2_4 + 7802.798554694723 z_2_5 <= 24845.597109389444
 c5624: 120 p_2_4 + 120 p_2_6 + 120 p_2_7 + 6460.996921237791 z_2_4 + 6460.996921237791 z_2_6 + 6460.996921237791 z_2_7 <= 20601.993842475582
 c5625: 120 p_2_4 + 120 p_2_6 + 120 p_2_8 + 5885.1364285035061 z_2_4 + 5885.1364285035061 z_2_6 + 5885.1364285035061 z_2_8 <= 18850.272857007014
 c5626: 120 p_2_4 + 120 p_2_6 + 120 p_2_9 + 5620.2499274983438 z_2_4 + 5620.2499274983438 z_2_6 + 5620.2499274983438 z_2_9 <= 18320.499854996691
 c5627: 120 p_2_10 + 120 p_2_4 + 120 p_2_6 + 5606.6002431464403 z_2_10 + 5606.6002431464403 z_2_4 + 5606.6002431464403 z_2_6 <= 18173.200486292881
 c5628: 120 p_2_4 + 120 p_2_7 + 120 p_2_8 + 6561.6887762459446 z_2_4 + 6561.6887762459446 z_2_7 + 6561.6887762459446 z_2_8 <= 20923.377552491889
 c5629: 120 p_2_4 + 120 p_2_7 + 120 p_2_9 + 6529.1127152069448 z_2_4 + 6529.1127152069448 z_2_7 + 6529.1127152069448 z_2_9 <= 20858.225430413888
 c5630: 120 p_2_10 + 120 p_2_4 + 120 p_2_7 + 6033.2766178295587 z_2_10 + 6033.2766178295587 z_2_4 + 6033.2766178295587 z_2_7 <= 19746.553235659121
 c5631: 120 p_2_4 + 120 p_2_8 + 120 p_2_9 + 6002.0777060868149 z_2_4 + 6002.0777060868149 z_2_8 + 6002.0777060868149 z_2_9 <= 19204.155412173634
 c5632: 120 p_2_10 + 120 p_2_4 + 120 p_2_8 + 5698.0899372687963 z_2_10 + 5698.0899372687963 z_2_4 + 5698.0899372687963 z_2_8 <= 18476.179874537593
 c5633: 120 p_2_10 + 120 p_2_4 + 120 p_2_9 + 5674.7160371155933 z_2_10 + 5674.7160371155933 z_2_4 + 5674.7160371155933 z_2_9 <= 18429.43207423119
 c5634: 120 p_2_5 + 120 p_2_6 + 120 p_2_7 + 8287.9715307538299 z_2_5 + 8287.9715307538299 z_2_6 + 8287.9715307538299 z_2_7 <= 25815.943061507664
 c5635: 120 p_2_5 + 120 p_2_6 + 120 p_2_8 + 7035.9442625555012 z_2_5 + 7035.9442625555012 z_2_6 + 7035.9442625555012 z_2_8 <= 22711.888525111
 c5636: 120 p_2_5 + 120 p_2_6 + 120 p_2_9 + 7067.835312902449 z_2_5 + 7067.835312902449 z_2_6 + 7067.835312902449 z_2_9 <= 22775.670625804902
 c5637: 120 p_2_10 + 120 p_2_5 + 120 p_2_6 + 7397.3671339758012 z_2_10 + 7397.3671339758012 z_2_5 + 7397.3671339758012 z_2_6 <= 23314.734267951604
 c5638: 120 p_2_5 + 120 p_2_7 + 120 p_2_8 + 8111.7605266174523 z_2_5 + 8111.7605266174523 z_2_7 + 8111.7605266174523 z_2_8 <= 25583.521053234908
 c5639: 120 p_2_5 + 120 p_2_7 + 120 p_2_9 + 8398.1820974039601 z_2_5 + 8398.1820974039601 z_2_7 + 8398.1820974039601 z_2_9 <= 26156.364194807924
 c5640: 120 p_2_10 + 120 p_2_5 + 120 p_2_7 + 7937.3148891923629 z_2_10 + 7937.3148891923629 z_2_5 + 7937.3148891923629 z_2_7 <= 25114.629778384726
 c5641: 120 p_2_5 + 120 p_2_8 + 120 p_2_9 + 7189.3044440027033 z_2_5 + 7189.3044440027033 z_2_8 + 7189.3044440027033 z_2_9 <= 23138.608888005405
 c5642: 120 p_2_10 + 120 p_2_5 + 120 p_2_8 + 7207.5780928629447 z_2_10 + 7207.5780928629447 z_2_5 + 7207.5780928629447 z_2_8 <= 23055.156185725886
 c5643: 120 p_2_10 + 120 p_2_5 + 120 p_2_9 + 7530.6086948847988 z_2_10 + 7530.6086948847988 z_2_5 + 7530.6086948847988 z_2_9 <= 23701.217389769598
 c5644: 120 p_2_6 + 120 p_2_7 + 120 p_2_8 + 6152.717454220905 z_2_6 + 6152.717454220905 z_2_7 + 6152.717454220905 z_2_8 <= 19385.43490844181
 c5645: 120 p_2_6 + 120 p_2_7 + 120 p_2_9 + 5886.6454258911081 z_2_6 + 5886.6454258911081 z_2_7 + 5886.6454258911081 z_2_9 <= 18853.290851782218
 c5646: 120 p_2_10 + 120 p_2_6 + 120 p_2_7 + 5751.7892715114385 z_2_10 + 5751.7892715114385 z_2_6 + 5751.7892715114385 z_2_7 <= 18463.578543022875
 c5647: 120 p_2_6 + 120 p_2_8 + 120 p_2_9 + 4932.581236369524 z_2_6 + 4932.581236369524 z_2_8 + 4932.581236369524 z_2_9 <= 16345.162472739048
 c5648: 120 p_2_10 + 120 p_2_6 + 120 p_2_8 + 5268.2020532745382 z_2_10 + 5268.2020532745382 z_2_6 + 5268.2020532745382 z_2_8 <= 16896.404106549078
 c5649: 120 p_2_10 + 120 p_2_6 + 120 p_2_9 + 5019.0720233719467 z_2_10 + 5019.0720233719467 z_2_6 + 5019.0720233719467 z_2_9 <= 16398.144046743892
 c5650: 120 p_2_7 + 120 p_2_8 + 120 p_2_9 + 6268.4732044795783 z_2_7 + 6268.4732044795783 z_2_8 + 6268.4732044795783 z_2_9 <= 19736.946408959157
 c5651: 120 p_2_10 + 120 p_2_7 + 120 p_2_8 + 5832.6062717664372 z_2_10 + 5832.6062717664372 z_2_7 + 5832.6062717664372 z_2_8 <= 18745.212543532871
 c5652: 120 p_2_10 + 120 p_2_7 + 120 p_2_9 + 5818.7195381559568 z_2_10 + 5818.7195381559568 z_2_7 + 5818.7195381559568 z_2_9 <= 18717.439076311912
 c5653: 120 p_2_10 + 120 p_2_8 + 120 p_2_9 + 5400.8998019604169 z_2_10 + 5400.8998019604169 z_2_8 + 5400.8998019604169 z_2_9 <= 17281.799603920834
 c5654: z_0_1 + z_0_10 + z_0_2 + z_0_3 + z_0_4 + z_0_5 + z_0_6 + z_0_7 + z_0_8 + z_0_9 - z_1_1 - z_1_10 - z_1_2 - z_1_3 - z_1_4 - z_1_5 - z_1_6 - z_1_7 - z_1_8 - z_1_9 >= 0
 c5655: z_1_1 + z_1_10 + z_1_2 + z_1_3 + z_1_4 + z_1_5 + z_1_6 + z_1_7 + z_1_8 + z_1_9 - z_2_1 - z_2_10 - z_2_2 - z_2_3 - z_2_4 - z_2_5 - z_2_6 - z_2_7 - z_2_8 - z_2_9 >= 0
 c5656: Y_1 - d_0_1 - d_1_1 - d_2_1 + p_0_1 + p_1_1 + p_2_1 = 5
 c5657: - 0.14285714285714285 Y_1 + r_1 = 0
 c5658: e_1 - r_1 >= -1
 c5659: e_1 + r_1 >= 1
 c5660: Y_2 - d_0_2 - d_1_2 - d_2_2 + p_0_2 + p_1_2 + p_2_2 = 36
 c5661: - 0.047619047619047616 Y_2 + r_2 = 0
 c5662: e_2 - r_2 >= -1
 c5663: e_2 + r_2 >= 1
 c5664: Y_3 - d_0_3 - d_1_3 - d_2_3 + p_0_3 + p_1_3 + p_2_3 = 26
 c5665: - 0.066666666666666666 Y_3 + r_3 = 0
 c5666: e_3 - r_3 >= -1
 c5667: e_3 + r_3 >= 1
 c5668: Y_4 - d_0_4 - d_1_4 - d_2_4 + p_0_4 + p_1_4 + p_2_4 = 10
 c5669: - 0.083333333333333329 Y_4 + r_4 = 0
 c5670: e_4 - r_4 >= -1
 c5671: e_4 + r_4 >= 1
 c5672: Y_5 - d_0_5 - d_1_5 - d_2_5 + p_0_5 + p_1_5 + p_2_5 = 23
 c5673: - 0.030303030303030304 Y_5 + r_5 = 0
 c5674: e_5 - r_5 >= -1
 c5675: e_5 + r_5 >= 1
 c5676: Y_6 - d_0_6 - d_1_6 - d_2_6 + p_0_6 + p_1_6 + p_2_6 = 4
 c5677: - 0.125 Y_6 + r_6 = 0
 c5678: e_6 - r_6 >= -1
 c5679: e_6 + r_6 >= 1
 c5680: Y_7 - d_0_7 - d_1_7 - d_2_7 + p_0_7 + p_1_7 + p_2_7 = 10
 c5681: - 0.25 Y_7 + r_7 = 0
 c5682: e_7 - r_7 >= -1
 c5683: e_7 + r_7 >= 1
 c5684: Y_8 - d_0_8 - d_1_8 - d_2_8 + p_0_8 + p_1_8 + p_2_8 = 5
 c5685: - 0.5 Y_8 + r_8 = 0
 c5686: e_8 - r_8 >= -1
 c5687: e_8 + r_8 >= 1
 c5688: Y_9 - d_0_9 - d_1_9 - d_2_9 + p_0_9 + p_1_9 + p_2_9 = 5
 c5689: - 0.0625 Y_9 + r_9 = 0
 c5690: e_9 - r_9 >= -1
 c5691: e_9 + r_9 >= 1
 c5692: Y_10 - d_0_10 - d_1_10 - d_2_10 + p_0_10 + p_1_10 + p_2_10 = 4
 c5693: - 0.5 Y_10 + r_10 = 0
 c5694: e_10 - r_10 >= -1
 c5695: e_10 + r_10 >= 1
 c5696: Y_1 - 18 z_0_1 - 18 z_1_1 - 18 z_2_1 <= 5
 c5697: - Y_1 - 5 z_0_1 - 5 z_1_1 - 5 z_2_1 <= -5
 c5698: Y_2 - 5 z_0_2 - 5 z_1_2 - 5 z_2_2 <= 36
 c5699: - Y_2 - 36 z_0_2 - 36 z_1_2 - 36 z_2_2 <= -36
 c5700: Y_3 - 2 z_0_3 - 2 z_1_3 - 2 z_2_3 <= 26
 c5701: - Y_3 - 26 z_0_3 - 26 z_1_3 - 26 z_2_3 <= -26
 c5702: Y_4 - 16 z_0_4 - 16 z_1_4 - 16 z_2_4 <= 10
 c5703: - Y_4 - 10 z_0_4 - 10 z_1_4 - 10 z_2_4 <= -10
 c5704: Y_5 - 14 z_0_5 - 14 z_1_5 - 14 z_2_5 <= 23
 c5705: - Y_5 - 23 z_0_5 - 23 z_1_5 - 23 z_2_5 <= -23
 c5706: Y_6 - 18 z_0_6 - 18 z_1_6 - 18 z_2_6 <= 4
 c5707: - Y_6 - 4 z_0_6 - 4 z_1_6 - 4 z_2_6 <= -4
 c5708: Y_7 - 38 z_0_7 - 38 z_1_7 - 38 z_2_7 <= 10
 c5709: - Y_7 - 10 z_0_7 - 10 z_1_7 - 10 z_2_7 <= -10
 c5710: Y_8 - 15 z_0_8 - 15 z_1_8 - 15 z_2_8 <= 5
 c5711: - Y_8 - 5 z_0_8 - 5 z_1_8 - 5 z_2_8 <= -5
 c5712: Y_9 - 32 z_0_9 - 32 z_1_9 - 32 z_2_9 <= 5
 c5713: - Y_9 - 5 z_0_9 - 5 z_1_9 - 5 z_2_9 <= -5
 c5714: Y_10 - 36 z_0_10 - 36 z_1_10 - 36 z_2_10 <= 4
 c5715: - Y_10 - 4 z_0_10 - 4 z_1_10 - 4 z_2_10 <= -4
 c5716: 120 p_0_1 + 120 p_0_10 + 120 p_0_2 + 120 p_0_3 + 120 p_0_4 + 120 p_0_5 + 120 p_0_6 + 120 p_0_7 + 120 p_0_8 + 120 p_0_9 + 120 p_1_1 + 120 p_1_10 + 120 p_1_2 + 120 p_1_3 + 120 p_1_4 + 120 p_1_5 + 120 p_1_6 + 120 p_1_7 + 120 p_1_8 + 120 p_1_9 + 120 p_2_1 + 120 p_2_10 + 120 p_2_2 + 120 p_2_3 + 120 p_2_4 + 120 p_2_5 + 120 p_2_6 + 120 p_2_7 + 120 p_2_8 + 120 p_2_9 <= 7200
 c5717: h_1_2 - r_1 + r_2 >= 0
 c5718: h_1_2 + r_1 - r_2 >= 0
 c5719: h_1_3 - r_1 + r_3 >= 0
 c5720: h_1_3 + r_1 - r_3 >= 0
 c5721: h_1_4 - r_1 + r_4 >= 0
 c5722: h_1_4 + r_1 - r_4 >= 0
 c5723: h_1_5 - r_1 + r_5 >= 0
 c5724: h_1_5 + r_1 - r_5 >= 0
 c5725: h_1_6 - r_1 + r_6 >= 0
 c5726: h_1_6 + r_1 - r_6 >= 0
 c5727: h_1_7 - r_1 + r_7 >= 0
 c5728: h_1_7 + r_1 - r_7 >= 0
 c5729: h_1_8 - r_1 + r_8 >= 0
 c5730: h_1_8 + r_1 - r_8 >= 0
 c5731: h_1_9 - r_1 + r_9 >= 0
 c5732: h_1_9 + r_1 - r_9 >= 0
 c5733: h_1_10 - r_1 + r_10 >= 0
 c5734: h_1_10 + r_1 - r_10 >= 0
 c5735: h_2_3 - r_2 + r_3 >= 0
 c5736: h_2_3 + r_2 - r_3 >= 0
 c5737: h_2_4 - r_2 + r_4 >= 0
 c5738: h_2_4 + r_2 - r_4 >= 0
 c5739: h_2_5 - r_2 + r_5 >= 0
 c5740: h_2_5 + r_2 - r_5 >= 0
 c5741: h_2_6 - r_2 + r_6 >= 0
 c5742: h_2_6 + r_2 - r_6 >= 0
 c5743: h_2_7 - r_2 + r_7 >= 0
 c5744: h_2_7 + r_2 - r_7 >= 0
 c5745: h_2_8 - r_2 + r_8 >= 0
 c5746: h_2_8 + r_2 - r_8 >= 0
 c5747: h_2_9 - r_2 + r_9 >= 0
 c5748: h_2_9 + r_2 - r_9 >= 0
 c5749: h_2_10 + r_10 - r_2 >= 0
 c5750: h_2_10 - r_10 + r_2 >= 0
 c5751: h_3_4 - r_3 + r_4 >= 0
 c5752: h_3_4 + r_3 - r_4 >= 0
 c5753: h_3_5 - r_3 + r_5 >= 0
 c5754: h_3_5 + r_3 - r_5 >= 0
 c5755: h_3_6 - r_3 + r_6 >= 0
 c5756: h_3_6 + r_3 - r_6 >= 0
 c5757: h_3_7 - r_3 + r_7 >= 0
 c5758: h_3_7 + r_3 - r_7 >= 0
 c5759: h_3_8 - r_3 + r_8 >= 0
 c5760: h_3_8 + r_3 - r_8 >= 0
 c5761: h_3_9 - r_3 + r_9 >= 0
 c5762: h_3_9 + r_3 - r_9 >= 0
 c5763: h_3_10 + r_10 - r_3 >= 0
 c5764: h_3_10 - r_10 + r_3 >= 0
 c5765: h_4_5 - r_4 + r_5 >= 0
 c5766: h_4_5 + r_4 - r_5 >= 0
 c5767: h_4_6 - r_4 + r_6 >= 0
 c5768: h_4_6 + r_4 - r_6 >= 0
 c5769: h_4_7 - r_4 + r_7 >= 0
 c5770: h_4_7 + r_4 - r_7 >= 0
 c5771: h_4_8 - r_4 + r_8 >= 0
 c5772: h_4_8 + r_4 - r_8 >= 0
 c5773: h_4_9 - r_4 + r_9 >= 0
 c5774: h_4_9 + r_4 - r_9 >= 0
 c5775: h_4_10 + r_10 - r_4 >= 0
 c5776: h_4_10 - r_10 + r_4 >= 0
 c5777: h_5_6 - r_5 + r_6 >= 0
 c5778: h_5_6 + r_5 - r_6 >= 0
 c5779: h_5_7 - r_5 + r_7 >= 0
 c5780: h_5_7 + r_5 - r_7 >= 0
 c5781: h_5_8 - r_5 + r_8 >= 0
 c5782: h_5_8 + r_5 - r_8 >= 0
 c5783: h_5_9 - r_5 + r_9 >= 0
 c5784: h_5_9 + r_5 - r_9 >= 0
 c5785: h_5_10 + r_10 - r_5 >= 0
 c5786: h_5_10 - r_10 + r_5 >= 0
 c5787: h_6_7 - r_6 + r_7 >= 0
 c5788: h_6_7 + r_6 - r_7 >= 0
 c5789: h_6_8 - r_6 + r_8 >= 0
 c5790: h_6_8 + r_6 - r_8 >= 0
 c5791: h_6_9 - r_6 + r_9 >= 0
 c5792: h_6_9 + r_6 - r_9 >= 0
 c5793: h_6_10 + r_10 - r_6 >= 0
 c5794: h_6_10 - r_10 + r_6 >= 0
 c5795: h_7_8 - r_7 + r_8 >= 0
 c5796: h_7_8 + r_7 - r_8 >= 0
 c5797: h_7_9 - r_7 + r_9 >= 0
 c5798: h_7_9 + r_7 - r_9 >= 0
 c5799: h_7_10 + r_10 - r_7 >= 0
 c5800: h_7_10 - r_10 + r_7 >= 0
 c5801: h_8_9 - r_8 + r_9 >= 0
 c5802: h_8_9 + r_8 - r_9 >= 0
 c5803: h_8_10 + r_10 - r_8 >= 0
 c5804: h_8_10 - r_10 + r_8 >= 0
 c5805: h_9_10 + r_10 - r_9 >= 0
 c5806: h_9_10 - r_10 + r_9 >= 0
 c5807: Y_1 - bit_1_0 - 2 bit_1_1 - 4 bit_1_2 - 8 bit_1_3 - 16 bit_1_4 = 0
 c5808: - prod_1_0 - 2 prod_1_1 - 4 prod_1_2 - 8 prod_1_3 - 16 prod_1_4 + zprod_1 = 0
 c5809: - G + prod_1_0 <= 0
 c5810: - bit_1_0 + prod_1_0 <= 0
 c5811: - G - bit_1_0 + prod_1_0 >= -1
 c5812: - G + prod_1_1 <= 0
 c5813: - bit_1_1 + prod_1_1 <= 0
 c5814: - G - bit_1_1 + prod_1_1 >= -1
 c5815: - G + prod_1_2 <= 0
 c5816: - bit_1_2 + prod_1_2 <= 0
 c5817: - G - bit_1_2 + prod_1_2 >= -1
 c5818: - G + prod_1_3 <= 0
 c5819: - bit_1_3 + prod_1_3 <= 0
 c5820: - G - bit_1_3 + prod_1_3 >= -1
 c5821: - G + prod_1_4 <= 0
 c5822: - bit_1_4 + prod_1_4 <= 0
 c5823: - G - bit_1_4 + prod_1_4 >= -1
 c5824: Y_2 - bit_2_0 - 2 bit_2_1 - 4 bit_2_2 - 8 bit_2_3 - 16 bit_2_4 - 32 bit_2_5 = 0
 c5825: - prod_2_0 - 2 prod_2_1 - 4 prod_2_2 - 8 prod_2_3 - 16 prod_2_4 - 32 prod_2_5 + zprod_2 = 0
 c5826: - G + prod_2_0 <= 0
 c5827: - bit_2_0 + prod_2_0 <= 0
 c5828: - G - bit_2_0 + prod_2_0 >= -1
 c5829: - G + prod_2_1 <= 0
 c5830: - bit_2_1 + prod_2_1 <= 0
 c5831: - G - bit_2_1 + prod_2_1 >= -1
 c5832: - G + prod_2_2 <= 0
 c5833: - bit_2_2 + prod_2_2 <= 0
 c5834: - G - bit_2_2 + prod_2_2 >= -1
 c5835: - G + prod_2_3 <= 0
 c5836: - bit_2_3 + prod_2_3 <= 0
 c5837: - G - bit_2_3 + prod_2_3 >= -1
 c5838: - G + prod_2_4 <= 0
 c5839: - bit_2_4 + prod_2_4 <= 0
 c5840: - G - bit_2_4 + prod_2_4 >= -1
 c5841: - G + prod_2_5 <= 0
 c5842: - bit_2_5 + prod_2_5 <= 0
 c5843: - G - bit_2_5 + prod_2_5 >= -1
 c5844: Y_3 - bit_3_0 - 2 bit_3_1 - 4 bit_3_2 - 8 bit_3_3 - 16 bit_3_4 = 0
 c5845: - prod_3_0 - 2 prod_3_1 - 4 prod_3_2 - 8 prod_3_3 - 16 prod_3_4 + zprod_3 = 0
 c5846: - G + prod_3_0 <= 0
 c5847: - bit_3_0 + prod_3_0 <= 0
 c5848: - G - bit_3_0 + prod_3_0 >= -1
 c5849: - G + prod_3_1 <= 0
 c5850: - bit_3_1 + prod_3_1 <= 0
 c5851: - G - bit_3_1 + prod_3_1 >= -1
 c5852: - G + prod_3_2 <= 0
 c5853: - bit_3_2 + prod_3_2 <= 0
 c5854: - G - bit_3_2 + prod_3_2 >= -1
 c5855: - G + prod_3_3 <= 0
 c5856: - bit_3_3 + prod_3_3 <= 0
 c5857: - G - bit_3_3 + prod_3_3 >= -1
 c5858: - G + prod_3_4 <= 0
 c5859: - bit_3_4 + prod_3_4 <= 0
 c5860: - G - bit_3_4 + prod_3_4 >= -1
 c5861: Y_4 - bit_4_0 - 2 bit_4_1 - 4 bit_4_2 - 8 bit_4_3 - 16 bit_4_4 = 0
 c5862: - prod_4_0 - 2 prod_4_1 - 4 prod_4_2 - 8 prod_4_3 - 16 prod_4_4 + zprod_4 = 0
 c5863: - G + prod_4_0 <= 0
 c5864: - bit_4_0 + prod_4_0 <= 0
 c5865: - G - bit_4_0 + prod_4_0 >= -1
 c5866: - G + prod_4_1 <= 0
 c5867: - bit_4_1 + prod_4_1 <= 0
 c5868: - G - bit_4_1 + prod_4_1 >= -1
 c5869: - G + prod_4_2 <= 0
 c5870: - bit_4_2 + prod_4_2 <= 0
 c5871: - G - bit_4_2 + prod_4_2 >= -1
 c5872: - G + prod_4_3 <= 0
 c5873: - bit_4_3 + prod_4_3 <= 0
 c5874: - G - bit_4_3 + prod_4_3 >= -1
 c5875: - G + prod_4_4 <= 0
 c5876: - bit_4_4 + prod_4_4 <= 0
 c5877: - G - bit_4_4 + prod_4_4 >= -1
 c5878: Y_5 - bit_5_0 - 2 bit_5_1 - 4 bit_5_2 - 8 bit_5_3 - 16 bit_5_4 - 32 bit_5_5 = 0
 c5879: - prod_5_0 - 2 prod_5_1 - 4 prod_5_2 - 8 prod_5_3 - 16 prod_5_4 - 32 prod_5_5 + zprod_5 = 0
 c5880: - G + prod_5_0 <= 0
 c5881: - bit_5_0 + prod_5_0 <= 0
 c5882: - G - bit_5_0 + prod_5_0 >= -1
 c5883: - G + prod_5_1 <= 0
 c5884: - bit_5_1 + prod_5_1 <= 0
 c5885: - G - bit_5_1 + prod_5_1 >= -1
 c5886: - G + prod_5_2 <= 0
 c5887: - bit_5_2 + prod_5_2 <= 0
 c5888: - G - bit_5_2 + prod_5_2 >= -1
 c5889: - G + prod_5_3 <= 0
 c5890: - bit_5_3 + prod_5_3 <= 0
 c5891: - G - bit_5_3 + prod_5_3 >= -1
 c5892: - G + prod_5_4 <= 0
 c5893: - bit_5_4 + prod_5_4 <= 0
 c5894: - G - bit_5_4 + prod_5_4 >= -1
 c5895: - G + prod_5_5 <= 0
 c5896: - bit_5_5 + prod_5_5 <= 0
 c5897: - G - bit_5_5 + prod_5_5 >= -1
 c5898: Y_6 - bit_6_0 - 2 bit_6_1 - 4 bit_6_2 - 8 bit_6_3 - 16 bit_6_4 = 0
 c5899: - prod_6_0 - 2 prod_6_1 - 4 prod_6_2 - 8 prod_6_3 - 16 prod_6_4 + zprod_6 = 0
 c5900: - G + prod_6_0 <= 0
 c5901: - bit_6_0 + prod_6_0 <= 0
 c5902: - G - bit_6_0 + prod_6_0 >= -1
 c5903: - G + prod_6_1 <= 0
 c5904: - bit_6_1 + prod_6_1 <= 0
 c5905: - G - bit_6_1 + prod_6_1 >= -1
 c5906: - G + prod_6_2 <= 0
 c5907: - bit_6_2 + prod_6_2 <= 0
 c5908: - G - bit_6_2 + prod_6_2 >= -1
 c5909: - G + prod_6_3 <= 0
 c5910: - bit_6_3 + prod_6_3 <= 0
 c5911: - G - bit_6_3 + prod_6_3 >= -1
 c5912: - G + prod_6_4 <= 0
 c5913: - bit_6_4 + prod_6_4 <= 0
 c5914: - G - bit_6_4 + prod_6_4 >= -1
 c5915: Y_7 - bit_7_0 - 2 bit_7_1 - 4 bit_7_2 - 8 bit_7_3 - 16 bit_7_4 - 32 bit_7_5 = 0
 c5916: - prod_7_0 - 2 prod_7_1 - 4 prod_7_2 - 8 prod_7_3 - 16 prod_7_4 - 32 prod_7_5 + zprod_7 = 0
 c5917: - G + prod_7_0 <= 0
 c5918: - bit_7_0 + prod_7_0 <= 0
 c5919: - G - bit_7_0 + prod_7_0 >= -1
 c5920: - G + prod_7_1 <= 0
 c5921: - bit_7_1 + prod_7_1 <= 0
 c5922: - G - bit_7_1 + prod_7_1 >= -1
 c5923: - G + prod_7_2 <= 0
 c5924: - bit_7_2 + prod_7_2 <= 0
 c5925: - G - bit_7_2 + prod_7_2 >= -1
 c5926: - G + prod_7_3 <= 0
 c5927: - bit_7_3 + prod_7_3 <= 0
 c5928: - G - bit_7_3 + prod_7_3 >= -1
 c5929: - G + prod_7_4 <= 0
 c5930: - bit_7_4 + prod_7_4 <= 0
 c5931: - G - bit_7_4 + prod_7_4 >= -1
 c5932: - G + prod_7_5 <= 0
 c5933: - bit_7_5 + prod_7_5 <= 0
 c5934: - G - bit_7_5 + prod_7_5 >= -1
 c5935: Y_8 - bit_8_0 - 2 bit_8_1 - 4 bit_8_2 - 8 bit_8_3 - 16 bit_8_4 = 0
 c5936: - prod_8_0 - 2 prod_8_1 - 4 prod_8_2 - 8 prod_8_3 - 16 prod_8_4 + zprod_8 = 0
 c5937: - G + prod_8_0 <= 0
 c5938: - bit_8_0 + prod_8_0 <= 0
 c5939: - G - bit_8_0 + prod_8_0 >= -1
 c5940: - G + prod_8_1 <= 0
 c5941: - bit_8_1 + prod_8_1 <= 0
 c5942: - G - bit_8_1 + prod_8_1 >= -1
 c5943: - G + prod_8_2 <= 0
 c5944: - bit_8_2 + prod_8_2 <= 0
 c5945: - G - bit_8_2 + prod_8_2 >= -1
 c5946: - G + prod_8_3 <= 0
 c5947: - bit_8_3 + prod_8_3 <= 0
 c5948: - G - bit_8_3 + prod_8_3 >= -1
 c5949: - G + prod_8_4 <= 0
 c5950: - bit_8_4 + prod_8_4 <= 0
 c5951: - G - bit_8_4 + prod_8_4 >= -1
 c5952: Y_9 - bit_9_0 - 2 bit_9_1 - 4 bit_9_2 - 8 bit_9_3 - 16 bit_9_4 - 32 bit_9_5 = 0
 c5953: - prod_9_0 - 2 prod_9_1 - 4 prod_9_2 - 8 prod_9_3 - 16 prod_9_4 - 32 prod_9_5 + zprod_9 = 0
 c5954: - G + prod_9_0 <= 0
 c5955: - bit_9_0 + prod_9_0 <= 0
 c5956: - G - bit_9_0 + prod_9_0 >= -1
 c5957: - G + prod_9_1 <= 0
 c5958: - bit_9_1 + prod_9_1 <= 0
 c5959: - G - bit_9_1 + prod_9_1 >= -1
 c5960: - G + prod_9_2 <= 0
 c5961: - bit_9_2 + prod_9_2 <= 0
 c5962: - G - bit_9_2 + prod_9_2 >= -1
 c5963: - G + prod_9_3 <= 0
 c5964: - bit_9_3 + prod_9_3 <= 0
 c5965: - G - bit_9_3 + prod_9_3 >= -1
 c5966: - G + prod_9_4 <= 0
 c5967: - bit_9_4 + prod_9_4 <= 0
 c5968: - G - bit_9_4 + prod_9_4 >= -1
 c5969: - G + prod_9_5 <= 0
 c5970: - bit_9_5 + prod_9_5 <= 0
 c5971: - G - bit_9_5 + prod_9_5 >= -1
 c5972: Y_10 - bit_10_0 - 2 bit_10_1 - 4 bit_10_2 - 8 bit_10_3 - 16 bit_10_4 - 32 bit_10_5 = 0
 c5973: - prod_10_0 - 2 prod_10_1 - 4 prod_10_2 - 8 prod_10_3 - 16 prod_10_4 - 32 prod_10_5 + zprod_10 = 0
 c5974: - G + prod_10_0 <= 0
 c5975: - bit_10_0 + prod_10_0 <= 0
 c5976: - G - bit_10_0 + prod_10_0 >= -1
 c5977: - G + prod_10_1 <= 0
 c5978: - bit_10_1 + prod_10_1 <= 0
 c5979: - G - bit_10_1 + prod_10_1 >= -1
 c5980: - G + prod_10_2 <= 0
 c5981: - bit_10_2 + prod_10_2 <= 0
 c5982: - G - bit_10_2 + prod_10_2 >= -1
 c5983: - G + prod_10_3 <= 0
 c5984: - bit_10_3 + prod_10_3 <= 0
 c5985: - G - bit_10_3 + prod_10_3 >= -1
 c5986: - G + prod_10_4 <= 0
 c5987: - bit_10_4 + prod_10_4 <= 0
 c5988: - G - bit_10_4 + prod_10_4 >= -1
 c5989: - G + prod_10_5 <= 0
 c5990: - bit_10_5 + prod_10_5 <= 0
 c5991: - G - bit_10_5 + prod_10_5 >= -1
 c5992: - h_1_10 - h_1_2 - h_1_3 - h_1_4 - h_1_5 - h_1_6 - h_1_7 - h_1_8 - h_1_9 - h_2_10 - h_2_3 - h_2_4 - h_2_5 - h_2_6 - h_2_7 - h_2_8 - h_2_9 - h_3_10 - h_3_4 - h_3_5 - h_3_6 - h_3_7 - h_3_8 - h_3_9 - h_4_10 - h_4_5 - h_4_6 - h_4_7 - h_4_8 - h_4_9 - h_5_10 - h_5_6 - h_5_7 - h_5_8 - h_5_9 - h_6_10 - h_6_7 - h_6_8 - h_6_9 - h_7_10 - h_7_8 - h_7_9 - h_8_10 - h_8_9 - h_9_10 + 1.4285714285714286 zprod_1 + 5 zprod_10 + 0.47619047619047616 zprod_2 + 0.66666666666666663 zprod_3 + 0.83333333333333337 zprod_4 + 0.30303030303030304 zprod_5 + 1.25 zprod_6 + 2.5 zprod_7 + 5 zprod_8 + 0.625 zprod_9 >= 0
Bounds
 0.0058603408702213259 <= G <= 0.011720681740442652
 0 <= W_SP <= 8.5727794460194158
 4 <= Y_1 <= 10
 2 <= Y_10 <= 2
 21 <= Y_2 <= 25
 12 <= Y_3 <= 18
 3 <= Y_4 <= 21
 18 <= Y_5 <= 37
 6 <= Y_6 <= 10
 4 <= Y_7 <= 4
 2 <= Y_8 <= 2
 13 <= Y_9 <= 19
 0 <= bit_10_0 <= 1
 0 <= bit_10_1 <= 1
 0 <= bit_10_2 <= 1
 0 <= bit_10_3 <= 1
 0 <= bit_10_4 <= 1
 0 <= bit_10_5 <= 1
 0 <= bit_1_0 <= 1
 0 <= bit_1_1 <= 1
 0 <= bit_1_2 <= 1
 0 <= bit_1_3 <= 1
 0 <= bit_1_4 <= 1
 0 <= bit_2_0 <= 1
 0 <= bit_2_1 <= 1
 0 <= bit_2_2 <= 1
 0 <= bit_2_3 <= 1
 0 <= bit_2_4 <= 1
 0 <= bit_2_5 <= 1
 0 <= bit_3_0 <= 1
 0 <= bit_3_1 <= 1
 0 <= bit_3_2 <= 1
 0 <= bit_3_3 <= 1
 0 <= bit_3_4 <= 1
 0 <= bit_4_0 <= 1
 0 <= bit_4_1 <= 1
 0 <= bit_4_2 <= 1
 0 <= bit_4_3 <= 1
 0 <= bit_4_4 <= 1
 0 <= bit_5_0 <= 1
 0 <= bit_5_1 <= 1
 0 <= bit_5_2 <= 1
 0 <= bit_5_3 <= 1
 0 <= bit_5_4 <= 1
 0 <= bit_5_5 <= 1
 0 <= bit_6_0 <= 1
 0 <= bit_6_1 <= 1
 0 <= bit_6_2 <= 1
 0 <= bit_6_3 <= 1
 0 <= bit_6_4 <= 1
 0 <= bit_7_0 <= 1
 0 <= bit_7_1 <= 1
 0 <= bit_7_2 <= 1
 0 <= bit_7_3 <= 1
 0 <= bit_7_4 <= 1
 0 <= bit_7_5 <= 1
 0 <= bit_8_0 <= 1
 0 <= bit_8_1 <= 1
 0 <= bit_8_2 <= 1
 0 <= bit_8_3 <= 1
 0 <= bit_8_4 <= 1
 0 <= bit_9_0 <= 1
 0 <= bit_9_1 <= 1
 0 <= bit_9_2 <= 1
 0 <= bit_9_3 <= 1
 0 <= bit_9_4 <= 1
 0 <= bit_9_5 <= 1
 0 <= conn_0_0_1 <= 10
 0 <= conn_0_0_10 <= 10
 0 <= conn_0_0_2 <= 10
 0 <= conn_0_0_3 <= 10
 0 <= conn_0_0_4 <= 10
 0 <= conn_0_0_5 <= 10
 0 <= conn_0_0_6 <= 10
 0 <= conn_0_0_7 <= 10
 0 <= conn_0_0_8 <= 10
 0 <= conn_0_0_9 <= 10
 0 <= conn_0_10_0 <= 10
 0 <= conn_0_10_1 <= 10
 0 <= conn_0_10_2 <= 10
 0 <= conn_0_10_3 <= 10
 0 <= conn_0_10_4 <= 10
 0 <= conn_0_10_5 <= 10
 0 <= conn_0_10_6 <= 10
 0 <= conn_0_10_7 <= 10
 0 <= conn_0_10_8 <= 10
 0 <= conn_0_10_9 <= 10
 0 <= conn_0_1_0 <= 10
 0 <= conn_0_1_10 <= 10
 0 <= conn_0_1_2 <= 10
 0 <= conn_0_1_3 <= 10
 0 <= conn_0_1_4 <= 10
 0 <= conn_0_1_5 <= 10
 0 <= conn_0_1_6 <= 10
 0 <= conn_0_1_7 <= 10
 0 <= conn_0_1_8 <= 10
 0 <= conn_0_1_9 <= 10
 0 <= conn_0_2_0 <= 10
 0 <= conn_0_2_1 <= 10
 0 <= conn_0_2_10 <= 10
 0 <= conn_0_2_3 <= 10
 0 <= conn_0_2_4 <= 10
 0 <= conn_0_2_5 <= 10
 0 <= conn_0_2_6 <= 10
 0 <= conn_0_2_7 <= 10
 0 <= conn_0_2_8 <= 10
 0 <= conn_0_2_9 <= 10
 0 <= conn_0_3_0 <= 10
 0 <= conn_0_3_1 <= 10
 0 <= conn_0_3_10 <= 10
 0 <= conn_0_3_2 <= 10
 0 <= conn_0_3_4 <= 10
 0 <= conn_0_3_5 <= 10
 0 <= conn_0_3_6 <= 10
 0 <= conn_0_3_7 <= 10
 0 <= conn_0_3_8 <= 10
 0 <= conn_0_3_9 <= 10
 0 <= conn_0_4_0 <= 10
 0 <= conn_0_4_1 <= 10
 0 <= conn_0_4_10 <= 10
 0 <= conn_0_4_2 <= 10
 0 <= conn_0_4_3 <= 10
 0 <= conn_0_4_5 <= 10
 0 <= conn_0_4_6 <= 10
 0 <= conn_0_4_7 <= 10
 0 <= conn_0_4_8 <= 10
 0 <= conn_0_4_9 <= 10
 0 <= conn_0_5_0 <= 10
 0 <= conn_0_5_1 <= 10
 0 <= conn_0_5_10 <= 10
 0 <= conn_0_5_2 <= 10
 0 <= conn_0_5_3 <= 10
 0 <= conn_0_5_4 <= 10
 0 <= conn_0_5_6 <= 10
 0 <= conn_0_5_7 <= 10
 0 <= conn_0_5_8 <= 10
 0 <= conn_0_5_9 <= 10
 0 <= conn_0_6_0 <= 10
 0 <= conn_0_6_1 <= 10
 0 <= conn_0_6_10 <= 10
 0 <= conn_0_6_2 <= 10
 0 <= conn_0_6_3 <= 10
 0 <= conn_0_6_4 <= 10
 0 <= conn_0_6_5 <= 10
 0 <= conn_0_6_7 <= 10
 0 <= conn_0_6_8 <= 10
 0 <= conn_0_6_9 <= 10
 0 <= conn_0_7_0 <= 10
 0 <= conn_0_7_1 <= 10
 0 <= conn_0_7_10 <= 10
 0 <= conn_0_7_2 <= 10
 0 <= conn_0_7_3 <= 10
 0 <= conn_0_7_4 <= 10
 0 <= conn_0_7_5 <= 10
 0 <= conn_0_7_6 <= 10
 0 <= conn_0_7_8 <= 10
 0 <= conn_0_7_9 <= 10
 0 <= conn_0_8_0 <= 10
 0 <= conn_0_8_1 <= 10
 0 <= conn_0_8_10 <= 10
 0 <= conn_0_8_2 <= 10
 0 <= conn_0_8_3 <= 10
 0 <= conn_0_8_4 <= 10
 0 <= conn_0_8_5 <= 10
 0 <= conn_0_8_6 <= 10
 0 <= conn_0_8_7 <= 10
 0 <= conn_0_8_9 <= 10
 0 <= conn_0_9_0 <= 10
 0 <= conn_0_9_1 <= 10
 0 <= conn_0_9_10 <= 10
 0 <= conn_0_9_2 <= 10
 0 <= conn_0_9_3 <= 10
 0 <= conn_0_9_4 <= 10
 0 <= conn_0_9_5 <= 10
 0 <= conn_0_9_6 <= 10
 0 <= conn_0_9_7 <= 10
 0 <= conn_0_9_8 <= 10
 0 <= conn_1_0_1 <= 10
 0 <= conn_1_0_10 <= 10
 0 <= conn_1_0_2 <= 10
 0 <= conn_1_0_3 <= 10
 0 <= conn_1_0_4 <= 10
 0 <= conn_1_0_5 <= 10
 0 <= conn_1_0_6 <= 10
 0 <= conn_1_0_7 <= 10
 0 <= conn_1_0_8 <= 10
 0 <= conn_1_0_9 <= 10
 0 <= conn_1_10_0 <= 10
 0 <= conn_1_10_1 <= 10
 0 <= conn_1_10_2 <= 10
 0 <= conn_1_10_3 <= 10
 0 <= conn_1_10_4 <= 10
 0 <= conn_1_10_5 <= 10
 0 <= conn_1_10_6 <= 10
 0 <= conn_1_10_7 <= 10
 0 <= conn_1_10_8 <= 10
 0 <= conn_1_10_9 <= 10
 0 <= conn_1_1_0 <= 10
 0 <= conn_1_1_10 <= 10
 0 <= conn_1_1_2 <= 10
 0 <= conn_1_1_3 <= 10
 0 <= conn_1_1_4 <= 10
 0 <= conn_1_1_5 <= 10
 0 <= conn_1_1_6 <= 10
 0 <= conn_1_1_7 <= 10
 0 <= conn_1_1_8 <= 10
 0 <= conn_1_1_9 <= 10
 0 <= conn_1_2_0 <= 10
 0 <= conn_1_2_1 <= 10
 0 <= conn_1_2_10 <= 10
 0 <= conn_1_2_3 <= 10
 0 <= conn_1_2_4 <= 10
 0 <= conn_1_2_5 <= 10
 0 <= conn_1_2_6 <= 10
 0 <= conn_1_2_7 <= 10
 0 <= conn_1_2_8 <= 10
 0 <= conn_1_2_9 <= 10
 0 <= conn_1_3_0 <= 10
 0 <= conn_1_3_1 <= 10
 0 <= conn_1_3_10 <= 10
 0 <= conn_1_3_2 <= 10
 0 <= conn_1_3_4 <= 10
 0 <= conn_1_3_5 <= 10
 0 <= conn_1_3_6 <= 10
 0 <= conn_1_3_7 <= 10
 0 <= conn_1_3_8 <= 10
 0 <= conn_1_3_9 <= 10
 0 <= conn_1_4_0 <= 10
 0 <= conn_1_4_1 <= 10
 0 <= conn_1_4_10 <= 10
 0 <= conn_1_4_2 <= 10
 0 <= conn_1_4_3 <= 10
 0 <= conn_1_4_5 <= 10
 0 <= conn_1_4_6 <= 10
 0 <= conn_1_4_7 <= 10
 0 <= conn_1_4_8 <= 10
 0 <= conn_1_4_9 <= 10
 0 <= conn_1_5_0 <= 10
 0 <= conn_1_5_1 <= 10
 0 <= conn_1_5_10 <= 10
 0 <= conn_1_5_2 <= 10
 0 <= conn_1_5_3 <= 10
 0 <= conn_1_5_4 <= 10
 0 <= conn_1_5_6 <= 10
 0 <= conn_1_5_7 <= 10
 0 <= conn_1_5_8 <= 10
 0 <= conn_1_5_9 <= 10
 0 <= conn_1_6_0 <= 10
 0 <= conn_1_6_1 <= 10
 0 <= conn_1_6_10 <= 10
 0 <= conn_1_6_2 <= 10
 0 <= conn_1_6_3 <= 10
 0 <= conn_1_6_4 <= 10
 0 <= conn_1_6_5 <= 10
 0 <= conn_1_6_7 <= 10
 0 <= conn_1_6_8 <= 10
 0 <= conn_1_6_9 <= 10
 0 <= conn_1_7_0 <= 10
 0 <= conn_1_7_1 <= 10
 0 <= conn_1_7_10 <= 10
 0 <= conn_1_7_2 <= 10
 0 <= conn_1_7_3 <= 10
 0 <= conn_1_7_4 <= 10
 0 <= conn_1_7_5 <= 10
 0 <= conn_1_7_6 <= 10
 0 <= conn_1_7_8 <= 10
 0 <= conn_1_7_9 <= 10
 0 <= conn_1_8_0 <= 10
 0 <= conn_1_8_1 <= 10
 0 <= conn_1_8_10 <= 10
 0 <= conn_1_8_2 <= 10
 0 <= conn_1_8_3 <= 10
 0 <= conn_1_8_4 <= 10
 0 <= conn_1_8_5 <= 10
 0 <= conn_1_8_6 <= 10
 0 <= conn_1_8_7 <= 10
 0 <= conn_1_8_9 <= 10
 0 <= conn_1_9_0 <= 10
 0 <= conn_1_9_1 <= 10
 0 <= conn_1_9_10 <= 10
 0 <= conn_1_9_2 <= 10
 0 <= conn_1_9_3 <= 10
 0 <= conn_1_9_4 <= 10
 0 <= conn_1_9_5 <= 10
 0 <= conn_1_9_6 <= 10
 0 <= conn_1_9_7 <= 10
 0 <= conn_1_9_8 <= 10
 0 <= conn_2_0_1 <= 10
 0 <= conn_2_0_10 <= 10
 0 <= conn_2_0_2 <= 10
 0 <= conn_2_0_3 <= 10
 0 <= conn_2_0_4 <= 10
 0 <= conn_2_0_5 <= 10
 0 <= conn_2_0_6 <= 10
 0 <= conn_2_0_7 <= 10
 0 <= conn_2_0_8 <= 10
 0 <= conn_2_0_9 <= 10
 0 <= conn_2_10_0 <= 10
 0 <= conn_2_10_1 <= 10
 0 <= conn_2_10_2 <= 10
 0 <= conn_2_10_3 <= 10
 0 <= conn_2_10_4 <= 10
 0 <= conn_2_10_5 <= 10
 0 <= conn_2_10_6 <= 10
 0 <= conn_2_10_7 <= 10
 0 <= conn_2_10_8 <= 10
 0 <= conn_2_10_9 <= 10
 0 <= conn_2_1_0 <= 10
 0 <= conn_2_1_10 <= 10
 0 <= conn_2_1_2 <= 10
 0 <= conn_2_1_3 <= 10
 0 <= conn_2_1_4 <= 10
 0 <= conn_2_1_5 <= 10
 0 <= conn_2_1_6 <= 10
 0 <= conn_2_1_7 <= 10
 0 <= conn_2_1_8 <= 10
 0 <= conn_2_1_9 <= 10
 0 <= conn_2_2_0 <= 10
 0 <= conn_2_2_1 <= 10
 0 <= conn_2_2_10 <= 10
 0 <= conn_2_2_3 <= 10
 0 <= conn_2_2_4 <= 10
 0 <= conn_2_2_5 <= 10
 0 <= conn_2_2_6 <= 10
 0 <= conn_2_2_7 <= 10
 0 <= conn_2_2_8 <= 10
 0 <= conn_2_2_9 <= 10
 0 <= conn_2_3_0 <= 10
 0 <= conn_2_3_1 <= 10
 0 <= conn_2_3_10 <= 10
 0 <= conn_2_3_2 <= 10
 0 <= conn_2_3_4 <= 10
 0 <= conn_2_3_5 <= 10
 0 <= conn_2_3_6 <= 10
 0 <= conn_2_3_7 <= 10
 0 <= conn_2_3_8 <= 10
 0 <= conn_2_3_9 <= 10
 0 <= conn_2_4_0 <= 10
 0 <= conn_2_4_1 <= 10
 0 <= conn_2_4_10 <= 10
 0 <= conn_2_4_2 <= 10
 0 <= conn_2_4_3 <= 10
 0 <= conn_2_4_5 <= 10
 0 <= conn_2_4_6 <= 10
 0 <= conn_2_4_7 <= 10
 0 <= conn_2_4_8 <= 10
 0 <= conn_2_4_9 <= 10
 0 <= conn_2_5_0 <= 10
 0 <= conn_2_5_1 <= 10
 0 <= conn_2_5_10 <= 10
 0 <= conn_2_5_2 <= 10
 0 <= conn_2_5_3 <= 10
 0 <= conn_2_5_4 <= 10
 0 <= conn_2_5_6 <= 10
 0 <= conn_2_5_7 <= 10
 0 <= conn_2_5_8 <= 10
 0 <= conn_2_5_9 <= 10
 0 <= conn_2_6_0 <= 10
 0 <= conn_2_6_1 <= 10
 0 <= conn_2_6_10 <= 10
 0 <= conn_2_6_2 <= 10
 0 <= conn_2_6_3 <= 10
 0 <= conn_2_6_4 <= 10
 0 <= conn_2_6_5 <= 10
 0 <= conn_2_6_7 <= 10
 0 <= conn_2_6_8 <= 10
 0 <= conn_2_6_9 <= 10
 0 <= conn_2_7_0 <= 10
 0 <= conn_2_7_1 <= 10
 0 <= conn_2_7_10 <= 10
 0 <= conn_2_7_2 <= 10
 0 <= conn_2_7_3 <= 10
 0 <= conn_2_7_4 <= 10
 0 <= conn_2_7_5 <= 10
 0 <= conn_2_7_6 <= 10
 0 <= conn_2_7_8 <= 10
 0 <= conn_2_7_9 <= 10
 0 <= conn_2_8_0 <= 10
 0 <= conn_2_8_1 <= 10
 0 <= conn_2_8_10 <= 10
 0 <= conn_2_8_2 <= 10
 0 <= conn_2_8_3 <= 10
 0 <= conn_2_8_4 <= 10
 0 <= conn_2_8_5 <= 10
 0 <= conn_2_8_6 <= 10
 0 <= conn_2_8_7 <= 10
 0 <= conn_2_8_9 <= 10
 0 <= conn_2_9_0 <= 10
 0 <= conn_2_9_1 <= 10
 0 <= conn_2_9_10 <= 10
 0 <= conn_2_9_2 <= 10
 0 <= conn_2_9_3 <= 10
 0 <= conn_2_9_4 <= 10
 0 <= conn_2_9_5 <= 10
 0 <= conn_2_9_6 <= 10
 0 <= conn_2_9_7 <= 10
 0 <= conn_2_9_8 <= 10
 0 <= d_0_1 <= 18
 0 <= d_0_10 <= 30
 0 <= d_0_2 <= 5
 0 <= d_0_3 <= 2
 0 <= d_0_4 <= 16
 0 <= d_0_5 <= 14
 0 <= d_0_6 <= 18
 0 <= d_0_7 <= 30
 0 <= d_0_8 <= 15
 0 <= d_0_9 <= 30
 0 <= d_1_1 <= 18
 0 <= d_1_10 <= 30
 0 <= d_1_2 <= 5
 0 <= d_1_3 <= 2
 0 <= d_1_4 <= 16
 0 <= d_1_5 <= 14
 0 <= d_1_6 <= 18
 0 <= d_1_7 <= 30
 0 <= d_1_8 <= 15
 0 <= d_1_9 <= 30
 0 <= d_2_1 <= 18
 0 <= d_2_10 <= 30
 0 <= d_2_2 <= 5
 0 <= d_2_3 <= 2
 0 <= d_2_4 <= 16
 0 <= d_2_5 <= 14
 0 <= d_2_6 <= 18
 0 <= d_2_7 <= 30
 0 <= d_2_8 <= 15
 0 <= d_2_9 <= 30
 0 <= e_1 <= 2.2857142857142856
 0 <= e_10 <= 19
 0 <= e_2 <= 1
 0 <= e_3 <= 1
 0 <= e_4 <= 1.1666666666666665
 0 <= e_5 <= 1
 0 <= e_6 <= 1.75
 0 <= e_7 <= 11
 0 <= e_8 <= 9
 0 <= e_9 <= 1.3125
 0 <= h_1_10 <= 23.285714285714285
 0 <= h_1_2 <= 5.2380952380952381
 0 <= h_1_3 <= 5.1523809523809518
 0 <= h_1_4 <= 5.4523809523809526
 0 <= h_1_5 <= 4.4069264069264067
 0 <= h_1_6 <= 6.0357142857142856
 0 <= h_1_7 <= 15.285714285714285
 0 <= h_1_8 <= 13.285714285714285
 0 <= h_1_9 <= 5.5982142857142856
 0 <= h_2_10 <= 21.952380952380953
 0 <= h_2_3 <= 3.8190476190476188
 0 <= h_2_4 <= 4.1190476190476186
 0 <= h_2_5 <= 3.0735930735930737
 0 <= h_2_6 <= 4.7023809523809526
 0 <= h_2_7 <= 13.952380952380953
 0 <= h_2_8 <= 11.952380952380953
 0 <= h_2_9 <= 4.2648809523809526
 0 <= h_3_10 <= 21.866666666666667
 0 <= h_3_4 <= 4.0333333333333332
 0 <= h_3_5 <= 2.9878787878787878
 0 <= h_3_6 <= 4.6166666666666671
 0 <= h_3_7 <= 13.866666666666667
 0 <= h_3_8 <= 11.866666666666667
 0 <= h_3_9 <= 4.1791666666666671
 0 <= h_4_10 <= 22.166666666666668
 0 <= h_4_5 <= 3.2878787878787876
 0 <= h_4_6 <= 4.9166666666666661
 0 <= h_4_7 <= 14.166666666666666
 0 <= h_4_8 <= 12.166666666666666
 0 <= h_4_9 <= 4.4791666666666661
 0 <= h_5_10 <= 21.121212121212121
 0 <= h_5_6 <= 3.8712121212121211
 0 <= h_5_7 <= 13.121212121212121
 0 <= h_5_8 <= 11.121212121212121
 0 <= h_5_9 <= 3.4337121212121211
 0 <= h_6_10 <= 22.75
 0 <= h_6_7 <= 14.75
 0 <= h_6_8 <= 12.75
 0 <= h_6_9 <= 5.0625
 0 <= h_7_10 <= 32
 0 <= h_7_8 <= 22
 0 <= h_7_9 <= 14.3125
 0 <= h_8_10 <= 30
 0 <= h_8_9 <= 12.3125
 0 <= h_9_10 <= 22.3125
 0 <= load_0_1 <= 30
 0 <= load_0_10 <= 30
 0 <= load_0_2 <= 30
 0 <= load_0_3 <= 30
 0 <= load_0_4 <= 30
 0 <= load_0_5 <= 30
 0 <= load_0_6 <= 30
 0 <= load_0_7 <= 30
 0 <= load_0_8 <= 30
 0 <= load_0_9 <= 30
 0 <= load_1_1 <= 30
 0 <= load_1_10 <= 30
 0 <= load_1_2 <= 30
 0 <= load_1_3 <= 30
 0 <= load_1_4 <= 30
 0 <= load_1_5 <= 30
 0 <= load_1_6 <= 30
 0 <= load_1_7 <= 30
 0 <= load_1_8 <= 30
 0 <= load_1_9 <= 30
 0 <= load_2_1 <= 30
 0 <= load_2_10 <= 30
 0 <= load_2_2 <= 30
 0 <= load_2_3 <= 30
 0 <= load_2_4 <= 30
 0 <= load_2_5 <= 30
 0 <= load_2_6 <= 30
 0 <= load_2_7 <= 30
 0 <= load_2_8 <= 30
 0 <= load_2_9 <= 30
 0 <= mode_0_1 <= 1
 0 <= mode_0_10 <= 1
 0 <= mode_0_2 <= 1
 0 <= mode_0_3 <= 1
 0 <= mode_0_4 <= 1
 0 <= mode_0_5 <= 1
 0 <= mode_0_6 <= 1
 0 <= mode_0_7 <= 1
 0 <= mode_0_8 <= 1
 0 <= mode_0_9 <= 1
 0 <= mode_1_1 <= 1
 0 <= mode_1_10 <= 1
 0 <= mode_1_2 <= 1
 0 <= mode_1_3 <= 1
 0 <= mode_1_4 <= 1
 0 <= mode_1_5 <= 1
 0 <= mode_1_6 <= 1
 0 <= mode_1_7 <= 1
 0 <= mode_1_8 <= 1
 0 <= mode_1_9 <= 1
 0 <= mode_2_1 <= 1
 0 <= mode_2_10 <= 1
 0 <= mode_2_2 <= 1
 0 <= mode_2_3 <= 1
 0 <= mode_2_4 <= 1
 0 <= mode_2_5 <= 1
 0 <= mode_2_6 <= 1
 0 <= mode_2_7 <= 1
 0 <= mode_2_8 <= 1
 0 <= mode_2_9 <= 1
 0 <= ord_0_1 <= 10
 0 <= ord_0_10 <= 10
 0 <= ord_0_2 <= 10
 0 <= ord_0_3 <= 10
 0 <= ord_0_4 <= 10
 0 <= ord_0_5 <= 10
 0 <= ord_0_6 <= 10
 0 <= ord_0_7 <= 10
 0 <= ord_0_8 <= 10
 0 <= ord_0_9 <= 10
 0 <= ord_1_1 <= 10
 0 <= ord_1_10 <= 10
 0 <= ord_1_2 <= 10
 0 <= ord_1_3 <= 10
 0 <= ord_1_4 <= 10
 0 <= ord_1_5 <= 10
 0 <= ord_1_6 <= 10
 0 <= ord_1_7 <= 10
 0 <= ord_1_8 <= 10
 0 <= ord_1_9 <= 10
 0 <= ord_2_1 <= 10
 0 <= ord_2_10 <= 10
 0 <= ord_2_2 <= 10
 0 <= ord_2_3 <= 10
 0 <= ord_2_4 <= 10
 0 <= ord_2_5 <= 10
 0 <= ord_2_6 <= 10
 0 <= ord_2_7 <= 10
 0 <= ord_2_8 <= 10
 0 <= ord_2_9 <= 10
 0 <= p_0_1 <= 5
 0 <= p_0_10 <= 4
 0 <= p_0_2 <= 30
 0 <= p_0_3 <= 26
 0 <= p_0_4 <= 10
 0 <= p_0_5 <= 23
 0 <= p_0_6 <= 4
 0 <= p_0_7 <= 10
 0 <= p_0_8 <= 5
 0 <= p_0_9 <= 5
 0 <= p_1_1 <= 5
 0 <= p_1_10 <= 4
 0 <= p_1_2 <= 30
 0 <= p_1_3 <= 26
 0 <= p_1_4 <= 10
 0 <= p_1_5 <= 23
 0 <= p_1_6 <= 4
 0 <= p_1_7 <= 10
 0 <= p_1_8 <= 5
 0 <= p_1_9 <= 5
 0 <= p_2_1 <= 5
 0 <= p_2_10 <= 4
 0 <= p_2_2 <= 30
 0 <= p_2_3 <= 26
 0 <= p_2_4 <= 10
 0 <= p_2_5 <= 23
 0 <= p_2_6 <= 4
 0 <= p_2_7 <= 10
 0 <= p_2_8 <= 5
 0 <= p_2_9 <= 5
 0 <= prod_10_0 <= 0.011720681740442652
 0 <= prod_10_1 <= 0.011720681740442652
 0 <= prod_10_2 <= 0.011720681740442652
 0 <= prod_10_3 <= 0.011720681740442652
 0 <= prod_10_4 <= 0.011720681740442652
 0 <= prod_10_5 <= 0.011720681740442652
 0 <= prod_1_0 <= 0.011720681740442652
 0 <= prod_1_1 <= 0.011720681740442652
 0 <= prod_1_2 <= 0.011720681740442652
 0 <= prod_1_3 <= 0.011720681740442652
 0 <= prod_1_4 <= 0.011720681740442652
 0 <= prod_2_0 <= 0.011720681740442652
 0 <= prod_2_1 <= 0.011720681740442652
 0 <= prod_2_2 <= 0.011720681740442652
 0 <= prod_2_3 <= 0.011720681740442652
 0 <= prod_2_4 <= 0.011720681740442652
 0 <= prod_2_5 <= 0.011720681740442652
 0 <= prod_3_0 <= 0.011720681740442652
 0 <= prod_3_1 <= 0.011720681740442652
 0 <= prod_3_2 <= 0.011720681740442652
 0 <= prod_3_3 <= 0.011720681740442652
 0 <= prod_3_4 <= 0.011720681740442652
 0 <= prod_4_0 <= 0.011720681740442652
 0 <= prod_4_1 <= 0.011720681740442652
 0 <= prod_4_2 <= 0.011720681740442652
 0 <= prod_4_3 <= 0.011720681740442652
 0 <= prod_4_4 <= 0.011720681740442652
 0 <= prod_5_0 <= 0.011720681740442652
 0 <= prod_5_1 <= 0.011720681740442652
 0 <= prod_5_2 <= 0.011720681740442652
 0 <= prod_5_3 <= 0.011720681740442652
 0 <= prod_5_4 <= 0.011720681740442652
 0 <= prod_5_5 <= 0.011720681740442652
 0 <= prod_6_0 <= 0.011720681740442652
 0 <= prod_6_1 <= 0.011720681740442652
 0 <= prod_6_2 <= 0.011720681740442652
 0 <= prod_6_3 <= 0.011720681740442652
 0 <= prod_6_4 <= 0.011720681740442652
 0 <= prod_7_0 <= 0.011720681740442652
 0 <= prod_7_1 <= 0.011720681740442652
 0 <= prod_7_2 <= 0.011720681740442652
 0 <= prod_7_3 <= 0.011720681740442652
 0 <= prod_7_4 <= 0.011720681740442652
 0 <= prod_7_5 <= 0.011720681740442652
 0 <= prod_8_0 <= 0.011720681740442652
 0 <= prod_8_1 <= 0.011720681740442652
 0 <= prod_8_2 <= 0.011720681740442652
 0 <= prod_8_3 <= 0.011720681740442652
 0 <= prod_8_4 <= 0.011720681740442652
 0 <= prod_9_0 <= 0.011720681740442652
 0 <= prod_9_1 <= 0.011720681740442652
 0 <= prod_9_2 <= 0.011720681740442652
 0 <= prod_9_3 <= 0.011720681740442652
 0 <= prod_9_4 <= 0.011720681740442652
 0 <= prod_9_5 <= 0.011720681740442652
 0 <= r_1 <= 3.2857142857142856
 0 <= r_10 <= 20
 0 <= r_2 <= 1.9523809523809523
 0 <= r_3 <= 1.8666666666666667
 0 <= r_4 <= 2.1666666666666665
 0 <= r_5 <= 1.1212121212121211
 0 <= r_6 <= 2.75
 0 <= r_7 <= 12
 0 <= r_8 <= 10
 0 <= r_9 <= 2.3125
 0 <= r_max <= 20
 0 <= r_min <= 20
 0 <= x_0_0_1 <= 1
 0 <= x_0_0_10 <= 1
 0 <= x_0_0_2 <= 1
 0 <= x_0_0_3 <= 1
 0 <= x_0_0_4 <= 1
 0 <= x_0_0_5 <= 1
 0 <= x_0_0_6 <= 1
 0 <= x_0_0_7 <= 1
 0 <= x_0_0_8 <= 1
 0 <= x_0_0_9 <= 1
 0 <= x_0_10_0 <= 1
 0 <= x_0_10_1 <= 1
 0 <= x_0_10_2 <= 1
 0 <= x_0_10_3 <= 1
 0 <= x_0_10_4 <= 1
 0 <= x_0_10_5 <= 1
 0 <= x_0_10_6 <= 1
 0 <= x_0_10_7 <= 1
 0 <= x_0_10_8 <= 1
 0 <= x_0_10_9 <= 1
 0 <= x_0_1_0 <= 1
 0 <= x_0_1_10 <= 1
 0 <= x_0_1_2 <= 1
 0 <= x_0_1_3 <= 1
 0 <= x_0_1_4 <= 1
 0 <= x_0_1_5 <= 1
 0 <= x_0_1_6 <= 1
 0 <= x_0_1_7 <= 1
 0 <= x_0_1_8 <= 1
 0 <= x_0_1_9 <= 1
 0 <= x_0_2_0 <= 1
 0 <= x_0_2_1 <= 1
 0 <= x_0_2_10 <= 1
 0 <= x_0_2_3 <= 1
 0 <= x_0_2_4 <= 1
 0 <= x_0_2_5 <= 1
 0 <= x_0_2_6 <= 1
 0 <= x_0_2_7 <= 1
 0 <= x_0_2_8 <= 1
 0 <= x_0_2_9 <= 1
 0 <= x_0_3_0 <= 1
 0 <= x_0_3_1 <= 1
 0 <= x_0_3_10 <= 1
 0 <= x_0_3_2 <= 1
 0 <= x_0_3_4 <= 1
 0 <= x_0_3_5 <= 1
 0 <= x_0_3_6 <= 1
 0 <= x_0_3_7 <= 1
 0 <= x_0_3_8 <= 1
 0 <= x_0_3_9 <= 1
 0 <= x_0_4_0 <= 1
 0 <= x_0_4_1 <= 1
 0 <= x_0_4_10 <= 1
 0 <= x_0_4_2 <= 1
 0 <= x_0_4_3 <= 1
 0 <= x_0_4_5 <= 1
 0 <= x_0_4_6 <= 1
 0 <= x_0_4_7 <= 1
 0 <= x_0_4_8 <= 1
 0 <= x_0_4_9 <= 1
 0 <= x_0_5_0 <= 1
 0 <= x_0_5_1 <= 1
 0 <= x_0_5_10 <= 1
 0 <= x_0_5_2 <= 1
 0 <= x_0_5_3 <= 1
 0 <= x_0_5_4 <= 1
 0 <= x_0_5_6 <= 1
 0 <= x_0_5_7 <= 1
 0 <= x_0_5_8 <= 1
 0 <= x_0_5_9 <= 1
 0 <= x_0_6_0 <= 1
 0 <= x_0_6_1 <= 1
 0 <= x_0_6_10 <= 1
 0 <= x_0_6_2 <= 1
 0 <= x_0_6_3 <= 1
 0 <= x_0_6_4 <= 1
 0 <= x_0_6_5 <= 1
 0 <= x_0_6_7 <= 1
 0 <= x_0_6_8 <= 1
 0 <= x_0_6_9 <= 1
 0 <= x_0_7_0 <= 1
 0 <= x_0_7_1 <= 1
 0 <= x_0_7_10 <= 1
 0 <= x_0_7_2 <= 1
 0 <= x_0_7_3 <= 1
 0 <= x_0_7_4 <= 1
 0 <= x_0_7_5 <= 1
 0 <= x_0_7_6 <= 1
 0 <= x_0_7_8 <= 1
 0 <= x_0_7_9 <= 1
 0 <= x_0_8_0 <= 1
 0 <= x_0_8_1 <= 1
 0 <= x_0_8_10 <= 1
 0 <= x_0_8_2 <= 1
 0 <= x_0_8_3 <= 1
 0 <= x_0_8_4 <= 1
 0 <= x_0_8_5 <= 1
 0 <= x_0_8_6 <= 1
 0 <= x_0_8_7 <= 1
 0 <= x_0_8_9 <= 1
 0 <= x_0_9_0 <= 1
 0 <= x_0_9_1 <= 1
 0 <= x_0_9_10 <= 1
 0 <= x_0_9_2 <= 1
 0 <= x_0_9_3 <= 1
 0 <= x_0_9_4 <= 1
 0 <= x_0_9_5 <= 1
 0 <= x_0_9_6 <= 1
 0 <= x_0_9_7 <= 1
 0 <= x_0_9_8 <= 1
 0 <= x_1_0_1 <= 1
 0 <= x_1_0_10 <= 1
 0 <= x_1_0_2 <= 1
 0 <= x_1_0_3 <= 1
 0 <= x_1_0_4 <= 1
 0 <= x_1_0_5 <= 1
 0 <= x_1_0_6 <= 1
 0 <= x_1_0_7 <= 1
 0 <= x_1_0_8 <= 1
 0 <= x_1_0_9 <= 1
 0 <= x_1_10_0 <= 1
 0 <= x_1_10_1 <= 1
 0 <= x_1_10_2 <= 1
 0 <= x_1_10_3 <= 1
 0 <= x_1_10_4 <= 1
 0 <= x_1_10_5 <= 1
 0 <= x_1_10_6 <= 1
 0 <= x_1_10_7 <= 1
 0 <= x_1_10_8 <= 1
 0 <= x_1_10_9 <= 1
 0 <= x_1_1_0 <= 1
 0 <= x_1_1_10 <= 1
 0 <= x_1_1_2 <= 1
 0 <= x_1_1_3 <= 1
 0 <= x_1_1_4 <= 1
 0 <= x_1_1_5 <= 1
 0 <= x_1_1_6 <= 1
 0 <= x_1_1_7 <= 1
 0 <= x_1_1_8 <= 1
 0 <= x_1_1_9 <= 1
 0 <= x_1_2_0 <= 1
 0 <= x_1_2_1 <= 1
 0 <= x_1_2_10 <= 1
 0 <= x_1_2_3 <= 1
 0 <= x_1_2_4 <= 1
 0 <= x_1_2_5 <= 1
 0 <= x_1_2_6 <= 1
 0 <= x_1_2_7 <= 1
 0 <= x_1_2_8 <= 1
 0 <= x_1_2_9 <= 1
 0 <= x_1_3_0 <= 1
 0 <= x_1_3_1 <= 1
 0 <= x_1_3_10 <= 1
 0 <= x_1_3_2 <= 1
 0 <= x_1_3_4 <= 1
 0 <= x_1_3_5 <= 1
 0 <= x_1_3_6 <= 1
 0 <= x_1_3_7 <= 1
 0 <= x_1_3_8 <= 1
 0 <= x_1_3_9 <= 1
 0 <= x_1_4_0 <= 1
 0 <= x_1_4_1 <= 1
 0 <= x_1_4_10 <= 1
 0 <= x_1_4_2 <= 1
 0 <= x_1_4_3 <= 1
 0 <= x_1_4_5 <= 1
 0 <= x_1_4_6 <= 1
 0 <= x_1_4_7 <= 1
 0 <= x_1_4_8 <= 1
 0 <= x_1_4_9 <= 1
 0 <= x_1_5_0 <= 1
 0 <= x_1_5_1 <= 1
 0 <= x_1_5_10 <= 1
 0 <= x_1_5_2 <= 1
 0 <= x_1_5_3 <= 1
 0 <= x_1_5_4 <= 1
 0 <= x_1_5_6 <= 1
 0 <= x_1_5_7 <= 1
 0 <= x_1_5_8 <= 1
 0 <= x_1_5_9 <= 1
 0 <= x_1_6_0 <= 1
 0 <= x_1_6_1 <= 1
 0 <= x_1_6_10 <= 1
 0 <= x_1_6_2 <= 1
 0 <= x_1_6_3 <= 1
 0 <= x_1_6_4 <= 1
 0 <= x_1_6_5 <= 1
 0 <= x_1_6_7 <= 1
 0 <= x_1_6_8 <= 1
 0 <= x_1_6_9 <= 1
 0 <= x_1_7_0 <= 1
 0 <= x_1_7_1 <= 1
 0 <= x_1_7_10 <= 1
 0 <= x_1_7_2 <= 1
 0 <= x_1_7_3 <= 1
 0 <= x_1_7_4 <= 1
 0 <= x_1_7_5 <= 1
 0 <= x_1_7_6 <= 1
 0 <= x_1_7_8 <= 1
 0 <= x_1_7_9 <= 1
 0 <= x_1_8_0 <= 1
 0 <= x_1_8_1 <= 1
 0 <= x_1_8_10 <= 1
 0 <= x_1_8_2 <= 1
 0 <= x_1_8_3 <= 1
 0 <= x_1_8_4 <= 1
 0 <= x_1_8_5 <= 1
 0 <= x_1_8_6 <= 1
 0 <= x_1_8_7 <= 1
 0 <= x_1_8_9 <= 1
 0 <= x_1_9_0 <= 1
 0 <= x_1_9_1 <= 1
 0 <= x_1_9_10 <= 1
 0 <= x_1_9_2 <= 1
 0 <= x_1_9_3 <= 1
 0 <= x_1_9_4 <= 1
 0 <= x_1_9_5 <= 1
 0 <= x_1_9_6 <= 1
 0 <= x_1_9_7 <= 1
 0 <= x_1_9_8 <= 1
 0 <= x_2_0_1 <= 1
 0 <= x_2_0_10 <= 1
 0 <= x_2_0_2 <= 1
 0 <= x_2_0_3 <= 1
 0 <= x_2_0_4 <= 1
 0 <= x_2_0_5 <= 1
 0 <= x_2_0_6 <= 1
 0 <= x_2_0_7 <= 1
 0 <= x_2_0_8 <= 1
 0 <= x_2_0_9 <= 1
 0 <= x_2_10_0 <= 1
 0 <= x_2_10_1 <= 1
 0 <= x_2_10_2 <= 1
 0 <= x_2_10_3 <= 1
 0 <= x_2_10_4 <= 1
 0 <= x_2_10_5 <= 1
 0 <= x_2_10_6 <= 1
 0 <= x_2_10_7 <= 1
 0 <= x_2_10_8 <= 1
 0 <= x_2_10_9 <= 1
 0 <= x_2_1_0 <= 1
 0 <= x_2_1_10 <= 1
 0 <= x_2_1_2 <= 1
 0 <= x_2_1_3 <= 1
 0 <= x_2_1_4 <= 1
 0 <= x_2_1_5 <= 1
 0 <= x_2_1_6 <= 1
 0 <= x_2_1_7 <= 1
 0 <= x_2_1_8 <= 1
 0 <= x_2_1_9 <= 1
 0 <= x_2_2_0 <= 1
 0 <= x_2_2_1 <= 1
 0 <= x_2_2_10 <= 1
 0 <= x_2_2_3 <= 1
 0 <= x_2_2_4 <= 1
 0 <= x_2_2_5 <= 1
 0 <= x_2_2_6 <= 1
 0 <= x_2_2_7 <= 1
 0 <= x_2_2_8 <= 1
 0 <= x_2_2_9 <= 1
 0 <= x_2_3_0 <= 1
 0 <= x_2_3_1 <= 1
 0 <= x_2_3_10 <= 1
 0 <= x_2_3_2 <= 1
 0 <= x_2_3_4 <= 1
 0 <= x_2_3_5 <= 1
 0 <= x_2_3_6 <= 1
 0 <= x_2_3_7 <= 1
 0 <= x_2_3_8 <= 1
 0 <= x_2_3_9 <= 1
 0 <= x_2_4_0 <= 1
 0 <= x_2_4_1 <= 1
 0 <= x_2_4_10 <= 1
 0 <= x_2_4_2 <= 1
 0 <= x_2_4_3 <= 1
 0 <= x_2_4_5 <= 1
 0 <= x_2_4_6 <= 1
 0 <= x_2_4_7 <= 1
 0 <= x_2_4_8 <= 1
 0 <= x_2_4_9 <= 1
 0 <= x_2_5_0 <= 1
 0 <= x_2_5_1 <= 1
 0 <= x_2_5_10 <= 1
 0 <= x_2_5_2 <= 1
 0 <= x_2_5_3 <= 1
 0 <= x_2_5_4 <= 1
 0 <= x_2_5_6 <= 1
 0 <= x_2_5_7 <= 1
 0 <= x_2_5_8 <= 1
 0 <= x_2_5_9 <= 1
 0 <= x_2_6_0 <= 1
 0 <= x_2_6_1 <= 1
 0 <= x_2_6_10 <= 1
 0 <= x_2_6_2 <= 1
 0 <= x_2_6_3 <= 1
 0 <= x_2_6_4 <= 1
 0 <= x_2_6_5 <= 1
 0 <= x_2_6_7 <= 1
 0 <= x_2_6_8 <= 1
 0 <= x_2_6_9 <= 1
 0 <= x_2_7_0 <= 1
 0 <= x_2_7_1 <= 1
 0 <= x_2_7_10 <= 1
 0 <= x_2_7_2 <= 1
 0 <= x_2_7_3 <= 1
 0 <= x_2_7_4 <= 1
 0 <= x_2_7_5 <= 1
 0 <= x_2_7_6 <= 1
 0 <= x_2_7_8 <= 1
 0 <= x_2_7_9 <= 1
 0 <= x_2_8_0 <= 1
 0 <= x_2_8_1 <= 1
 0 <= x_2_8_10 <= 1
 0 <= x_2_8_2 <= 1
 0 <= x_2_8_3 <= 1
 0 <= x_2_8_4 <= 1
 0 <= x_2_8_5 <= 1
 0 <= x_2_8_6 <= 1
 0 <= x_2_8_7 <= 1
 0 <= x_2_8_9 <= 1
 0 <= x_2_9_0 <= 1
 0 <= x_2_9_1 <= 1
 0 <= x_2_9_10 <= 1
 0 <= x_2_9_2 <= 1
 0 <= x_2_9_3 <= 1
 0 <= x_2_9_4 <= 1
 0 <= x_2_9_5 <= 1
 0 <= x_2_9_6 <= 1
 0 <= x_2_9_7 <= 1
 0 <= x_2_9_8 <= 1
 0 <= z_0_1 <= 1
 0 <= z_0_10 <= 1
 0 <= z_0_2 <= 1
 0 <= z_0_3 <= 1
 0 <= z_0_4 <= 1
 0 <= z_0_5 <= 1
 0 <= z_0_6 <= 1
 0 <= z_0_7 <= 1
 0 <= z_0_8 <= 1
 0 <= z_0_9 <= 1
 0 <= z_1_1 <= 1
 0 <= z_1_10 <= 1
 0 <= z_1_2 <= 1
 0 <= z_1_3 <= 1
 0 <= z_1_4 <= 1
 0 <= z_1_5 <= 1
 0 <= z_1_6 <= 1
 0 <= z_1_7 <= 1
 0 <= z_1_8 <= 1
 0 <= z_1_9 <= 1
 0 <= z_2_1 <= 1
 0 <= z_2_10 <= 1
 0 <= z_2_2 <= 1
 0 <= z_2_3 <= 1
 0 <= z_2_4 <= 1
 0 <= z_2_5 <= 1
 0 <= z_2_6 <= 1
 0 <= z_2_7 <= 1
 0 <= z_2_8 <= 1
 0 <= z_2_9 <= 1
 0 <= zprod_1 <= 23
 0 <= zprod_10 <= 40
 0 <= zprod_2 <= 41
 0 <= zprod_3 <= 28
 0 <= zprod_4 <= 26
 0 <= zprod_5 <= 37
 0 <= zprod_6 <= 22
 0 <= zprod_7 <= 48
 0 <= zprod_8 <= 20
 0 <= zprod_9 <= 37
Generals
 Y_1
 Y_10
 Y_2
 Y_3
 Y_4
 Y_5
 Y_6
 Y_7
 Y_8
 Y_9
 d_0_1
 d_0_10
 d_0_2
 d_0_3
 d_0_4
 d_0_5
 d_0_6
 d_0_7
 d_0_8
 d_0_9
 d_1_1
 d_1_10
 d_1_2
 d_1_3
 d_1_4
 d_1_5
 d_1_6
 d_1_7
 d_1_8
 d_1_9
 d_2_1
 d_2_10
 d_2_2
 d_2_3
 d_2_4
 d_2_5
 d_2_6
 d_2_7
 d_2_8
 d_2_9
 load_0_1
 load_0_10
 load_0_2
 load_0_3
 load_0_4
 load_0_5
 load_0_6
 load_0_7
 load_0_8
 load_0_9
 load_1_1
 load_1_10
 load_1_2
 load_1_3
 load_1_4
 load_1_5
 load_1_6
 load_1_7
 load_1_8
 load_1_9
 load_2_1
 load_2_10
 load_2_2
 load_2_3
 load_2_4
 load_2_5
 load_2_6
 load_2_7
 load_2_8
 load_2_9
 p_0_1
 p_0_10
 p_0_2
 p_0_3
 p_0_4
 p_0_5
 p_0_6
 p_0_7
 p_0_8
 p_0_9
 p_1_1
 p_1_10
 p_1_2
 p_1_3
 p_1_4
 p_1_5
 p_1_6
 p_1_7
 p_1_8
 p_1_9
 p_2_1
 p_2_10
 p_2_2
 p_2_3
 p_2_4
 p_2_5
 p_2_6
 p_2_7
 p_2_8
 p_2_9
Binaries
 bit_10_0
 bit_10_1
 bit_10_2
 bit_10_3
 bit_10_4
 bit_10_5
 bit_1_0
 bit_1_1
 bit_1_2
 bit_1_3
 bit_1_4
 bit_2_0
 bit_2_1
 bit_2_2
 bit_2_3
 bit_2_4
 bit_2_5
 bit_3_0
 bit_3_1
 bit_3_2
 bit_3_3
 bit_3_4
 bit_4_0
 bit_4_1
 bit_4_2
 bit_4_3
 bit_4_4
 bit_5_0
 bit_5_1
 bit_5_2
 bit_5_3
 bit_5_4
 bit_5_5
 bit_6_0
 bit_6_1
 bit_6_2
 bit_6_3
 bit_6_4
 bit_7_0
 bit_7_1
 bit_7_2
 bit_7_3
 bit_7_4
 bit_7_5
 bit_8_0
 bit_8_1
 bit_8_2
 bit_8_3
 bit_8_4
 bit_9_0
 bit_9_1
 bit_9_2
 bit_9_3
 bit_9_4
 bit_9_5
 mode_0_1
 mode_0_10
 mode_0_2
 mode_0_3
 mode_0_4
 mode_0_5
 mode_0_6
 mode_0_7
 mode_0_8
 mode_0_9
 mode_1_1
 mode_1_10
 mode_1_2
 mode_1_3
 mode_1_4
 mode_1_5
 mode_1_6
 mode_1_7
 mode_1_8
 mode_1_9
 mode_2_1
 mode_2_10
 mode_2_2
 mode_2_3
 mode_2_4
 mode_2_5
 mode_2_6
 mode_2_7
 mode_2_8
 mode_2_9
 x_0_0_1
 x_0_0_10
 x_0_0_2
 x_0_0_3
 x_0_0_4
 x_0_0_5
 x_0_0_6
 x_0_0_7
 x_0_0_8
 x_0_0_9
 x_0_10_0
 x_0_10_1
 x_0_10_2
 x_0_10_3
 x_0_10_4
 x_0_10_5
 x_0_10_6
 x_0_10_7
 x_0_10_8
 x_0_10_9
 x_0_1_0
 x_0_1_10
 x_0_1_2
 x_0_1_3
 x_0_1_4
 x_0_1_5
 x_0_1_6
 x_0_1_7
 x_0_1_8
 x_0_1_9
 x_0_2_0
 x_0_2_1
 x_0_2_10
 x_0_2_3
 x_0_2_4
 x_0_2_5
 x_0_2_6
 x_0_2_7
 x_0_2_8
 x_0_2_9
 x_0_3_0
 x_0_3_1
 x_0_3_10
 x_0_3_2
 x_0_3_4
 x_0_3_5
 x_0_3_6
 x_0_3_7
 x_0_3_8
 x_0_3_9
 x_0_4_0
 x_0_4_1
 x_0_4_10
 x_0_4_2
 x_0_4_3
 x_0_4_5
 x_0_4_6
 x_0_4_7
 x_0_4_8
 x_0_4_9
 x_0_5_0
 x_0_5_1
 x_0_5_10
 x_0_5_2
 x_0_5_3
 x_0_5_4
 x_0_5_6
 x_0_5_7
 x_0_5_8
 x_0_5_9
 x_0_6_0
 x_0_6_1
 x_0_6_10
 x_0_6_2
 x_0_6_3
 x_0_6_4
 x_0_6_5
 x_0_6_7
 x_0_6_8
 x_0_6_9
 x_0_7_0
 x_0_7_1
 x_0_7_10
 x_0_7_2
 x_0_7_3
 x_0_7_4
 x_0_7_5
 x_0_7_6
 x_0_7_8
 x_0_7_9
 x_0_8_0
 x_0_8_1
 x_0_8_10
 x_0_8_2
 x_0_8_3
 x_0_8_4
 x_0_8_5
 x_0_8_6
 x_0_8_7
 x_0_8_9
 x_0_9_0
 x_0_9_1
 x_0_9_10
 x_0_9_2
 x_0_9_3
 x_0_9_4
 x_0_9_5
 x_0_9_6
 x_0_9_7
 x_0_9_8
 x_1_0_1
 x_1_0_10
 x_1_0_2
 x_1_0_3
 x_1_0_4
 x_1_0_5
 x_1_0_6
 x_1_0_7
 x_1_0_8
 x_1_0_9
 x_1_10_0
 x_1_10_1
 x_1_10_2
 x_1_10_3
 x_1_10_4
 x_1_10_5
 x_1_10_6
 x_1_10_7
 x_1_10_8
 x_1_10_9
 x_1_1_0
 x_1_1_10
 x_1_1_2
 x_1_1_3
 x_1_1_4
 x_1_1_5
 x_1_1_6
 x_1_1_7
 x_1_1_8
 x_1_1_9
 x_1_2_0
 x_1_2_1
 x_1_2_10
 x_1_2_3
 x_1_2_4
 x_1_2_5
 x_1_2_6
 x_1_2_7
 x_1_2_8
 x_1_2_9
 x_1_3_0
 x_1_3_1
 x_1_3_10
 x_1_3_2
 x_1_3_4
 x_1_3_5
 x_1_3_6
 x_1_3_7
 x_1_3_8
 x_1_3_9
 x_1_4_0
 x_1_4_1
 x_1_4_10
 x_1_4_2
 x_1_4_3
 x_1_4_5
 x_1_4_6
 x_1_4_7
 x_1_4_8
 x_1_4_9
 x_1_5_0
 x_1_5_1
 x_1_5_10
 x_1_5_2
 x_1_5_3
 x_1_5_4
 x_1_5_6
 x_1_5_7
 x_1_5_8
 x_1_5_9
 x_1_6_0
 x_1_6_1
 x_1_6_10
 x_1_6_2
 x_1_6_3
 x_1_6_4
 x_1_6_5
 x_1_6_7
 x_1_6_8
 x_1_6_9
 x_1_7_0
 x_1_7_1
 x_1_7_10
 x_1_7_2
 x_1_7_3
 x_1_7_4
 x_1_7_5
 x_1_7_6
 x_1_7_8
 x_1_7_9
 x_1_8_0
 x_1_8_1
 x_1_8_10
 x_1_8_2
 x_1_8_3
 x_1_8_4
 x_1_8_5
 x_1_8_6
 x_1_8_7
 x_1_8_9
 x_1_9_0
 x_1_9_1
 x_1_9_10
 x_1_9_2
 x_1_9_3
 x_1_9_4
 x_1_9_5
 x_1_9_6
 x_1_9_7
 x_1_9_8
 x_2_0_1
 x_2_0_10
 x_2_0_2
 x_2_0_3
 x_2_0_4
 x_2_0_5
 x_2_0_6
 x_2_0_7
 x_2_0_8
 x_2_0_9
 x_2_10_0
 x_2_10_1
 x_2_10_2
 x_2_10_3
 x_2_10_4
 x_2_10_5
 x_2_10_6
 x_2_10_7
 x_2_10_8
 x_2_10_9
 x_2_1_0
 x_2_1_10
 x_2_1_2
 x_2_1_3
 x_2_1_4
 x_2_1_5
 x_2_1_6
 x_2_1_7
 x_2_1_8
 x_2_1_9
 x_2_2_0
 x_2_2_1
 x_2_2_10
 x_2_2_3
 x_2_2_4
 x_2_2_5
 x_2_2_6
 x_2_2_7
 x_2_2_8
 x_2_2_9
 x_2_3_0
 x_2_3_1
 x_2_3_10
 x_2_3_2
 x_2_3_4
 x_2_3_5
 x_2_3_6
 x_2_3_7
 x_2_3_8
 x_2_3_9
 x_2_4_0
 x_2_4_1
 x_2_4_10
 x_2_4_2
 x_2_4_3
 x_2_4_5
 x_2_4_6
 x_2_4_7
 x_2_4_8
 x_2_4_9
 x_2_5_0
 x_2_5_1
 x_2_5_10
 x_2_5_2
 x_2_5_3
 x_2_5_4
 x_2_5_6
 x_2_5_7
 x_2_5_8
 x_2_5_9
 x_2_6_0
 x_2_6_1
 x_2_6_10
 x_2_6_2
 x_2_6_3
 x_2_6_4
 x_2_6_5
 x_2_6_7
 x_2_6_8
 x_2_6_9
 x_2_7_0
 x_2_7_1
 x_2_7_10
 x_2_7_2
 x_2_7_3
 x_2_7_4
 x_2_7_5
 x_2_7_6
 x_2_7_8
 x_2_7_9
 x_2_8_0
 x_2_8_1
 x_2_8_10
 x_2_8_2
 x_2_8_3
 x_2_8_4
 x_2_8_5
 x_2_8_6
 x_2_8_7
 x_2_8_9
 x_2_9_0
 x_2_9_1
 x_2_9_10
 x_2_9_2
 x_2_9_3
 x_2_9_4
 x_2_9_5
 x_2_9_6
 x_2_9_7
 x_2_9_8
 z_0_1
 z_0_10
 z_0_2
 z_0_3
 z_0_4
 z_0_5
 z_0_6
 z_0_7
 z_0_8
 z_0_9
 z_1_1
 z_1_10
 z_1_2
 z_1_3
 z_1_4
 z_1_5
 z_1_6
 z_1_7
 z_1_8
 z_1_9
 z_2_1
 z_2_10
 z_2_2
 z_2_3
 z_2_4
 z_2_5
 z_2_6
 z_2_7
 z_2_8
 z_2_9
End
